
     Program PWSCF v.7.6 starts on  7Sep2026 at 12:22:54 

     This program is part of the open-source Quantum ESPRESSO suite
     for quantum simulation of materials; please cite
         "P. Giannozzi et al., J. Phys.:Condens. Matter 21 395502 (2009);
         "P. Giannozzi et al., J. Phys.:Condens. Matter 29 465901 (2017);
         "P. Giannozzi et al., J. Chem. Phys. 152 154105 (2020);
          URL http://www.quantum-espresso.org", 
     in publications or presentations arising from this work. More details at
     http://www.quantum-espresso.org/quote

     Parallel version (MPI), running on     4 processors

     MPI processes distributed on     1 nodes
     2075 MiB available memory on the printing compute node when the environment starts

     Waiting for input...
     Reading input from standard input
Warning: card &CELL ignored
Warning: card &FCP ignored
Warning: card &RISM ignored

     Current dimensions of program PWSCF are:
     Max number of different atomic species (ntypx) = 10
     Max number of k-points (npk) =  40000
     Max angular momentum in pseudopotentials (lmaxx) =  4
     Presently no symmetry can be used with electric field

     file C.pbe-n-kjpaw_psl.1.0.0.UPF: wavefunction(s)  2S 2P renormalized

     K-points division:     npool     =       4
     Subspace diagonalization in iterative solution of the eigenvalue problem:
     a serial algorithm will be used


     G-vector sticks info
     --------------------
     sticks:   dense  smooth     PW     G-vecs:    dense   smooth      PW
     Sum         595     361    121               111671    52021   10519

     Using Slab Decomposition



     bravais-lattice index     =            0
     lattice parameter (alat)  =       4.6487  a.u.
     unit-cell volume          =     825.8174 (a.u.)^3
     number of atoms/cell      =            2
     number of atomic types    =            1
     number of electrons       =         8.00
     number of Kohn-Sham states=           10
     kinetic-energy cutoff     =      60.0000  Ry
     charge density cutoff     =     400.0000  Ry
     scf convergence threshold =      1.0E-08
     mixing beta               =       0.7000
     number of iterations used =            8  plain     mixing
     Exchange-correlation= SLA  PW   PBX  PBC
                           (   1   4   3   4   0   0   0)

     celldm(1)=   4.648726  celldm(2)=   0.000000  celldm(3)=   0.000000
     celldm(4)=   0.000000  celldm(5)=   0.000000  celldm(6)=   0.000000

     crystal axes: (cart. coord. in units of alat)
               a(1) = (   1.000000   0.000000   0.000000 )  
               a(2) = (  -0.500000   0.866025   0.000000 )  
               a(3) = (   0.000000   0.000000   9.491870 )  

     reciprocal axes: (cart. coord. in units 2 pi/alat)
               b(1) = (  1.000000  0.577351 -0.000000 )  
               b(2) = (  0.000000  1.154701  0.000000 )  
               b(3) = (  0.000000 -0.000000  0.105353 )  


     PseudoPot. # 1 for C  read from file:
     /home/ubuntu/projects/Graphene-Band-Structure-Quantum-Espresso/pseudo/C.pbe-n-kjpaw_psl.1.0.0.UPF
     MD5 check sum: 5f16ad9a65e90284d1d834d4ab3b0f7d
     Pseudo is Projector augmented-wave + core cor, Zval =  4.0
     Generated using &quot;atomic&quot; code by A. Dal Corso  v.6.3
     Shape of augmentation charge: PSQ
     Using radial grid of 1073 points,  4 beta functions with: 
                l(1) =   0
                l(2) =   0
                l(3) =   1
                l(4) =   1
     Q(r) pseudized with 0 coefficients 


     atomic species   valence    mass     pseudopotential
     C                 4.00    12.01100     C ( 1.00)

     No symmetry found


                                    s                        frac. trans.

      isym =  1     identity                                     

 cryst.   s( 1) = (     1          0          0      )
                  (     0          1          0      )
                  (     0          0          1      )

 cart.    s( 1) = (  1.0000000  0.0000000  0.0000000 )
                  (  0.0000000  1.0000000  0.0000000 )
                  (  0.0000000  0.0000000  1.0000000 )


   Cartesian axes

     site n.     atom                  positions (alat units)
         1        C      tau(   1) = (   0.5000406   0.2886281   5.5957664  )
         2        C      tau(   2) = (  -0.0000480   0.5773894   5.5954639  )

   Crystallographic axes

     site n.     atom                  positions (cryst. coord.)
         1        C      tau(   1) = (  0.6666802  0.3332791  0.5895326  )
         2        C      tau(   2) = (  0.3333081  0.6667122  0.5895007  )

     number of k points=    74  Gaussian smearing, width (Ry)=  0.0100
                       cart. coord. in units 2pi/alat
        k(    1) = (   0.0000000   0.0000000   0.0000000), wk =   0.0138889
        k(    2) = (   0.0000000   0.0962251   0.0000000), wk =   0.0277778
        k(    3) = (   0.0000000   0.1924502   0.0000000), wk =   0.0277778
        k(    4) = (   0.0000000   0.2886753   0.0000000), wk =   0.0277778
        k(    5) = (   0.0000000   0.3849004   0.0000000), wk =   0.0277778
        k(    6) = (   0.0000000   0.4811254   0.0000000), wk =   0.0277778
        k(    7) = (   0.0000000  -0.5773505   0.0000000), wk =   0.0138889
        k(    8) = (   0.0833333   0.0481125   0.0000000), wk =   0.0277778
        k(    9) = (   0.0833333   0.1443376   0.0000000), wk =   0.0277778
        k(   10) = (   0.0833333   0.2405627   0.0000000), wk =   0.0277778
        k(   11) = (   0.0833333   0.3367878   0.0000000), wk =   0.0277778
        k(   12) = (   0.0833333   0.4330129   0.0000000), wk =   0.0277778
        k(   13) = (   0.0833333   0.5292380   0.0000000), wk =   0.0277778
        k(   14) = (   0.0833333  -0.5292380   0.0000000), wk =   0.0277778
        k(   15) = (   0.0833333  -0.4330129   0.0000000), wk =   0.0277778
        k(   16) = (   0.0833333  -0.3367878   0.0000000), wk =   0.0277778
        k(   17) = (   0.0833333  -0.2405627   0.0000000), wk =   0.0277778
        k(   18) = (   0.0833333  -0.1443376   0.0000000), wk =   0.0277778
        k(   19) = (   0.0833333  -0.0481125   0.0000000), wk =   0.0277778
        k(   20) = (   0.1666667   0.0962251   0.0000000), wk =   0.0277778
        k(   21) = (   0.1666667   0.1924502   0.0000000), wk =   0.0277778
        k(   22) = (   0.1666667   0.2886753   0.0000000), wk =   0.0277778
        k(   23) = (   0.1666667   0.3849004   0.0000000), wk =   0.0277778
        k(   24) = (   0.1666667   0.4811254   0.0000000), wk =   0.0277778
        k(   25) = (   0.1666667   0.5773505   0.0000000), wk =   0.0277778
        k(   26) = (   0.1666667  -0.4811254   0.0000000), wk =   0.0277778
        k(   27) = (   0.1666667  -0.3849004   0.0000000), wk =   0.0277778
        k(   28) = (   0.1666667  -0.2886753   0.0000000), wk =   0.0277778
        k(   29) = (   0.1666667  -0.1924502   0.0000000), wk =   0.0277778
        k(   30) = (   0.1666667  -0.0962251   0.0000000), wk =   0.0277778
        k(   31) = (   0.1666667  -0.0000000   0.0000000), wk =   0.0277778
        k(   32) = (   0.2500000   0.1443376   0.0000000), wk =   0.0277778
        k(   33) = (   0.2500000   0.2405627   0.0000000), wk =   0.0277778
        k(   34) = (   0.2500000   0.3367878   0.0000000), wk =   0.0277778
        k(   35) = (   0.2500000   0.4330129   0.0000000), wk =   0.0277778
        k(   36) = (   0.2500000   0.5292380   0.0000000), wk =   0.0277778
        k(   37) = (   0.2500000   0.6254631   0.0000000), wk =   0.0277778
        k(   38) = (   0.2500000  -0.4330129   0.0000000), wk =   0.0277778
        k(   39) = (   0.2500000  -0.3367878   0.0000000), wk =   0.0277778
        k(   40) = (   0.2500000  -0.2405627   0.0000000), wk =   0.0277778
        k(   41) = (   0.2500000  -0.1443376   0.0000000), wk =   0.0277778
        k(   42) = (   0.2500000  -0.0481125   0.0000000), wk =   0.0277778
        k(   43) = (   0.2500000   0.0481125   0.0000000), wk =   0.0277778
        k(   44) = (   0.3333333   0.1924502   0.0000000), wk =   0.0277778
        k(   45) = (   0.3333333   0.2886753   0.0000000), wk =   0.0277778
        k(   46) = (   0.3333333   0.3849004   0.0000000), wk =   0.0277778
        k(   47) = (   0.3333333   0.4811254   0.0000000), wk =   0.0277778
        k(   48) = (   0.3333333   0.5773505   0.0000000), wk =   0.0277778
        k(   49) = (   0.3333333   0.6735756   0.0000000), wk =   0.0277778
        k(   50) = (   0.3333333  -0.3849004   0.0000000), wk =   0.0277778
        k(   51) = (   0.3333333  -0.2886753   0.0000000), wk =   0.0277778
        k(   52) = (   0.3333333  -0.1924502   0.0000000), wk =   0.0277778
        k(   53) = (   0.3333333  -0.0962251   0.0000000), wk =   0.0277778
        k(   54) = (   0.3333333   0.0000000   0.0000000), wk =   0.0277778
        k(   55) = (   0.3333333   0.0962251   0.0000000), wk =   0.0277778
        k(   56) = (   0.4166667   0.2405627   0.0000000), wk =   0.0277778
        k(   57) = (   0.4166667   0.3367878   0.0000000), wk =   0.0277778
        k(   58) = (   0.4166667   0.4330129   0.0000000), wk =   0.0277778
        k(   59) = (   0.4166667   0.5292380   0.0000000), wk =   0.0277778
        k(   60) = (   0.4166667   0.6254631   0.0000000), wk =   0.0277778
        k(   61) = (   0.4166667   0.7216882   0.0000000), wk =   0.0277778
        k(   62) = (   0.4166667  -0.3367878   0.0000000), wk =   0.0277778
        k(   63) = (   0.4166667  -0.2405627   0.0000000), wk =   0.0277778
        k(   64) = (   0.4166667  -0.1443376   0.0000000), wk =   0.0277778
        k(   65) = (   0.4166667  -0.0481125   0.0000000), wk =   0.0277778
        k(   66) = (   0.4166667   0.0481125   0.0000000), wk =   0.0277778
        k(   67) = (   0.4166667   0.1443376   0.0000000), wk =   0.0277778
        k(   68) = (  -0.5000000  -0.2886753   0.0000000), wk =   0.0138889
        k(   69) = (  -0.5000000  -0.1924502   0.0000000), wk =   0.0277778
        k(   70) = (  -0.5000000  -0.0962251   0.0000000), wk =   0.0277778
        k(   71) = (  -0.5000000   0.0000000   0.0000000), wk =   0.0277778
        k(   72) = (  -0.5000000   0.0962251   0.0000000), wk =   0.0277778
        k(   73) = (  -0.5000000   0.1924502   0.0000000), wk =   0.0277778
        k(   74) = (  -0.5000000  -0.8660258   0.0000000), wk =   0.0138889

                       cryst. coord.
        k(    1) = (   0.0000000   0.0000000   0.0000000), wk =   0.0138889
        k(    2) = (   0.0000000   0.0833333   0.0000000), wk =   0.0277778
        k(    3) = (   0.0000000   0.1666667   0.0000000), wk =   0.0277778
        k(    4) = (   0.0000000   0.2500000   0.0000000), wk =   0.0277778
        k(    5) = (   0.0000000   0.3333333   0.0000000), wk =   0.0277778
        k(    6) = (   0.0000000   0.4166667   0.0000000), wk =   0.0277778
        k(    7) = (   0.0000000  -0.5000000   0.0000000), wk =   0.0138889
        k(    8) = (   0.0833333   0.0000000   0.0000000), wk =   0.0277778
        k(    9) = (   0.0833333   0.0833333   0.0000000), wk =   0.0277778
        k(   10) = (   0.0833333   0.1666667   0.0000000), wk =   0.0277778
        k(   11) = (   0.0833333   0.2500000   0.0000000), wk =   0.0277778
        k(   12) = (   0.0833333   0.3333333   0.0000000), wk =   0.0277778
        k(   13) = (   0.0833333   0.4166667   0.0000000), wk =   0.0277778
        k(   14) = (   0.0833333  -0.5000000   0.0000000), wk =   0.0277778
        k(   15) = (   0.0833333  -0.4166667   0.0000000), wk =   0.0277778
        k(   16) = (   0.0833333  -0.3333333   0.0000000), wk =   0.0277778
        k(   17) = (   0.0833333  -0.2500000   0.0000000), wk =   0.0277778
        k(   18) = (   0.0833333  -0.1666667   0.0000000), wk =   0.0277778
        k(   19) = (   0.0833333  -0.0833333   0.0000000), wk =   0.0277778
        k(   20) = (   0.1666667   0.0000000   0.0000000), wk =   0.0277778
        k(   21) = (   0.1666667   0.0833333   0.0000000), wk =   0.0277778
        k(   22) = (   0.1666667   0.1666667   0.0000000), wk =   0.0277778
        k(   23) = (   0.1666667   0.2500000   0.0000000), wk =   0.0277778
        k(   24) = (   0.1666667   0.3333333   0.0000000), wk =   0.0277778
        k(   25) = (   0.1666667   0.4166667   0.0000000), wk =   0.0277778
        k(   26) = (   0.1666667  -0.5000000   0.0000000), wk =   0.0277778
        k(   27) = (   0.1666667  -0.4166667   0.0000000), wk =   0.0277778
        k(   28) = (   0.1666667  -0.3333333   0.0000000), wk =   0.0277778
        k(   29) = (   0.1666667  -0.2500000   0.0000000), wk =   0.0277778
        k(   30) = (   0.1666667  -0.1666667   0.0000000), wk =   0.0277778
        k(   31) = (   0.1666667  -0.0833333   0.0000000), wk =   0.0277778
        k(   32) = (   0.2500000   0.0000000   0.0000000), wk =   0.0277778
        k(   33) = (   0.2500000   0.0833333   0.0000000), wk =   0.0277778
        k(   34) = (   0.2500000   0.1666667   0.0000000), wk =   0.0277778
        k(   35) = (   0.2500000   0.2500000   0.0000000), wk =   0.0277778
        k(   36) = (   0.2500000   0.3333333   0.0000000), wk =   0.0277778
        k(   37) = (   0.2500000   0.4166667   0.0000000), wk =   0.0277778
        k(   38) = (   0.2500000  -0.5000000   0.0000000), wk =   0.0277778
        k(   39) = (   0.2500000  -0.4166667   0.0000000), wk =   0.0277778
        k(   40) = (   0.2500000  -0.3333333   0.0000000), wk =   0.0277778
        k(   41) = (   0.2500000  -0.2500000   0.0000000), wk =   0.0277778
        k(   42) = (   0.2500000  -0.1666667   0.0000000), wk =   0.0277778
        k(   43) = (   0.2500000  -0.0833333   0.0000000), wk =   0.0277778
        k(   44) = (   0.3333333   0.0000000   0.0000000), wk =   0.0277778
        k(   45) = (   0.3333333   0.0833333   0.0000000), wk =   0.0277778
        k(   46) = (   0.3333333   0.1666667   0.0000000), wk =   0.0277778
        k(   47) = (   0.3333333   0.2500000   0.0000000), wk =   0.0277778
        k(   48) = (   0.3333333   0.3333333   0.0000000), wk =   0.0277778
        k(   49) = (   0.3333333   0.4166667   0.0000000), wk =   0.0277778
        k(   50) = (   0.3333333  -0.5000000   0.0000000), wk =   0.0277778
        k(   51) = (   0.3333333  -0.4166667   0.0000000), wk =   0.0277778
        k(   52) = (   0.3333333  -0.3333333   0.0000000), wk =   0.0277778
        k(   53) = (   0.3333333  -0.2500000   0.0000000), wk =   0.0277778
        k(   54) = (   0.3333333  -0.1666667   0.0000000), wk =   0.0277778
        k(   55) = (   0.3333333  -0.0833333   0.0000000), wk =   0.0277778
        k(   56) = (   0.4166667   0.0000000   0.0000000), wk =   0.0277778
        k(   57) = (   0.4166667   0.0833333   0.0000000), wk =   0.0277778
        k(   58) = (   0.4166667   0.1666667   0.0000000), wk =   0.0277778
        k(   59) = (   0.4166667   0.2500000   0.0000000), wk =   0.0277778
        k(   60) = (   0.4166667   0.3333333   0.0000000), wk =   0.0277778
        k(   61) = (   0.4166667   0.4166667   0.0000000), wk =   0.0277778
        k(   62) = (   0.4166667  -0.5000000   0.0000000), wk =   0.0277778
        k(   63) = (   0.4166667  -0.4166667   0.0000000), wk =   0.0277778
        k(   64) = (   0.4166667  -0.3333333   0.0000000), wk =   0.0277778
        k(   65) = (   0.4166667  -0.2500000   0.0000000), wk =   0.0277778
        k(   66) = (   0.4166667  -0.1666667   0.0000000), wk =   0.0277778
        k(   67) = (   0.4166667  -0.0833333   0.0000000), wk =   0.0277778
        k(   68) = (  -0.5000000   0.0000000   0.0000000), wk =   0.0138889
        k(   69) = (  -0.5000000   0.0833333   0.0000000), wk =   0.0277778
        k(   70) = (  -0.5000000   0.1666667   0.0000000), wk =   0.0277778
        k(   71) = (  -0.5000000   0.2500000   0.0000000), wk =   0.0277778
        k(   72) = (  -0.5000000   0.3333333   0.0000000), wk =   0.0277778
        k(   73) = (  -0.5000000   0.4166667   0.0000000), wk =   0.0277778
        k(   74) = (  -0.5000000  -0.5000000   0.0000000), wk =   0.0138889

     Dense  grid:   111671 G-vectors     FFT dimensions: (  30,  30, 288)

     Smooth grid:    52021 G-vectors     FFT dimensions: (  24,  24, 225)

     Dynamical RAM for                 wfc:       0.99 MB

     Dynamical RAM for     wfc (w. buffer):      19.78 MB

     Dynamical RAM for           str. fact:       1.70 MB

     Dynamical RAM for           local pot:       0.00 MB

     Dynamical RAM for          nlocal pot:       1.58 MB

     Dynamical RAM for                qrad:       0.46 MB

     Dynamical RAM for          rho,v,vnew:      11.04 MB

     Dynamical RAM for               rhoin:       3.68 MB

     Dynamical RAM for            rho*nmix:      27.26 MB

     Dynamical RAM for           G-vectors:       6.79 MB

     Dynamical RAM for          h,s,v(r/c):       0.02 MB

     Dynamical RAM for          <psi|beta>:       0.00 MB

     Dynamical RAM for                 psi:       1.98 MB

     Dynamical RAM for                hpsi:       1.98 MB

     Dynamical RAM for                spsi:       1.98 MB

     Dynamical RAM for      wfcinit/wfcrot:       1.98 MB

     Dynamical RAM for           addusdens:      20.45 MB

     Dynamical RAM for          addusforce:      20.87 MB

     Estimated static dynamical RAM per process >      58.33 MB

     Estimated max dynamical RAM per process >     106.47 MB

     Estimated total dynamical RAM >     344.09 MB
 ----2D----2D----2D----2D----2D----2D----2D----2D----2D----2D----2D----2D
  The code is running with the 2D cutoff
  Please refer to:
  Sohier, T., Calandra, M., & Mauri, F. (2017), 
  Density functional perturbation theory for gated two-dimensional heterostructures:
  Theoretical developments and application to flexural phonons in graphene.
  Physical Review B, 96(7), 75448. https://doi.org/10.1103/PhysRevB.96.075448
 ----2D----2D----2D----2D----2D----2D----2D----2D----2D----2D----2D----2D

     Adding external electric field
        E field amplitude [Ha a.u.]:  1.0000E-02
        Potential amp.        0.7943 Ry
        Total length         39.7126 bohr


     Check: negative core charge=   -0.000002

     Initial potential from superposition of free atoms

     starting charge       7.9999, renormalised to       8.0000

     negative rho (up, down):  1.246E-04 0.000E+00
     Starting wfcs are    8 randomized atomic wfcs +    2 random wfcs
     Checking if some PAW data can be deallocated... 

     total cpu time spent up to now is        3.2 secs

     Self-consistent Calculation

     iteration #  1     ecut=    60.00 Ry     beta= 0.70
     Davidson diagonalization with overlap

---- Real-time Memory Report at c_bands before calling an iterative solver
            89 MiB given to the printing process from OS
             0 MiB allocation reported by mallinfo(arena+hblkhd)
          1988 MiB available memory on the node where the printing process lives
------------------
     ethr =  1.00E-02,  avg # of iterations = 12.7

     negative rho (up, down):  1.332E-04 0.000E+00

     total cpu time spent up to now is       11.5 secs

     total energy              =     -36.85502616 Ry
     estimated scf accuracy    <       0.20533373 Ry

     iteration #  2     ecut=    60.00 Ry     beta= 0.70
     Davidson diagonalization with overlap

---- Real-time Memory Report at c_bands before calling an iterative solver
           121 MiB given to the printing process from OS
             0 MiB allocation reported by mallinfo(arena+hblkhd)
          1928 MiB available memory on the node where the printing process lives
------------------
     ethr =  2.57E-03,  avg # of iterations =  3.3

     negative rho (up, down):  6.310E-05 0.000E+00

     total cpu time spent up to now is       15.6 secs

     total energy              =     -36.88053238 Ry
     estimated scf accuracy    <       0.00961547 Ry

     iteration #  3     ecut=    60.00 Ry     beta= 0.70
     Davidson diagonalization with overlap

---- Real-time Memory Report at c_bands before calling an iterative solver
           123 MiB given to the printing process from OS
             0 MiB allocation reported by mallinfo(arena+hblkhd)
          1991 MiB available memory on the node where the printing process lives
------------------
     ethr =  1.20E-04,  avg # of iterations =  6.9

     negative rho (up, down):  7.108E-05 0.000E+00

     total cpu time spent up to now is       21.3 secs

     total energy              =     -36.88696835 Ry
     estimated scf accuracy    <       0.00693201 Ry

     iteration #  4     ecut=    60.00 Ry     beta= 0.70
     Davidson diagonalization with overlap

---- Real-time Memory Report at c_bands before calling an iterative solver
           125 MiB given to the printing process from OS
             0 MiB allocation reported by mallinfo(arena+hblkhd)
          1971 MiB available memory on the node where the printing process lives
------------------
     ethr =  8.67E-05,  avg # of iterations =  6.7

     negative rho (up, down):  7.801E-05 0.000E+00

     total cpu time spent up to now is       25.5 secs

     total energy              =     -36.88805385 Ry
     estimated scf accuracy    <       0.00121869 Ry

     iteration #  5     ecut=    60.00 Ry     beta= 0.70
     Davidson diagonalization with overlap

---- Real-time Memory Report at c_bands before calling an iterative solver
           126 MiB given to the printing process from OS
             0 MiB allocation reported by mallinfo(arena+hblkhd)
          1955 MiB available memory on the node where the printing process lives
------------------
     ethr =  1.52E-05,  avg # of iterations =  6.9

     negative rho (up, down):  1.269E-04 0.000E+00

     total cpu time spent up to now is       30.4 secs

     total energy              =     -36.88767617 Ry
     estimated scf accuracy    <       0.00038463 Ry

     iteration #  6     ecut=    60.00 Ry     beta= 0.70
     Davidson diagonalization with overlap

---- Real-time Memory Report at c_bands before calling an iterative solver
           128 MiB given to the printing process from OS
             0 MiB allocation reported by mallinfo(arena+hblkhd)
          1987 MiB available memory on the node where the printing process lives
------------------
     ethr =  4.81E-06,  avg # of iterations =  8.1

     negative rho (up, down):  8.484E-05 0.000E+00

     total cpu time spent up to now is       35.3 secs

     total energy              =     -36.88769854 Ry
     estimated scf accuracy    <       0.00034657 Ry

     iteration #  7     ecut=    60.00 Ry     beta= 0.70
     Davidson diagonalization with overlap

---- Real-time Memory Report at c_bands before calling an iterative solver
           129 MiB given to the printing process from OS
             0 MiB allocation reported by mallinfo(arena+hblkhd)
          1974 MiB available memory on the node where the printing process lives
------------------
     ethr =  4.33E-06,  avg # of iterations =  6.3

     negative rho (up, down):  9.054E-05 0.000E+00

     total cpu time spent up to now is       38.4 secs

     total energy              =     -36.88773383 Ry
     estimated scf accuracy    <       0.00006217 Ry

     iteration #  8     ecut=    60.00 Ry     beta= 0.70
     Davidson diagonalization with overlap

---- Real-time Memory Report at c_bands before calling an iterative solver
           131 MiB given to the printing process from OS
             0 MiB allocation reported by mallinfo(arena+hblkhd)
          1973 MiB available memory on the node where the printing process lives
------------------
     ethr =  7.77E-07,  avg # of iterations =  4.3

     negative rho (up, down):  9.349E-05 0.000E+00

     total cpu time spent up to now is       42.0 secs

     total energy              =     -36.88773770 Ry
     estimated scf accuracy    <       0.00009685 Ry

     iteration #  9     ecut=    60.00 Ry     beta= 0.70
     Davidson diagonalization with overlap

---- Real-time Memory Report at c_bands before calling an iterative solver
           133 MiB given to the printing process from OS
             0 MiB allocation reported by mallinfo(arena+hblkhd)
          1974 MiB available memory on the node where the printing process lives
------------------
     ethr =  7.77E-07,  avg # of iterations =  2.5

     negative rho (up, down):  9.489E-05 0.000E+00

     total cpu time spent up to now is       45.4 secs

     total energy              =     -36.88775375 Ry
     estimated scf accuracy    <       0.00000944 Ry

     iteration # 10     ecut=    60.00 Ry     beta= 0.70
     Davidson diagonalization with overlap

---- Real-time Memory Report at c_bands before calling an iterative solver
           134 MiB given to the printing process from OS
             0 MiB allocation reported by mallinfo(arena+hblkhd)
          1986 MiB available memory on the node where the printing process lives
------------------
     ethr =  1.18E-07,  avg # of iterations =  1.0

     negative rho (up, down):  9.669E-05 0.000E+00

     total cpu time spent up to now is       48.4 secs

     total energy              =     -36.88775640 Ry
     estimated scf accuracy    <       0.00000622 Ry

     iteration # 11     ecut=    60.00 Ry     beta= 0.70
     Davidson diagonalization with overlap

---- Real-time Memory Report at c_bands before calling an iterative solver
           134 MiB given to the printing process from OS
             0 MiB allocation reported by mallinfo(arena+hblkhd)
          1947 MiB available memory on the node where the printing process lives
------------------
     ethr =  7.77E-08,  avg # of iterations =  1.0

     negative rho (up, down):  9.693E-05 0.000E+00

     total cpu time spent up to now is       51.3 secs

     total energy              =     -36.88775663 Ry
     estimated scf accuracy    <       0.00000059 Ry

     iteration # 12     ecut=    60.00 Ry     beta= 0.70
     Davidson diagonalization with overlap

---- Real-time Memory Report at c_bands before calling an iterative solver
           134 MiB given to the printing process from OS
             0 MiB allocation reported by mallinfo(arena+hblkhd)
          1985 MiB available memory on the node where the printing process lives
------------------
     ethr =  7.34E-09,  avg # of iterations =  1.0

     negative rho (up, down):  9.694E-05 0.000E+00

     total cpu time spent up to now is       54.3 secs

     total energy              =     -36.88775667 Ry
     estimated scf accuracy    <       0.00000002 Ry

     iteration # 13     ecut=    60.00 Ry     beta= 0.70
     Davidson diagonalization with overlap

---- Real-time Memory Report at c_bands before calling an iterative solver
           134 MiB given to the printing process from OS
             0 MiB allocation reported by mallinfo(arena+hblkhd)
          1954 MiB available memory on the node where the printing process lives
------------------
     ethr =  2.39E-10,  avg # of iterations =  1.5

     negative rho (up, down):  9.692E-05 0.000E+00

     total cpu time spent up to now is       56.8 secs

     End of self-consistent calculation

          k = 0.0000 0.0000 0.0000 (  6469 PWs)   bands (ev):

   -22.6005 -10.6786  -6.0700  -6.0608  -2.9470  -1.5832  -0.4571   0.6533
     1.7889   2.9816

     occupation numbers 
     1.0000   1.0000   1.0000   1.0000   0.2201   0.0000   0.0000   0.0000
     0.0000   0.0000

          k = 0.0000 0.0962 0.0000 (  6478 PWs)   bands (ev):

   -22.4359 -10.4815  -6.7210  -6.4036  -2.7169  -1.3531  -0.2295   0.8792
     2.0125   3.2074

     occupation numbers 
     1.0000   1.0000   1.0000   1.0000   0.0008   0.0000   0.0000   0.0000
     0.0000   0.0000

          k = 0.0000 0.1925 0.0000 (  6486 PWs)   bands (ev):

   -21.9439  -9.8954  -8.3641  -7.2027  -2.0265  -0.6628   0.4528   1.5569
     2.6820   3.8828

     occupation numbers 
     1.0000   1.0000   1.0000   1.0000   0.0000   0.0000   0.0000   0.0000
     0.0000   0.0000

          k = 0.0000 0.2887 0.0000 (  6494 PWs)   bands (ev):

   -21.1302 -10.4704  -8.9395  -8.0894  -0.8758   0.4876   1.5875   2.6844
     3.7628   4.3048

     occupation numbers 
     1.0000   1.0000   1.0000   1.0000   0.0000   0.0000   0.0000   0.0000
     0.0000   0.0000

          k = 0.0000 0.3849 0.0000 (  6484 PWs)   bands (ev):

   -20.0068 -12.6827  -8.8282  -7.6642   0.7352   1.9242   2.1004   3.1862
     4.2504   4.7797

     occupation numbers 
     1.0000   1.0000   1.0000   1.0000   0.0000   0.0000   0.0000   0.0000
     0.0000   0.0000

          k = 0.0000 0.4811 0.0000 (  6486 PWs)   bands (ev):

   -18.6043 -14.7925  -9.3046  -6.2329  -0.2203   2.8064   4.1689   4.5242
     5.2220   6.2960

     occupation numbers 
     1.0000   1.0000   1.0000   1.0000   0.0000   0.0000   0.0000   0.0000
     0.0000   0.0000

          k = 0.0000-0.5774 0.0000 (  6508 PWs)   bands (ev):

   -17.3276 -16.3130  -9.4681  -5.3824  -1.3259   4.4467   5.3359   5.3400
     6.6955   6.7031

     occupation numbers 
     1.0000   1.0000   1.0000   1.0000   0.0000   0.0000   0.0000   0.0000
     0.0000   0.0000

          k = 0.0833 0.0481 0.0000 (  6478 PWs)   bands (ev):

   -22.4359 -10.4815  -6.7193  -6.4054  -2.7169  -1.3531  -0.2295   0.8792
     2.0125   3.2074

     occupation numbers 
     1.0000   1.0000   1.0000   1.0000   0.0008   0.0000   0.0000   0.0000
     0.0000   0.0000

          k = 0.0833 0.1443 0.0000 (  6487 PWs)   bands (ev):

   -22.1076 -10.0897  -7.7589  -7.0853  -2.2566  -0.8929   0.2255   1.3312
     2.4594   3.6584

     occupation numbers 
     1.0000   1.0000   1.0000   1.0000   0.0000   0.0000   0.0000   0.0000
     0.0000   0.0000

          k = 0.0833 0.2406 0.0000 (  6474 PWs)   bands (ev):

   -21.4548  -9.4742  -9.3175  -8.0911  -1.3361   0.0275   1.1345   2.2347
     3.3492   4.5531

     occupation numbers 
     1.0000   1.0000   1.0000   1.0000   0.0000   0.0000   0.0000   0.0000
     0.0000   0.0000

          k = 0.0833 0.3368 0.0000 (  6487 PWs)   bands (ev):

   -20.4861 -11.5550  -8.9839  -8.1954   0.0448   1.4079   2.4851   2.9694
     3.5894   4.6889

     occupation numbers 
     1.0000   1.0000   1.0000   1.0000   0.0000   0.0000   0.0000   0.0000
     0.0000   0.0000

          k = 0.0833 0.4330 0.0000 (  6482 PWs)   bands (ev):

   -19.2202 -13.6868  -9.6231  -6.8079   0.7334   1.8859   3.2487   4.3082
     5.2814   5.4664

     occupation numbers 
     1.0000   1.0000   1.0000   1.0000   0.0000   0.0000   0.0000   0.0000
     0.0000   0.0000

          k = 0.0833 0.5292 0.0000 (  6501 PWs)   bands (ev):

   -17.7317 -15.6393  -9.9538  -5.4901  -1.0471   4.1873   5.1873   5.5491
     6.5573   6.9489

     occupation numbers 
     1.0000   1.0000   1.0000   1.0000   0.0000   0.0000   0.0000   0.0000
     0.0000   0.0000

          k = 0.0833-0.5292 0.0000 (  6501 PWs)   bands (ev):

   -17.7317 -15.6392  -9.9538  -5.4903  -1.0468   4.1873   5.1871   5.5491
     6.5573   7.6288

     occupation numbers 
     1.0000   1.0000   1.0000   1.0000   0.0000   0.0000   0.0000   0.0000
     0.0000   0.0000

          k = 0.0833-0.4330 0.0000 (  6482 PWs)   bands (ev):

   -19.2202 -13.6866  -9.6234  -6.8081   0.7341   1.8859   3.2487   4.3082
     5.2807   5.4664

     occupation numbers 
     1.0000   1.0000   1.0000   1.0000   0.0000   0.0000   0.0000   0.0000
     0.0000   0.0000

          k = 0.0833-0.3368 0.0000 (  6487 PWs)   bands (ev):

   -20.4861 -11.5543  -8.9848  -8.1956   0.0448   1.4079   2.4851   2.9702
     3.5894   4.6888

     occupation numbers 
     1.0000   1.0000   1.0000   1.0000   0.0000   0.0000   0.0000   0.0000
     0.0000   0.0000

          k = 0.0833-0.2406 0.0000 (  6474 PWs)   bands (ev):

   -21.4547  -9.4722  -9.3176  -8.0933  -1.3361   0.0275   1.1345   2.2347
     3.3492   4.5530

     occupation numbers 
     1.0000   1.0000   1.0000   1.0000   0.0000   0.0000   0.0000   0.0000
     0.0000   0.0000

          k = 0.0833-0.1443 0.0000 (  6487 PWs)   bands (ev):

   -22.1076 -10.0898  -7.7542  -7.0903  -2.2566  -0.8929   0.2255   1.3312
     2.4594   3.6583

     occupation numbers 
     1.0000   1.0000   1.0000   1.0000   0.0000   0.0000   0.0000   0.0000
     0.0000   0.0000

          k = 0.0833-0.0481 0.0000 (  6478 PWs)   bands (ev):

   -22.4359 -10.4815  -6.7143  -6.4106  -2.7169  -1.3531  -0.2295   0.8792
     2.0125   3.2074

     occupation numbers 
     1.0000   1.0000   1.0000   1.0000   0.0008   0.0000   0.0000   0.0000
     0.0000   0.0000

          k = 0.1667 0.0962 0.0000 (  6486 PWs)   bands (ev):

   -21.9439  -9.8954  -8.3628  -7.2041  -2.0265  -0.6628   0.4528   1.5569
     2.6820   3.8828

     occupation numbers 
     1.0000   1.0000   1.0000   1.0000   0.0000   0.0000   0.0000   0.0000
     0.0000   0.0000

          k = 0.1667 0.1925 0.0000 (  6474 PWs)   bands (ev):

   -21.4547  -9.4735  -9.3175  -8.0919  -1.3361   0.0275   1.1345   2.2347
     3.3492   4.5530

     occupation numbers 
     1.0000   1.0000   1.0000   1.0000   0.0000   0.0000   0.0000   0.0000
     0.0000   0.0000

          k = 0.1667 0.2887 0.0000 (  6494 PWs)   bands (ev):

   -20.6469 -10.8076  -9.4626  -8.3752  -0.1854   1.1779   2.2689   3.3631
     3.4095   4.4561

     occupation numbers 
     1.0000   1.0000   1.0000   1.0000   0.0000   0.0000   0.0000   0.0000
     0.0000   0.0000

          k = 0.1667 0.3849 0.0000 (  6484 PWs)   bands (ev):

   -19.5345 -12.5417 -10.5249  -7.1151   1.4256   1.4486   2.7884   3.8514
     4.9376   5.9750

     occupation numbers 
     1.0000   1.0000   1.0000   1.0000   0.0000   0.0000   0.0000   0.0000
     0.0000   0.0000

          k = 0.1667 0.4811 0.0000 (  6474 PWs)   bands (ev):

   -18.1519 -14.4618 -11.1036  -5.6797  -0.4762   3.4968   4.8586   5.8655
     6.9181   7.1215

     occupation numbers 
     1.0000   1.0000   1.0000   1.0000   0.0000   0.0000   0.0000   0.0000
     0.0000   0.0000

          k = 0.1667 0.5774 0.0000 (  6478 PWs)   bands (ev):

   -16.9053 -15.9099 -11.2894  -4.7810  -1.5515   6.0263   6.0304   7.0014
     7.3816   7.3927

     occupation numbers 
     1.0000   1.0000   1.0000   1.0000   0.0000   0.0000   0.0000   0.0000
     0.0000   0.0000

          k = 0.1667-0.4811 0.0000 (  6474 PWs)   bands (ev):

   -18.1519 -14.4614 -11.1041  -5.6802  -0.4750   3.4968   4.8586   5.8655
     6.9175   7.1213

     occupation numbers 
     1.0000   1.0000   1.0000   1.0000   0.0000   0.0000   0.0000   0.0000
     0.0000   0.0000

          k = 0.1667-0.3849 0.0000 (  6484 PWs)   bands (ev):

   -19.5344 -12.5403 -10.5266  -7.1156   1.4256   1.4502   2.7884   3.8514
     4.9375   5.9748

     occupation numbers 
     1.0000   1.0000   1.0000   1.0000   0.0000   0.0000   0.0000   0.0000
     0.0000   0.0000

          k = 0.1667-0.2887 0.0000 (  6494 PWs)   bands (ev):

   -20.6469 -10.8042  -9.4664  -8.3756  -0.1854   1.1779   2.2689   3.3631
     3.4112   4.4560

     occupation numbers 
     1.0000   1.0000   1.0000   1.0000   0.0000   0.0000   0.0000   0.0000
     0.0000   0.0000

          k = 0.1667-0.1925 0.0000 (  6474 PWs)   bands (ev):

   -21.4547  -9.4694  -9.3178  -8.0965  -1.3361   0.0275   1.1345   2.2347
     3.3492   4.5530

     occupation numbers 
     1.0000   1.0000   1.0000   1.0000   0.0000   0.0000   0.0000   0.0000
     0.0000   0.0000

          k = 0.1667-0.0962 0.0000 (  6486 PWs)   bands (ev):

   -21.9438  -9.8955  -8.3590  -7.2084  -2.0265  -0.6628   0.4528   1.5569
     2.6819   3.8827

     occupation numbers 
     1.0000   1.0000   1.0000   1.0000   0.0000   0.0000   0.0000   0.0000
     0.0000   0.0000

          k = 0.1667-0.0000 0.0000 (  6487 PWs)   bands (ev):

   -22.1076 -10.0898  -7.7526  -7.0920  -2.2566  -0.8929   0.2255   1.3312
     2.4594   3.6584

     occupation numbers 
     1.0000   1.0000   1.0000   1.0000   0.0000   0.0000   0.0000   0.0000
     0.0000   0.0000

          k = 0.2500 0.1443 0.0000 (  6494 PWs)   bands (ev):

   -21.1301 -10.4695  -8.9396  -8.0905  -0.8758   0.4876   1.5875   2.6844
     3.7627   4.3054

     occupation numbers 
     1.0000   1.0000   1.0000   1.0000   0.0000   0.0000   0.0000   0.0000
     0.0000   0.0000

          k = 0.2500 0.2406 0.0000 (  6487 PWs)   bands (ev):

   -20.4861 -11.5543  -8.9848  -8.1955   0.0448   1.4079   2.4851   2.9698
     3.5894   4.6889

     occupation numbers 
     1.0000   1.0000   1.0000   1.0000   0.0000   0.0000   0.0000   0.0000
     0.0000   0.0000

          k = 0.2500 0.3368 0.0000 (  6484 PWs)   bands (ev):

   -19.5344 -12.5413 -10.5255  -7.1152   1.4256   1.4489   2.7884   3.8514
     4.9376   5.9750

     occupation numbers 
     1.0000   1.0000   1.0000   1.0000   0.0000   0.0000   0.0000   0.0000
     0.0000   0.0000

          k = 0.2500 0.4330 0.0000 (  6442 PWs)   bands (ev):

   -18.3007 -13.5776 -12.0191  -5.7646  -0.1751   3.2667   4.6283   5.6317
     6.7214   7.5037

     occupation numbers 
     1.0000   1.0000   1.0000   1.0000   0.0000   0.0000   0.0000   0.0000
     0.0000   0.0000

          k = 0.2500 0.5292 0.0000 (  6455 PWs)   bands (ev):

   -16.8699 -15.0074 -12.7299  -4.3700  -1.7048   5.5681   6.9249   7.6037
     8.3175   8.3298

     occupation numbers 
     1.0000   1.0000   1.0000   1.0000   0.0000   0.0000   0.0000   0.0000
     0.0000   0.0000

          k = 0.2500 0.6255 0.0000 (  6455 PWs)   bands (ev):

   -16.8700 -15.0065 -12.7307  -4.3710  -1.7034   5.5681   6.9249   7.6033
     8.3171   8.8974

     occupation numbers 
     1.0000   1.0000   1.0000   1.0000   0.0000   0.0000   0.0000   0.0000
     0.0000   0.0000

          k = 0.2500-0.4330 0.0000 (  6442 PWs)   bands (ev):

   -18.3006 -13.5751 -12.0219  -5.7656  -0.1728   3.2667   4.6283   5.6316
     6.7213   7.5031

     occupation numbers 
     1.0000   1.0000   1.0000   1.0000   0.0000   0.0000   0.0000   0.0000
     0.0000   0.0000

          k = 0.2500-0.3368 0.0000 (  6484 PWs)   bands (ev):

   -19.5343 -12.5384 -10.5289  -7.1160   1.4256   1.4513   2.7884   3.8514
     4.9376   5.9748

     occupation numbers 
     1.0000   1.0000   1.0000   1.0000   0.0000   0.0000   0.0000   0.0000
     0.0000   0.0000

          k = 0.2500-0.2406 0.0000 (  6487 PWs)   bands (ev):

   -20.4860 -11.5516  -8.9883  -8.1960   0.0448   1.4079   2.4850   2.9718
     3.5894   4.6889

     occupation numbers 
     1.0000   1.0000   1.0000   1.0000   0.0000   0.0000   0.0000   0.0000
     0.0000   0.0000

          k = 0.2500-0.1443 0.0000 (  6494 PWs)   bands (ev):

   -21.1301 -10.4668  -8.9399  -8.0940  -0.8758   0.4876   1.5874   2.6843
     3.7626   4.3069

     occupation numbers 
     1.0000   1.0000   1.0000   1.0000   0.0000   0.0000   0.0000   0.0000
     0.0000   0.0000

          k = 0.2500-0.0481 0.0000 (  6474 PWs)   bands (ev):

   -21.4547  -9.4687  -9.3178  -8.0973  -1.3361   0.0275   1.1345   2.2347
     3.3492   4.5529

     occupation numbers 
     1.0000   1.0000   1.0000   1.0000   0.0000   0.0000   0.0000   0.0000
     0.0000   0.0000

          k = 0.2500 0.0481 0.0000 (  6474 PWs)   bands (ev):

   -21.4547  -9.4708  -9.3177  -8.0949  -1.3361   0.0275   1.1345   2.2347
     3.3492   4.5530

     occupation numbers 
     1.0000   1.0000   1.0000   1.0000   0.0000   0.0000   0.0000   0.0000
     0.0000   0.0000

          k = 0.3333 0.1925 0.0000 (  6484 PWs)   bands (ev):

   -20.0068 -12.6820  -8.8292  -7.6644   0.7352   1.9249   2.1004   3.1862
     4.2504   4.7792

     occupation numbers 
     1.0000   1.0000   1.0000   1.0000   0.0000   0.0000   0.0000   0.0000
     0.0000   0.0000

          k = 0.3333 0.2887 0.0000 (  6482 PWs)   bands (ev):

   -19.2202 -13.6862  -9.6240  -6.8082   0.7341   1.8859   3.2487   4.3082
     5.2811   5.4662

     occupation numbers 
     1.0000   1.0000   1.0000   1.0000   0.0000   0.0000   0.0000   0.0000
     0.0000   0.0000

          k = 0.3333 0.3849 0.0000 (  6474 PWs)   bands (ev):

   -18.1519 -14.4613 -11.1042  -5.6801  -0.4754   3.4968   4.8586   5.8656
     6.9181   7.1211

     occupation numbers 
     1.0000   1.0000   1.0000   1.0000   0.0000   0.0000   0.0000   0.0000
     0.0000   0.0000

          k = 0.3333 0.4811 0.0000 (  6455 PWs)   bands (ev):

   -16.8701 -15.0068 -12.7304  -4.3704  -1.7042   5.5681   6.9249   7.6037
     8.3174   8.3298

     occupation numbers 
     1.0000   1.0000   1.0000   1.0000   0.0000   0.0000   0.0000   0.0000
     0.0000   0.0000

          k = 0.3333 0.5774 0.0000 (  6450 PWs)   bands (ev):

   -15.6470 -15.6440 -13.6392  -3.0097  -3.0057   7.6020   8.0955   8.1016
     8.1018   9.4528

     occupation numbers 
     1.0000   1.0000   1.0000   0.4522   0.4354   0.0000   0.0000   0.0000
     0.0000   0.0000

          k = 0.3333 0.6736 0.0000 (  6455 PWs)   bands (ev):

   -16.8706 -15.0042 -12.7328  -4.3727  -1.7009   5.5681   6.9249   7.6031
     8.3168   8.3298

     occupation numbers 
     1.0000   1.0000   1.0000   1.0000   0.0000   0.0000   0.0000   0.0000
     0.0000   0.0000

          k = 0.3333-0.3849 0.0000 (  6474 PWs)   bands (ev):

   -18.1519 -14.4591 -11.1068  -5.6817  -0.4722   3.4968   4.8586   5.8655
     6.9176   7.1196

     occupation numbers 
     1.0000   1.0000   1.0000   1.0000   0.0000   0.0000   0.0000   0.0000
     0.0000   0.0000

          k = 0.3333-0.2887 0.0000 (  6482 PWs)   bands (ev):

   -19.2201 -13.6842  -9.6268  -6.8093   0.7369   1.8859   3.2487   4.3082
     5.2799   5.4657

     occupation numbers 
     1.0000   1.0000   1.0000   1.0000   0.0000   0.0000   0.0000   0.0000
     0.0000   0.0000

          k = 0.3333-0.1925 0.0000 (  6484 PWs)   bands (ev):

   -20.0067 -12.6800  -8.8321  -7.6651   0.7352   1.9269   2.1004   3.1863
     4.2503   4.7777

     occupation numbers 
     1.0000   1.0000   1.0000   1.0000   0.0000   0.0000   0.0000   0.0000
     0.0000   0.0000

          k = 0.3333-0.0962 0.0000 (  6487 PWs)   bands (ev):

   -20.4860 -11.5514  -8.9886  -8.1961   0.0448   1.4079   2.4850   2.9721
     3.5894   4.6889

     occupation numbers 
     1.0000   1.0000   1.0000   1.0000   0.0000   0.0000   0.0000   0.0000
     0.0000   0.0000

          k = 0.3333 0.0000 0.0000 (  6494 PWs)   bands (ev):

   -20.6468 -10.8030  -9.4677  -8.3757  -0.1854   1.1779   2.2689   3.3631
     3.4118   4.4560

     occupation numbers 
     1.0000   1.0000   1.0000   1.0000   0.0000   0.0000   0.0000   0.0000
     0.0000   0.0000

          k = 0.3333 0.0962 0.0000 (  6487 PWs)   bands (ev):

   -20.4860 -11.5534  -8.9860  -8.1958   0.0448   1.4079   2.4851   2.9709
     3.5894   4.6888

     occupation numbers 
     1.0000   1.0000   1.0000   1.0000   0.0000   0.0000   0.0000   0.0000
     0.0000   0.0000

          k = 0.4167 0.2406 0.0000 (  6486 PWs)   bands (ev):

   -18.6043 -14.7919  -9.3055  -6.2334  -0.2192   2.8064   4.1689   4.5238
     5.2220   6.2960

     occupation numbers 
     1.0000   1.0000   1.0000   1.0000   0.0000   0.0000   0.0000   0.0000
     0.0000   0.0000

          k = 0.4167 0.3368 0.0000 (  6501 PWs)   bands (ev):

   -17.7319 -15.6385  -9.9546  -5.4909  -1.0459   4.1873   5.1869   5.5491
     6.5573   6.9489

     occupation numbers 
     1.0000   1.0000   1.0000   1.0000   0.0000   0.0000   0.0000   0.0000
     0.0000   0.0000

          k = 0.4167 0.4330 0.0000 (  6478 PWs)   bands (ev):

   -16.9058 -15.9088 -11.2901  -4.7819  -1.5501   6.0263   6.0304   7.0010
     7.3816   7.3927

     occupation numbers 
     1.0000   1.0000   1.0000   1.0000   0.0000   0.0000   0.0000   0.0000
     0.0000   0.0000

          k = 0.4167 0.5292 0.0000 (  6455 PWs)   bands (ev):

   -16.8702 -15.0056 -12.7315  -4.3718  -1.7023   5.5681   6.9249   7.6031
     8.3169   8.8973

     occupation numbers 
     1.0000   1.0000   1.0000   1.0000   0.0000   0.0000   0.0000   0.0000
     0.0000   0.0000

          k = 0.4167 0.6255 0.0000 (  6455 PWs)   bands (ev):

   -16.8706 -15.0039 -12.7330  -4.3731  -1.7004   5.5681   6.9249   7.6030
     8.3167   8.3298

     occupation numbers 
     1.0000   1.0000   1.0000   1.0000   0.0000   0.0000   0.0000   0.0000
     0.0000   0.0000

          k = 0.4167 0.7217 0.0000 (  6478 PWs)   bands (ev):

   -16.9073 -15.9055 -11.2923  -4.7845  -1.5461   6.0263   6.0304   6.9996
     7.3816   7.3927

     occupation numbers 
     1.0000   1.0000   1.0000   1.0000   0.0000   0.0000   0.0000   0.0000
     0.0000   0.0000

          k = 0.4167-0.3368 0.0000 (  6501 PWs)   bands (ev):

   -17.7322 -15.6364  -9.9571  -5.4932  -1.0419   4.1873   5.1856   5.5491
     6.5574   7.6286

     occupation numbers 
     1.0000   1.0000   1.0000   1.0000   0.0000   0.0000   0.0000   0.0000
     0.0000   0.0000

          k = 0.4167-0.2406 0.0000 (  6486 PWs)   bands (ev):

   -18.6043 -14.7901  -9.3081  -6.2350  -0.2161   2.8064   4.1689   4.5226
     5.2221   6.2960

     occupation numbers 
     1.0000   1.0000   1.0000   1.0000   0.0000   0.0000   0.0000   0.0000
     0.0000   0.0000

          k = 0.4167-0.1443 0.0000 (  6482 PWs)   bands (ev):

   -19.2201 -13.6842  -9.6269  -6.8094   0.7371   1.8859   3.2487   4.3082
     5.2797   5.4657

     occupation numbers 
     1.0000   1.0000   1.0000   1.0000   0.0000   0.0000   0.0000   0.0000
     0.0000   0.0000

          k = 0.4167-0.0481 0.0000 (  6484 PWs)   bands (ev):

   -19.5343 -12.5379 -10.5295  -7.1161   1.4256   1.4518   2.7884   3.8514
     4.9376   5.9748

     occupation numbers 
     1.0000   1.0000   1.0000   1.0000   0.0000   0.0000   0.0000   0.0000
     0.0000   0.0000

          k = 0.4167 0.0481 0.0000 (  6484 PWs)   bands (ev):

   -19.5343 -12.5393 -10.5278  -7.1159   1.4256   1.4510   2.7884   3.8514
     4.9375   5.9747

     occupation numbers 
     1.0000   1.0000   1.0000   1.0000   0.0000   0.0000   0.0000   0.0000
     0.0000   0.0000

          k = 0.4167 0.1443 0.0000 (  6482 PWs)   bands (ev):

   -19.2201 -13.6859  -9.6244  -6.8085   0.7350   1.8859   3.2487   4.3082
     5.2803   5.4663

     occupation numbers 
     1.0000   1.0000   1.0000   1.0000   0.0000   0.0000   0.0000   0.0000
     0.0000   0.0000

          k =-0.5000-0.2887 0.0000 (  6508 PWs)   bands (ev):

   -17.3281 -16.3119  -9.4690  -5.3833  -1.3244   4.4464   5.3359   5.3400
     6.6955   6.7030

     occupation numbers 
     1.0000   1.0000   1.0000   1.0000   0.0000   0.0000   0.0000   0.0000
     0.0000   0.0000

          k =-0.5000-0.1925 0.0000 (  6501 PWs)   bands (ev):

   -17.7318 -15.6385  -9.9547  -5.4911  -1.0454   4.1873   5.1866   5.5491
     6.5573   6.9489

     occupation numbers 
     1.0000   1.0000   1.0000   1.0000   0.0000   0.0000   0.0000   0.0000
     0.0000   0.0000

          k =-0.5000-0.0962 0.0000 (  6474 PWs)   bands (ev):

   -18.1519 -14.4607 -11.1050  -5.6808  -0.4739   3.4968   4.8586   5.8655
     6.9174   7.1208

     occupation numbers 
     1.0000   1.0000   1.0000   1.0000   0.0000   0.0000   0.0000   0.0000
     0.0000   0.0000

          k =-0.5000 0.0000 0.0000 (  6442 PWs)   bands (ev):

   -18.3006 -13.5742 -12.0228  -5.7660  -0.1720   3.2667   4.6283   5.6316
     6.7213   7.5029

     occupation numbers 
     1.0000   1.0000   1.0000   1.0000   0.0000   0.0000   0.0000   0.0000
     0.0000   0.0000

          k =-0.5000 0.0962 0.0000 (  6474 PWs)   bands (ev):

   -18.1519 -14.4590 -11.1070  -5.6819  -0.4718   3.4968   4.8586   5.8655
     6.9174   7.1196

     occupation numbers 
     1.0000   1.0000   1.0000   1.0000   0.0000   0.0000   0.0000   0.0000
     0.0000   0.0000

          k =-0.5000 0.1925 0.0000 (  6501 PWs)   bands (ev):

   -17.7322 -15.6364  -9.9571  -5.4932  -1.0418   4.1873   5.1855   5.5491
     6.5574   6.9489

     occupation numbers 
     1.0000   1.0000   1.0000   1.0000   0.0000   0.0000   0.0000   0.0000
     0.0000   0.0000

          k =-0.5000-0.8660 0.0000 (  6508 PWs)   bands (ev):

   -17.3295 -16.3088  -9.4715  -5.3860  -1.3201   4.4453   5.3359   5.3400
     6.6956   6.7030

     occupation numbers 
     1.0000   1.0000   1.0000   1.0000   0.0000   0.0000   0.0000   0.0000
     0.0000   0.0000

     the Fermi energy is    -3.0213 ev

!    total energy              =     -36.88775668 Ry
     total all-electron energy =      -152.415951 Ry
     estimated scf accuracy    <          8.8E-12 Ry
     smearing contrib. (-TS)   =      -0.00018579 Ry
     internal energy E=F+TS    =     -36.88757089 Ry

     The total energy is F=E-TS. E is the sum of the following terms:
     one-electron contribution =    -425.84814041 Ry
     hartree contribution      =     214.16128697 Ry
     xc contribution           =      -9.28294375 Ry
     ewald contribution        =     197.40164210 Ry
     electric field correction =      -0.98498963 Ry
     one-center paw contrib.   =     -12.33442616 Ry
      -> PAW hartree energy AE =       9.52496270 Ry
      -> PAW hartree energy PS =      -9.51628221 Ry
      -> PAW xc energy AE      =     -10.68257121 Ry
      -> PAW xc energy PS      =       4.50667713 Ry
      -> total E_H with PAW    =     214.16996746 Ry
      -> total E_XC with PAW   =     -15.45883783 Ry

     convergence has been achieved in  13 iterations

     negative rho (up, down):  9.692E-05 0.000E+00

     Forces acting on atoms (cartesian axes, Ry/au):

     atom    1 type  1   force =    -0.00039215    0.00038217   -0.00048592
     atom    2 type  1   force =     0.00039215   -0.00038217    0.00048592
     The non-local contrib.  to forces
     atom    1 type  1   force =    -0.00043198    0.00042167   -0.01224264
     atom    2 type  1   force =     0.00043212   -0.00042147   -0.01046284
     The ionic contribution  to forces
     atom    1 type  1   force =    -0.00151748    0.00148391    0.01036964
     atom    2 type  1   force =     0.00151748   -0.00148391   -0.01036964
     The local contribution  to forces
     atom    1 type  1   force =     0.00154466   -0.00151090   -0.07860931
     atom    2 type  1   force =    -0.00154464    0.00151077   -0.05866334
     The core correction contribution to forces
     atom    1 type  1   force =     0.00001270   -0.00001239    0.00007214
     atom    2 type  1   force =    -0.00001276    0.00001249    0.00005752
     The Hubbard contrib.    to forces
     atom    1 type  1   force =     0.00000000    0.00000000    0.00000000
     atom    2 type  1   force =     0.00000000    0.00000000    0.00000000
     The SCF correction term to forces
     atom    1 type  1   force =     0.00000002   -0.00000001    0.00000465
     atom    2 type  1   force =     0.00000002    0.00000007    0.00000463

     Total force =     0.001035     Total SCF correction =     0.000007

     Writing all to output data dir /home/ubuntu/projects/Graphene-Band-Structure-Quantum-Espresso/outputs/bilayer/field_0.01Ry/top/data/top.save/ :
     XML data file, charge density, pseudopotentials, collected wavefunctions

     init_run     :      2.93s CPU      3.14s WALL (       1 calls)
     electrons    :     53.14s CPU     53.61s WALL (       1 calls)
     forces       :      0.47s CPU      0.50s WALL (       1 calls)

     Called by init_run:
     wfcinit      :      1.20s CPU      1.22s WALL (       1 calls)
     wfcinit:atom :      0.02s CPU      0.02s WALL (      19 calls)
     wfcinit:wfcr :      1.12s CPU      1.14s WALL (      19 calls)
     potinit      :      0.57s CPU      0.67s WALL (       1 calls)
     hinit0       :      1.04s CPU      1.10s WALL (       1 calls)

     Called by electrons:
     c_bands      :     44.19s CPU     44.53s WALL (      13 calls)
     sum_band     :      5.37s CPU      5.42s WALL (      13 calls)
     v_of_rho     :      1.42s CPU      1.53s WALL (      14 calls)
     v_h          :      0.07s CPU      0.08s WALL (      14 calls)
     v_xc         :      1.43s CPU      1.55s WALL (      15 calls)
     newd         :      0.58s CPU      0.60s WALL (      14 calls)
     PAW_pot      :      1.45s CPU      1.47s WALL (      14 calls)
     mix_rho      :      0.18s CPU      0.18s WALL (      13 calls)

     Called by c_bands:
     init_us_2    :      0.59s CPU      0.60s WALL (     532 calls)
     cegterg      :     30.85s CPU     31.10s WALL (     247 calls)

     Called by sum_band:
     sum_band:wei :      0.01s CPU      0.01s WALL (      13 calls)
     sum_band:loo :      3.20s CPU      3.21s WALL (      13 calls)
     sum_band:buf :      0.04s CPU      0.04s WALL (     247 calls)
     sum_band:ini :      0.24s CPU      0.24s WALL (     247 calls)
     sum_band:cal :      0.49s CPU      0.49s WALL (     247 calls)
     sum_band:bec :      0.00s CPU      0.00s WALL (     247 calls)
     addusdens    :      0.46s CPU      0.48s WALL (      13 calls)
     addusd:skk   :      0.00s CPU      0.00s WALL (      13 calls)

     Called by *egterg:
     cdiaghg      :      0.24s CPU      0.25s WALL (    1378 calls)
     cegterg:over :      2.46s CPU      2.48s WALL (    1131 calls)
     cegterg:upda :      1.67s CPU      1.70s WALL (    1131 calls)
     cegterg:last :      3.73s CPU      3.75s WALL (     578 calls)
     h_psi        :     20.89s CPU     21.05s WALL (    1397 calls)
     s_psi        :      1.74s CPU      1.77s WALL (    1397 calls)
     g_psi        :      0.18s CPU      0.18s WALL (    1131 calls)

     Called by h_psi:
     h_psi:calbec :      1.70s CPU      1.71s WALL (    1397 calls)
     vloc_psi     :     17.30s CPU     17.43s WALL (    1397 calls)
     add_vuspsi   :      1.77s CPU      1.79s WALL (    1397 calls)

     General routines
     calbec       :      2.31s CPU      2.32s WALL (    1720 calls)
     fft          :      1.30s CPU      1.31s WALL (     191 calls)
     ffts         :      0.37s CPU      0.37s WALL (      27 calls)
     fftw         :     17.30s CPU     17.42s WALL (   17132 calls)
     interpolate  :      0.40s CPU      0.41s WALL (      14 calls)

     Parallel routines

     PAW routines
     PAW_pot      :      1.45s CPU      1.47s WALL (      14 calls)

     PWSCF        :     56.79s CPU     57.55s WALL


   This run was terminated on:  12:23:51   7Sep2026            

=------------------------------------------------------------------------------=
   JOB DONE.
=------------------------------------------------------------------------------=
Note: The following floating-point exceptions are signalling: IEEE_DENORMAL
