
     Program PWSCF v.7.6 starts on 18Sep2026 at 10:32:32 

     This program is part of the open-source Quantum ESPRESSO suite
     for quantum simulation of materials; please cite
         "P. Giannozzi et al., J. Phys.:Condens. Matter 21 395502 (2009);
         "P. Giannozzi et al., J. Phys.:Condens. Matter 29 465901 (2017);
         "P. Giannozzi et al., J. Chem. Phys. 152 154105 (2020);
          URL http://www.quantum-espresso.org", 
     in publications or presentations arising from this work. More details at
     http://www.quantum-espresso.org/quote

     Parallel version (MPI), running on     4 processors

     MPI processes distributed on     1 nodes
     6556 MiB available memory on the printing compute node when the environment starts

     Waiting for input...
     Reading input from standard input
Warning: card &IONS ignored
Warning: card &CELL ignored
Warning: card &FCP ignored
Warning: card &RISM ignored

     Current dimensions of program PWSCF are:
     Max number of different atomic species (ntypx) = 10
     Max number of k-points (npk) =  40000
     Max angular momentum in pseudopotentials (lmaxx) =  4
     file C.pbe-n-kjpaw_psl.1.0.0.UPF: wavefunction(s)  2S 2P renormalized

     Atomic positions and unit cell read from directory:
     /home/ubuntu/projects/Graphene-Band-Structure-Quantum-Espresso/outputs/field_0/coupled/data/coupled.save/

     Message from routine setup:
     using ibrav=0 with symmetry is DISCOURAGED, use correct ibrav instead

     K-points division:     npool     =       4
     Subspace diagonalization in iterative solution of the eigenvalue problem:
     a serial algorithm will be used


     G-vector sticks info
     --------------------
     sticks:   dense  smooth     PW     G-vecs:    dense   smooth      PW
     Sum         595     361    109               111671    52021    9049

     Using Slab Decomposition



     bravais-lattice index     =            0
     lattice parameter (alat)  =       4.6487  a.u.
     unit-cell volume          =     825.8174 (a.u.)^3
     number of atoms/cell      =            4
     number of atomic types    =            1
     number of electrons       =        16.00
     number of Kohn-Sham states=           24
     kinetic-energy cutoff     =      60.0000  Ry
     charge density cutoff     =     400.0000  Ry
     Exchange-correlation= SLA  PW   PBX  PBC
                           (   1   4   3   4   0   0   0)

     celldm(1)=   4.648726  celldm(2)=   0.000000  celldm(3)=   0.000000
     celldm(4)=   0.000000  celldm(5)=   0.000000  celldm(6)=   0.000000

     crystal axes: (cart. coord. in units of alat)
               a(1) = (   1.000000   0.000000   0.000000 )  
               a(2) = (  -0.500000   0.866025   0.000000 )  
               a(3) = (   0.000000   0.000000   9.491870 )  

     reciprocal axes: (cart. coord. in units 2 pi/alat)
               b(1) = (  1.000000  0.577351 -0.000000 )  
               b(2) = (  0.000000  1.154701  0.000000 )  
               b(3) = (  0.000000 -0.000000  0.105353 )  


     PseudoPot. # 1 for C  read from file:
     /home/ubuntu/projects/Graphene-Band-Structure-Quantum-Espresso/pseudo/C.pbe-n-kjpaw_psl.1.0.0.UPF
     MD5 check sum: 5f16ad9a65e90284d1d834d4ab3b0f7d
     Pseudo is Projector augmented-wave + core cor, Zval =  4.0
     Generated using &quot;atomic&quot; code by A. Dal Corso  v.6.3
     Shape of augmentation charge: PSQ
     Using radial grid of 1073 points,  4 beta functions with: 
                l(1) =   0
                l(2) =   0
                l(3) =   1
                l(4) =   1
     Q(r) pseudized with 0 coefficients 


     atomic species   valence    mass     pseudopotential
     C                 4.00    12.01100     C ( 1.00)

     12 Sym. Ops., with inversion, found ( 6 have fractional translation)


                                    s                        frac. trans.

      isym =  1     identity                                     

 cryst.   s( 1) = (     1          0          0      )
                  (     0          1          0      )
                  (     0          0          1      )

 cart.    s( 1) = (  1.0000000  0.0000000  0.0000000 )
                  (  0.0000000  1.0000000  0.0000000 )
                  (  0.0000000  0.0000000  1.0000000 )


      isym =  2     180 deg rotation - cart. axis [1,0,0]        

 cryst.   s( 2) = (     1          0          0      )    f =( -0.3333335 )
                  (    -1         -1          0      )       (  0.3333330 )
                  (     0          0         -1      )       ( -0.0000001 )

 cart.    s( 2) = (  1.0000000  0.0000000  0.0000000 )    f =( -0.5000000 )
                  (  0.0000000 -1.0000000  0.0000000 )       (  0.2886747 )
                  (  0.0000000  0.0000000 -1.0000000 )       ( -0.0000005 )


      isym =  3     120 deg rotation - cryst. axis [0,0,1]       

 cryst.   s( 3) = (     0          1          0      )
                  (    -1         -1          0      )
                  (     0          0          1      )

 cart.    s( 3) = ( -0.5000000 -0.8660258  0.0000000 )
                  (  0.8660250 -0.5000000  0.0000000 )
                  (  0.0000000  0.0000000  1.0000000 )


      isym =  4     120 deg rotation - cryst. axis [0,0,-1]      

 cryst.   s( 4) = (    -1         -1          0      )
                  (     1          0          0      )
                  (     0          0          1      )

 cart.    s( 4) = ( -0.5000000  0.8660258  0.0000000 )
                  ( -0.8660250 -0.5000000  0.0000000 )
                  (  0.0000000  0.0000000  1.0000000 )


      isym =  5     180 deg rotation - cryst. axis [0,1,0]       

 cryst.   s( 5) = (    -1         -1          0      )    f =( -0.3333335 )
                  (     0          1          0      )       (  0.3333335 )
                  (     0          0         -1      )       ( -0.0000001 )

 cart.    s( 5) = ( -0.5000000 -0.8660258  0.0000000 )    f =( -0.5000003 )
                  ( -0.8660250  0.5000000  0.0000000 )       (  0.2886752 )
                  (  0.0000000  0.0000000 -1.0000000 )       ( -0.0000005 )


      isym =  6     180 deg rotation - cryst. axis [1,1,0]       

 cryst.   s( 6) = (     0          1          0      )    f =( -0.3333330 )
                  (     1          0          0      )       (  0.3333335 )
                  (     0          0         -1      )       ( -0.0000001 )

 cart.    s( 6) = ( -0.5000000  0.8660258  0.0000000 )    f =( -0.4999997 )
                  (  0.8660250  0.5000000  0.0000000 )       (  0.2886752 )
                  (  0.0000000  0.0000000 -1.0000000 )       ( -0.0000005 )


      isym =  7     inversion                                    

 cryst.   s( 7) = (    -1          0          0      )    f =( -0.3333335 )
                  (     0         -1          0      )       (  0.3333330 )
                  (     0          0         -1      )       ( -0.0000001 )

 cart.    s( 7) = ( -1.0000000  0.0000000  0.0000000 )    f =( -0.5000000 )
                  (  0.0000000 -1.0000000  0.0000000 )       (  0.2886747 )
                  (  0.0000000  0.0000000 -1.0000000 )       ( -0.0000005 )


      isym =  8     inv. 180 deg rotation - cart. axis [1,0,0]   

 cryst.   s( 8) = (    -1          0          0      )
                  (     1          1          0      )
                  (     0          0          1      )

 cart.    s( 8) = ( -1.0000000  0.0000000  0.0000000 )
                  (  0.0000000  1.0000000  0.0000000 )
                  (  0.0000000  0.0000000  1.0000000 )


      isym =  9     inv. 120 deg rotation - cryst. axis [0,0,1]  

 cryst.   s( 9) = (     0         -1          0      )    f =( -0.3333330 )
                  (     1          1          0      )       (  0.3333335 )
                  (     0          0         -1      )       ( -0.0000001 )

 cart.    s( 9) = (  0.5000000  0.8660258  0.0000000 )    f =( -0.4999997 )
                  ( -0.8660250  0.5000000  0.0000000 )       (  0.2886752 )
                  (  0.0000000  0.0000000 -1.0000000 )       ( -0.0000005 )


      isym = 10     inv. 120 deg rotation - cryst. axis [0,0,-1] 

 cryst.   s(10) = (     1          1          0      )    f =( -0.3333335 )
                  (    -1          0          0      )       (  0.3333335 )
                  (     0          0         -1      )       ( -0.0000001 )

 cart.    s(10) = (  0.5000000 -0.8660258  0.0000000 )    f =( -0.5000003 )
                  (  0.8660250  0.5000000  0.0000000 )       (  0.2886752 )
                  (  0.0000000  0.0000000 -1.0000000 )       ( -0.0000005 )


      isym = 11     inv. 180 deg rotation - cryst. axis [0,1,0]  

 cryst.   s(11) = (     1          1          0      )
                  (     0         -1          0      )
                  (     0          0          1      )

 cart.    s(11) = (  0.5000000  0.8660258  0.0000000 )
                  (  0.8660250 -0.5000000  0.0000000 )
                  (  0.0000000  0.0000000  1.0000000 )


      isym = 12     inv. 180 deg rotation - cryst. axis [1,1,0]  

 cryst.   s(12) = (     0         -1          0      )
                  (    -1          0          0      )
                  (     0          0          1      )

 cart.    s(12) = (  0.5000000 -0.8660258  0.0000000 )
                  ( -0.8660250 -0.5000000  0.0000000 )
                  (  0.0000000  0.0000000  1.0000000 )


   Cartesian axes

     site n.     atom                  positions (alat units)
         1        C      tau(   1) = (   0.0000000   0.0000000   4.0644578  )
         2        C      tau(   2) = (   0.5000000   0.2886752   4.0647254  )
         3        C      tau(   3) = (   0.5000000   0.2886752   5.4271451  )
         4        C      tau(   4) = (   0.0000000   0.5773503   5.4274128  )

     --------------------------------------------
     DFT-D3 Dispersion Correction (3-body terms):
     --------------------------------------------
       Reference C6 values for interpolation: 

         atom   Coordination number   C6
         C          0.000            98.23
         C          0.987            86.49
         C          1.998            58.72
         C          2.999            51.56
         C          3.984            36.41

       Values used:

         atom   Coordination number  R0_AB[au]  C6      C8
         C          3.322            2.750     48.11   1391.52
         C          3.323            2.750     48.11   1391.39
         C          3.323            2.750     48.11   1391.39
         C          3.322            2.750     48.11   1391.52

         Molecular C6 ( Ry / a.u.^6 ) =       769.78


   Crystallographic axes

     site n.     atom                  positions (cryst. coord.)
         1        C      tau(   1) = (  0.0000000  0.0000000  0.4282041  )
         2        C      tau(   2) = (  0.6666668  0.3333335  0.4282323  )
         3        C      tau(   3) = (  0.6666668  0.3333335  0.5717677  )
         4        C      tau(   4) = (  0.3333335  0.6666670  0.5717959  )

     number of k points=    91  Gaussian smearing, width (Ry)=  0.0100
                       cart. coord. in units 2pi/alat
        k(    1) = (   0.0000000   0.0000000   0.0000000), wk =   0.0022222
        k(    2) = (   0.0000000   0.0384900   0.0000000), wk =   0.0133333
        k(    3) = (   0.0000000   0.0769801   0.0000000), wk =   0.0133333
        k(    4) = (   0.0000000   0.1154701   0.0000000), wk =   0.0133333
        k(    5) = (   0.0000000   0.1539601   0.0000000), wk =   0.0133333
        k(    6) = (   0.0000000   0.1924502   0.0000000), wk =   0.0133333
        k(    7) = (   0.0000000   0.2309402   0.0000000), wk =   0.0133333
        k(    8) = (   0.0000000   0.2694303   0.0000000), wk =   0.0133333
        k(    9) = (   0.0000000   0.3079203   0.0000000), wk =   0.0133333
        k(   10) = (   0.0000000   0.3464103   0.0000000), wk =   0.0133333
        k(   11) = (   0.0000000   0.3849004   0.0000000), wk =   0.0133333
        k(   12) = (   0.0000000   0.4233904   0.0000000), wk =   0.0133333
        k(   13) = (   0.0000000   0.4618804   0.0000000), wk =   0.0133333
        k(   14) = (   0.0000000   0.5003705   0.0000000), wk =   0.0133333
        k(   15) = (   0.0000000   0.5388605   0.0000000), wk =   0.0133333
        k(   16) = (   0.0000000  -0.5773505   0.0000000), wk =   0.0066667
        k(   17) = (   0.0333333   0.0577351   0.0000000), wk =   0.0133333
        k(   18) = (   0.0333333   0.0962251   0.0000000), wk =   0.0266667
        k(   19) = (   0.0333333   0.1347151   0.0000000), wk =   0.0266667
        k(   20) = (   0.0333333   0.1732052   0.0000000), wk =   0.0266667
        k(   21) = (   0.0333333   0.2116952   0.0000000), wk =   0.0266667
        k(   22) = (   0.0333333   0.2501852   0.0000000), wk =   0.0266667
        k(   23) = (   0.0333333   0.2886753   0.0000000), wk =   0.0266667
        k(   24) = (   0.0333333   0.3271653   0.0000000), wk =   0.0266667
        k(   25) = (   0.0333333   0.3656553   0.0000000), wk =   0.0266667
        k(   26) = (   0.0333333   0.4041454   0.0000000), wk =   0.0266667
        k(   27) = (   0.0333333   0.4426354   0.0000000), wk =   0.0266667
        k(   28) = (   0.0333333   0.4811254   0.0000000), wk =   0.0266667
        k(   29) = (   0.0333333   0.5196155   0.0000000), wk =   0.0266667
        k(   30) = (   0.0333333   0.5581055   0.0000000), wk =   0.0266667
        k(   31) = (   0.0666667   0.1154701   0.0000000), wk =   0.0133333
        k(   32) = (   0.0666667   0.1539601   0.0000000), wk =   0.0266667
        k(   33) = (   0.0666667   0.1924502   0.0000000), wk =   0.0266667
        k(   34) = (   0.0666667   0.2309402   0.0000000), wk =   0.0266667
        k(   35) = (   0.0666667   0.2694303   0.0000000), wk =   0.0266667
        k(   36) = (   0.0666667   0.3079203   0.0000000), wk =   0.0266667
        k(   37) = (   0.0666667   0.3464103   0.0000000), wk =   0.0266667
        k(   38) = (   0.0666667   0.3849004   0.0000000), wk =   0.0266667
        k(   39) = (   0.0666667   0.4233904   0.0000000), wk =   0.0266667
        k(   40) = (   0.0666667   0.4618804   0.0000000), wk =   0.0266667
        k(   41) = (   0.0666667   0.5003705   0.0000000), wk =   0.0266667
        k(   42) = (   0.0666667   0.5388605   0.0000000), wk =   0.0266667
        k(   43) = (   0.0666667   0.5773505   0.0000000), wk =   0.0133333
        k(   44) = (   0.1000000   0.1732052   0.0000000), wk =   0.0133333
        k(   45) = (   0.1000000   0.2116952   0.0000000), wk =   0.0266667
        k(   46) = (   0.1000000   0.2501852   0.0000000), wk =   0.0266667
        k(   47) = (   0.1000000   0.2886753   0.0000000), wk =   0.0266667
        k(   48) = (   0.1000000   0.3271653   0.0000000), wk =   0.0266667
        k(   49) = (   0.1000000   0.3656553   0.0000000), wk =   0.0266667
        k(   50) = (   0.1000000   0.4041454   0.0000000), wk =   0.0266667
        k(   51) = (   0.1000000   0.4426354   0.0000000), wk =   0.0266667
        k(   52) = (   0.1000000   0.4811254   0.0000000), wk =   0.0266667
        k(   53) = (   0.1000000   0.5196155   0.0000000), wk =   0.0266667
        k(   54) = (   0.1000000   0.5581055   0.0000000), wk =   0.0266667
        k(   55) = (   0.1333333   0.2309402   0.0000000), wk =   0.0133333
        k(   56) = (   0.1333333   0.2694303   0.0000000), wk =   0.0266667
        k(   57) = (   0.1333333   0.3079203   0.0000000), wk =   0.0266667
        k(   58) = (   0.1333333   0.3464103   0.0000000), wk =   0.0266667
        k(   59) = (   0.1333333   0.3849004   0.0000000), wk =   0.0266667
        k(   60) = (   0.1333333   0.4233904   0.0000000), wk =   0.0266667
        k(   61) = (   0.1333333   0.4618804   0.0000000), wk =   0.0266667
        k(   62) = (   0.1333333   0.5003705   0.0000000), wk =   0.0266667
        k(   63) = (   0.1333333   0.5388605   0.0000000), wk =   0.0266667
        k(   64) = (   0.1333333   0.5773505   0.0000000), wk =   0.0133333
        k(   65) = (   0.1666667   0.2886753   0.0000000), wk =   0.0133333
        k(   66) = (   0.1666667   0.3271653   0.0000000), wk =   0.0266667
        k(   67) = (   0.1666667   0.3656553   0.0000000), wk =   0.0266667
        k(   68) = (   0.1666667   0.4041454   0.0000000), wk =   0.0266667
        k(   69) = (   0.1666667   0.4426354   0.0000000), wk =   0.0266667
        k(   70) = (   0.1666667   0.4811254   0.0000000), wk =   0.0266667
        k(   71) = (   0.1666667   0.5196155   0.0000000), wk =   0.0266667
        k(   72) = (   0.1666667   0.5581055   0.0000000), wk =   0.0266667
        k(   73) = (   0.2000000   0.3464103   0.0000000), wk =   0.0133333
        k(   74) = (   0.2000000   0.3849004   0.0000000), wk =   0.0266667
        k(   75) = (   0.2000000   0.4233904   0.0000000), wk =   0.0266667
        k(   76) = (   0.2000000   0.4618804   0.0000000), wk =   0.0266667
        k(   77) = (   0.2000000   0.5003705   0.0000000), wk =   0.0266667
        k(   78) = (   0.2000000   0.5388605   0.0000000), wk =   0.0266667
        k(   79) = (   0.2000000   0.5773505   0.0000000), wk =   0.0133333
        k(   80) = (   0.2333333   0.4041454   0.0000000), wk =   0.0133333
        k(   81) = (   0.2333333   0.4426354   0.0000000), wk =   0.0266667
        k(   82) = (   0.2333333   0.4811254   0.0000000), wk =   0.0266667
        k(   83) = (   0.2333333   0.5196155   0.0000000), wk =   0.0266667
        k(   84) = (   0.2333333   0.5581055   0.0000000), wk =   0.0266667
        k(   85) = (   0.2666667   0.4618804   0.0000000), wk =   0.0133333
        k(   86) = (   0.2666667   0.5003705   0.0000000), wk =   0.0266667
        k(   87) = (   0.2666667   0.5388605   0.0000000), wk =   0.0266667
        k(   88) = (   0.2666667   0.5773505   0.0000000), wk =   0.0133333
        k(   89) = (   0.3000000   0.5196155   0.0000000), wk =   0.0133333
        k(   90) = (   0.3000000   0.5581055   0.0000000), wk =   0.0266667
        k(   91) = (   0.3333333   0.5773505   0.0000000), wk =   0.0044444

                       cryst. coord.
        k(    1) = (   0.0000000   0.0000000   0.0000000), wk =   0.0022222
        k(    2) = (   0.0000000   0.0333333   0.0000000), wk =   0.0133333
        k(    3) = (   0.0000000   0.0666667   0.0000000), wk =   0.0133333
        k(    4) = (   0.0000000   0.1000000   0.0000000), wk =   0.0133333
        k(    5) = (   0.0000000   0.1333333   0.0000000), wk =   0.0133333
        k(    6) = (   0.0000000   0.1666667   0.0000000), wk =   0.0133333
        k(    7) = (   0.0000000   0.2000000   0.0000000), wk =   0.0133333
        k(    8) = (   0.0000000   0.2333333   0.0000000), wk =   0.0133333
        k(    9) = (   0.0000000   0.2666667   0.0000000), wk =   0.0133333
        k(   10) = (   0.0000000   0.3000000   0.0000000), wk =   0.0133333
        k(   11) = (   0.0000000   0.3333333   0.0000000), wk =   0.0133333
        k(   12) = (   0.0000000   0.3666667   0.0000000), wk =   0.0133333
        k(   13) = (   0.0000000   0.4000000   0.0000000), wk =   0.0133333
        k(   14) = (   0.0000000   0.4333333   0.0000000), wk =   0.0133333
        k(   15) = (   0.0000000   0.4666667   0.0000000), wk =   0.0133333
        k(   16) = (   0.0000000  -0.5000000   0.0000000), wk =   0.0066667
        k(   17) = (   0.0333333   0.0333333   0.0000000), wk =   0.0133333
        k(   18) = (   0.0333333   0.0666667   0.0000000), wk =   0.0266667
        k(   19) = (   0.0333333   0.1000000   0.0000000), wk =   0.0266667
        k(   20) = (   0.0333333   0.1333333   0.0000000), wk =   0.0266667
        k(   21) = (   0.0333333   0.1666667   0.0000000), wk =   0.0266667
        k(   22) = (   0.0333333   0.2000000   0.0000000), wk =   0.0266667
        k(   23) = (   0.0333333   0.2333333   0.0000000), wk =   0.0266667
        k(   24) = (   0.0333333   0.2666667   0.0000000), wk =   0.0266667
        k(   25) = (   0.0333333   0.3000000   0.0000000), wk =   0.0266667
        k(   26) = (   0.0333333   0.3333333   0.0000000), wk =   0.0266667
        k(   27) = (   0.0333333   0.3666667   0.0000000), wk =   0.0266667
        k(   28) = (   0.0333333   0.4000000   0.0000000), wk =   0.0266667
        k(   29) = (   0.0333333   0.4333333   0.0000000), wk =   0.0266667
        k(   30) = (   0.0333333   0.4666667   0.0000000), wk =   0.0266667
        k(   31) = (   0.0666667   0.0666667   0.0000000), wk =   0.0133333
        k(   32) = (   0.0666667   0.1000000   0.0000000), wk =   0.0266667
        k(   33) = (   0.0666667   0.1333333   0.0000000), wk =   0.0266667
        k(   34) = (   0.0666667   0.1666667   0.0000000), wk =   0.0266667
        k(   35) = (   0.0666667   0.2000000   0.0000000), wk =   0.0266667
        k(   36) = (   0.0666667   0.2333333   0.0000000), wk =   0.0266667
        k(   37) = (   0.0666667   0.2666667   0.0000000), wk =   0.0266667
        k(   38) = (   0.0666667   0.3000000   0.0000000), wk =   0.0266667
        k(   39) = (   0.0666667   0.3333333   0.0000000), wk =   0.0266667
        k(   40) = (   0.0666667   0.3666667   0.0000000), wk =   0.0266667
        k(   41) = (   0.0666667   0.4000000   0.0000000), wk =   0.0266667
        k(   42) = (   0.0666667   0.4333333   0.0000000), wk =   0.0266667
        k(   43) = (   0.0666667   0.4666667   0.0000000), wk =   0.0133333
        k(   44) = (   0.1000000   0.1000000   0.0000000), wk =   0.0133333
        k(   45) = (   0.1000000   0.1333333   0.0000000), wk =   0.0266667
        k(   46) = (   0.1000000   0.1666667   0.0000000), wk =   0.0266667
        k(   47) = (   0.1000000   0.2000000   0.0000000), wk =   0.0266667
        k(   48) = (   0.1000000   0.2333333   0.0000000), wk =   0.0266667
        k(   49) = (   0.1000000   0.2666667   0.0000000), wk =   0.0266667
        k(   50) = (   0.1000000   0.3000000   0.0000000), wk =   0.0266667
        k(   51) = (   0.1000000   0.3333333   0.0000000), wk =   0.0266667
        k(   52) = (   0.1000000   0.3666667   0.0000000), wk =   0.0266667
        k(   53) = (   0.1000000   0.4000000   0.0000000), wk =   0.0266667
        k(   54) = (   0.1000000   0.4333333   0.0000000), wk =   0.0266667
        k(   55) = (   0.1333333   0.1333333   0.0000000), wk =   0.0133333
        k(   56) = (   0.1333333   0.1666667   0.0000000), wk =   0.0266667
        k(   57) = (   0.1333333   0.2000000   0.0000000), wk =   0.0266667
        k(   58) = (   0.1333333   0.2333333   0.0000000), wk =   0.0266667
        k(   59) = (   0.1333333   0.2666667   0.0000000), wk =   0.0266667
        k(   60) = (   0.1333333   0.3000000   0.0000000), wk =   0.0266667
        k(   61) = (   0.1333333   0.3333333   0.0000000), wk =   0.0266667
        k(   62) = (   0.1333333   0.3666667   0.0000000), wk =   0.0266667
        k(   63) = (   0.1333333   0.4000000   0.0000000), wk =   0.0266667
        k(   64) = (   0.1333333   0.4333333   0.0000000), wk =   0.0133333
        k(   65) = (   0.1666667   0.1666667   0.0000000), wk =   0.0133333
        k(   66) = (   0.1666667   0.2000000   0.0000000), wk =   0.0266667
        k(   67) = (   0.1666667   0.2333333   0.0000000), wk =   0.0266667
        k(   68) = (   0.1666667   0.2666667   0.0000000), wk =   0.0266667
        k(   69) = (   0.1666667   0.3000000   0.0000000), wk =   0.0266667
        k(   70) = (   0.1666667   0.3333333   0.0000000), wk =   0.0266667
        k(   71) = (   0.1666667   0.3666667   0.0000000), wk =   0.0266667
        k(   72) = (   0.1666667   0.4000000   0.0000000), wk =   0.0266667
        k(   73) = (   0.2000000   0.2000000   0.0000000), wk =   0.0133333
        k(   74) = (   0.2000000   0.2333333   0.0000000), wk =   0.0266667
        k(   75) = (   0.2000000   0.2666667   0.0000000), wk =   0.0266667
        k(   76) = (   0.2000000   0.3000000   0.0000000), wk =   0.0266667
        k(   77) = (   0.2000000   0.3333333   0.0000000), wk =   0.0266667
        k(   78) = (   0.2000000   0.3666667   0.0000000), wk =   0.0266667
        k(   79) = (   0.2000000   0.4000000   0.0000000), wk =   0.0133333
        k(   80) = (   0.2333333   0.2333333   0.0000000), wk =   0.0133333
        k(   81) = (   0.2333333   0.2666667   0.0000000), wk =   0.0266667
        k(   82) = (   0.2333333   0.3000000   0.0000000), wk =   0.0266667
        k(   83) = (   0.2333333   0.3333333   0.0000000), wk =   0.0266667
        k(   84) = (   0.2333333   0.3666667   0.0000000), wk =   0.0266667
        k(   85) = (   0.2666667   0.2666667   0.0000000), wk =   0.0133333
        k(   86) = (   0.2666667   0.3000000   0.0000000), wk =   0.0266667
        k(   87) = (   0.2666667   0.3333333   0.0000000), wk =   0.0266667
        k(   88) = (   0.2666667   0.3666667   0.0000000), wk =   0.0133333
        k(   89) = (   0.3000000   0.3000000   0.0000000), wk =   0.0133333
        k(   90) = (   0.3000000   0.3333333   0.0000000), wk =   0.0266667
        k(   91) = (   0.3333333   0.3333333   0.0000000), wk =   0.0044444

     Dense  grid:   111671 G-vectors     FFT dimensions: (  30,  30, 288)

     Smooth grid:    52021 G-vectors     FFT dimensions: (  24,  24, 225)

     Dynamical RAM for                 wfc:       2.37 MB

     Dynamical RAM for     wfc (w. buffer):      56.96 MB

     Dynamical RAM for           str. fact:       1.70 MB

     Dynamical RAM for           local pot:       0.00 MB

     Dynamical RAM for          nlocal pot:       3.16 MB

     Dynamical RAM for                qrad:       0.46 MB

     Dynamical RAM for          rho,v,vnew:      11.04 MB

     Dynamical RAM for           G-vectors:       6.79 MB

     Dynamical RAM for          h,s,v(r/c):       0.11 MB

     Dynamical RAM for          <psi|beta>:       0.01 MB

     Dynamical RAM for                 psi:       4.75 MB

     Dynamical RAM for                hpsi:       4.75 MB

     Dynamical RAM for                spsi:       4.75 MB

     Dynamical RAM for      wfcinit/wfcrot:       4.76 MB

     Dynamical RAM for           addusdens:      21.30 MB

     Estimated static dynamical RAM per process >      93.42 MB

     Estimated max dynamical RAM per process >     114.72 MB

     Estimated total dynamical RAM >     458.86 MB

     Check: negative core charge=   -0.000003

     The potential is recalculated from file :
     /home/ubuntu/projects/Graphene-Band-Structure-Quantum-Espresso/outputs/field_0/coupled/data/coupled.save/charge-density


     negative rho (up, down):  1.449E-04 0.000E+00
     Starting wfcs are   16 randomized atomic wfcs +    8 random wfcs
     Checking if some PAW data can be deallocated... 

     Band Structure Calculation
     Davidson diagonalization with overlap

     Computing kpt #:     1  of    23 on this pool
     total cpu time spent up to now is        7.8 secs

     Computing kpt #:     2  of    23 on this pool
     total cpu time spent up to now is       13.2 secs

     Computing kpt #:     3  of    23 on this pool
     total cpu time spent up to now is       18.0 secs

     Computing kpt #:     4  of    23 on this pool
     total cpu time spent up to now is       24.1 secs

     Computing kpt #:     5  of    23 on this pool
     total cpu time spent up to now is       29.9 secs

     Computing kpt #:     6  of    23 on this pool
     total cpu time spent up to now is       35.4 secs

     Computing kpt #:     7  of    23 on this pool
     total cpu time spent up to now is       41.1 secs

     Computing kpt #:     8  of    23 on this pool
     total cpu time spent up to now is       45.9 secs

     Computing kpt #:     9  of    23 on this pool
     total cpu time spent up to now is       51.5 secs

     Computing kpt #:    10  of    23 on this pool
     total cpu time spent up to now is       57.9 secs

     Computing kpt #:    11  of    23 on this pool
     total cpu time spent up to now is       64.3 secs

     Computing kpt #:    12  of    23 on this pool
     total cpu time spent up to now is       70.8 secs

     Computing kpt #:    13  of    23 on this pool
     total cpu time spent up to now is       77.7 secs

     Computing kpt #:    14  of    23 on this pool
     total cpu time spent up to now is       83.2 secs

     Computing kpt #:    15  of    23 on this pool
     total cpu time spent up to now is       88.9 secs

     Computing kpt #:    16  of    23 on this pool
     total cpu time spent up to now is       94.5 secs

     Computing kpt #:    17  of    23 on this pool
     total cpu time spent up to now is      100.2 secs

     Computing kpt #:    18  of    23 on this pool
     total cpu time spent up to now is      106.1 secs

     Computing kpt #:    19  of    23 on this pool
     total cpu time spent up to now is      111.0 secs

     Computing kpt #:    20  of    23 on this pool
     total cpu time spent up to now is      117.6 secs

     Computing kpt #:    21  of    23 on this pool
     total cpu time spent up to now is      123.2 secs

     Computing kpt #:    22  of    23 on this pool
     total cpu time spent up to now is      130.1 secs

     Computing kpt #:    23  of    23 on this pool
     total cpu time spent up to now is      134.5 secs

     ethr =  6.25E-11,  avg # of iterations = 51.2

     total cpu time spent up to now is      138.2 secs

     End of band structure calculation

          k = 0.0000 0.0000 0.0000 (  6469 PWs)   bands (ev):

   -20.6494 -20.4983  -9.1362  -8.1605  -4.0367  -4.0367  -4.0276  -4.0275
     2.3358   2.6472   2.9874   3.7775   4.2925   5.7902   5.8795   7.3805
     7.3805   7.4065   7.4065   7.7934   8.5984  10.4655  10.5747  10.7668

     occupation numbers 
     1.0000   1.0000   1.0000   1.0000   1.0000   1.0000   1.0000   1.0000
     0.0000   0.0000   0.0000   0.0000   0.0000   0.0000   0.0000   0.0000
     0.0000   0.0000   0.0000   0.0000   0.0000   0.0000   0.0000   0.0000

          k = 0.0000 0.0385 0.0000 (  6459 PWs)   bands (ev):

   -20.6229 -20.4721  -9.1041  -8.1294  -4.1466  -4.1360  -4.0952  -4.0850
     2.3715   2.6833   3.0239   3.8138   4.3280   5.8261   5.9127   7.3950
     7.4244   7.4961   7.5220   7.8281   8.6350  10.3712  10.4832  10.8009

     occupation numbers 
     1.0000   1.0000   1.0000   1.0000   1.0000   1.0000   1.0000   1.0000
     0.0000   0.0000   0.0000   0.0000   0.0000   0.0000   0.0000   0.0000
     0.0000   0.0000   0.0000   0.0000   0.0000   0.0000   0.0000   0.0000

          k = 0.0000 0.0770 0.0000 (  6464 PWs)   bands (ev):

   -20.5435 -20.3934  -9.0082  -8.0364  -4.4650  -4.4506  -4.2624  -4.2497
     2.4787   2.7917   3.1334   3.9226   4.4347   5.9335   6.0122   7.4261
     7.4661   7.8344   7.8603   7.9316   8.7441  10.0934  10.2142  10.9031

     occupation numbers 
     1.0000   1.0000   1.0000   1.0000   1.0000   1.0000   1.0000   1.0000
     0.0000   0.0000   0.0000   0.0000   0.0000   0.0000   0.0000   0.0000
     0.0000   0.0000   0.0000   0.0000   0.0000   0.0000   0.0000   0.0000

          k = 0.0000 0.1155 0.0000 (  6488 PWs)   bands (ev):

   -20.4113 -20.2624  -8.8486  -7.8819  -4.9627  -4.9431  -4.5171  -4.5016
     2.6573   2.9724   3.3159   4.1040   4.6126   6.1124   6.1778   7.4466
     7.5048   8.1022   8.3733   8.3989   8.9247   9.6472   9.7840  11.0733

     occupation numbers 
     1.0000   1.0000   1.0000   1.0000   1.0000   1.0000   1.0000   1.0000
     0.0000   0.0000   0.0000   0.0000   0.0000   0.0000   0.0000   0.0000
     0.0000   0.0000   0.0000   0.0000   0.0000   0.0000   0.0000   0.0000

          k = 0.0000 0.1540 0.0000 (  6496 PWs)   bands (ev):

   -20.2265 -20.0793  -8.6260  -7.6667  -5.6021  -5.5764  -4.8325  -4.8144
     2.9074   3.2251   3.5714   4.3578   4.8615   6.3622   6.4077   7.4323
     7.5149   8.3364   9.0493   9.0836   9.1088   9.1804   9.2179  11.3108

     occupation numbers 
     1.0000   1.0000   1.0000   1.0000   1.0000   1.0000   1.0000   1.0000
     0.0000   0.0000   0.0000   0.0000   0.0000   0.0000   0.0000   0.0000
     0.0000   0.0000   0.0000   0.0000   0.0000   0.0000   0.0000   0.0000

          k = 0.0000 0.1925 0.0000 (  6486 PWs)   bands (ev):

   -19.9894 -19.8445  -8.3414  -7.3918  -6.3459  -6.3136  -5.1822  -5.1620
     3.2286   3.5495   3.9000   4.6838   5.1810   6.6802   6.6959   7.3759
     7.4863   8.3317   8.4913   8.6934   9.4981   9.9350   9.9596  11.6145

     occupation numbers 
     1.0000   1.0000   1.0000   1.0000   1.0000   1.0000   1.0000   1.0000
     0.0000   0.0000   0.0000   0.0000   0.0000   0.0000   0.0000   0.0000
     0.0000   0.0000   0.0000   0.0000   0.0000   0.0000   0.0000   0.0000

          k = 0.0000 0.2309 0.0000 (  6474 PWs)   bands (ev):

   -19.7006 -19.5583  -7.9961  -7.1615  -7.1231  -7.0580  -5.5438  -5.5219
     3.6208   3.9451   4.3015   5.0814   5.5699   7.0032   7.0449   7.2989
     7.3992   7.5744   7.7772   9.0281   9.8884  10.8990  10.9228  11.9829

     occupation numbers 
     1.0000   1.0000   1.0000   1.0000   1.0000   1.0000   1.0000   1.0000
     0.0000   0.0000   0.0000   0.0000   0.0000   0.0000   0.0000   0.0000
     0.0000   0.0000   0.0000   0.0000   0.0000   0.0000   0.0000   0.0000

          k = 0.0000 0.2694 0.0000 (  6494 PWs)   bands (ev):

   -19.3606 -19.2214  -8.0222  -7.9759  -7.5918  -6.6706  -5.8994  -5.8760
     4.0833   4.4100   4.7759   5.5472   6.0235   6.6058   6.8478   7.1405
     7.2195   7.5869   7.6552   9.4620  10.3481  11.9491  11.9720  12.4137

     occupation numbers 
     1.0000   1.0000   1.0000   1.0000   1.0000   1.0000   1.0000   1.0000
     0.0000   0.0000   0.0000   0.0000   0.0000   0.0000   0.0000   0.0000
     0.0000   0.0000   0.0000   0.0000   0.0000   0.0000   0.0000   0.0000

          k = 0.0000 0.3079 0.0000 (  6492 PWs)   bands (ev):

   -18.9702 -18.8345  -8.9066  -8.8533  -7.1318  -6.2354  -6.2304  -6.2108
     4.6149   4.9289   5.3229   5.6629   5.9802   6.1254   6.5521   7.0024
     7.1539   8.0928   8.1086   9.9616  10.8764  12.9032  13.0598  13.0816

     occupation numbers 
     1.0000   1.0000   1.0000   1.0000   1.0000   1.0000   1.0000   1.0000
     0.0000   0.0000   0.0000   0.0000   0.0000   0.0000   0.0000   0.0000
     0.0000   0.0000   0.0000   0.0000   0.0000   0.0000   0.0000   0.0000

          k = 0.0000 0.3464 0.0000 (  6492 PWs)   bands (ev):

   -18.5304 -18.3987  -9.7985  -9.7383  -6.6197  -6.5415  -6.5161  -5.7438
     4.6619   5.0762   5.2243   5.6003   5.9421   6.6932   6.8638   6.9551
     7.2630   8.6383   8.7132  10.5234  11.4719  13.4442  14.2035  14.2240

     occupation numbers 
     1.0000   1.0000   1.0000   1.0000   1.0000   1.0000   1.0000   1.0000
     0.0000   0.0000   0.0000   0.0000   0.0000   0.0000   0.0000   0.0000
     0.0000   0.0000   0.0000   0.0000   0.0000   0.0000   0.0000   0.0000

          k = 0.0000 0.3849 0.0000 (  6484 PWs)   bands (ev):

   -18.0427 -17.9154 -10.6847 -10.6176  -6.8103  -6.7842  -6.0622  -5.2195
     3.7196   4.1784   5.8825   6.2547   6.6183   6.7301   6.8942   7.4172
     7.8763   9.2517   9.3900  11.1438  12.1315  14.0149  14.4528  15.3478

     occupation numbers 
     1.0000   1.0000   1.0000   1.0000   1.0000   1.0000   1.0000   1.0000
     0.0000   0.0000   0.0000   0.0000   0.0000   0.0000   0.0000   0.0000
     0.0000   0.0000   0.0000   0.0000   0.0000   0.0000   0.0000   0.0000

          k = 0.0000 0.4234 0.0000 (  6498 PWs)   bands (ev):

   -17.5093 -17.3869 -11.5540 -11.4805  -7.0364  -7.0098  -5.4698  -4.6725
     2.7952   3.2896   6.5192   6.6315   6.8345   7.0302   7.4127   8.1704
     8.6030   9.9222  10.1358  11.8166  12.8469  13.9867  14.5476  14.9841

     occupation numbers 
     1.0000   1.0000   1.0000   1.0000   1.0000   1.0000   1.0000   1.0000
     0.0000   0.0000   0.0000   0.0000   0.0000   0.0000   0.0000   0.0000
     0.0000   0.0000   0.0000   0.0000   0.0000   0.0000   0.0000   0.0000

          k = 0.0000 0.4619 0.0000 (  6490 PWs)   bands (ev):

   -16.9339 -16.8172 -12.3960 -12.3167  -7.2158  -7.1888  -4.8612  -4.1304
     1.9385   2.4482   6.4912   6.6723   7.4665   7.8372   8.2476   8.9975
     9.3978  10.6405  10.9475  12.5239  13.2028  13.6014  13.9442  14.6094

     occupation numbers 
     1.0000   1.0000   1.0000   1.0000   1.0000   1.0000   1.0000   1.0000
     0.0000   0.0000   0.0000   0.0000   0.0000   0.0000   0.0000   0.0000
     0.0000   0.0000   0.0000   0.0000   0.0000   0.0000   0.0000   0.0000

          k = 0.0000 0.5004 0.0000 (  6488 PWs)   bands (ev):

   -16.3254 -16.2159 -13.1964 -13.1130  -7.3458  -7.3184  -4.2733  -3.6464
     1.2121   1.7002   6.4265   6.6193   8.3246   8.7187   9.1573   9.8942
    10.2488  11.3887  11.8148  12.2603  12.7895  13.3131  13.5056  13.9251

     occupation numbers 
     1.0000   1.0000   1.0000   1.0000   1.0000   1.0000   1.0000   1.0000
     0.0000   0.0000   0.0000   0.0000   0.0000   0.0000   0.0000   0.0000
     0.0000   0.0000   0.0000   0.0000   0.0000   0.0000   0.0000   0.0000

          k = 0.0000 0.5389 0.0000 (  6524 PWs)   bands (ev):

   -15.7155 -15.6198 -13.9148 -13.8350  -7.4244  -7.3970  -3.7851  -3.3138
     0.7156   1.1297   6.3854   6.5834   9.2479   9.6619  10.1387  10.8552
    11.1240  11.2448  11.6925  12.2228  12.3186  12.7000  13.0174  13.1018

     occupation numbers 
     1.0000   1.0000   1.0000   1.0000   1.0000   1.0000   1.0000   1.0000
     0.0000   0.0000   0.0000   0.0000   0.0000   0.0000   0.0000   0.0000
     0.0000   0.0000   0.0000   0.0000   0.0000   0.0000   0.0000   0.0000

          k = 0.0000-0.5774 0.0000 (  6508 PWs)   bands (ev):

   -15.3298 -15.2731 -14.3018 -14.2590  -7.4508  -7.4232  -3.5683  -3.2102
     0.5455   0.8966   6.3715   6.5711  10.1800  10.2617  10.6370  10.6838
    11.1907  11.1931  11.8455  11.8481  12.0582  12.1723  12.9351  13.2552

     occupation numbers 
     1.0000   1.0000   1.0000   1.0000   1.0000   1.0000   1.0000   1.0000
     0.0000   0.0000   0.0000   0.0000   0.0000   0.0000   0.0000   0.0000
     0.0000   0.0000   0.0000   0.0000   0.0000   0.0000   0.0000   0.0000

          k = 0.0333 0.0577 0.0000 (  6475 PWs)   bands (ev):

   -20.5700 -20.4196  -9.0401  -8.0674  -4.3556  -4.3449  -4.2107  -4.2012
     2.4430   2.7556   3.0969   3.8864   4.3992   5.8977   5.9791   7.4291
     7.4645   7.7115   7.7373   7.8973   8.7078  10.1852  10.3030  10.8690

     occupation numbers 
     1.0000   1.0000   1.0000   1.0000   1.0000   1.0000   1.0000   1.0000
     0.0000   0.0000   0.0000   0.0000   0.0000   0.0000   0.0000   0.0000
     0.0000   0.0000   0.0000   0.0000   0.0000   0.0000   0.0000   0.0000

          k = 0.0333 0.0962 0.0000 (  6479 PWs)   bands (ev):

   -20.4641 -20.3148  -8.9124  -7.9436  -4.7534  -4.7391  -4.4314  -4.4195
     2.5859   2.9001   3.2429   4.0315   4.5415   6.0409   6.1118   7.4812
     7.5296   8.0345   8.1198   8.1460   8.8529   9.8242   9.9534  11.0051

     occupation numbers 
     1.0000   1.0000   1.0000   1.0000   1.0000   1.0000   1.0000   1.0000
     0.0000   0.0000   0.0000   0.0000   0.0000   0.0000   0.0000   0.0000
     0.0000   0.0000   0.0000   0.0000   0.0000   0.0000   0.0000   0.0000

          k = 0.0333 0.1347 0.0000 (  6491 PWs)   bands (ev):

   -20.3056 -20.1578  -8.7213  -7.7588  -5.3110  -5.2905  -4.7283  -4.7129
     2.8003   3.1168   3.4619   4.2491   4.7550   6.2555   6.3102   7.5109
     7.5798   8.2376   8.7047   8.7323   9.0682   9.3077   9.4551  11.2087

     occupation numbers 
     1.0000   1.0000   1.0000   1.0000   1.0000   1.0000   1.0000   1.0000
     0.0000   0.0000   0.0000   0.0000   0.0000   0.0000   0.0000   0.0000
     0.0000   0.0000   0.0000   0.0000   0.0000   0.0000   0.0000   0.0000

          k = 0.0333 0.1732 0.0000 (  6490 PWs)   bands (ev):

   -20.0947 -19.9488  -8.4677  -7.5136  -5.9926  -5.9652  -5.0718  -5.0533
     3.0860   3.4054   3.7540   4.5391   5.0393   6.5404   6.5716   7.4946
     7.5893   8.4936   8.6588   8.8420   9.3538   9.4449   9.4721  11.4788

     occupation numbers 
     1.0000   1.0000   1.0000   1.0000   1.0000   1.0000   1.0000   1.0000
     0.0000   0.0000   0.0000   0.0000   0.0000   0.0000   0.0000   0.0000
     0.0000   0.0000   0.0000   0.0000   0.0000   0.0000   0.0000   0.0000

          k = 0.0333 0.2117 0.0000 (  6502 PWs)   bands (ev):

   -19.8318 -19.6883  -8.1527  -7.2098  -6.7641  -6.7294  -5.4365  -5.4154
     3.4427   3.7656   4.1191   4.9010   5.3939   6.8836   6.8914   7.4321
     7.5489   7.9038   8.1043   8.8591   9.7104  10.3048  10.3367  11.8142

     occupation numbers 
     1.0000   1.0000   1.0000   1.0000   1.0000   1.0000   1.0000   1.0000
     0.0000   0.0000   0.0000   0.0000   0.0000   0.0000   0.0000   0.0000
     0.0000   0.0000   0.0000   0.0000   0.0000   0.0000   0.0000   0.0000

          k = 0.0333 0.2502 0.0000 (  6482 PWs)   bands (ev):

   -19.5174 -19.3767  -7.7780  -7.5957  -7.5541  -6.8488  -5.8019  -5.7789
     3.8702   4.1963   4.5571   5.3337   5.8168   7.0042   7.1116   7.2528
     7.3454   7.4523   7.5989   9.2580  10.1353  11.2583  11.2977  12.2129

     occupation numbers 
     1.0000   1.0000   1.0000   1.0000   1.0000   1.0000   1.0000   1.0000
     0.0000   0.0000   0.0000   0.0000   0.0000   0.0000   0.0000   0.0000
     0.0000   0.0000   0.0000   0.0000   0.0000   0.0000   0.0000   0.0000

          k = 0.0333 0.2887 0.0000 (  6484 PWs)   bands (ev):

   -19.1522 -19.0148  -8.4638  -8.4147  -7.3454  -6.4343  -6.1527  -6.1281
     4.3676   4.6931   5.0679   5.8172   6.1382   6.2772   6.4387   7.1780
     7.2965   7.8628   7.8807   9.7246  10.6291  12.2655  12.3248  12.6720

     occupation numbers 
     1.0000   1.0000   1.0000   1.0000   1.0000   1.0000   1.0000   1.0000
     0.0000   0.0000   0.0000   0.0000   0.0000   0.0000   0.0000   0.0000
     0.0000   0.0000   0.0000   0.0000   0.0000   0.0000   0.0000   0.0000

          k = 0.0333 0.3272 0.0000 (  6487 PWs)   bands (ev):

   -18.7371 -18.6035  -9.3487  -9.2924  -6.8589  -6.4773  -6.4515  -5.9703
     4.9288   5.0631   5.3572   5.5295   5.6517   6.4283   6.8365   7.0575
     7.2372   8.3777   8.4278  10.2542  11.1905  13.1780  13.2652  13.3811

     occupation numbers 
     1.0000   1.0000   1.0000   1.0000   1.0000   1.0000   1.0000   1.0000
     0.0000   0.0000   0.0000   0.0000   0.0000   0.0000   0.0000   0.0000
     0.0000   0.0000   0.0000   0.0000   0.0000   0.0000   0.0000   0.0000

          k = 0.0333 0.3657 0.0000 (  6486 PWs)   bands (ev):

   -18.2733 -18.1439 -10.2353 -10.1720  -6.7674  -6.7406  -6.3233  -5.4637
     4.1790   4.6097   5.5711   5.9410   6.3054   6.8793   7.0315   7.1149
     7.5770   8.9566   9.0684  10.8434  11.8173  13.7343  14.0279  14.3971

     occupation numbers 
     1.0000   1.0000   1.0000   1.0000   1.0000   1.0000   1.0000   1.0000
     0.0000   0.0000   0.0000   0.0000   0.0000   0.0000   0.0000   0.0000
     0.0000   0.0000   0.0000   0.0000   0.0000   0.0000   0.0000   0.0000

          k = 0.0333 0.4041 0.0000 (  6497 PWs)   bands (ev):

   -17.7626 -17.6379 -11.1114 -11.0414  -7.0166  -6.9891  -5.7468  -4.9257
     3.2420   3.7140   6.2615   6.6197   6.8058   6.9317   7.0724   7.8104
     8.2563   9.5967   9.7793  11.4874  12.5040  14.0887  14.3401  15.0130

     occupation numbers 
     1.0000   1.0000   1.0000   1.0000   1.0000   1.0000   1.0000   1.0000
     0.0000   0.0000   0.0000   0.0000   0.0000   0.0000   0.0000   0.0000
     0.0000   0.0000   0.0000   0.0000   0.0000   0.0000   0.0000   0.0000

          k = 0.0333 0.4426 0.0000 (  6493 PWs)   bands (ev):

   -17.2078 -17.0883 -11.9663 -11.8901  -7.2205  -7.1925  -5.1431  -4.3764
     2.3485   2.8483   6.6437   6.8037   7.1148   7.4478   7.8478   8.6008
     9.0172  10.2882  10.5575  12.1757  13.2218  13.6172  14.3456  14.8488

     occupation numbers 
     1.0000   1.0000   1.0000   1.0000   1.0000   1.0000   1.0000   1.0000
     0.0000   0.0000   0.0000   0.0000   0.0000   0.0000   0.0000   0.0000
     0.0000   0.0000   0.0000   0.0000   0.0000   0.0000   0.0000   0.0000

          k = 0.0333 0.4811 0.0000 (  6498 PWs)   bands (ev):

   -16.6145 -16.5013 -12.7882 -12.7068  -7.3760  -7.3476  -4.5384  -3.8539
     1.5492   2.0488   6.5751   6.7645   7.9123   8.2935   8.7206   9.4624
     9.8395  11.0181  11.3975  12.7377  12.8636  13.4369  13.9011  14.1690

     occupation numbers 
     1.0000   1.0000   1.0000   1.0000   1.0000   1.0000   1.0000   1.0000
     0.0000   0.0000   0.0000   0.0000   0.0000   0.0000   0.0000   0.0000
     0.0000   0.0000   0.0000   0.0000   0.0000   0.0000   0.0000   0.0000

          k = 0.0333 0.5196 0.0000 (  6505 PWs)   bands (ev):

   -15.9983 -15.8942 -13.5556 -13.4723  -7.4808  -7.4521  -3.9857  -3.4309
     0.9242   1.3763   6.5216   6.7190   8.8041   9.2053   9.6662  10.3915
    10.7067  11.7299  11.7667  12.2577  12.3763  12.9140  13.3972  13.5563

     occupation numbers 
     1.0000   1.0000   1.0000   1.0000   1.0000   1.0000   1.0000   1.0000
     0.0000   0.0000   0.0000   0.0000   0.0000   0.0000   0.0000   0.0000
     0.0000   0.0000   0.0000   0.0000   0.0000   0.0000   0.0000   0.0000

          k = 0.0333 0.5581 0.0000 (  6512 PWs)   bands (ev):

   -15.4373 -15.3593 -14.1725 -14.1074  -7.5335  -7.5047  -3.6032  -3.2102
     0.5848   0.9492   6.4940   6.6947   9.7524  10.1700  10.6791  10.7564
    11.1595  11.3843  11.6405  11.7693  12.3816  12.4833  12.7844  13.2416

     occupation numbers 
     1.0000   1.0000   1.0000   1.0000   1.0000   1.0000   1.0000   1.0000
     0.0000   0.0000   0.0000   0.0000   0.0000   0.0000   0.0000   0.0000
     0.0000   0.0000   0.0000   0.0000   0.0000   0.0000   0.0000   0.0000

          k = 0.0667 0.1155 0.0000 (  6499 PWs)   bands (ev):

   -20.3320 -20.1839  -8.7531  -7.7895  -5.1916  -5.1775  -4.7096  -4.6987
     2.7646   3.0807   3.4254   4.2129   4.7195   6.2200   6.2779   7.5924
     7.6524   8.2049   8.5163   8.5443   9.0334   9.3942   9.5359  11.1744

     occupation numbers 
     1.0000   1.0000   1.0000   1.0000   1.0000   1.0000   1.0000   1.0000
     0.0000   0.0000   0.0000   0.0000   0.0000   0.0000   0.0000   0.0000
     0.0000   0.0000   0.0000   0.0000   0.0000   0.0000   0.0000   0.0000

          k = 0.0667 0.1540 0.0000 (  6481 PWs)   bands (ev):

   -20.1474 -20.0010  -8.5309  -7.5747  -5.7647  -5.7458  -5.0599  -5.0462
     3.0147   3.3334   3.6810   4.4667   4.9686   6.4703   6.5096   7.6875
     7.7658   8.4398   8.8238   8.9828   9.0385   9.0718   9.2849  11.4100

     occupation numbers 
     1.0000   1.0000   1.0000   1.0000   1.0000   1.0000   1.0000   1.0000
     0.0000   0.0000   0.0000   0.0000   0.0000   0.0000   0.0000   0.0000
     0.0000   0.0000   0.0000   0.0000   0.0000   0.0000   0.0000   0.0000

          k = 0.0667 0.1925 0.0000 (  6491 PWs)   bands (ev):

   -19.9106 -19.7664  -8.2468  -7.3005  -6.4500  -6.4234  -5.4433  -5.4252
     3.3360   3.6578   4.0096   4.7928   5.2885   6.7905   6.8034   7.7122
     7.8094   8.1463   8.3215   8.7509   9.5994   9.6996   9.7363  11.7109

     occupation numbers 
     1.0000   1.0000   1.0000   1.0000   1.0000   1.0000   1.0000   1.0000
     0.0000   0.0000   0.0000   0.0000   0.0000   0.0000   0.0000   0.0000
     0.0000   0.0000   0.0000   0.0000   0.0000   0.0000   0.0000   0.0000

          k = 0.0667 0.2309 0.0000 (  6488 PWs)   bands (ev):

   -19.6221 -19.4805  -7.9022  -7.2192  -7.1845  -6.9681  -5.8317  -5.8098
     3.7282   4.0535   4.4113   5.1905   5.6782   7.1346   7.1655   7.3412
     7.5465   7.7223   7.8413   9.1161   9.9918  10.4731  10.5287  12.0749

     occupation numbers 
     1.0000   1.0000   1.0000   1.0000   1.0000   1.0000   1.0000   1.0000
     0.0000   0.0000   0.0000   0.0000   0.0000   0.0000   0.0000   0.0000
     0.0000   0.0000   0.0000   0.0000   0.0000   0.0000   0.0000   0.0000

          k = 0.0667 0.2694 0.0000 (  6480 PWs)   bands (ev):

   -19.2825 -19.1440  -8.0449  -8.0018  -7.4986  -6.5808  -6.2069  -6.1821
     4.1909   4.5185   4.8858   5.6566   6.1337   6.4784   6.7277   7.4980
     7.5338   7.7326   7.8539   9.5480  10.4502  11.3325  11.4164  12.4991

     occupation numbers 
     1.0000   1.0000   1.0000   1.0000   1.0000   1.0000   1.0000   1.0000
     0.0000   0.0000   0.0000   0.0000   0.0000   0.0000   0.0000   0.0000
     0.0000   0.0000   0.0000   0.0000   0.0000   0.0000   0.0000   0.0000

          k = 0.0667 0.3079 0.0000 (  6479 PWs)   bands (ev):

   -18.8926 -18.7576  -8.9035  -8.8526  -7.0393  -6.5567  -6.5297  -6.1415
     4.7227   5.0349   5.4328   5.5750   5.8707   6.2168   6.6664   7.4412
     7.5764   8.1917   8.2162  10.0425  10.9761  12.2226  12.3624  12.9784

     occupation numbers 
     1.0000   1.0000   1.0000   1.0000   1.0000   1.0000   1.0000   1.0000
     0.0000   0.0000   0.0000   0.0000   0.0000   0.0000   0.0000   0.0000
     0.0000   0.0000   0.0000   0.0000   0.0000   0.0000   0.0000   0.0000

          k = 0.0667 0.3464 0.0000 (  6491 PWs)   bands (ev):

   -18.4534 -18.3224  -9.7764  -9.7180  -6.8723  -6.8437  -6.5281  -5.6558
     4.5981   4.9867   5.3283   5.6931   6.0529   6.8187   7.1967   7.3394
     7.5389   8.7209   8.8171  10.5962  11.5676  13.0529  13.3188  13.5061

     occupation numbers 
     1.0000   1.0000   1.0000   1.0000   1.0000   1.0000   1.0000   1.0000
     0.0000   0.0000   0.0000   0.0000   0.0000   0.0000   0.0000   0.0000
     0.0000   0.0000   0.0000   0.0000   0.0000   0.0000   0.0000   0.0000

          k = 0.0667 0.3849 0.0000 (  6493 PWs)   bands (ev):

   -17.9665 -17.8399 -10.6485 -10.5829  -7.1476  -7.1177  -5.9714  -5.1321
     3.6697   4.1025   5.9938   6.3600   6.7422   7.1720   7.3370   7.5297
     7.9884   9.3232   9.4912  11.2042  12.2192  13.6336  14.0459  14.2082

     occupation numbers 
     1.0000   1.0000   1.0000   1.0000   1.0000   1.0000   1.0000   1.0000
     0.0000   0.0000   0.0000   0.0000   0.0000   0.0000   0.0000   0.0000
     0.0000   0.0000   0.0000   0.0000   0.0000   0.0000   0.0000   0.0000

          k = 0.0667 0.4234 0.0000 (  6487 PWs)   bands (ev):

   -17.4341 -17.3124 -11.5074 -11.4352  -7.3779  -7.3472  -5.3794  -4.5852
     2.7605   3.2308   6.7113   7.0126   7.1646   7.2557   7.5283   8.2745
     8.7042   9.9788  10.2332  11.8574  12.9123  13.6957  14.3964  14.7260

     occupation numbers 
     1.0000   1.0000   1.0000   1.0000   1.0000   1.0000   1.0000   1.0000
     0.0000   0.0000   0.0000   0.0000   0.0000   0.0000   0.0000   0.0000
     0.0000   0.0000   0.0000   0.0000   0.0000   0.0000   0.0000   0.0000

          k = 0.0667 0.4619 0.0000 (  6487 PWs)   bands (ev):

   -16.8600 -16.7440 -12.3416 -12.2634  -7.5601  -7.5287  -4.7707  -4.0421
     1.9150   2.4027   6.9522   7.1329   7.5817   7.9351   8.3570   9.0991
     9.4914  10.6735  11.0380  12.5296  13.1399  13.5942  13.9405  14.5132

     occupation numbers 
     1.0000   1.0000   1.0000   1.0000   1.0000   1.0000   1.0000   1.0000
     0.0000   0.0000   0.0000   0.0000   0.0000   0.0000   0.0000   0.0000
     0.0000   0.0000   0.0000   0.0000   0.0000   0.0000   0.0000   0.0000

          k = 0.0667 0.5004 0.0000 (  6503 PWs)   bands (ev):

   -16.2532 -16.1444 -13.1361 -13.0537  -7.6917  -7.6599  -4.1816  -3.5555
     1.1950   1.6626   6.8909   7.0897   8.4269   8.8102   9.2659   9.9921
    10.3281  11.3813  11.8860  12.3018  12.8029  13.2835  13.5894  13.8489

     occupation numbers 
     1.0000   1.0000   1.0000   1.0000   1.0000   1.0000   1.0000   1.0000
     0.0000   0.0000   0.0000   0.0000   0.0000   0.0000   0.0000   0.0000
     0.0000   0.0000   0.0000   0.0000   0.0000   0.0000   0.0000   0.0000

          k = 0.0667 0.5389 0.0000 (  6509 PWs)   bands (ev):

   -15.6455 -15.5505 -13.8499 -13.7710  -7.7712  -7.7392  -3.6906  -3.2193
     0.7017   1.0935   6.8502   7.0549   9.3453   9.7429  10.2459  10.9446
    11.1556  11.3193  11.7256  12.2214  12.4150  12.7079  13.1094  13.1538

     occupation numbers 
     1.0000   1.0000   1.0000   1.0000   1.0000   1.0000   1.0000   1.0000
     0.0000   0.0000   0.0000   0.0000   0.0000   0.0000   0.0000   0.0000
     0.0000   0.0000   0.0000   0.0000   0.0000   0.0000   0.0000   0.0000

          k = 0.0667 0.5774 0.0000 (  6480 PWs)   bands (ev):

   -15.2619 -15.2056 -14.2342 -14.1921  -7.7978  -7.7657  -3.4715  -3.1143
     0.5339   0.8581   6.8363   7.0428  10.2668  10.3536  10.6770  10.7606
    11.2947  11.2998  11.8498  11.9005  12.1219  12.2551  12.9114  13.2249

     occupation numbers 
     1.0000   1.0000   1.0000   1.0000   1.0000   1.0000   1.0000   1.0000
     0.0000   0.0000   0.0000   0.0000   0.0000   0.0000   0.0000   0.0000
     0.0000   0.0000   0.0000   0.0000   0.0000   0.0000   0.0000   0.0000

          k = 0.1000 0.1732 0.0000 (  6479 PWs)   bands (ev):

   -19.9369 -19.7924  -8.2782  -7.3308  -6.3163  -6.2979  -5.4701  -5.4570
     3.3004   3.6219   3.9732   4.7567   5.2534   6.7564   6.7750   7.8974
     7.9751   8.2392   8.4022   8.7107   9.3960   9.4345   9.5702  11.6760

     occupation numbers 
     1.0000   1.0000   1.0000   1.0000   1.0000   1.0000   1.0000   1.0000
     0.0000   0.0000   0.0000   0.0000   0.0000   0.0000   0.0000   0.0000
     0.0000   0.0000   0.0000   0.0000   0.0000   0.0000   0.0000   0.0000

          k = 0.1000 0.2117 0.0000 (  6475 PWs)   bands (ev):

   -19.6745 -19.5324  -7.9644  -7.0289  -6.9660  -6.9415  -5.9081  -5.8914
     3.6573   3.9820   4.3384   5.1188   5.6088   7.1016   7.1119   7.4991
     7.6905   8.0753   8.1815   9.0426   9.8608   9.9212   9.9315  12.0044

     occupation numbers 
     1.0000   1.0000   1.0000   1.0000   1.0000   1.0000   1.0000   1.0000
     0.0000   0.0000   0.0000   0.0000   0.0000   0.0000   0.0000   0.0000
     0.0000   0.0000   0.0000   0.0000   0.0000   0.0000   0.0000   0.0000

          k = 0.1000 0.2502 0.0000 (  6481 PWs)   bands (ev):

   -19.3608 -19.2216  -7.7017  -7.6683  -7.5905  -6.6691  -6.3346  -6.3126
     4.0848   4.4128   4.7765   5.5521   6.0335   6.7163   6.9356   7.4968
     7.5374   8.1000   8.2431   9.4381  10.3363  10.5038  10.5800  12.3920

     occupation numbers 
     1.0000   1.0000   1.0000   1.0000   1.0000   1.0000   1.0000   1.0000
     0.0000   0.0000   0.0000   0.0000   0.0000   0.0000   0.0000   0.0000
     0.0000   0.0000   0.0000   0.0000   0.0000   0.0000   0.0000   0.0000

          k = 0.1000 0.2887 0.0000 (  6477 PWs)   bands (ev):

   -18.9965 -18.8606  -8.4982  -8.4556  -7.1601  -6.7295  -6.7028  -6.2563
     4.5824   4.9102   5.2875   5.8555   6.0756   6.1280   6.5328   7.8852
     7.9448   8.1416   8.2692   9.8952  10.8284  11.2471  11.3730  12.8330

     occupation numbers 
     1.0000   1.0000   1.0000   1.0000   1.0000   1.0000   1.0000   1.0000
     0.0000   0.0000   0.0000   0.0000   0.0000   0.0000   0.0000   0.0000
     0.0000   0.0000   0.0000   0.0000   0.0000   0.0000   0.0000   0.0000

          k = 0.1000 0.3272 0.0000 (  6487 PWs)   bands (ev):

   -18.5825 -18.4503  -9.3321  -9.2806  -7.0840  -7.0539  -6.6754  -5.7942
     4.9458   5.1507   5.2893   5.5136   5.8715   6.6404   7.0875   7.8988
     8.0417   8.5707   8.6416  10.4104  11.3834  12.0398  12.2448  13.3172

     occupation numbers 
     1.0000   1.0000   1.0000   1.0000   1.0000   1.0000   1.0000   1.0000
     0.0000   0.0000   0.0000   0.0000   0.0000   0.0000   0.0000   0.0000
     0.0000   0.0000   0.0000   0.0000   0.0000   0.0000   0.0000   0.0000

          k = 0.1000 0.3657 0.0000 (  6475 PWs)   bands (ev):

   -18.1201 -17.9922 -10.1821 -10.1226  -7.3938  -7.3614  -6.1415  -5.2892
     4.0511   4.4292   5.7866   6.1422   6.5276   7.2837   7.6596   7.8100
     8.0162   9.1126   9.2740  10.9778  11.9965  12.7777  13.1312  13.8265

     occupation numbers 
     1.0000   1.0000   1.0000   1.0000   1.0000   1.0000   1.0000   1.0000
     0.0000   0.0000   0.0000   0.0000   0.0000   0.0000   0.0000   0.0000
     0.0000   0.0000   0.0000   0.0000   0.0000   0.0000   0.0000   0.0000

          k = 0.1000 0.4041 0.0000 (  6485 PWs)   bands (ev):

   -17.6112 -17.4879 -11.0318 -10.9648  -7.6560  -7.6218  -5.5663  -4.7521
     3.1491   3.5715   6.4872   6.8491   7.2533   7.6559   7.8335   8.0278
     8.4717   9.7233   9.9776  11.5881  12.6465  13.2858  13.8855  14.3384

     occupation numbers 
     1.0000   1.0000   1.0000   1.0000   1.0000   1.0000   1.0000   1.0000
     0.0000   0.0000   0.0000   0.0000   0.0000   0.0000   0.0000   0.0000
     0.0000   0.0000   0.0000   0.0000   0.0000   0.0000   0.0000   0.0000

          k = 0.1000 0.4426 0.0000 (  6490 PWs)   bands (ev):

   -17.0588 -16.9407 -11.8674 -11.7936  -7.8683  -7.8329  -4.9633  -4.2021
     2.2836   2.7375   7.2371   7.5147   7.6782   7.7644   8.0722   8.8064
     9.2111  10.3722  10.7437  12.2219  13.1377  13.4451  14.0390  14.5207

     occupation numbers 
     1.0000   1.0000   1.0000   1.0000   1.0000   1.0000   1.0000   1.0000
     0.0000   0.0000   0.0000   0.0000   0.0000   0.0000   0.0000   0.0000
     0.0000   0.0000   0.0000   0.0000   0.0000   0.0000   0.0000   0.0000

          k = 0.1000 0.4811 0.0000 (  6491 PWs)   bands (ev):

   -16.4684 -16.3566 -12.6750 -12.5956  -8.0290  -7.9928  -4.3573  -3.6760
     1.5026   1.9603   7.4592   7.6573   8.1294   8.4820   8.9386   9.6610
    10.0082  11.0342  11.5553  12.7002  12.8358  13.3171  13.8339  14.3674

     occupation numbers 
     1.0000   1.0000   1.0000   1.0000   1.0000   1.0000   1.0000   1.0000
     0.0000   0.0000   0.0000   0.0000   0.0000   0.0000   0.0000   0.0000
     0.0000   0.0000   0.0000   0.0000   0.0000   0.0000   0.0000   0.0000

          k = 0.1000 0.5196 0.0000 (  6503 PWs)   bands (ev):

   -15.8561 -15.7534 -13.4315 -13.3501  -8.1368  -8.1000  -3.8004  -3.2460
     0.8867   1.2975   7.4095   7.6226   9.0038   9.3746   9.8820  10.5771
    10.8087  11.6449  11.8787  12.2815  12.5651  13.0610  13.3106  13.6356

     occupation numbers 
     1.0000   1.0000   1.0000   1.0000   1.0000   1.0000   1.0000   1.0000
     0.0000   0.0000   0.0000   0.0000   0.0000   0.0000   0.0000   0.0000
     0.0000   0.0000   0.0000   0.0000   0.0000   0.0000   0.0000   0.0000

          k = 0.1000 0.5581 0.0000 (  6500 PWs)   bands (ev):

   -15.3000 -15.2232 -14.0404 -13.9769  -8.1909  -8.1539  -3.4114  -3.0193
     0.5534   0.8668   7.3821   7.5996   9.9395  10.2981  10.8807  10.9254
    11.1631  11.5225  11.7503  11.9749  12.3440  12.5410  12.9025  13.3251

     occupation numbers 
     1.0000   1.0000   1.0000   1.0000   1.0000   1.0000   1.0000   1.0000
     0.0000   0.0000   0.0000   0.0000   0.0000   0.0000   0.0000   0.0000
     0.0000   0.0000   0.0000   0.0000   0.0000   0.0000   0.0000   0.0000

          k = 0.1333 0.2309 0.0000 (  6457 PWs)   bands (ev):

   -19.3869 -19.2474  -7.6224  -7.5498  -7.5277  -6.6985  -6.4092  -6.3930
     4.0495   4.3775   4.7401   5.5168   5.9995   6.8023   7.0120   7.4643
     7.5059   8.4023   8.5237   9.4014  10.0891  10.1490  10.3131  12.3557

     occupation numbers 
     1.0000   1.0000   1.0000   1.0000   1.0000   1.0000   1.0000   1.0000
     0.0000   0.0000   0.0000   0.0000   0.0000   0.0000   0.0000   0.0000
     0.0000   0.0000   0.0000   0.0000   0.0000   0.0000   0.0000   0.0000

          k = 0.1333 0.2694 0.0000 (  6490 PWs)   bands (ev):

   -19.0485 -18.9121  -8.2167  -8.1875  -7.2207  -6.8924  -6.8719  -6.3139
     4.5121   4.8431   5.2148   5.9784   6.0431   6.2662   6.4611   7.8821
     7.9642   8.5990   8.7459   9.8196  10.4881  10.5882  10.7708  12.7582

     occupation numbers 
     1.0000   1.0000   1.0000   1.0000   1.0000   1.0000   1.0000   1.0000
     0.0000   0.0000   0.0000   0.0000   0.0000   0.0000   0.0000   0.0000
     0.0000   0.0000   0.0000   0.0000   0.0000   0.0000   0.0000   0.0000

          k = 0.1333 0.3079 0.0000 (  6480 PWs)   bands (ev):

   -18.6601 -18.5272  -8.9571  -8.9173  -7.3243  -7.2971  -6.7641  -5.8777
     5.0421   5.1950   5.3996   5.4790   5.7625   6.5293   6.9883   8.3337
     8.4491   8.6726   8.8290  10.2940  11.0792  11.2581  11.3057  13.1997

     occupation numbers 
     1.0000   1.0000   1.0000   1.0000   1.0000   1.0000   1.0000   1.0000
     0.0000   0.0000   0.0000   0.0000   0.0000   0.0000   0.0000   0.0000
     0.0000   0.0000   0.0000   0.0000   0.0000   0.0000   0.0000   0.0000

          k = 0.1333 0.3464 0.0000 (  6479 PWs)   bands (ev):

   -18.2229 -18.0940  -9.7477  -9.6974  -7.6948  -7.6623  -6.2557  -5.3949
     4.3499   4.6649   5.6468   5.9919   6.3827   7.1409   7.5793   8.5105
     8.6473   9.0188   9.1371  10.8181  11.7440  11.9198  12.0711  13.6579

     occupation numbers 
     1.0000   1.0000   1.0000   1.0000   1.0000   1.0000   1.0000   1.0000
     0.0000   0.0000   0.0000   0.0000   0.0000   0.0000   0.0000   0.0000
     0.0000   0.0000   0.0000   0.0000   0.0000   0.0000   0.0000   0.0000

          k = 0.1333 0.3849 0.0000 (  6474 PWs)   bands (ev):

   -17.7384 -17.6139 -10.5629 -10.5034  -8.0050  -7.9687  -5.7015  -4.8736
     3.4805   3.8408   6.3155   6.6653   7.0752   7.8196   8.2040   8.4338
     8.6485   9.5376   9.7944  11.3810  12.3609  12.5934  12.9082  14.0946

     occupation numbers 
     1.0000   1.0000   1.0000   1.0000   1.0000   1.0000   1.0000   1.0000
     0.0000   0.0000   0.0000   0.0000   0.0000   0.0000   0.0000   0.0000
     0.0000   0.0000   0.0000   0.0000   0.0000   0.0000   0.0000   0.0000

          k = 0.1333 0.4234 0.0000 (  6485 PWs)   bands (ev):

   -17.2091 -17.0895 -11.3821 -11.3145  -8.2574  -8.2185  -5.1113  -4.3272
     2.6230   3.0238   7.0488   7.4025   7.8379   8.2967   8.4897   8.5992
     9.0184  10.1278  10.5183  11.9646  12.8035  13.1695  13.5997  14.3038

     occupation numbers 
     1.0000   1.0000   1.0000   1.0000   1.0000   1.0000   1.0000   1.0000
     0.0000   0.0000   0.0000   0.0000   0.0000   0.0000   0.0000   0.0000
     0.0000   0.0000   0.0000   0.0000   0.0000   0.0000   0.0000   0.0000

          k = 0.1333 0.4619 0.0000 (  6494 PWs)   bands (ev):

   -16.6390 -16.5251 -12.1880 -12.1135  -8.4532  -8.4126  -4.5025  -3.7812
     1.8145   2.2382   7.8341   8.1332   8.2925   8.4337   8.6914   9.4010
     9.7551  10.7289  11.2834  12.5257  12.8364  13.2525  13.9337  14.4077

     occupation numbers 
     1.0000   1.0000   1.0000   1.0000   1.0000   1.0000   1.0000   1.0000
     0.0000   0.0000   0.0000   0.0000   0.0000   0.0000   0.0000   0.0000
     0.0000   0.0000   0.0000   0.0000   0.0000   0.0000   0.0000   0.0000

          k = 0.1333 0.5004 0.0000 (  6495 PWs)   bands (ev):

   -16.0373 -15.9306 -12.9619 -12.8827  -8.5929  -8.5512  -3.9094  -3.2860
     1.1156   1.5237   8.1254   8.3472   8.7441   9.0728   9.5910  10.2749
    10.4959  11.3186  11.9760  12.3915  12.8174  13.0703  13.7305  13.9741

     occupation numbers 
     1.0000   1.0000   1.0000   1.0000   1.0000   1.0000   1.0000   1.0000
     0.0000   0.0000   0.0000   0.0000   0.0000   0.0000   0.0000   0.0000
     0.0000   0.0000   0.0000   0.0000   0.0000   0.0000   0.0000   0.0000

          k = 0.1333 0.5389 0.0000 (  6490 PWs)   bands (ev):

   -15.4362 -15.3432 -13.6607 -13.5846  -8.6768  -8.6345  -3.4090  -2.9375
     0.6325   0.9583   8.0891   8.3257   9.6352   9.9470  10.5599  11.0298
    11.1760  11.5275  11.8594  12.1450  12.6256  12.7954  13.3669  13.4105

     occupation numbers 
     1.0000   1.0000   1.0000   1.0000   1.0000   1.0000   1.0000   1.0000
     0.0000   0.0000   0.0000   0.0000   0.0000   0.0000   0.0000   0.0000
     0.0000   0.0000   0.0000   0.0000   0.0000   0.0000   0.0000   0.0000

          k = 0.1333 0.5774 0.0000 (  6486 PWs)   bands (ev):

   -15.0585 -15.0033 -14.0371 -13.9972  -8.7047  -8.6623  -3.1820  -2.8276
     0.4739   0.7126   8.0755   8.3147  10.5073  10.6189  10.6870  10.8778
    11.5565  11.6175  11.7448  12.0010  12.4002  12.5163  13.0053  13.1666

     occupation numbers 
     1.0000   1.0000   1.0000   1.0000   1.0000   1.0000   1.0000   1.0000
     0.0000   0.0000   0.0000   0.0000   0.0000   0.0000   0.0000   0.0000
     0.0000   0.0000   0.0000   0.0000   0.0000   0.0000   0.0000   0.0000

          k = 0.1667 0.2887 0.0000 (  6494 PWs)   bands (ev):

   -18.6860 -18.5529  -8.7876  -8.7602  -7.4434  -7.4235  -6.7937  -5.9056
     5.0086   5.3007   5.3424   5.5445   5.7261   6.4916   6.9537   8.3262
     8.4581   9.0616   9.2116  10.2536  10.6177  10.7049  11.2508  13.1595

     occupation numbers 
     1.0000   1.0000   1.0000   1.0000   1.0000   1.0000   1.0000   1.0000
     0.0000   0.0000   0.0000   0.0000   0.0000   0.0000   0.0000   0.0000
     0.0000   0.0000   0.0000   0.0000   0.0000   0.0000   0.0000   0.0000

          k = 0.1667 0.3272 0.0000 (  6476 PWs)   bands (ev):

   -18.2744 -18.1450  -9.4366  -9.4020  -7.9352  -7.9101  -6.3130  -5.4481
     4.5205   4.7859   5.5765   5.9143   6.3100   7.0669   7.5136   8.8098
     8.9975   9.3067   9.4788  10.7311  10.9892  11.1575  11.7914  13.5701

     occupation numbers 
     1.0000   1.0000   1.0000   1.0000   1.0000   1.0000   1.0000   1.0000
     0.0000   0.0000   0.0000   0.0000   0.0000   0.0000   0.0000   0.0000
     0.0000   0.0000   0.0000   0.0000   0.0000   0.0000   0.0000   0.0000

          k = 0.1667 0.3657 0.0000 (  6476 PWs)   bands (ev):

   -17.8150 -17.6898 -10.1571 -10.1106  -8.3423  -8.3094  -5.7832  -4.9473
     3.7118   4.0109   6.2109   6.5513   6.9665   7.7116   8.1337   9.2210
     9.2867   9.5895   9.7027  11.2445  11.5779  11.8849  12.3692  13.9476

     occupation numbers 
     1.0000   1.0000   1.0000   1.0000   1.0000   1.0000   1.0000   1.0000
     0.0000   0.0000   0.0000   0.0000   0.0000   0.0000   0.0000   0.0000
     0.0000   0.0000   0.0000   0.0000   0.0000   0.0000   0.0000   0.0000

          k = 0.1667 0.4041 0.0000 (  6474 PWs)   bands (ev):

   -17.3098 -17.1893 -10.9208 -10.8631  -8.6654  -8.6264  -5.2117  -4.4130
     2.8929   3.2311   6.9117   7.2524   7.6951   8.4218   8.7926   9.1763
     9.4104   9.9712  10.3679  11.7732  12.1815  12.6756  12.9043  14.0203

     occupation numbers 
     1.0000   1.0000   1.0000   1.0000   1.0000   1.0000   1.0000   1.0000
     0.0000   0.0000   0.0000   0.0000   0.0000   0.0000   0.0000   0.0000
     0.0000   0.0000   0.0000   0.0000   0.0000   0.0000   0.0000   0.0000

          k = 0.1667 0.4426 0.0000 (  6475 PWs)   bands (ev):

   -16.7621 -16.6469 -11.6991 -11.6322  -8.9144  -8.8713  -4.6104  -3.8623
     2.0917   2.4633   7.6753   8.0100   8.4940   9.0425   9.2237   9.2687
     9.6200  10.4904  11.0795  12.2890  12.5457  12.9898  13.5032  14.2597

     occupation numbers 
     1.0000   1.0000   1.0000   1.0000   1.0000   1.0000   1.0000   1.0000
     0.0000   0.0000   0.0000   0.0000   0.0000   0.0000   0.0000   0.0000
     0.0000   0.0000   0.0000   0.0000   0.0000   0.0000   0.0000   0.0000

          k = 0.1667 0.4811 0.0000 (  6474 PWs)   bands (ev):

   -16.1780 -16.0690 -12.4677 -12.3937  -9.0966  -9.0510  -4.0022  -3.3285
     1.3521   1.7340   8.4916   8.7806   9.0278   9.2220   9.3876  10.0443
    10.2443  11.0292  11.7067  12.5432  12.7614  12.9533  13.8565  14.7288

     occupation numbers 
     1.0000   1.0000   1.0000   1.0000   1.0000   1.0000   1.0000   1.0000
     0.0000   0.0000   0.0000   0.0000   0.0000   0.0000   0.0000   0.0000
     0.0000   0.0000   0.0000   0.0000   0.0000   0.0000   0.0000   0.0000

          k = 0.1667 0.5196 0.0000 (  6492 PWs)   bands (ev):

   -15.5735 -15.4736 -13.1973 -13.1203  -9.2163  -9.1694  -3.4357  -2.8817
     0.7552   1.0924   8.8986   9.1553   9.4205   9.6615  10.3027  10.6980
    10.8955  11.6826  11.9223  12.1399  12.9308  13.2430  13.6076  13.7934

     occupation numbers 
     1.0000   1.0000   1.0000   1.0000   1.0000   1.0000   1.0000   1.0000
     0.0000   0.0000   0.0000   0.0000   0.0000   0.0000   0.0000   0.0000
     0.0000   0.0000   0.0000   0.0000   0.0000   0.0000   0.0000   0.0000

          k = 0.1667 0.5581 0.0000 (  6496 PWs)   bands (ev):

   -15.0264 -14.9518 -13.7886 -13.7288  -9.2758  -9.2282  -3.0303  -2.6396
     0.4369   0.6484   8.8784   9.1535  10.2973  10.3729  10.7797  11.2302
    11.3564  11.5658  12.0733  12.3475  12.4987  12.7039  13.2385  13.5685

     occupation numbers 
     1.0000   1.0000   1.0000   1.0000   1.0000   1.0000   1.0000   1.0000
     0.0000   0.0000   0.0000   0.0000   0.0000   0.0000   0.0000   0.0000
     0.0000   0.0000   0.0000   0.0000   0.0000   0.0000   0.0000   0.0000

          k = 0.2000 0.3464 0.0000 (  6482 PWs)   bands (ev):

   -17.8405 -17.7151  -9.9682  -9.9364  -8.5008  -8.4771  -5.8106  -4.9720
     3.7969   4.0678   6.1759   6.5127   6.9302   7.6746   8.1009   9.3043
     9.5771   9.8961  10.0517  11.0378  11.1889  11.2354  12.3213  13.8972

     occupation numbers 
     1.0000   1.0000   1.0000   1.0000   1.0000   1.0000   1.0000   1.0000
     0.0000   0.0000   0.0000   0.0000   0.0000   0.0000   0.0000   0.0000
     0.0000   0.0000   0.0000   0.0000   0.0000   0.0000   0.0000   0.0000

          k = 0.2000 0.3849 0.0000 (  6476 PWs)   bands (ev):

   -17.3603 -17.2394 -10.5813 -10.5414  -8.9719  -8.9421  -5.2623  -4.4566
     3.0473   3.3375   6.8422   7.1751   7.6227   8.3490   8.7385   9.7927
     9.9880  10.3071  10.3614  11.3905  11.6615  11.7644  12.7554  13.8782

     occupation numbers 
     1.0000   1.0000   1.0000   1.0000   1.0000   1.0000   1.0000   1.0000
     0.0000   0.0000   0.0000   0.0000   0.0000   0.0000   0.0000   0.0000
     0.0000   0.0000   0.0000   0.0000   0.0000   0.0000   0.0000   0.0000

          k = 0.2000 0.4234 0.0000 (  6465 PWs)   bands (ev):

   -16.8365 -16.7205 -11.2663 -11.2133  -9.3310  -9.2923  -4.6767  -3.9133
     2.2891   2.6073   7.5726   7.8933   8.3866   9.0834   9.3890   9.9843
    10.1954  10.4433  10.9571  11.9079  12.1942  12.4642  12.8462  14.1281

     occupation numbers 
     1.0000   1.0000   1.0000   1.0000   1.0000   1.0000   1.0000   1.0000
     0.0000   0.0000   0.0000   0.0000   0.0000   0.0000   0.0000   0.0000
     0.0000   0.0000   0.0000   0.0000   0.0000   0.0000   0.0000   0.0000

          k = 0.2000 0.4619 0.0000 (  6463 PWs)   bands (ev):

   -16.2735 -16.1632 -11.9875 -11.9233  -9.5894  -9.5441  -4.0688  -3.3632
     1.5520   1.8934   8.3623   8.6482   9.2187   9.8025   9.9026   9.9777
    10.3297  10.8303  11.4947  12.3247  12.5945  12.7923  13.3718  14.7258

     occupation numbers 
     1.0000   1.0000   1.0000   1.0000   1.0000   1.0000   1.0000   1.0000
     0.0000   0.0000   0.0000   0.0000   0.0000   0.0000   0.0000   0.0000
     0.0000   0.0000   0.0000   0.0000   0.0000   0.0000   0.0000   0.0000

          k = 0.2000 0.5004 0.0000 (  6474 PWs)   bands (ev):

   -15.6808 -15.5777 -12.7074 -12.6358  -9.7637  -9.7145  -3.4688  -2.8513
     0.8910   1.2247   9.1996   9.3730   9.8490   9.9931  10.1732  10.4834
    10.6877  11.4884  11.7351  12.3954  13.0078  13.2263  13.8166  14.4554

     occupation numbers 
     1.0000   1.0000   1.0000   1.0000   1.0000   1.0000   1.0000   1.0000
     0.0000   0.0000   0.0000   0.0000   0.0000   0.0000   0.0000   0.0000
     0.0000   0.0000   0.0000   0.0000   0.0000   0.0000   0.0000   0.0000

          k = 0.2000 0.5389 0.0000 (  6478 PWs)   bands (ev):

   -15.0904 -15.0007 -13.3725 -13.3022  -9.8648  -9.8137  -2.9485  -2.4748
     0.4204   0.6645   9.6739   9.9704  10.0828  10.1871  10.5354  11.1357
    11.3572  11.8168  12.1242  12.3092  12.9674  13.2929  13.8293  13.8814

     occupation numbers 
     1.0000   1.0000   1.0000   1.0000   1.0000   1.0000   1.0000   1.0000
     0.0000   0.0000   0.0000   0.0000   0.0000   0.0000   0.0000   0.0000
     0.0000   0.0000   0.0000   0.0000   0.0000   0.0000   0.0000   0.0000

          k = 0.2000 0.5774 0.0000 (  6484 PWs)   bands (ev):

   -14.7199 -14.6666 -13.7350 -13.7008  -9.8980  -9.8462  -2.7023  -2.3528
     0.2923   0.3790   9.6846  10.0009  10.3460  10.5415  10.9410  11.0670
    11.8383  12.1276  12.1894  12.2625  12.9075  12.9902  13.3804  13.3870

     occupation numbers 
     1.0000   1.0000   1.0000   1.0000   1.0000   1.0000   1.0000   1.0000
     0.0000   0.0000   0.0000   0.0000   0.0000   0.0000   0.0000   0.0000
     0.0000   0.0000   0.0000   0.0000   0.0000   0.0000   0.0000   0.0000

          k = 0.2333 0.4041 0.0000 (  6446 PWs)   bands (ev):

   -16.8614 -16.7451 -11.0593 -11.0231  -9.5227  -9.4957  -4.6991  -3.9306
     2.3620   2.6558   7.5379   7.8533   8.3504   9.0465   9.3576  10.2370
    10.6199  10.9523  11.0011  11.5028  11.6374  12.1642  12.6976  14.0857

     occupation numbers 
     1.0000   1.0000   1.0000   1.0000   1.0000   1.0000   1.0000   1.0000
     0.0000   0.0000   0.0000   0.0000   0.0000   0.0000   0.0000   0.0000
     0.0000   0.0000   0.0000   0.0000   0.0000   0.0000   0.0000   0.0000

          k = 0.2333 0.4426 0.0000 (  6452 PWs)   bands (ev):

   -16.3217 -16.2108 -11.6249 -11.5798  -9.9488  -9.9150  -4.1036  -3.3825
     1.6690   1.9776   8.2940   8.5642   9.1469   9.7859   9.8637  10.6795
    10.7955  11.2465  11.3808  11.8396  12.2552  12.6502  12.6910  14.7021

     occupation numbers 
     1.0000   1.0000   1.0000   1.0000   1.0000   1.0000   1.0000   1.0000
     0.0000   0.0000   0.0000   0.0000   0.0000   0.0000   0.0000   0.0000
     0.0000   0.0000   0.0000   0.0000   0.0000   0.0000   0.0000   0.0000

          k = 0.2333 0.4811 0.0000 (  6443 PWs)   bands (ev):

   -15.7478 -15.6432 -12.2606 -12.2024 -10.2404 -10.1968  -3.4938  -2.8380
     0.9985   1.3187   9.1024   9.2455   9.9507  10.1432  10.4779  10.7812
    11.2027  11.3689  11.5957  12.2488  12.8850  13.1605  13.3370  15.0667

     occupation numbers 
     1.0000   1.0000   1.0000   1.0000   1.0000   1.0000   1.0000   1.0000
     0.0000   0.0000   0.0000   0.0000   0.0000   0.0000   0.0000   0.0000
     0.0000   0.0000   0.0000   0.0000   0.0000   0.0000   0.0000   0.0000

          k = 0.2333 0.5196 0.0000 (  6451 PWs)   bands (ev):

   -15.1557 -15.0601 -12.9127 -12.8465 -10.4176 -10.3677  -2.9103  -2.3576
     0.4218   0.7120   9.7313   9.9417  10.0855  10.6934  10.9894  11.1044
    11.2688  12.0019  12.1159  12.2628  13.3394  13.7559  14.0219  14.2120

     occupation numbers 
     1.0000   1.0000   1.0000   1.0000   1.0000   1.0000   1.0000   1.0000
     0.0000   0.0000   0.0000   0.0000   0.0000   0.0000   0.0000   0.0000
     0.0000   0.0000   0.0000   0.0000   0.0000   0.0000   0.0000   0.0000

          k = 0.2333 0.5581 0.0000 (  6468 PWs)   bands (ev):

   -14.6195 -14.5478 -13.4663 -13.4142 -10.5012 -10.4485  -2.4682  -2.0774
     0.1073   0.2434   9.9054  10.0699  10.6665  10.8526  11.1413  11.6344
    11.8737  11.9942  12.6438  12.8805  13.0845  13.1651  13.7827  14.0210

     occupation numbers 
     1.0000   1.0000   1.0000   1.0000   1.0000   1.0000   1.0000   1.0000
     0.0000   0.0000   0.0000   0.0000   0.0000   0.0000   0.0000   0.0000
     0.0000   0.0000   0.0000   0.0000   0.0000   0.0000   0.0000   0.0000

          k = 0.2667 0.4619 0.0000 (  6452 PWs)   bands (ev):

   -15.7704 -15.6654 -12.0417 -12.0014 -10.4569 -10.4278  -3.5030  -2.8345
     1.0397   1.3523   9.0686   9.1954   9.9027  10.0909  10.4653  11.2837
    11.3257  11.6350  11.7398  12.2538  12.2697  12.9910  13.1918  15.1642

     occupation numbers 
     1.0000   1.0000   1.0000   1.0000   1.0000   1.0000   1.0000   1.0000
     0.0000   0.0000   0.0000   0.0000   0.0000   0.0000   0.0000   0.0000
     0.0000   0.0000   0.0000   0.0000   0.0000   0.0000   0.0000   0.0000

          k = 0.2667 0.5004 0.0000 (  6436 PWs)   bands (ev):

   -15.1926 -15.0949 -12.5494 -12.5006 -10.8111 -10.7754  -2.8960  -2.2983
     0.4296   0.7469   9.6130   9.8762   9.9437  10.9089  11.0390  11.5063
    11.8613  12.0289  12.1821  12.2344  13.0468  13.7231  13.8243  15.1163

     occupation numbers 
     1.0000   1.0000   1.0000   1.0000   1.0000   1.0000   1.0000   1.0000
     0.0000   0.0000   0.0000   0.0000   0.0000   0.0000   0.0000   0.0000
     0.0000   0.0000   0.0000   0.0000   0.0000   0.0000   0.0000   0.0000

          k = 0.2667 0.5389 0.0000 (  6444 PWs)   bands (ev):

   -14.6174 -14.5323 -13.1004 -13.0449 -11.0078 -10.9634  -2.3371  -1.8570
    -0.0678   0.2020   9.7352   9.8627  10.6991  11.4313  11.7279  11.8819
    12.0263  12.1492  12.7320  12.9597  13.3637  14.0084  14.3356  14.5119

     occupation numbers 
     1.0000   1.0000   1.0000   1.0000   1.0000   1.0000   1.0000   1.0000
     0.0000   0.0000   0.0000   0.0000   0.0000   0.0000   0.0000   0.0000
     0.0000   0.0000   0.0000   0.0000   0.0000   0.0000   0.0000   0.0000

          k = 0.2667 0.5774 0.0000 (  6432 PWs)   bands (ev):

   -14.2472 -14.1963 -13.4306 -13.4158 -11.0695 -11.0219  -2.0395  -1.6980
    -0.2295  -0.1067   9.7450   9.8318  11.2770  11.5457  11.5511  12.0413
    12.5092  12.7661  12.9299  12.9322  13.5912  13.6683  13.8565  13.9598

     occupation numbers 
     1.0000   1.0000   1.0000   1.0000   1.0000   1.0000   1.0000   1.0000
     0.0000   0.0000   0.0000   0.0000   0.0000   0.0000   0.0000   0.0000
     0.0000   0.0000   0.0000   0.0000   0.0000   0.0000   0.0000   0.0000

          k = 0.3000 0.5196 0.0000 (  6422 PWs)   bands (ev):

   -14.6235 -14.5350 -12.9042 -12.8600 -11.2305 -11.2042  -2.2955  -1.7692
    -0.1374   0.1913   9.6676   9.7816  10.6682  11.7019  11.7958  11.8990
    12.0778  12.5920  12.9456  12.9552  13.1504  14.4215  14.5032  14.9198

     occupation numbers 
     1.0000   1.0000   1.0000   1.0000   1.0000   1.0000   1.0000   1.0000
     0.0000   0.0000   0.0000   0.0000   0.0000   0.0000   0.0000   0.0000
     0.0000   0.0000   0.0000   0.0000   0.0000   0.0000   0.0000   0.0000

          k = 0.3000 0.5581 0.0000 (  6447 PWs)   bands (ev):

   -14.0950 -14.0256 -13.3153 -13.2740 -11.4476 -11.4199  -1.7653  -1.3635
    -0.5830  -0.2929   9.6316   9.6801  11.3628  11.8316  12.0202  12.4342
    12.8450  12.9332  13.3225  13.6315  13.7613  13.9100  14.3157  14.5543

     occupation numbers 
     1.0000   1.0000   1.0000   1.0000   1.0000   1.0000   1.0000   0.9999
     0.0000   0.0000   0.0000   0.0000   0.0000   0.0000   0.0000   0.0000
     0.0000   0.0000   0.0000   0.0000   0.0000   0.0000   0.0000   0.0000

          k = 0.3333 0.5774 0.0000 (  6450 PWs)   bands (ev):

   -13.6652 -13.6151 -13.6151 -13.5698 -11.6086 -11.6086  -1.3298  -1.0011
    -1.0011  -0.6524   9.5984   9.5984  11.6486  11.9956  11.9956  12.7617
    13.4180  13.4180  13.8139  13.8766  13.8766  14.1520  14.3422  14.3422

     occupation numbers 
     1.0000   1.0000   1.0000   1.0000   1.0000   1.0000   0.9997   0.5003
     0.5003   0.0001   0.0000   0.0000   0.0000   0.0000   0.0000   0.0000
     0.0000   0.0000   0.0000   0.0000   0.0000   0.0000   0.0000   0.0000

     the Fermi energy is    -1.0010 ev
     (compare with:    -1.0009 eV, computed in scf)

     Writing all to output data dir /home/ubuntu/projects/Graphene-Band-Structure-Quantum-Espresso/outputs/field_0/coupled/data/coupled.save/ :
     XML data file, pseudopotentials, collected wavefunctions

     init_run     :      1.78s CPU      1.90s WALL (       1 calls)
     electrons    :    135.54s CPU    136.17s WALL (       1 calls)

     Called by init_run:
     wfcinit      :      0.00s CPU      0.00s WALL (       1 calls)
     wfcinit:atom :      0.03s CPU      0.03s WALL (      23 calls)
     wfcinit:wfcr :      2.83s CPU      2.85s WALL (      23 calls)
     potinit      :      0.78s CPU      0.83s WALL (       1 calls)
     hinit0       :      0.76s CPU      0.79s WALL (       1 calls)

     Called by electrons:
     c_bands      :    135.54s CPU    136.15s WALL (       1 calls)
     v_of_rho     :      0.09s CPU      0.13s WALL (       1 calls)
     v_h          :      0.00s CPU      0.01s WALL (       1 calls)
     v_xc         :      0.09s CPU      0.13s WALL (       1 calls)
     newd         :      0.10s CPU      0.12s WALL (       1 calls)
     PAW_pot      :      0.13s CPU      0.13s WALL (       1 calls)

     Called by c_bands:
     init_us_2    :      0.05s CPU      0.06s WALL (      23 calls)
     cegterg      :    107.26s CPU    107.75s WALL (      68 calls)

     Called by sum_band:

     Called by *egterg:
     cdiaghg      :      1.11s CPU      1.11s WALL (    1137 calls)
     cegterg:over :     15.06s CPU     15.10s WALL (    1114 calls)
     cegterg:upda :      9.46s CPU      9.49s WALL (    1114 calls)
     cegterg:last :     28.39s CPU     28.47s WALL (     680 calls)
     h_psi        :     46.74s CPU     47.05s WALL (    1205 calls)
     s_psi        :      6.65s CPU      6.66s WALL (    1205 calls)
     g_psi        :      0.42s CPU      0.42s WALL (    1114 calls)

     Called by h_psi:
     h_psi:calbec :      6.70s CPU      6.71s WALL (    1205 calls)
     vloc_psi     :     33.10s CPU     33.38s WALL (    1205 calls)
     add_vuspsi   :      6.70s CPU      6.72s WALL (    1205 calls)

     General routines
     calbec       :      6.69s CPU      6.71s WALL (    1205 calls)
     fft          :      0.60s CPU      0.61s WALL (      13 calls)
     ffts         :      0.30s CPU      0.30s WALL (       1 calls)
     fftw         :     28.90s CPU     29.06s WALL (   30588 calls)
     interpolate  :      0.31s CPU      0.31s WALL (       1 calls)

     Parallel routines

     PAW routines
     PAW_pot      :      0.13s CPU      0.13s WALL (       1 calls)

     PWSCF        :   2m17.83s CPU   2m18.81s WALL


   This run was terminated on:  10:34:51  18Sep2026            

=------------------------------------------------------------------------------=
   JOB DONE.
=------------------------------------------------------------------------------=
Note: The following floating-point exceptions are signalling: IEEE_UNDERFLOW_FLAG IEEE_DENORMAL
