
     Program PWSCF v.7.6 starts on 18Sep2026 at 10:31: 7 

     This program is part of the open-source Quantum ESPRESSO suite
     for quantum simulation of materials; please cite
         "P. Giannozzi et al., J. Phys.:Condens. Matter 21 395502 (2009);
         "P. Giannozzi et al., J. Phys.:Condens. Matter 29 465901 (2017);
         "P. Giannozzi et al., J. Chem. Phys. 152 154105 (2020);
          URL http://www.quantum-espresso.org", 
     in publications or presentations arising from this work. More details at
     http://www.quantum-espresso.org/quote

     Parallel version (MPI), running on     4 processors

     MPI processes distributed on     1 nodes
     6715 MiB available memory on the printing compute node when the environment starts

     Waiting for input...
     Reading input from standard input
Warning: card &CELL ignored
Warning: card &FCP ignored
Warning: card &RISM ignored

     Current dimensions of program PWSCF are:
     Max number of different atomic species (ntypx) = 10
     Max number of k-points (npk) =  40000
     Max angular momentum in pseudopotentials (lmaxx) =  4
     file C.pbe-n-kjpaw_psl.1.0.0.UPF: wavefunction(s)  2S 2P renormalized
     Message from routine setup:
     using ibrav=0 with symmetry is DISCOURAGED, use correct ibrav instead

     K-points division:     npool     =       4
     Subspace diagonalization in iterative solution of the eigenvalue problem:
     a serial algorithm will be used


     G-vector sticks info
     --------------------
     sticks:   dense  smooth     PW     G-vecs:    dense   smooth      PW
     Sum         595     361    109               111671    52021    9049

     Using Slab Decomposition



     bravais-lattice index     =            0
     lattice parameter (alat)  =       4.6487  a.u.
     unit-cell volume          =     825.8180 (a.u.)^3
     number of atoms/cell      =            4
     number of atomic types    =            1
     number of electrons       =        16.00
     number of Kohn-Sham states=           14
     kinetic-energy cutoff     =      60.0000  Ry
     charge density cutoff     =     400.0000  Ry
     scf convergence threshold =      1.0E-08
     mixing beta               =       0.7000
     number of iterations used =            8  plain     mixing
     energy convergence thresh.=      1.0E-04
     force convergence thresh. =      1.0E-03
     Exchange-correlation= SLA  PW   PBX  PBC
                           (   1   4   3   4   0   0   0)
     nstep                     =           50


     celldm(1)=   4.648726  celldm(2)=   0.000000  celldm(3)=   0.000000
     celldm(4)=   0.000000  celldm(5)=   0.000000  celldm(6)=   0.000000

     crystal axes: (cart. coord. in units of alat)
               a(1) = (   1.000000   0.000000   0.000000 )  
               a(2) = (  -0.500000   0.866025   0.000000 )  
               a(3) = (   0.000000   0.000000   9.491870 )  

     reciprocal axes: (cart. coord. in units 2 pi/alat)
               b(1) = (  1.000000  0.577350 -0.000000 )  
               b(2) = (  0.000000  1.154701  0.000000 )  
               b(3) = (  0.000000 -0.000000  0.105353 )  


     PseudoPot. # 1 for C  read from file:
     /home/ubuntu/projects/Graphene-Band-Structure-Quantum-Espresso/pseudo/C.pbe-n-kjpaw_psl.1.0.0.UPF
     MD5 check sum: 5f16ad9a65e90284d1d834d4ab3b0f7d
     Pseudo is Projector augmented-wave + core cor, Zval =  4.0
     Generated using &quot;atomic&quot; code by A. Dal Corso  v.6.3
     Shape of augmentation charge: PSQ
     Using radial grid of 1073 points,  4 beta functions with: 
                l(1) =   0
                l(2) =   0
                l(3) =   1
                l(4) =   1
     Q(r) pseudized with 0 coefficients 


     atomic species   valence    mass     pseudopotential
     C                 4.00    12.01100     C ( 1.00)

     12 Sym. Ops., with inversion, found ( 6 have fractional translation)


                                    s                        frac. trans.

      isym =  1     identity                                     

 cryst.   s( 1) = (     1          0          0      )
                  (     0          1          0      )
                  (     0          0          1      )

 cart.    s( 1) = (  1.0000000  0.0000000  0.0000000 )
                  (  0.0000000  1.0000000  0.0000000 )
                  (  0.0000000  0.0000000  1.0000000 )


      isym =  2     180 deg rotation - cart. axis [1,0,0]        

 cryst.   s( 2) = (     1          0          0      )    f =( -0.3333333 )
                  (    -1         -1          0      )       (  0.3333333 )
                  (     0          0         -1      )       (  0.0000000 )

 cart.    s( 2) = (  1.0000000  0.0000000  0.0000000 )    f =( -0.5000000 )
                  (  0.0000000 -1.0000000  0.0000000 )       (  0.2886751 )
                  (  0.0000000  0.0000000 -1.0000000 )       (  0.0000000 )


      isym =  3     120 deg rotation - cryst. axis [0,0,1]       

 cryst.   s( 3) = (     0          1          0      )
                  (    -1         -1          0      )
                  (     0          0          1      )

 cart.    s( 3) = ( -0.5000000 -0.8660254  0.0000000 )
                  (  0.8660254 -0.5000000  0.0000000 )
                  (  0.0000000  0.0000000  1.0000000 )


      isym =  4     120 deg rotation - cryst. axis [0,0,-1]      

 cryst.   s( 4) = (    -1         -1          0      )
                  (     1          0          0      )
                  (     0          0          1      )

 cart.    s( 4) = ( -0.5000000  0.8660254  0.0000000 )
                  ( -0.8660254 -0.5000000  0.0000000 )
                  (  0.0000000  0.0000000  1.0000000 )


      isym =  5     180 deg rotation - cryst. axis [0,1,0]       

 cryst.   s( 5) = (    -1         -1          0      )    f =( -0.3333333 )
                  (     0          1          0      )       (  0.3333333 )
                  (     0          0         -1      )       (  0.0000000 )

 cart.    s( 5) = ( -0.5000000 -0.8660254  0.0000000 )    f =( -0.5000000 )
                  ( -0.8660254  0.5000000  0.0000000 )       (  0.2886751 )
                  (  0.0000000  0.0000000 -1.0000000 )       (  0.0000000 )


      isym =  6     180 deg rotation - cryst. axis [1,1,0]       

 cryst.   s( 6) = (     0          1          0      )    f =( -0.3333333 )
                  (     1          0          0      )       (  0.3333333 )
                  (     0          0         -1      )       (  0.0000000 )

 cart.    s( 6) = ( -0.5000000  0.8660254  0.0000000 )    f =( -0.5000000 )
                  (  0.8660254  0.5000000  0.0000000 )       (  0.2886751 )
                  (  0.0000000  0.0000000 -1.0000000 )       (  0.0000000 )


      isym =  7     inversion                                    

 cryst.   s( 7) = (    -1          0          0      )    f =( -0.3333333 )
                  (     0         -1          0      )       (  0.3333333 )
                  (     0          0         -1      )       (  0.0000000 )

 cart.    s( 7) = ( -1.0000000  0.0000000  0.0000000 )    f =( -0.5000000 )
                  (  0.0000000 -1.0000000  0.0000000 )       (  0.2886751 )
                  (  0.0000000  0.0000000 -1.0000000 )       (  0.0000000 )


      isym =  8     inv. 180 deg rotation - cart. axis [1,0,0]   

 cryst.   s( 8) = (    -1          0          0      )
                  (     1          1          0      )
                  (     0          0          1      )

 cart.    s( 8) = ( -1.0000000  0.0000000  0.0000000 )
                  (  0.0000000  1.0000000  0.0000000 )
                  (  0.0000000  0.0000000  1.0000000 )


      isym =  9     inv. 120 deg rotation - cryst. axis [0,0,1]  

 cryst.   s( 9) = (     0         -1          0      )    f =( -0.3333333 )
                  (     1          1          0      )       (  0.3333333 )
                  (     0          0         -1      )       (  0.0000000 )

 cart.    s( 9) = (  0.5000000  0.8660254  0.0000000 )    f =( -0.5000000 )
                  ( -0.8660254  0.5000000  0.0000000 )       (  0.2886751 )
                  (  0.0000000  0.0000000 -1.0000000 )       (  0.0000000 )


      isym = 10     inv. 120 deg rotation - cryst. axis [0,0,-1] 

 cryst.   s(10) = (     1          1          0      )    f =( -0.3333333 )
                  (    -1          0          0      )       (  0.3333333 )
                  (     0          0         -1      )       (  0.0000000 )

 cart.    s(10) = (  0.5000000 -0.8660254  0.0000000 )    f =( -0.5000000 )
                  (  0.8660254  0.5000000  0.0000000 )       (  0.2886751 )
                  (  0.0000000  0.0000000 -1.0000000 )       (  0.0000000 )


      isym = 11     inv. 180 deg rotation - cryst. axis [0,1,0]  

 cryst.   s(11) = (     1          1          0      )
                  (     0         -1          0      )
                  (     0          0          1      )

 cart.    s(11) = (  0.5000000  0.8660254  0.0000000 )
                  (  0.8660254 -0.5000000  0.0000000 )
                  (  0.0000000  0.0000000  1.0000000 )


      isym = 12     inv. 180 deg rotation - cryst. axis [1,1,0]  

 cryst.   s(12) = (     0         -1          0      )
                  (    -1          0          0      )
                  (     0          0          1      )

 cart.    s(12) = (  0.5000000 -0.8660254  0.0000000 )
                  ( -0.8660254 -0.5000000  0.0000000 )
                  (  0.0000000  0.0000000  1.0000000 )


   Cartesian axes

     site n.     atom                  positions (alat units)
         1        C      tau(   1) = (   0.0000000   0.0000000   4.0650407  )
         2        C      tau(   2) = (   0.5000000   0.2886751   4.0650407  )
         3        C      tau(   3) = (   0.5000000   0.2886751   5.4268293  )
         4        C      tau(   4) = (   0.0000000   0.5773503   5.4268293  )

     --------------------------------------------
     DFT-D3 Dispersion Correction (3-body terms):
     --------------------------------------------
       Reference C6 values for interpolation: 

         atom   Coordination number   C6
         C          0.000            98.23
         C          0.987            86.49
         C          1.998            58.72
         C          2.999            51.56
         C          3.984            36.41

       Values used:

         atom   Coordination number  R0_AB[au]  C6      C8
         C          3.322            2.750     48.11   1391.50
         C          3.323            2.750     48.11   1391.37
         C          3.323            2.750     48.11   1391.37
         C          3.322            2.750     48.11   1391.50

         Molecular C6 ( Ry / a.u.^6 ) =       769.77


   Crystallographic axes

     site n.     atom                  positions (cryst. coord.)
         1        C      tau(   1) = (  0.0000000  0.0000000  0.4282655  )
         2        C      tau(   2) = (  0.6666667  0.3333333  0.4282655  )
         3        C      tau(   3) = (  0.6666667  0.3333333  0.5717345  )
         4        C      tau(   4) = (  0.3333333  0.6666667  0.5717345  )

     number of k points=    27  Gaussian smearing, width (Ry)=  0.0100
                       cart. coord. in units 2pi/alat
        k(    1) = (   0.0000000   0.0000000   0.0000000), wk =   0.0088889
        k(    2) = (   0.0000000   0.0769800   0.0000000), wk =   0.0533333
        k(    3) = (   0.0000000   0.1539601   0.0000000), wk =   0.0533333
        k(    4) = (   0.0000000   0.2309401   0.0000000), wk =   0.0533333
        k(    5) = (   0.0000000   0.3079201   0.0000000), wk =   0.0533333
        k(    6) = (   0.0000000   0.3849002   0.0000000), wk =   0.0533333
        k(    7) = (   0.0000000   0.4618802   0.0000000), wk =   0.0533333
        k(    8) = (   0.0000000   0.5388603   0.0000000), wk =   0.0533333
        k(    9) = (   0.0666667   0.1154701   0.0000000), wk =   0.0533333
        k(   10) = (   0.0666667   0.1924501   0.0000000), wk =   0.1066667
        k(   11) = (   0.0666667   0.2694301   0.0000000), wk =   0.1066667
        k(   12) = (   0.0666667   0.3464102   0.0000000), wk =   0.1066667
        k(   13) = (   0.0666667   0.4233902   0.0000000), wk =   0.1066667
        k(   14) = (   0.0666667   0.5003702   0.0000000), wk =   0.1066667
        k(   15) = (   0.0666667   0.5773503   0.0000000), wk =   0.0533333
        k(   16) = (   0.1333333   0.2309401   0.0000000), wk =   0.0533333
        k(   17) = (   0.1333333   0.3079201   0.0000000), wk =   0.1066667
        k(   18) = (   0.1333333   0.3849002   0.0000000), wk =   0.1066667
        k(   19) = (   0.1333333   0.4618802   0.0000000), wk =   0.1066667
        k(   20) = (   0.1333333   0.5388603   0.0000000), wk =   0.1066667
        k(   21) = (   0.2000000   0.3464102   0.0000000), wk =   0.0533333
        k(   22) = (   0.2000000   0.4233902   0.0000000), wk =   0.1066667
        k(   23) = (   0.2000000   0.5003702   0.0000000), wk =   0.1066667
        k(   24) = (   0.2000000   0.5773503   0.0000000), wk =   0.0533333
        k(   25) = (   0.2666667   0.4618802   0.0000000), wk =   0.0533333
        k(   26) = (   0.2666667   0.5388603   0.0000000), wk =   0.1066667
        k(   27) = (   0.3333333   0.5773503   0.0000000), wk =   0.0177778

                       cryst. coord.
        k(    1) = (   0.0000000   0.0000000   0.0000000), wk =   0.0088889
        k(    2) = (   0.0000000   0.0666667   0.0000000), wk =   0.0533333
        k(    3) = (   0.0000000   0.1333333   0.0000000), wk =   0.0533333
        k(    4) = (   0.0000000   0.2000000   0.0000000), wk =   0.0533333
        k(    5) = (   0.0000000   0.2666667   0.0000000), wk =   0.0533333
        k(    6) = (   0.0000000   0.3333333   0.0000000), wk =   0.0533333
        k(    7) = (   0.0000000   0.4000000   0.0000000), wk =   0.0533333
        k(    8) = (   0.0000000   0.4666667   0.0000000), wk =   0.0533333
        k(    9) = (   0.0666667   0.0666667   0.0000000), wk =   0.0533333
        k(   10) = (   0.0666667   0.1333333   0.0000000), wk =   0.1066667
        k(   11) = (   0.0666667   0.2000000   0.0000000), wk =   0.1066667
        k(   12) = (   0.0666667   0.2666667   0.0000000), wk =   0.1066667
        k(   13) = (   0.0666667   0.3333333   0.0000000), wk =   0.1066667
        k(   14) = (   0.0666667   0.4000000   0.0000000), wk =   0.1066667
        k(   15) = (   0.0666667   0.4666667   0.0000000), wk =   0.0533333
        k(   16) = (   0.1333333   0.1333333   0.0000000), wk =   0.0533333
        k(   17) = (   0.1333333   0.2000000   0.0000000), wk =   0.1066667
        k(   18) = (   0.1333333   0.2666667   0.0000000), wk =   0.1066667
        k(   19) = (   0.1333333   0.3333333   0.0000000), wk =   0.1066667
        k(   20) = (   0.1333333   0.4000000   0.0000000), wk =   0.1066667
        k(   21) = (   0.2000000   0.2000000   0.0000000), wk =   0.0533333
        k(   22) = (   0.2000000   0.2666667   0.0000000), wk =   0.1066667
        k(   23) = (   0.2000000   0.3333333   0.0000000), wk =   0.1066667
        k(   24) = (   0.2000000   0.4000000   0.0000000), wk =   0.0533333
        k(   25) = (   0.2666667   0.2666667   0.0000000), wk =   0.0533333
        k(   26) = (   0.2666667   0.3333333   0.0000000), wk =   0.1066667
        k(   27) = (   0.3333333   0.3333333   0.0000000), wk =   0.0177778

     Dense  grid:   111671 G-vectors     FFT dimensions: (  30,  30, 288)

     Smooth grid:    52021 G-vectors     FFT dimensions: (  24,  24, 225)

     Dynamical RAM for                 wfc:       1.38 MB

     Dynamical RAM for     wfc (w. buffer):      11.08 MB

     Dynamical RAM for           str. fact:       1.70 MB

     Dynamical RAM for           local pot:       0.00 MB

     Dynamical RAM for          nlocal pot:       3.16 MB

     Dynamical RAM for                qrad:       0.46 MB

     Dynamical RAM for          rho,v,vnew:      11.04 MB

     Dynamical RAM for               rhoin:       3.68 MB

     Dynamical RAM for            rho*nmix:      27.26 MB

     Dynamical RAM for           G-vectors:       6.79 MB

     Dynamical RAM for          h,s,v(r/c):       0.04 MB

     Dynamical RAM for          <psi|beta>:       0.01 MB

     Dynamical RAM for                 psi:       2.77 MB

     Dynamical RAM for                hpsi:       2.77 MB

     Dynamical RAM for                spsi:       2.77 MB

     Dynamical RAM for      wfcinit/wfcrot:       2.77 MB

     Dynamical RAM for           addusdens:      21.30 MB

     Dynamical RAM for          addusforce:      23.43 MB

     Estimated static dynamical RAM per process >      51.21 MB

     Estimated max dynamical RAM per process >     101.91 MB

     Estimated total dynamical RAM >     325.84 MB

     Check: negative core charge=   -0.000003

     Initial potential from superposition of free atoms

     starting charge      15.9998, renormalised to      16.0000

     negative rho (up, down):  1.246E-04 0.000E+00
     Starting wfcs are   16 randomized atomic wfcs
     Checking if some PAW data can be deallocated... 

     total cpu time spent up to now is        3.4 secs

     Self-consistent Calculation

     iteration #  1     ecut=    60.00 Ry     beta= 0.70
     Davidson diagonalization with overlap

---- Real-time Memory Report at c_bands before calling an iterative solver
           103 MiB given to the printing process from OS
             0 MiB allocation reported by mallinfo(arena+hblkhd)
          6375 MiB available memory on the node where the printing process lives
------------------
     ethr =  1.00E-02,  avg # of iterations =  5.4

     negative rho (up, down):  1.210E-04 0.000E+00

     total cpu time spent up to now is        7.4 secs

     total energy              =     -73.74225512 Ry
     estimated scf accuracy    <       0.37527266 Ry

     iteration #  2     ecut=    60.00 Ry     beta= 0.70
     Davidson diagonalization with overlap

---- Real-time Memory Report at c_bands before calling an iterative solver
           128 MiB given to the printing process from OS
             0 MiB allocation reported by mallinfo(arena+hblkhd)
          6289 MiB available memory on the node where the printing process lives
------------------
     ethr =  2.35E-03,  avg # of iterations =  7.6

     negative rho (up, down):  1.342E-04 0.000E+00

     total cpu time spent up to now is       10.3 secs

     total energy              =     -73.78972530 Ry
     estimated scf accuracy    <       0.00433657 Ry

     iteration #  3     ecut=    60.00 Ry     beta= 0.70
     Davidson diagonalization with overlap

---- Real-time Memory Report at c_bands before calling an iterative solver
           130 MiB given to the printing process from OS
             0 MiB allocation reported by mallinfo(arena+hblkhd)
          6289 MiB available memory on the node where the printing process lives
------------------
     ethr =  2.71E-05,  avg # of iterations = 10.5

     negative rho (up, down):  1.415E-04 0.000E+00

     total cpu time spent up to now is       14.2 secs

     total energy              =     -73.79028976 Ry
     estimated scf accuracy    <       0.00068206 Ry

     iteration #  4     ecut=    60.00 Ry     beta= 0.70
     Davidson diagonalization with overlap

---- Real-time Memory Report at c_bands before calling an iterative solver
           131 MiB given to the printing process from OS
             0 MiB allocation reported by mallinfo(arena+hblkhd)
          6340 MiB available memory on the node where the printing process lives
------------------
     ethr =  4.26E-06,  avg # of iterations =  8.6

     negative rho (up, down):  1.447E-04 0.000E+00

     total cpu time spent up to now is       17.1 secs

     total energy              =     -73.79041455 Ry
     estimated scf accuracy    <       0.00051320 Ry

     iteration #  5     ecut=    60.00 Ry     beta= 0.70
     Davidson diagonalization with overlap

---- Real-time Memory Report at c_bands before calling an iterative solver
           133 MiB given to the printing process from OS
             0 MiB allocation reported by mallinfo(arena+hblkhd)
          6324 MiB available memory on the node where the printing process lives
------------------
     ethr =  3.21E-06,  avg # of iterations =  3.3

     negative rho (up, down):  1.451E-04 0.000E+00

     total cpu time spent up to now is       19.6 secs

     total energy              =     -73.79051636 Ry
     estimated scf accuracy    <       0.00000153 Ry

     iteration #  6     ecut=    60.00 Ry     beta= 0.70
     Davidson diagonalization with overlap

---- Real-time Memory Report at c_bands before calling an iterative solver
           134 MiB given to the printing process from OS
             0 MiB allocation reported by mallinfo(arena+hblkhd)
          6322 MiB available memory on the node where the printing process lives
------------------
     ethr =  9.58E-09,  avg # of iterations =  3.3

     negative rho (up, down):  1.452E-04 0.000E+00

     total cpu time spent up to now is       22.6 secs

     total energy              =     -73.79051741 Ry
     estimated scf accuracy    <       0.00000013 Ry

     iteration #  7     ecut=    60.00 Ry     beta= 0.70
     Davidson diagonalization with overlap

---- Real-time Memory Report at c_bands before calling an iterative solver
           136 MiB given to the printing process from OS
             0 MiB allocation reported by mallinfo(arena+hblkhd)
          6337 MiB available memory on the node where the printing process lives
------------------
     ethr =  8.40E-10,  avg # of iterations =  2.1

     negative rho (up, down):  1.452E-04 0.000E+00

     total cpu time spent up to now is       24.8 secs

     total energy              =     -73.79051743 Ry
     estimated scf accuracy    <       0.00000001 Ry

     iteration #  8     ecut=    60.00 Ry     beta= 0.70
     Davidson diagonalization with overlap

---- Real-time Memory Report at c_bands before calling an iterative solver
           138 MiB given to the printing process from OS
             0 MiB allocation reported by mallinfo(arena+hblkhd)
          6316 MiB available memory on the node where the printing process lives
------------------
     ethr =  8.04E-11,  avg # of iterations =  2.1

     negative rho (up, down):  1.452E-04 0.000E+00

     total cpu time spent up to now is       27.7 secs

     End of self-consistent calculation

          k = 0.0000 0.0000 0.0000 (  6469 PWs)   bands (ev):

   -20.6498 -20.4980  -9.1376  -8.1587  -4.0368  -4.0368  -4.0276  -4.0276
     2.3359   2.6469   2.9871   3.7769   4.2928   5.7894

     occupation numbers 
     1.0000   1.0000   1.0000   1.0000   1.0000   1.0000   1.0000   1.0000
     0.0000   0.0000   0.0000   0.0000   0.0000   0.0000

          k = 0.0000 0.0770 0.0000 (  6464 PWs)   bands (ev):

   -20.5439 -20.3931  -9.0096  -8.0347  -4.4651  -4.4506  -4.2625  -4.2497
     2.4788   2.7915   3.1331   3.9220   4.4351   5.9325

     occupation numbers 
     1.0000   1.0000   1.0000   1.0000   1.0000   1.0000   1.0000   1.0000
     0.0000   0.0000   0.0000   0.0000   0.0000   0.0000

          k = 0.0000 0.1540 0.0000 (  6496 PWs)   bands (ev):

   -20.2269 -20.0790  -8.6274  -7.6649  -5.6022  -5.5764  -4.8326  -4.8144
     2.9076   3.2248   3.5712   4.3572   4.8619   6.3614

     occupation numbers 
     1.0000   1.0000   1.0000   1.0000   1.0000   1.0000   1.0000   1.0000
     0.0000   0.0000   0.0000   0.0000   0.0000   0.0000

          k = 0.0000 0.2309 0.0000 (  6474 PWs)   bands (ev):

   -19.7010 -19.5580  -7.9975  -7.1616  -7.1229  -7.0565  -5.5439  -5.5218
     3.6210   3.9449   4.3013   5.0808   5.5704   7.0069

     occupation numbers 
     1.0000   1.0000   1.0000   1.0000   1.0000   1.0000   1.0000   1.0000
     0.0000   0.0000   0.0000   0.0000   0.0000   0.0000

          k = 0.0000 0.3079 0.0000 (  6492 PWs)   bands (ev):

   -18.9706 -18.8342  -8.9068  -8.8532  -7.1331  -6.2355  -6.2288  -6.2108
     4.6153   4.9285   5.3227   5.6616   5.9821   6.1247

     occupation numbers 
     1.0000   1.0000   1.0000   1.0000   1.0000   1.0000   1.0000   1.0000
     0.0000   0.0000   0.0000   0.0000   0.0000   0.0000

          k = 0.0000 0.3849 0.0000 (  6484 PWs)   bands (ev):

   -18.0431 -17.9151 -10.6849 -10.6175  -6.8104  -6.7841  -6.0635  -5.2180
     3.7185   4.1796   5.8828   6.2546   6.6187   6.7301

     occupation numbers 
     1.0000   1.0000   1.0000   1.0000   1.0000   1.0000   1.0000   1.0000
     0.0000   0.0000   0.0000   0.0000   0.0000   0.0000

          k = 0.0000 0.4619 0.0000 (  6490 PWs)   bands (ev):

   -16.9342 -16.8169 -12.3962 -12.3165  -7.2159  -7.1887  -4.8623  -4.1292
     1.9373   2.4495   6.4907   6.6728   7.4669   7.8370

     occupation numbers 
     1.0000   1.0000   1.0000   1.0000   1.0000   1.0000   1.0000   1.0000
     0.0000   0.0000   0.0000   0.0000   0.0000   0.0000

          k = 0.0000 0.5389 0.0000 (  6524 PWs)   bands (ev):

   -15.7158 -15.6196 -13.9150 -13.8348  -7.4246  -7.3969  -3.7858  -3.3133
     0.7146   1.1311   6.3850   6.5839   9.2484   9.6617

     occupation numbers 
     1.0000   1.0000   1.0000   1.0000   1.0000   1.0000   1.0000   1.0000
     0.0000   0.0000   0.0000   0.0000   0.0000   0.0000

          k = 0.0667 0.1155 0.0000 (  6499 PWs)   bands (ev):

   -20.3324 -20.1836  -8.7545  -7.7878  -5.1917  -5.1775  -4.7096  -4.6987
     2.7647   3.0805   3.4252   4.2122   4.7199   6.2190

     occupation numbers 
     1.0000   1.0000   1.0000   1.0000   1.0000   1.0000   1.0000   1.0000
     0.0000   0.0000   0.0000   0.0000   0.0000   0.0000

          k = 0.0667 0.1925 0.0000 (  6491 PWs)   bands (ev):

   -19.9110 -19.7660  -8.2482  -7.2988  -6.4501  -6.4233  -5.4434  -5.4252
     3.3362   3.6576   4.0094   4.7921   5.2889   6.7897

     occupation numbers 
     1.0000   1.0000   1.0000   1.0000   1.0000   1.0000   1.0000   1.0000
     0.0000   0.0000   0.0000   0.0000   0.0000   0.0000

          k = 0.0667 0.2694 0.0000 (  6480 PWs)   bands (ev):

   -19.2828 -19.1436  -8.0450  -8.0017  -7.4999  -6.5792  -6.2070  -6.1820
     4.1911   4.5182   4.8855   5.6561   6.1344   6.4779

     occupation numbers 
     1.0000   1.0000   1.0000   1.0000   1.0000   1.0000   1.0000   1.0000
     0.0000   0.0000   0.0000   0.0000   0.0000   0.0000

          k = 0.0667 0.3464 0.0000 (  6491 PWs)   bands (ev):

   -18.4538 -18.3221  -9.7766  -9.7178  -6.8724  -6.8436  -6.5294  -5.6543
     4.5972   4.9877   5.3286   5.6929   6.0526   6.8184

     occupation numbers 
     1.0000   1.0000   1.0000   1.0000   1.0000   1.0000   1.0000   1.0000
     0.0000   0.0000   0.0000   0.0000   0.0000   0.0000

          k = 0.0667 0.4234 0.0000 (  6487 PWs)   bands (ev):

   -17.4344 -17.3121 -11.5076 -11.4350  -7.3780  -7.3471  -5.3806  -4.5839
     2.7595   3.2320   6.7117   7.0124   7.1642   7.2561

     occupation numbers 
     1.0000   1.0000   1.0000   1.0000   1.0000   1.0000   1.0000   1.0000
     0.0000   0.0000   0.0000   0.0000   0.0000   0.0000

          k = 0.0667 0.5004 0.0000 (  6503 PWs)   bands (ev):

   -16.2535 -16.1441 -13.1363 -13.0534  -7.6918  -7.6598  -4.1825  -3.5545
     1.1940   1.6638   6.8904   7.0901   8.4272   8.8100

     occupation numbers 
     1.0000   1.0000   1.0000   1.0000   1.0000   1.0000   1.0000   1.0000
     0.0000   0.0000   0.0000   0.0000   0.0000   0.0000

          k = 0.0667 0.5774 0.0000 (  6480 PWs)   bands (ev):

   -15.2621 -15.2055 -14.2343 -14.1920  -7.7979  -7.7656  -3.4720  -3.1141
     0.5331   0.8594   6.8358   7.0433  10.2673  10.3542

     occupation numbers 
     1.0000   1.0000   1.0000   1.0000   1.0000   1.0000   1.0000   1.0000
     0.0000   0.0000   0.0000   0.0000   0.0000   0.0000

          k = 0.1333 0.2309 0.0000 (  6457 PWs)   bands (ev):

   -19.3873 -19.2471  -7.6240  -7.5497  -7.5276  -6.6969  -6.4093  -6.3929
     4.0497   4.3773   4.7399   5.5162   6.0001   6.8020

     occupation numbers 
     1.0000   1.0000   1.0000   1.0000   1.0000   1.0000   1.0000   1.0000
     0.0000   0.0000   0.0000   0.0000   0.0000   0.0000

          k = 0.1333 0.3079 0.0000 (  6480 PWs)   bands (ev):

   -18.6605 -18.5269  -8.9572  -8.9172  -7.3244  -7.2971  -6.7654  -5.8761
     5.0430   5.1936   5.3993   5.4796   5.7622   6.5288

     occupation numbers 
     1.0000   1.0000   1.0000   1.0000   1.0000   1.0000   1.0000   1.0000
     0.0000   0.0000   0.0000   0.0000   0.0000   0.0000

          k = 0.1333 0.3849 0.0000 (  6474 PWs)   bands (ev):

   -17.7388 -17.6136 -10.5631 -10.5032  -8.0052  -7.9686  -5.7027  -4.8721
     3.4797   3.8415   6.3157   6.6651   7.0749   7.8196

     occupation numbers 
     1.0000   1.0000   1.0000   1.0000   1.0000   1.0000   1.0000   1.0000
     0.0000   0.0000   0.0000   0.0000   0.0000   0.0000

          k = 0.1333 0.4619 0.0000 (  6494 PWs)   bands (ev):

   -16.6393 -16.5248 -12.1882 -12.1133  -8.4533  -8.4125  -4.5036  -3.7800
     1.8136   2.2391   7.8346   8.1330   8.2923   8.4342

     occupation numbers 
     1.0000   1.0000   1.0000   1.0000   1.0000   1.0000   1.0000   1.0000
     0.0000   0.0000   0.0000   0.0000   0.0000   0.0000

          k = 0.1333 0.5389 0.0000 (  6490 PWs)   bands (ev):

   -15.4365 -15.3430 -13.6609 -13.5844  -8.6769  -8.6344  -3.4098  -2.9369
     0.6318   0.9593   8.0886   8.3261   9.6357   9.9467

     occupation numbers 
     1.0000   1.0000   1.0000   1.0000   1.0000   1.0000   1.0000   1.0000
     0.0000   0.0000   0.0000   0.0000   0.0000   0.0000

          k = 0.2000 0.3464 0.0000 (  6482 PWs)   bands (ev):

   -17.8408 -17.7148  -9.9684  -9.9363  -8.5009  -8.4771  -5.8118  -4.9706
     3.7966   4.0680   6.1762   6.5125   6.9299   7.6740

     occupation numbers 
     1.0000   1.0000   1.0000   1.0000   1.0000   1.0000   1.0000   1.0000
     0.0000   0.0000   0.0000   0.0000   0.0000   0.0000

          k = 0.2000 0.4234 0.0000 (  6465 PWs)   bands (ev):

   -16.8368 -16.7202 -11.2665 -11.2132  -9.3311  -9.2922  -4.6779  -3.9120
     2.2886   2.6077   7.5729   7.8931   8.3863   9.0831

     occupation numbers 
     1.0000   1.0000   1.0000   1.0000   1.0000   1.0000   1.0000   1.0000
     0.0000   0.0000   0.0000   0.0000   0.0000   0.0000

          k = 0.2000 0.5004 0.0000 (  6474 PWs)   bands (ev):

   -15.6811 -15.5775 -12.7077 -12.6356  -9.7639  -9.7144  -3.4697  -2.8503
     0.8904   1.2253   9.2001   9.3726   9.8486   9.9940

     occupation numbers 
     1.0000   1.0000   1.0000   1.0000   1.0000   1.0000   1.0000   1.0000
     0.0000   0.0000   0.0000   0.0000   0.0000   0.0000

          k = 0.2000 0.5774 0.0000 (  6484 PWs)   bands (ev):

   -14.7201 -14.6665 -13.7350 -13.7007  -9.8982  -9.8461  -2.7028  -2.3526
     0.2919   0.3797   9.6838  10.0014  10.3451  10.5446

     occupation numbers 
     1.0000   1.0000   1.0000   1.0000   1.0000   1.0000   1.0000   1.0000
     0.0000   0.0000   0.0000   0.0000   0.0000   0.0000

          k = 0.2667 0.4619 0.0000 (  6452 PWs)   bands (ev):

   -15.7707 -15.6651 -12.0418 -12.0013 -10.4570 -10.4278  -3.5041  -2.8334
     1.0393   1.3525   9.0691   9.1952   9.9045  10.0918

     occupation numbers 
     1.0000   1.0000   1.0000   1.0000   1.0000   1.0000   1.0000   1.0000
     0.0000   0.0000   0.0000   0.0000   0.0000   0.0000

          k = 0.2667 0.5389 0.0000 (  6444 PWs)   bands (ev):

   -14.6177 -14.5320 -13.1005 -13.0448 -11.0080 -10.9633  -2.3378  -1.8564
    -0.0681   0.2023   9.7349   9.8645  10.6995  11.4312

     occupation numbers 
     1.0000   1.0000   1.0000   1.0000   1.0000   1.0000   1.0000   1.0000
     0.0000   0.0000   0.0000   0.0000   0.0000   0.0000

          k = 0.3333 0.5774 0.0000 (  6450 PWs)   bands (ev):

   -13.6655 -13.6151 -13.6151 -13.5696 -11.6086 -11.6086  -1.3305  -1.0011
    -1.0011  -0.6516   9.5991   9.5991  11.6486  11.9959

     occupation numbers 
     1.0000   1.0000   1.0000   1.0000   1.0000   1.0000   0.9997   0.5001
     0.5001   0.0001   0.0000   0.0000   0.0000   0.0000

     the Fermi energy is    -1.0011 ev

!    total energy              =     -73.79051744 Ry
     total all-electron energy =      -304.846906 Ry
     estimated scf accuracy    <          2.4E-09 Ry
     smearing contrib. (-TS)   =      -0.00010051 Ry
     internal energy E=F+TS    =     -73.79041693 Ry

     The total energy is F=E-TS. E is the sum of the following terms:
     one-electron contribution =    -708.00968149 Ry
     hartree contribution      =     357.67897732 Ry
     xc contribution           =     -18.57729879 Ry
     ewald contribution        =     319.80421578 Ry
     DFT-D3 Dispersion         =      -0.01771444 Ry
     one-center paw contrib.   =     -24.66891530 Ry
      -> PAW hartree energy AE =       9.53510668 Ry
      -> PAW hartree energy PS =      -9.52642484 Ry
      -> PAW xc energy AE      =     -10.68490963 Ry
      -> PAW xc energy PS      =       4.50903232 Ry
      -> total E_H with PAW    =     357.68765916 Ry
      -> total E_XC with PAW   =     -24.75317610 Ry

     convergence has been achieved in   8 iterations

     negative rho (up, down):  1.452E-04 0.000E+00

     Forces acting on atoms (cartesian axes, Ry/au):

     atom    1 type  1   force =     0.00000000   -0.00000000   -0.00129091
     atom    2 type  1   force =     0.00000000    0.00000000   -0.00057733
     atom    3 type  1   force =     0.00000000    0.00000000    0.00057733
     atom    4 type  1   force =     0.00000000   -0.00000000    0.00129091
     The non-local contrib.  to forces
     atom    1 type  1   force =     0.00000000   -0.00000000   -0.00270818
     atom    2 type  1   force =     0.00000000    0.00000000   -0.00130277
     atom    3 type  1   force =     0.00000000    0.00000000    0.00130277
     atom    4 type  1   force =     0.00000000    0.00000000    0.00270818
     The ionic contribution  to forces
     atom    1 type  1   force =     0.00000000   -0.00000000  -15.31775822
     atom    2 type  1   force =    -0.00000000    0.00000000  -15.32270756
     atom    3 type  1   force =    -0.00000000   -0.00000000   15.32270756
     atom    4 type  1   force =     0.00000000    0.00000000   15.31775822
     The local contribution  to forces
     atom    1 type  1   force =     0.00000000   -0.00000000   15.31771769
     atom    2 type  1   force =    -0.00000000    0.00000000   15.32209732
     atom    3 type  1   force =    -0.00000000    0.00000000  -15.32209732
     atom    4 type  1   force =    -0.00000000    0.00000000  -15.31771769
     The core correction contribution to forces
     atom    1 type  1   force =     0.00000000    0.00000000    0.00011434
     atom    2 type  1   force =     0.00000000   -0.00000000    0.00009108
     atom    3 type  1   force =     0.00000000   -0.00000000   -0.00009108
     atom    4 type  1   force =     0.00000000   -0.00000000   -0.00011434
     The Hubbard contrib.    to forces
     atom    1 type  1   force =     0.00000000    0.00000000    0.00000000
     atom    2 type  1   force =     0.00000000    0.00000000    0.00000000
     atom    3 type  1   force =     0.00000000    0.00000000    0.00000000
     atom    4 type  1   force =     0.00000000    0.00000000    0.00000000
     The SCF correction term to forces
     atom    1 type  1   force =    -0.00000000   -0.00000000    0.00008460
     atom    2 type  1   force =     0.00000000    0.00000000    0.00008424
     atom    3 type  1   force =     0.00000000    0.00000000   -0.00008424
     atom    4 type  1   force =    -0.00000000   -0.00000000   -0.00008460

     DFT-D3 dispersion contribution to forces:
     atom    1 type  1   force =     0.00000000    0.00000000    0.00125887
     atom    2 type  1   force =    -0.00000000   -0.00000000    0.00116036
     atom    3 type  1   force =     0.00000000    0.00000000   -0.00116036
     atom    4 type  1   force =    -0.00000000   -0.00000000   -0.00125887

     Total force =     0.002000     Total SCF correction =     0.000169

     DFT-D3 dispersion Force =     0.002421

     BFGS Geometry Optimization
     Energy error            =      4.0E-06 Ry
     Gradient error          =      1.3E-03 Ry/Bohr

     number of scf cycles    =   1
     number of bfgs steps    =   0

     energy             new  =     -73.7905174367 Ry

     new trust radius        =       0.0012909082 bohr
     new conv_thr            =       0.0000000100 Ry


ATOMIC_POSITIONS (angstrom)
C                0.0000000000       -0.0000000000        9.9993168808
C                1.2300000000        0.7101408311        9.9996944886
C                1.2300000000        0.7101408311       13.3503055114
C                0.0000000000        1.4202816622       13.3506831192



     Writing config-only to output data dir /home/ubuntu/projects/Graphene-Band-Structure-Quantum-Espresso/outputs/field_0/coupled/data/coupled.save/ :
     XML data file
     NEW-OLD atomic charge density approx. for the potential

     Check: negative core charge=   -0.000003

     negative rho (up, down):  1.450E-04 0.000E+00

     total cpu time spent up to now is       29.0 secs

     Self-consistent Calculation

     iteration #  1     ecut=    60.00 Ry     beta= 0.70
     Davidson diagonalization with overlap

---- Real-time Memory Report at c_bands before calling an iterative solver
           140 MiB given to the printing process from OS
             0 MiB allocation reported by mallinfo(arena+hblkhd)
          6323 MiB available memory on the node where the printing process lives
------------------
     ethr =  1.00E-06,  avg # of iterations =  2.0

     Threshold (ethr) on eigenvalues was too large:
     Diagonalizing with lowered threshold

     Davidson diagonalization with overlap

---- Real-time Memory Report at c_bands before calling an iterative solver
           140 MiB given to the printing process from OS
             0 MiB allocation reported by mallinfo(arena+hblkhd)
          6324 MiB available memory on the node where the printing process lives
------------------
     ethr =  3.11E-09,  avg # of iterations =  2.3

     negative rho (up, down):  1.450E-04 0.000E+00

     total cpu time spent up to now is       33.9 secs

     total energy              =     -73.79052104 Ry
     estimated scf accuracy    <       0.00000064 Ry

     iteration #  2     ecut=    60.00 Ry     beta= 0.70
     Davidson diagonalization with overlap

---- Real-time Memory Report at c_bands before calling an iterative solver
           140 MiB given to the printing process from OS
             0 MiB allocation reported by mallinfo(arena+hblkhd)
          6331 MiB available memory on the node where the printing process lives
------------------
     ethr =  4.03E-09,  avg # of iterations =  2.0

     negative rho (up, down):  1.450E-04 0.000E+00

     total cpu time spent up to now is       36.5 secs

     total energy              =     -73.79052112 Ry
     estimated scf accuracy    <       0.00000052 Ry

     iteration #  3     ecut=    60.00 Ry     beta= 0.70
     Davidson diagonalization with overlap

---- Real-time Memory Report at c_bands before calling an iterative solver
           140 MiB given to the printing process from OS
             0 MiB allocation reported by mallinfo(arena+hblkhd)
          6316 MiB available memory on the node where the printing process lives
------------------
     ethr =  3.23E-09,  avg # of iterations =  2.0

     negative rho (up, down):  1.451E-04 0.000E+00

     total cpu time spent up to now is       39.2 secs

     total energy              =     -73.79052125 Ry
     estimated scf accuracy    <       0.00000001 Ry

     iteration #  4     ecut=    60.00 Ry     beta= 0.70
     Davidson diagonalization with overlap

---- Real-time Memory Report at c_bands before calling an iterative solver
           140 MiB given to the printing process from OS
             0 MiB allocation reported by mallinfo(arena+hblkhd)
          6328 MiB available memory on the node where the printing process lives
------------------
     ethr =  7.45E-11,  avg # of iterations =  1.9

     negative rho (up, down):  1.451E-04 0.000E+00

     total cpu time spent up to now is       41.7 secs

     End of self-consistent calculation

          k = 0.0000 0.0000 0.0000 (  6469 PWs)   bands (ev):

   -20.6494 -20.4980  -9.1368  -8.1593  -4.0366  -4.0366  -4.0274  -4.0274
     2.3359   2.6470   2.9871   3.7771   4.2927   5.7899

     occupation numbers 
     1.0000   1.0000   1.0000   1.0000   1.0000   1.0000   1.0000   1.0000
     0.0000   0.0000   0.0000   0.0000   0.0000   0.0000

          k = 0.0000 0.0770 0.0000 (  6464 PWs)   bands (ev):

   -20.5435 -20.3931  -9.0088  -8.0353  -4.4649  -4.4504  -4.2623  -4.2495
     2.4788   2.7916   3.1331   3.9223   4.4350   5.9330

     occupation numbers 
     1.0000   1.0000   1.0000   1.0000   1.0000   1.0000   1.0000   1.0000
     0.0000   0.0000   0.0000   0.0000   0.0000   0.0000

          k = 0.0000 0.1540 0.0000 (  6496 PWs)   bands (ev):

   -20.2265 -20.0790  -8.6267  -7.6656  -5.6019  -5.5762  -4.8324  -4.8143
     2.9075   3.2249   3.5712   4.3575   4.8617   6.3618

     occupation numbers 
     1.0000   1.0000   1.0000   1.0000   1.0000   1.0000   1.0000   1.0000
     0.0000   0.0000   0.0000   0.0000   0.0000   0.0000

          k = 0.0000 0.2309 0.0000 (  6474 PWs)   bands (ev):

   -19.7007 -19.5579  -7.9967  -7.1614  -7.1228  -7.0570  -5.5437  -5.5217
     3.6209   3.9450   4.3013   5.0811   5.5702   7.0058

     occupation numbers 
     1.0000   1.0000   1.0000   1.0000   1.0000   1.0000   1.0000   1.0000
     0.0000   0.0000   0.0000   0.0000   0.0000   0.0000

          k = 0.0000 0.3079 0.0000 (  6492 PWs)   bands (ev):

   -18.9702 -18.8342  -8.9066  -8.8531  -7.1324  -6.2352  -6.2294  -6.2106
     4.6151   4.9287   5.3227   5.6624   5.9812   6.1251

     occupation numbers 
     1.0000   1.0000   1.0000   1.0000   1.0000   1.0000   1.0000   1.0000
     0.0000   0.0000   0.0000   0.0000   0.0000   0.0000

          k = 0.0000 0.3849 0.0000 (  6484 PWs)   bands (ev):

   -18.0427 -17.9151 -10.6846 -10.6174  -6.8102  -6.7840  -6.0628  -5.2185
     3.7192   4.1792   5.8827   6.2546   6.6186   6.7302

     occupation numbers 
     1.0000   1.0000   1.0000   1.0000   1.0000   1.0000   1.0000   1.0000
     0.0000   0.0000   0.0000   0.0000   0.0000   0.0000

          k = 0.0000 0.4619 0.0000 (  6490 PWs)   bands (ev):

   -16.9339 -16.8168 -12.3960 -12.3164  -7.2157  -7.1886  -4.8616  -4.1296
     1.9380   2.4491   6.4911   6.6727   7.4668   7.8371

     occupation numbers 
     1.0000   1.0000   1.0000   1.0000   1.0000   1.0000   1.0000   1.0000
     0.0000   0.0000   0.0000   0.0000   0.0000   0.0000

          k = 0.0000 0.5389 0.0000 (  6524 PWs)   bands (ev):

   -15.7155 -15.6195 -13.9148 -13.8347  -7.4243  -7.3967  -3.7854  -3.3133
     0.7153   1.1305   6.3853   6.5839   9.2482   9.6618

     occupation numbers 
     1.0000   1.0000   1.0000   1.0000   1.0000   1.0000   1.0000   1.0000
     0.0000   0.0000   0.0000   0.0000   0.0000   0.0000

          k = 0.0667 0.1155 0.0000 (  6499 PWs)   bands (ev):

   -20.3321 -20.1835  -8.7537  -7.7884  -5.1915  -5.1773  -4.7094  -4.6985
     2.7647   3.0806   3.4252   4.2125   4.7197   6.2195

     occupation numbers 
     1.0000   1.0000   1.0000   1.0000   1.0000   1.0000   1.0000   1.0000
     0.0000   0.0000   0.0000   0.0000   0.0000   0.0000

          k = 0.0667 0.1925 0.0000 (  6491 PWs)   bands (ev):

   -19.9106 -19.7660  -8.2474  -7.2994  -6.4499  -6.4232  -5.4432  -5.4250
     3.3361   3.6577   4.0094   4.7924   5.2888   6.7901

     occupation numbers 
     1.0000   1.0000   1.0000   1.0000   1.0000   1.0000   1.0000   1.0000
     0.0000   0.0000   0.0000   0.0000   0.0000   0.0000

          k = 0.0667 0.2694 0.0000 (  6480 PWs)   bands (ev):

   -19.2825 -19.1436  -8.0448  -8.0015  -7.4992  -6.5798  -6.2068  -6.1819
     4.1911   4.5184   4.8855   5.6563   6.1341   6.4783

     occupation numbers 
     1.0000   1.0000   1.0000   1.0000   1.0000   1.0000   1.0000   1.0000
     0.0000   0.0000   0.0000   0.0000   0.0000   0.0000

          k = 0.0667 0.3464 0.0000 (  6491 PWs)   bands (ev):

   -18.4535 -18.3221  -9.7763  -9.7177  -6.8722  -6.8435  -6.5287  -5.6548
     4.5978   4.9874   5.3285   5.6930   6.0526   6.8186

     occupation numbers 
     1.0000   1.0000   1.0000   1.0000   1.0000   1.0000   1.0000   1.0000
     0.0000   0.0000   0.0000   0.0000   0.0000   0.0000

          k = 0.0667 0.4234 0.0000 (  6487 PWs)   bands (ev):

   -17.4341 -17.3121 -11.5074 -11.4349  -7.3778  -7.3470  -5.3799  -4.5843
     2.7601   3.2316   6.7116   7.0126   7.1645   7.2561

     occupation numbers 
     1.0000   1.0000   1.0000   1.0000   1.0000   1.0000   1.0000   1.0000
     0.0000   0.0000   0.0000   0.0000   0.0000   0.0000

          k = 0.0667 0.5004 0.0000 (  6503 PWs)   bands (ev):

   -16.2532 -16.1441 -13.1360 -13.0534  -7.6916  -7.6596  -4.1820  -3.5548
     1.1947   1.6634   6.8908   7.0901   8.4271   8.8101

     occupation numbers 
     1.0000   1.0000   1.0000   1.0000   1.0000   1.0000   1.0000   1.0000
     0.0000   0.0000   0.0000   0.0000   0.0000   0.0000

          k = 0.0667 0.5774 0.0000 (  6480 PWs)   bands (ev):

   -15.2618 -15.2054 -14.2341 -14.1919  -7.7977  -7.7655  -3.4716  -3.1140
     0.5337   0.8589   6.8362   7.0432  10.2672  10.3540

     occupation numbers 
     1.0000   1.0000   1.0000   1.0000   1.0000   1.0000   1.0000   1.0000
     0.0000   0.0000   0.0000   0.0000   0.0000   0.0000

          k = 0.1333 0.2309 0.0000 (  6457 PWs)   bands (ev):

   -19.3869 -19.2471  -7.6231  -7.5496  -7.5275  -6.6975  -6.4091  -6.3928
     4.0496   4.3774   4.7398   5.5165   5.9999   6.8023

     occupation numbers 
     1.0000   1.0000   1.0000   1.0000   1.0000   1.0000   1.0000   1.0000
     0.0000   0.0000   0.0000   0.0000   0.0000   0.0000

          k = 0.1333 0.3079 0.0000 (  6480 PWs)   bands (ev):

   -18.6601 -18.5269  -8.9570  -8.9171  -7.3241  -7.2969  -6.7646  -5.8767
     5.0426   5.1945   5.3995   5.4795   5.7622   6.5290

     occupation numbers 
     1.0000   1.0000   1.0000   1.0000   1.0000   1.0000   1.0000   1.0000
     0.0000   0.0000   0.0000   0.0000   0.0000   0.0000

          k = 0.1333 0.3849 0.0000 (  6474 PWs)   bands (ev):

   -17.7384 -17.6136 -10.5628 -10.5031  -8.0049  -7.9685  -5.7020  -4.8726
     3.4802   3.8413   6.3156   6.6652   7.0749   7.8197

     occupation numbers 
     1.0000   1.0000   1.0000   1.0000   1.0000   1.0000   1.0000   1.0000
     0.0000   0.0000   0.0000   0.0000   0.0000   0.0000

          k = 0.1333 0.4619 0.0000 (  6494 PWs)   bands (ev):

   -16.6390 -16.5248 -12.1879 -12.1133  -8.4531  -8.4123  -4.5029  -3.7804
     1.8142   2.2388   7.8344   8.1331   8.2925   8.4341

     occupation numbers 
     1.0000   1.0000   1.0000   1.0000   1.0000   1.0000   1.0000   1.0000
     0.0000   0.0000   0.0000   0.0000   0.0000   0.0000

          k = 0.1333 0.5389 0.0000 (  6490 PWs)   bands (ev):

   -15.4362 -15.3429 -13.6606 -13.5843  -8.6767  -8.6343  -3.4093  -2.9370
     0.6323   0.9590   8.0890   8.3261   9.6355   9.9469

     occupation numbers 
     1.0000   1.0000   1.0000   1.0000   1.0000   1.0000   1.0000   1.0000
     0.0000   0.0000   0.0000   0.0000   0.0000   0.0000

          k = 0.2000 0.3464 0.0000 (  6482 PWs)   bands (ev):

   -17.8405 -17.7148  -9.9681  -9.9362  -8.5007  -8.4769  -5.8111  -4.9711
     3.7969   4.0681   6.1761   6.5126   6.9299   7.6742

     occupation numbers 
     1.0000   1.0000   1.0000   1.0000   1.0000   1.0000   1.0000   1.0000
     0.0000   0.0000   0.0000   0.0000   0.0000   0.0000

          k = 0.2000 0.4234 0.0000 (  6465 PWs)   bands (ev):

   -16.8365 -16.7202 -11.2662 -11.2130  -9.3309  -9.2921  -4.6772  -3.9124
     2.2890   2.6077   7.5728   7.8932   8.3864   9.0832

     occupation numbers 
     1.0000   1.0000   1.0000   1.0000   1.0000   1.0000   1.0000   1.0000
     0.0000   0.0000   0.0000   0.0000   0.0000   0.0000

          k = 0.2000 0.5004 0.0000 (  6474 PWs)   bands (ev):

   -15.6808 -15.5774 -12.7074 -12.6355  -9.7636  -9.7143  -3.4692  -2.8506
     0.8908   1.2252   9.1999   9.3728   9.8489   9.9936

     occupation numbers 
     1.0000   1.0000   1.0000   1.0000   1.0000   1.0000   1.0000   1.0000
     0.0000   0.0000   0.0000   0.0000   0.0000   0.0000

          k = 0.2000 0.5774 0.0000 (  6484 PWs)   bands (ev):

   -14.7198 -14.6664 -13.7348 -13.7006  -9.8979  -9.8460  -2.7025  -2.3525
     0.2923   0.3795   9.6843  10.0013  10.3457  10.5432

     occupation numbers 
     1.0000   1.0000   1.0000   1.0000   1.0000   1.0000   1.0000   1.0000
     0.0000   0.0000   0.0000   0.0000   0.0000   0.0000

          k = 0.2667 0.4619 0.0000 (  6452 PWs)   bands (ev):

   -15.7704 -15.6651 -12.0416 -12.0012 -10.4568 -10.4276  -3.5035  -2.8337
     1.0396   1.3526   9.0689   9.1953   9.9037  10.0913

     occupation numbers 
     1.0000   1.0000   1.0000   1.0000   1.0000   1.0000   1.0000   1.0000
     0.0000   0.0000   0.0000   0.0000   0.0000   0.0000

          k = 0.2667 0.5389 0.0000 (  6444 PWs)   bands (ev):

   -14.6174 -14.5320 -13.1003 -13.0447 -11.0077 -10.9632  -2.3373  -1.8565
    -0.0678   0.2024   9.7351   9.8638  10.6994  11.4314

     occupation numbers 
     1.0000   1.0000   1.0000   1.0000   1.0000   1.0000   1.0000   1.0000
     0.0000   0.0000   0.0000   0.0000   0.0000   0.0000

          k = 0.3333 0.5774 0.0000 (  6450 PWs)   bands (ev):

   -13.6652 -13.6149 -13.6149 -13.5695 -11.6084 -11.6084  -1.3301  -1.0009
    -1.0009  -0.6517   9.5989   9.5989  11.6488  11.9959

     occupation numbers 
     1.0000   1.0000   1.0000   1.0000   1.0000   1.0000   0.9997   0.5001
     0.5001   0.0001   0.0000   0.0000   0.0000   0.0000

     the Fermi energy is    -1.0009 ev

!    total energy              =     -73.79052125 Ry
     total all-electron energy =      -304.846910 Ry
     estimated scf accuracy    <          1.7E-10 Ry
     smearing contrib. (-TS)   =      -0.00010051 Ry
     internal energy E=F+TS    =     -73.79042074 Ry

     The total energy is F=E-TS. E is the sum of the following terms:
     one-electron contribution =    -707.89541320 Ry
     hartree contribution      =     357.62190269 Ry
     xc contribution           =     -18.57726271 Ry
     ewald contribution        =     319.74697566 Ry
     DFT-D3 Dispersion         =      -0.01770986 Ry
     one-center paw contrib.   =     -24.66891333 Ry
      -> PAW hartree energy AE =       9.53506434 Ry
      -> PAW hartree energy PS =      -9.52638254 Ry
      -> PAW xc energy AE      =     -10.68489936 Ry
      -> PAW xc energy PS      =       4.50902240 Ry
      -> total E_H with PAW    =     357.63058450 Ry
      -> total E_XC with PAW   =     -24.75313967 Ry

     convergence has been achieved in   4 iterations

     negative rho (up, down):  1.451E-04 0.000E+00

     Forces acting on atoms (cartesian axes, Ry/au):

     atom    1 type  1   force =     0.00000000   -0.00000000   -0.00103852
     atom    2 type  1   force =     0.00000000    0.00000000   -0.00081835
     atom    3 type  1   force =     0.00000000    0.00000000    0.00081835
     atom    4 type  1   force =     0.00000000    0.00000000    0.00103852
     The non-local contrib.  to forces
     atom    1 type  1   force =    -0.00000000   -0.00000000   -0.00224600
     atom    2 type  1   force =     0.00000000    0.00000000   -0.00174691
     atom    3 type  1   force =     0.00000000   -0.00000000    0.00174691
     atom    4 type  1   force =     0.00000000    0.00000000    0.00224600
     The ionic contribution  to forces
     atom    1 type  1   force =     0.00000000   -0.00000000  -15.32051723
     atom    2 type  1   force =    -0.00000000    0.00000000  -15.31631992
     atom    3 type  1   force =    -0.00000000   -0.00000000   15.31631992
     atom    4 type  1   force =     0.00000000    0.00000000   15.32051723
     The local contribution  to forces
     atom    1 type  1   force =    -0.00000000   -0.00000000   15.32032936
     atom    2 type  1   force =    -0.00000000    0.00000000   15.31596864
     atom    3 type  1   force =     0.00000000    0.00000000  -15.31596864
     atom    4 type  1   force =    -0.00000000    0.00000000  -15.32032936
     The core correction contribution to forces
     atom    1 type  1   force =     0.00000000    0.00000000    0.00011276
     atom    2 type  1   force =     0.00000000   -0.00000000    0.00009539
     atom    3 type  1   force =     0.00000000   -0.00000000   -0.00009539
     atom    4 type  1   force =     0.00000000   -0.00000000   -0.00011276
     The Hubbard contrib.    to forces
     atom    1 type  1   force =     0.00000000    0.00000000    0.00000000
     atom    2 type  1   force =     0.00000000    0.00000000    0.00000000
     atom    3 type  1   force =     0.00000000    0.00000000    0.00000000
     atom    4 type  1   force =     0.00000000    0.00000000    0.00000000
     The SCF correction term to forces
     atom    1 type  1   force =    -0.00000000   -0.00000000    0.00002406
     atom    2 type  1   force =    -0.00000000   -0.00000000    0.00002386
     atom    3 type  1   force =    -0.00000000   -0.00000000   -0.00002386
     atom    4 type  1   force =     0.00000000    0.00000000   -0.00002406

     DFT-D3 dispersion contribution to forces:
     atom    1 type  1   force =     0.00000000    0.00000000    0.00125853
     atom    2 type  1   force =     0.00000000   -0.00000000    0.00116059
     atom    3 type  1   force =     0.00000000    0.00000000   -0.00116059
     atom    4 type  1   force =    -0.00000000   -0.00000000   -0.00125853

     Total force =     0.001870     Total SCF correction =     0.000048

     DFT-D3 dispersion Force =     0.002421
     Energy error            =      3.8E-06 Ry
     Gradient error          =      1.0E-03 Ry/Bohr

     number of scf cycles    =   2
     number of bfgs steps    =   1

     energy             old  =     -73.7905174367 Ry
     energy             new  =     -73.7905212491 Ry

     CASE: energy            _new < energy            _old


     WARNING: bfgs curvature condition failed, Theta= 0.882
     new trust radius        =       0.0014199990 bohr
     new conv_thr            =            1.0E-10 Ry


ATOMIC_POSITIONS (angstrom)
C                0.0000000000       -0.0000000000        9.9985654497
C                1.2300000000        0.7101408311        9.9992237617
C                1.2300000000        0.7101408311       13.3507762383
C                0.0000000000        1.4202816622       13.3514345503



     Writing config-only to output data dir /home/ubuntu/projects/Graphene-Band-Structure-Quantum-Espresso/outputs/field_0/coupled/data/coupled.save/ :
     XML data file
     NEW-OLD atomic charge density approx. for the potential

     Check: negative core charge=   -0.000003

     negative rho (up, down):  1.448E-04 0.000E+00

     total cpu time spent up to now is       42.9 secs

     Self-consistent Calculation

     iteration #  1     ecut=    60.00 Ry     beta= 0.70
     Davidson diagonalization with overlap

---- Real-time Memory Report at c_bands before calling an iterative solver
           140 MiB given to the printing process from OS
             0 MiB allocation reported by mallinfo(arena+hblkhd)
          6317 MiB available memory on the node where the printing process lives
------------------
     ethr =  1.00E-06,  avg # of iterations =  2.0

     Threshold (ethr) on eigenvalues was too large:
     Diagonalizing with lowered threshold

     Davidson diagonalization with overlap

---- Real-time Memory Report at c_bands before calling an iterative solver
           140 MiB given to the printing process from OS
             0 MiB allocation reported by mallinfo(arena+hblkhd)
          6318 MiB available memory on the node where the printing process lives
------------------
     ethr =  5.48E-09,  avg # of iterations =  2.0

     negative rho (up, down):  1.449E-04 0.000E+00

     total cpu time spent up to now is       47.8 secs

     total energy              =     -73.79052513 Ry
     estimated scf accuracy    <       0.00000108 Ry

     iteration #  2     ecut=    60.00 Ry     beta= 0.70
     Davidson diagonalization with overlap

---- Real-time Memory Report at c_bands before calling an iterative solver
           140 MiB given to the printing process from OS
             0 MiB allocation reported by mallinfo(arena+hblkhd)
          6345 MiB available memory on the node where the printing process lives
------------------
     ethr =  6.77E-09,  avg # of iterations =  2.0

     negative rho (up, down):  1.449E-04 0.000E+00

     total cpu time spent up to now is       50.3 secs

     total energy              =     -73.79052529 Ry
     estimated scf accuracy    <       0.00000093 Ry

     iteration #  3     ecut=    60.00 Ry     beta= 0.70
     Davidson diagonalization with overlap

---- Real-time Memory Report at c_bands before calling an iterative solver
           140 MiB given to the printing process from OS
             0 MiB allocation reported by mallinfo(arena+hblkhd)
          6309 MiB available memory on the node where the printing process lives
------------------
     ethr =  5.82E-09,  avg # of iterations =  2.0

     negative rho (up, down):  1.449E-04 0.000E+00

     total cpu time spent up to now is       52.7 secs

     total energy              =     -73.79052551 Ry
     estimated scf accuracy    <       0.00000002 Ry

     iteration #  4     ecut=    60.00 Ry     beta= 0.70
     Davidson diagonalization with overlap

---- Real-time Memory Report at c_bands before calling an iterative solver
           140 MiB given to the printing process from OS
             0 MiB allocation reported by mallinfo(arena+hblkhd)
          6326 MiB available memory on the node where the printing process lives
------------------
     ethr =  9.62E-11,  avg # of iterations =  1.6

     negative rho (up, down):  1.449E-04 0.000E+00

     total cpu time spent up to now is       55.0 secs

     total energy              =     -73.79052551 Ry
     estimated scf accuracy    <          2.8E-10 Ry

     iteration #  5     ecut=    60.00 Ry     beta= 0.70
     Davidson diagonalization with overlap

---- Real-time Memory Report at c_bands before calling an iterative solver
           140 MiB given to the printing process from OS
             0 MiB allocation reported by mallinfo(arena+hblkhd)
          6305 MiB available memory on the node where the printing process lives
------------------
     ethr =  1.77E-12,  avg # of iterations =  3.0

     negative rho (up, down):  1.449E-04 0.000E+00

     total cpu time spent up to now is       57.5 secs

     End of self-consistent calculation

          k = 0.0000 0.0000 0.0000 (  6469 PWs)   bands (ev):

   -20.6492 -20.4982  -9.1359  -8.1603  -4.0366  -4.0366  -4.0274  -4.0274
     2.3357   2.6471   2.9873   3.7774   4.2924   5.7903

     occupation numbers 
     1.0000   1.0000   1.0000   1.0000   1.0000   1.0000   1.0000   1.0000
     0.0000   0.0000   0.0000   0.0000   0.0000   0.0000

          k = 0.0000 0.0770 0.0000 (  6464 PWs)   bands (ev):

   -20.5433 -20.3932  -9.0079  -8.0362  -4.4649  -4.4504  -4.2622  -4.2495
     2.4787   2.7917   3.1333   3.9225   4.4347   5.9334

     occupation numbers 
     1.0000   1.0000   1.0000   1.0000   1.0000   1.0000   1.0000   1.0000
     0.0000   0.0000   0.0000   0.0000   0.0000   0.0000

          k = 0.0000 0.1540 0.0000 (  6496 PWs)   bands (ev):

   -20.2263 -20.0792  -8.6258  -7.6665  -5.6019  -5.5763  -4.8323  -4.8143
     2.9074   3.2250   3.5714   4.3577   4.8615   6.3622

     occupation numbers 
     1.0000   1.0000   1.0000   1.0000   1.0000   1.0000   1.0000   1.0000
     0.0000   0.0000   0.0000   0.0000   0.0000   0.0000

          k = 0.0000 0.2309 0.0000 (  6474 PWs)   bands (ev):

   -19.7004 -19.5581  -7.9959  -7.1613  -7.1230  -7.0578  -5.5437  -5.5217
     3.6208   3.9451   4.3015   5.0813   5.5699   7.0045

     occupation numbers 
     1.0000   1.0000   1.0000   1.0000   1.0000   1.0000   1.0000   1.0000
     0.0000   0.0000   0.0000   0.0000   0.0000   0.0000

          k = 0.0000 0.3079 0.0000 (  6492 PWs)   bands (ev):

   -18.9700 -18.8343  -8.9065  -8.8532  -7.1316  -6.2352  -6.2302  -6.2107
     4.6149   4.9288   5.3228   5.6630   5.9804   6.1254

     occupation numbers 
     1.0000   1.0000   1.0000   1.0000   1.0000   1.0000   1.0000   1.0000
     0.0000   0.0000   0.0000   0.0000   0.0000   0.0000

          k = 0.0000 0.3849 0.0000 (  6484 PWs)   bands (ev):

   -18.0425 -17.9153 -10.6845 -10.6175  -6.8102  -6.7840  -6.0620  -5.2193
     3.7198   4.1786   5.8825   6.2546   6.6186   6.7304

     occupation numbers 
     1.0000   1.0000   1.0000   1.0000   1.0000   1.0000   1.0000   1.0000
     0.0000   0.0000   0.0000   0.0000   0.0000   0.0000

          k = 0.0000 0.4619 0.0000 (  6490 PWs)   bands (ev):

   -16.9337 -16.8170 -12.3958 -12.3165  -7.2157  -7.1886  -4.8609  -4.1302
     1.9387   2.4484   6.4913   6.6725   7.4665   7.8371

     occupation numbers 
     1.0000   1.0000   1.0000   1.0000   1.0000   1.0000   1.0000   1.0000
     0.0000   0.0000   0.0000   0.0000   0.0000   0.0000

          k = 0.0000 0.5389 0.0000 (  6524 PWs)   bands (ev):

   -15.7154 -15.6196 -13.9146 -13.8348  -7.4243  -7.3968  -3.7849  -3.3136
     0.7158   1.1299   6.3856   6.5836   9.2479   9.6618

     occupation numbers 
     1.0000   1.0000   1.0000   1.0000   1.0000   1.0000   1.0000   1.0000
     0.0000   0.0000   0.0000   0.0000   0.0000   0.0000

          k = 0.0667 0.1155 0.0000 (  6499 PWs)   bands (ev):

   -20.3318 -20.1837  -8.7529  -7.7893  -5.1915  -5.1773  -4.7094  -4.6985
     2.7646   3.0806   3.4254   4.2128   4.7195   6.2199

     occupation numbers 
     1.0000   1.0000   1.0000   1.0000   1.0000   1.0000   1.0000   1.0000
     0.0000   0.0000   0.0000   0.0000   0.0000   0.0000

          k = 0.0667 0.1925 0.0000 (  6491 PWs)   bands (ev):

   -19.9104 -19.7662  -8.2466  -7.3003  -6.4499  -6.4232  -5.4432  -5.4250
     3.3360   3.6577   4.0096   4.7927   5.2885   6.7905

     occupation numbers 
     1.0000   1.0000   1.0000   1.0000   1.0000   1.0000   1.0000   1.0000
     0.0000   0.0000   0.0000   0.0000   0.0000   0.0000

          k = 0.0667 0.2694 0.0000 (  6480 PWs)   bands (ev):

   -19.2823 -19.1438  -8.0447  -8.0016  -7.4984  -6.5807  -6.2068  -6.1819
     4.1909   4.5184   4.8857   5.6566   6.1338   6.4786

     occupation numbers 
     1.0000   1.0000   1.0000   1.0000   1.0000   1.0000   1.0000   1.0000
     0.0000   0.0000   0.0000   0.0000   0.0000   0.0000

          k = 0.0667 0.3464 0.0000 (  6491 PWs)   bands (ev):

   -18.4532 -18.3222  -9.7762  -9.7178  -6.8722  -6.8435  -6.5279  -5.6556
     4.5983   4.9869   5.3283   5.6930   6.0528   6.8188

     occupation numbers 
     1.0000   1.0000   1.0000   1.0000   1.0000   1.0000   1.0000   1.0000
     0.0000   0.0000   0.0000   0.0000   0.0000   0.0000

          k = 0.0667 0.4234 0.0000 (  6487 PWs)   bands (ev):

   -17.4339 -17.3122 -11.5072 -11.4350  -7.3778  -7.3470  -5.3792  -4.5850
     2.7607   3.2310   6.7114   7.0127   7.1646   7.2559

     occupation numbers 
     1.0000   1.0000   1.0000   1.0000   1.0000   1.0000   1.0000   1.0000
     0.0000   0.0000   0.0000   0.0000   0.0000   0.0000

          k = 0.0667 0.5004 0.0000 (  6503 PWs)   bands (ev):

   -16.2530 -16.1442 -13.1359 -13.0535  -7.6915  -7.6597  -4.1814  -3.5553
     1.1952   1.6628   6.8911   7.0899   8.4269   8.8101

     occupation numbers 
     1.0000   1.0000   1.0000   1.0000   1.0000   1.0000   1.0000   1.0000
     0.0000   0.0000   0.0000   0.0000   0.0000   0.0000

          k = 0.0667 0.5774 0.0000 (  6480 PWs)   bands (ev):

   -15.2617 -15.2054 -14.2340 -14.1919  -7.7977  -7.7655  -3.4713  -3.1141
     0.5341   0.8583   6.8365   7.0430  10.2669  10.3537

     occupation numbers 
     1.0000   1.0000   1.0000   1.0000   1.0000   1.0000   1.0000   1.0000
     0.0000   0.0000   0.0000   0.0000   0.0000   0.0000

          k = 0.1333 0.2309 0.0000 (  6457 PWs)   bands (ev):

   -19.3867 -19.2473  -7.6222  -7.5496  -7.5275  -6.6983  -6.4091  -6.3928
     4.0495   4.3774   4.7400   5.5168   5.9995   6.8025

     occupation numbers 
     1.0000   1.0000   1.0000   1.0000   1.0000   1.0000   1.0000   1.0000
     0.0000   0.0000   0.0000   0.0000   0.0000   0.0000

          k = 0.1333 0.3079 0.0000 (  6480 PWs)   bands (ev):

   -18.6599 -18.5271  -8.9569  -8.9171  -7.3241  -7.2970  -6.7638  -5.8775
     5.0421   5.1952   5.3996   5.4792   5.7624   6.5292

     occupation numbers 
     1.0000   1.0000   1.0000   1.0000   1.0000   1.0000   1.0000   1.0000
     0.0000   0.0000   0.0000   0.0000   0.0000   0.0000

          k = 0.1333 0.3849 0.0000 (  6474 PWs)   bands (ev):

   -17.7382 -17.6138 -10.5627 -10.5032  -8.0049  -7.9685  -5.7013  -4.8734
     3.4807   3.8410   6.3155   6.6652   7.0751   7.8198

     occupation numbers 
     1.0000   1.0000   1.0000   1.0000   1.0000   1.0000   1.0000   1.0000
     0.0000   0.0000   0.0000   0.0000   0.0000   0.0000

          k = 0.1333 0.4619 0.0000 (  6494 PWs)   bands (ev):

   -16.6388 -16.5249 -12.1878 -12.1134  -8.4530  -8.4124  -4.5023  -3.7810
     1.8147   2.2384   7.8342   8.1333   8.2926   8.4339

     occupation numbers 
     1.0000   1.0000   1.0000   1.0000   1.0000   1.0000   1.0000   1.0000
     0.0000   0.0000   0.0000   0.0000   0.0000   0.0000

          k = 0.1333 0.5389 0.0000 (  6490 PWs)   bands (ev):

   -15.4360 -15.3430 -13.6605 -13.5844  -8.6766  -8.6343  -3.4088  -2.9373
     0.6327   0.9585   8.0893   8.3258   9.6353   9.9470

     occupation numbers 
     1.0000   1.0000   1.0000   1.0000   1.0000   1.0000   1.0000   1.0000
     0.0000   0.0000   0.0000   0.0000   0.0000   0.0000

          k = 0.2000 0.3464 0.0000 (  6482 PWs)   bands (ev):

   -17.8403 -17.7149  -9.9681  -9.9362  -8.5007  -8.4770  -5.8104  -4.9719
     3.7971   4.0680   6.1759   6.5126   6.9301   7.6745

     occupation numbers 
     1.0000   1.0000   1.0000   1.0000   1.0000   1.0000   1.0000   1.0000
     0.0000   0.0000   0.0000   0.0000   0.0000   0.0000

          k = 0.2000 0.4234 0.0000 (  6465 PWs)   bands (ev):

   -16.8364 -16.7203 -11.2662 -11.2131  -9.3308  -9.2921  -4.6765  -3.9131
     2.2893   2.6075   7.5726   7.8932   8.3865   9.0834

     occupation numbers 
     1.0000   1.0000   1.0000   1.0000   1.0000   1.0000   1.0000   1.0000
     0.0000   0.0000   0.0000   0.0000   0.0000   0.0000

          k = 0.2000 0.5004 0.0000 (  6474 PWs)   bands (ev):

   -15.6806 -15.5776 -12.7073 -12.6356  -9.7635  -9.7144  -3.4686  -2.8511
     0.8912   1.2249   9.1996   9.3731   9.8492   9.9932

     occupation numbers 
     1.0000   1.0000   1.0000   1.0000   1.0000   1.0000   1.0000   1.0000
     0.0000   0.0000   0.0000   0.0000   0.0000   0.0000

          k = 0.2000 0.5774 0.0000 (  6484 PWs)   bands (ev):

   -14.7197 -14.6664 -13.7348 -13.7006  -9.8979  -9.8461  -2.7021  -2.3526
     0.2925   0.3792   9.6848  10.0010  10.3461  10.5417

     occupation numbers 
     1.0000   1.0000   1.0000   1.0000   1.0000   1.0000   1.0000   1.0000
     0.0000   0.0000   0.0000   0.0000   0.0000   0.0000

          k = 0.2667 0.4619 0.0000 (  6452 PWs)   bands (ev):

   -15.7703 -15.6652 -12.0415 -12.0012 -10.4567 -10.4277  -3.5028  -2.8343
     1.0399   1.3524   9.0687   9.1954   9.9028  10.0910

     occupation numbers 
     1.0000   1.0000   1.0000   1.0000   1.0000   1.0000   1.0000   1.0000
     0.0000   0.0000   0.0000   0.0000   0.0000   0.0000

          k = 0.2667 0.5389 0.0000 (  6444 PWs)   bands (ev):

   -14.6173 -14.5321 -13.1002 -13.0447 -11.0076 -10.9632  -2.3369  -1.8568
    -0.0676   0.2022   9.7353   9.8630  10.6992  11.4316

     occupation numbers 
     1.0000   1.0000   1.0000   1.0000   1.0000   1.0000   1.0000   1.0000
     0.0000   0.0000   0.0000   0.0000   0.0000   0.0000

          k = 0.3333 0.5774 0.0000 (  6450 PWs)   bands (ev):

   -13.6650 -13.6149 -13.6149 -13.5696 -11.6084 -11.6084  -1.3296  -1.0009
    -1.0009  -0.6522   9.5986   9.5986  11.6487  11.9957

     occupation numbers 
     1.0000   1.0000   1.0000   1.0000   1.0000   1.0000   0.9997   0.5001
     0.5001   0.0001   0.0000   0.0000   0.0000   0.0000

     the Fermi energy is    -1.0008 ev

!    total energy              =     -73.79052551 Ry
     total all-electron energy =      -304.846914 Ry
     estimated scf accuracy    <          2.1E-11 Ry
     smearing contrib. (-TS)   =      -0.00010052 Ry
     internal energy E=F+TS    =     -73.79042500 Ry

     The total energy is F=E-TS. E is the sum of the following terms:
     one-electron contribution =    -707.75412773 Ry
     hartree contribution      =     357.55133619 Ry
     xc contribution           =     -18.57723607 Ry
     ewald contribution        =     319.67621969 Ry
     DFT-D3 Dispersion         =      -0.01770422 Ry
     one-center paw contrib.   =     -24.66891287 Ry
      -> PAW hartree energy AE =       9.53503496 Ry
      -> PAW hartree energy PS =      -9.52635316 Ry
      -> PAW xc energy AE      =     -10.68489254 Ry
      -> PAW xc energy PS      =       4.50901556 Ry
      -> total E_H with PAW    =     357.56001799 Ry
      -> total E_XC with PAW   =     -24.75311304 Ry

     convergence has been achieved in   5 iterations

     negative rho (up, down):  1.449E-04 0.000E+00

     Forces acting on atoms (cartesian axes, Ry/au):

     atom    1 type  1   force =     0.00000000   -0.00000000   -0.00083992
     atom    2 type  1   force =     0.00000000    0.00000000   -0.00098743
     atom    3 type  1   force =     0.00000000    0.00000000    0.00098743
     atom    4 type  1   force =     0.00000000    0.00000000    0.00083992
     The non-local contrib.  to forces
     atom    1 type  1   force =     0.00000000    0.00000000   -0.00190002
     atom    2 type  1   force =     0.00000000    0.00000000   -0.00207310
     atom    3 type  1   force =     0.00000000   -0.00000000    0.00207310
     atom    4 type  1   force =     0.00000000    0.00000000    0.00190002
     The ionic contribution  to forces
     atom    1 type  1   force =     0.00000000   -0.00000000  -15.32167619
     atom    2 type  1   force =     0.00000000    0.00000000  -15.31067244
     atom    3 type  1   force =     0.00000000   -0.00000000   15.31067244
     atom    4 type  1   force =     0.00000000    0.00000000   15.32167619
     The local contribution  to forces
     atom    1 type  1   force =     0.00000000    0.00000000   15.32137437
     atom    2 type  1   force =    -0.00000000    0.00000000   15.31050616
     atom    3 type  1   force =    -0.00000000    0.00000000  -15.31050616
     atom    4 type  1   force =    -0.00000000    0.00000000  -15.32137437
     The core correction contribution to forces
     atom    1 type  1   force =     0.00000000    0.00000000    0.00011240
     atom    2 type  1   force =    -0.00000000   -0.00000000    0.00009934
     atom    3 type  1   force =     0.00000000   -0.00000000   -0.00009934
     atom    4 type  1   force =     0.00000000   -0.00000000   -0.00011240
     The Hubbard contrib.    to forces
     atom    1 type  1   force =     0.00000000    0.00000000    0.00000000
     atom    2 type  1   force =     0.00000000    0.00000000    0.00000000
     atom    3 type  1   force =     0.00000000    0.00000000    0.00000000
     atom    4 type  1   force =     0.00000000    0.00000000    0.00000000
     The SCF correction term to forces
     atom    1 type  1   force =    -0.00000000   -0.00000000   -0.00000860
     atom    2 type  1   force =     0.00000000    0.00000000   -0.00000842
     atom    3 type  1   force =     0.00000000    0.00000000    0.00000842
     atom    4 type  1   force =     0.00000000    0.00000000    0.00000860

     DFT-D3 dispersion contribution to forces:
     atom    1 type  1   force =    -0.00000000    0.00000000    0.00125812
     atom    2 type  1   force =     0.00000000   -0.00000000    0.00116102
     atom    3 type  1   force =    -0.00000000    0.00000000   -0.00116102
     atom    4 type  1   force =     0.00000000   -0.00000000   -0.00125812

     Total force =     0.001833     Total SCF correction =     0.000017

     DFT-D3 dispersion Force =     0.002421
     Energy error            =      4.3E-06 Ry
     Gradient error          =      9.9E-04 Ry/Bohr

     bfgs converged in   3 scf cycles and   2 bfgs steps
     (criteria: energy <  1.0E-04 Ry, force <  1.0E-03 Ry/Bohr)

     End of BFGS Geometry Optimization

     Final energy             =     -73.7905255147 Ry

     File /home/ubuntu/projects/Graphene-Band-Structure-Quantum-Espresso/outputs/field_0/coupled/data/coupled.bfgs deleted, as requested
Begin final coordinates

ATOMIC_POSITIONS (angstrom)
C                0.0000000000       -0.0000000000        9.9985654497
C                1.2300000000        0.7101408311        9.9992237617
C                1.2300000000        0.7101408311       13.3507762383
C                0.0000000000        1.4202816622       13.3514345503
End final coordinates



     Writing all to output data dir /home/ubuntu/projects/Graphene-Band-Structure-Quantum-Espresso/outputs/field_0/coupled/data/coupled.save/ :
     XML data file, charge density, pseudopotentials, collected wavefunctions

     init_run     :      2.82s CPU      3.21s WALL (       1 calls)
     electrons    :     51.12s CPU     51.62s WALL (       3 calls)
     update_pot   :      0.45s CPU      0.51s WALL (       2 calls)
     forces       :      2.16s CPU      2.28s WALL (       3 calls)
     force_dftd3  :      0.61s CPU      0.62s WALL (       3 calls)

     Called by init_run:
     wfcinit      :      0.85s CPU      0.86s WALL (       1 calls)
     wfcinit:atom :      0.01s CPU      0.01s WALL (       7 calls)
     wfcinit:wfcr :      0.77s CPU      0.78s WALL (       7 calls)
     potinit      :      0.64s CPU      0.84s WALL (       1 calls)
     hinit0       :      0.90s CPU      0.99s WALL (       1 calls)

     Called by electrons:
     c_bands      :     39.36s CPU     39.54s WALL (      19 calls)
     sum_band     :      5.74s CPU      5.84s WALL (      19 calls)
     v_of_rho     :      2.35s CPU      2.70s WALL (      20 calls)
     v_h          :      0.12s CPU      0.14s WALL (      20 calls)
     v_xc         :      2.50s CPU      2.88s WALL (      23 calls)
     newd         :      1.14s CPU      1.17s WALL (      20 calls)
     PAW_pot      :      2.75s CPU      2.76s WALL (      22 calls)
     mix_rho      :      0.21s CPU      0.21s WALL (      19 calls)
     energy_dftd3 :      0.21s CPU      0.21s WALL (       3 calls)

     Called by c_bands:
     init_us_2    :      0.56s CPU      0.56s WALL (     308 calls)
     cegterg      :     27.41s CPU     27.55s WALL (     133 calls)

     Called by sum_band:
     sum_band:wei :      0.01s CPU      0.01s WALL (      19 calls)
     sum_band:loo :      3.24s CPU      3.25s WALL (      19 calls)
     sum_band:buf :      0.05s CPU      0.06s WALL (     133 calls)
     sum_band:ini :      0.22s CPU      0.22s WALL (     133 calls)
     sum_band:cal :      0.95s CPU      0.95s WALL (     147 calls)
     sum_band:bec :      0.00s CPU      0.00s WALL (     147 calls)
     addusdens    :      0.81s CPU      0.87s WALL (      19 calls)
     addusd:skk   :      0.01s CPU      0.01s WALL (      19 calls)

     Called by *egterg:
     cdiaghg      :      0.18s CPU      0.18s WALL (     571 calls)
     cegterg:over :      2.35s CPU      2.35s WALL (     466 calls)
     cegterg:upda :      1.47s CPU      1.48s WALL (     466 calls)
     cegterg:last :      3.47s CPU      3.48s WALL (     288 calls)
     h_psi        :     17.07s CPU     17.16s WALL (     606 calls)
     s_psi        :      2.45s CPU      2.46s WALL (     606 calls)
     g_psi        :      0.11s CPU      0.11s WALL (     466 calls)

     Called by h_psi:
     h_psi:calbec :      2.53s CPU      2.54s WALL (     606 calls)
     vloc_psi     :     11.97s CPU     12.03s WALL (     606 calls)
     add_vuspsi   :      2.47s CPU      2.48s WALL (     606 calls)

     General routines
     calbec       :      3.95s CPU      3.98s WALL (     837 calls)
     fft          :      1.63s CPU      1.68s WALL (     291 calls)
     ffts         :      0.34s CPU      0.34s WALL (      39 calls)
     fftw         :     12.00s CPU     12.07s WALL (   11948 calls)
     interpolate  :      0.41s CPU      0.41s WALL (      20 calls)

     Parallel routines

     PAW routines
     PAW_pot      :      2.75s CPU      2.76s WALL (      22 calls)
     PAW_symme    :      0.00s CPU      0.00s WALL (      41 calls)

     PWSCF        :     57.14s CPU     58.36s WALL


   This run was terminated on:  10:32: 6  18Sep2026            

=------------------------------------------------------------------------------=
   JOB DONE.
=------------------------------------------------------------------------------=
Note: The following floating-point exceptions are signalling: IEEE_UNDERFLOW_FLAG IEEE_DENORMAL
Note: The following floating-point exceptions are signalling: IEEE_UNDERFLOW_FLAG IEEE_DENORMAL
Note: The following floating-point exceptions are signalling: IEEE_UNDERFLOW_FLAG IEEE_DENORMAL
