
     Program PWSCF v.7.6 starts on 19Sep2026 at 11: 5:47 

     This program is part of the open-source Quantum ESPRESSO suite
     for quantum simulation of materials; please cite
         "P. Giannozzi et al., J. Phys.:Condens. Matter 21 395502 (2009);
         "P. Giannozzi et al., J. Phys.:Condens. Matter 29 465901 (2017);
         "P. Giannozzi et al., J. Chem. Phys. 152 154105 (2020);
          URL http://www.quantum-espresso.org", 
     in publications or presentations arising from this work. More details at
     http://www.quantum-espresso.org/quote

     Parallel version (MPI), running on     4 processors

     MPI processes distributed on     1 nodes
     1202 MiB available memory on the printing compute node when the environment starts

     Waiting for input...
     Reading input from standard input
Warning: card &CELL ignored
Warning: card &FCP ignored
Warning: card &RISM ignored

     Current dimensions of program PWSCF are:
     Max number of different atomic species (ntypx) = 10
     Max number of k-points (npk) =  40000
     Max angular momentum in pseudopotentials (lmaxx) =  4
     file C.pbe-n-kjpaw_psl.1.0.0.UPF: wavefunction(s)  2S 2P renormalized
     Message from routine setup:
     using ibrav=0 with symmetry is DISCOURAGED, use correct ibrav instead

     K-points division:     npool     =       4
     Subspace diagonalization in iterative solution of the eigenvalue problem:
     a serial algorithm will be used


     G-vector sticks info
     --------------------
     sticks:   dense  smooth     PW     G-vecs:    dense   smooth      PW
     Sum         595     361    109               111671    52021    9049

     Using Slab Decomposition



     bravais-lattice index     =            0
     lattice parameter (alat)  =       4.6487  a.u.
     unit-cell volume          =     825.8174 (a.u.)^3
     number of atoms/cell      =            4
     number of atomic types    =            1
     number of electrons       =        16.00
     number of Kohn-Sham states=           14
     kinetic-energy cutoff     =      60.0000  Ry
     charge density cutoff     =     400.0000  Ry
     scf convergence threshold =      1.0E-08
     mixing beta               =       0.7000
     number of iterations used =            8  plain     mixing
     Exchange-correlation= SLA  PW   PBX  PBC
                           (   1   4   3   4   0   0   0)

     celldm(1)=   4.648726  celldm(2)=   0.000000  celldm(3)=   0.000000
     celldm(4)=   0.000000  celldm(5)=   0.000000  celldm(6)=   0.000000

     crystal axes: (cart. coord. in units of alat)
               a(1) = (   1.000000   0.000000   0.000000 )  
               a(2) = (  -0.500000   0.866025   0.000000 )  
               a(3) = (   0.000000   0.000000   9.491870 )  

     reciprocal axes: (cart. coord. in units 2 pi/alat)
               b(1) = (  1.000000  0.577351 -0.000000 )  
               b(2) = (  0.000000  1.154701  0.000000 )  
               b(3) = (  0.000000 -0.000000  0.105353 )  


     PseudoPot. # 1 for C  read from file:
     /home/ubuntu/projects/Graphene-Band-Structure-Quantum-Espresso/pseudo/C.pbe-n-kjpaw_psl.1.0.0.UPF
     MD5 check sum: 5f16ad9a65e90284d1d834d4ab3b0f7d
     Pseudo is Projector augmented-wave + core cor, Zval =  4.0
     Generated using &quot;atomic&quot; code by A. Dal Corso  v.6.3
     Shape of augmentation charge: PSQ
     Using radial grid of 1073 points,  4 beta functions with: 
                l(1) =   0
                l(2) =   0
                l(3) =   1
                l(4) =   1
     Q(r) pseudized with 0 coefficients 


     atomic species   valence    mass     pseudopotential
     C                 4.00    12.01100     C ( 1.00)

     12 Sym. Ops., with inversion, found ( 6 have fractional translation)


                                    s                        frac. trans.

      isym =  1     identity                                     

 cryst.   s( 1) = (     1          0          0      )
                  (     0          1          0      )
                  (     0          0          1      )

 cart.    s( 1) = (  1.0000000  0.0000000  0.0000000 )
                  (  0.0000000  1.0000000  0.0000000 )
                  (  0.0000000  0.0000000  1.0000000 )


      isym =  2     180 deg rotation - cart. axis [1,0,0]        

 cryst.   s( 2) = (     1          0          0      )    f =( -0.3333335 )
                  (    -1         -1          0      )       (  0.3333330 )
                  (     0          0         -1      )       ( -0.0000001 )

 cart.    s( 2) = (  1.0000000  0.0000000  0.0000000 )    f =( -0.5000000 )
                  (  0.0000000 -1.0000000  0.0000000 )       (  0.2886747 )
                  (  0.0000000  0.0000000 -1.0000000 )       ( -0.0000005 )


      isym =  3     120 deg rotation - cryst. axis [0,0,1]       

 cryst.   s( 3) = (     0          1          0      )
                  (    -1         -1          0      )
                  (     0          0          1      )

 cart.    s( 3) = ( -0.5000000 -0.8660258  0.0000000 )
                  (  0.8660250 -0.5000000  0.0000000 )
                  (  0.0000000  0.0000000  1.0000000 )


      isym =  4     120 deg rotation - cryst. axis [0,0,-1]      

 cryst.   s( 4) = (    -1         -1          0      )
                  (     1          0          0      )
                  (     0          0          1      )

 cart.    s( 4) = ( -0.5000000  0.8660258  0.0000000 )
                  ( -0.8660250 -0.5000000  0.0000000 )
                  (  0.0000000  0.0000000  1.0000000 )


      isym =  5     180 deg rotation - cryst. axis [0,1,0]       

 cryst.   s( 5) = (    -1         -1          0      )    f =( -0.3333335 )
                  (     0          1          0      )       (  0.3333335 )
                  (     0          0         -1      )       ( -0.0000001 )

 cart.    s( 5) = ( -0.5000000 -0.8660258  0.0000000 )    f =( -0.5000003 )
                  ( -0.8660250  0.5000000  0.0000000 )       (  0.2886752 )
                  (  0.0000000  0.0000000 -1.0000000 )       ( -0.0000005 )


      isym =  6     180 deg rotation - cryst. axis [1,1,0]       

 cryst.   s( 6) = (     0          1          0      )    f =( -0.3333330 )
                  (     1          0          0      )       (  0.3333335 )
                  (     0          0         -1      )       ( -0.0000001 )

 cart.    s( 6) = ( -0.5000000  0.8660258  0.0000000 )    f =( -0.4999997 )
                  (  0.8660250  0.5000000  0.0000000 )       (  0.2886752 )
                  (  0.0000000  0.0000000 -1.0000000 )       ( -0.0000005 )


      isym =  7     inversion                                    

 cryst.   s( 7) = (    -1          0          0      )    f =( -0.3333335 )
                  (     0         -1          0      )       (  0.3333330 )
                  (     0          0         -1      )       ( -0.0000001 )

 cart.    s( 7) = ( -1.0000000  0.0000000  0.0000000 )    f =( -0.5000000 )
                  (  0.0000000 -1.0000000  0.0000000 )       (  0.2886747 )
                  (  0.0000000  0.0000000 -1.0000000 )       ( -0.0000005 )


      isym =  8     inv. 180 deg rotation - cart. axis [1,0,0]   

 cryst.   s( 8) = (    -1          0          0      )
                  (     1          1          0      )
                  (     0          0          1      )

 cart.    s( 8) = ( -1.0000000  0.0000000  0.0000000 )
                  (  0.0000000  1.0000000  0.0000000 )
                  (  0.0000000  0.0000000  1.0000000 )


      isym =  9     inv. 120 deg rotation - cryst. axis [0,0,1]  

 cryst.   s( 9) = (     0         -1          0      )    f =( -0.3333330 )
                  (     1          1          0      )       (  0.3333335 )
                  (     0          0         -1      )       ( -0.0000001 )

 cart.    s( 9) = (  0.5000000  0.8660258  0.0000000 )    f =( -0.4999997 )
                  ( -0.8660250  0.5000000  0.0000000 )       (  0.2886752 )
                  (  0.0000000  0.0000000 -1.0000000 )       ( -0.0000005 )


      isym = 10     inv. 120 deg rotation - cryst. axis [0,0,-1] 

 cryst.   s(10) = (     1          1          0      )    f =( -0.3333335 )
                  (    -1          0          0      )       (  0.3333335 )
                  (     0          0         -1      )       ( -0.0000001 )

 cart.    s(10) = (  0.5000000 -0.8660258  0.0000000 )    f =( -0.5000003 )
                  (  0.8660250  0.5000000  0.0000000 )       (  0.2886752 )
                  (  0.0000000  0.0000000 -1.0000000 )       ( -0.0000005 )


      isym = 11     inv. 180 deg rotation - cryst. axis [0,1,0]  

 cryst.   s(11) = (     1          1          0      )
                  (     0         -1          0      )
                  (     0          0          1      )

 cart.    s(11) = (  0.5000000  0.8660258  0.0000000 )
                  (  0.8660250 -0.5000000  0.0000000 )
                  (  0.0000000  0.0000000  1.0000000 )


      isym = 12     inv. 180 deg rotation - cryst. axis [1,1,0]  

 cryst.   s(12) = (     0         -1          0      )
                  (    -1          0          0      )
                  (     0          0          1      )

 cart.    s(12) = (  0.5000000 -0.8660258  0.0000000 )
                  ( -0.8660250 -0.5000000  0.0000000 )
                  (  0.0000000  0.0000000  1.0000000 )


   Cartesian axes

     site n.     atom                  positions (alat units)
         1        C      tau(   1) = (   0.0000000   0.0000000   4.0644578  )
         2        C      tau(   2) = (   0.5000000   0.2886752   4.0647254  )
         3        C      tau(   3) = (   0.5000000   0.2886752   5.4271451  )
         4        C      tau(   4) = (   0.0000000   0.5773503   5.4274128  )

     --------------------------------------------
     DFT-D3 Dispersion Correction (3-body terms):
     --------------------------------------------
       Reference C6 values for interpolation: 

         atom   Coordination number   C6
         C          0.000            98.23
         C          0.987            86.49
         C          1.998            58.72
         C          2.999            51.56
         C          3.984            36.41

       Values used:

         atom   Coordination number  R0_AB[au]  C6      C8
         C          3.322            2.750     48.11   1391.52
         C          3.323            2.750     48.11   1391.39
         C          3.323            2.750     48.11   1391.39
         C          3.322            2.750     48.11   1391.52

         Molecular C6 ( Ry / a.u.^6 ) =       769.78


   Crystallographic axes

     site n.     atom                  positions (cryst. coord.)
         1        C      tau(   1) = (  0.0000000  0.0000000  0.4282041  )
         2        C      tau(   2) = (  0.6666668  0.3333335  0.4282323  )
         3        C      tau(   3) = (  0.6666668  0.3333335  0.5717677  )
         4        C      tau(   4) = (  0.3333335  0.6666670  0.5717959  )

     number of k points=    27  Gaussian smearing, width (Ry)=  0.0100
                       cart. coord. in units 2pi/alat
        k(    1) = (   0.0000000   0.0000000   0.0000000), wk =   0.0088889
        k(    2) = (   0.0000000   0.0769801   0.0000000), wk =   0.0533333
        k(    3) = (   0.0000000   0.1539601   0.0000000), wk =   0.0533333
        k(    4) = (   0.0000000   0.2309402   0.0000000), wk =   0.0533333
        k(    5) = (   0.0000000   0.3079203   0.0000000), wk =   0.0533333
        k(    6) = (   0.0000000   0.3849004   0.0000000), wk =   0.0533333
        k(    7) = (   0.0000000   0.4618804   0.0000000), wk =   0.0533333
        k(    8) = (   0.0000000   0.5388605   0.0000000), wk =   0.0533333
        k(    9) = (   0.0666667   0.1154701   0.0000000), wk =   0.0533333
        k(   10) = (   0.0666667   0.1924502   0.0000000), wk =   0.1066667
        k(   11) = (   0.0666667   0.2694303   0.0000000), wk =   0.1066667
        k(   12) = (   0.0666667   0.3464103   0.0000000), wk =   0.1066667
        k(   13) = (   0.0666667   0.4233904   0.0000000), wk =   0.1066667
        k(   14) = (   0.0666667   0.5003705   0.0000000), wk =   0.1066667
        k(   15) = (   0.0666667   0.5773505   0.0000000), wk =   0.0533333
        k(   16) = (   0.1333333   0.2309402   0.0000000), wk =   0.0533333
        k(   17) = (   0.1333333   0.3079203   0.0000000), wk =   0.1066667
        k(   18) = (   0.1333333   0.3849004   0.0000000), wk =   0.1066667
        k(   19) = (   0.1333333   0.4618804   0.0000000), wk =   0.1066667
        k(   20) = (   0.1333333   0.5388605   0.0000000), wk =   0.1066667
        k(   21) = (   0.2000000   0.3464103   0.0000000), wk =   0.0533333
        k(   22) = (   0.2000000   0.4233904   0.0000000), wk =   0.1066667
        k(   23) = (   0.2000000   0.5003705   0.0000000), wk =   0.1066667
        k(   24) = (   0.2000000   0.5773505   0.0000000), wk =   0.0533333
        k(   25) = (   0.2666667   0.4618804   0.0000000), wk =   0.0533333
        k(   26) = (   0.2666667   0.5388605   0.0000000), wk =   0.1066667
        k(   27) = (   0.3333333   0.5773505   0.0000000), wk =   0.0177778

                       cryst. coord.
        k(    1) = (   0.0000000   0.0000000   0.0000000), wk =   0.0088889
        k(    2) = (   0.0000000   0.0666667   0.0000000), wk =   0.0533333
        k(    3) = (   0.0000000   0.1333333   0.0000000), wk =   0.0533333
        k(    4) = (   0.0000000   0.2000000   0.0000000), wk =   0.0533333
        k(    5) = (   0.0000000   0.2666667   0.0000000), wk =   0.0533333
        k(    6) = (   0.0000000   0.3333333   0.0000000), wk =   0.0533333
        k(    7) = (   0.0000000   0.4000000   0.0000000), wk =   0.0533333
        k(    8) = (   0.0000000   0.4666667   0.0000000), wk =   0.0533333
        k(    9) = (   0.0666667   0.0666667   0.0000000), wk =   0.0533333
        k(   10) = (   0.0666667   0.1333333   0.0000000), wk =   0.1066667
        k(   11) = (   0.0666667   0.2000000   0.0000000), wk =   0.1066667
        k(   12) = (   0.0666667   0.2666667   0.0000000), wk =   0.1066667
        k(   13) = (   0.0666667   0.3333333   0.0000000), wk =   0.1066667
        k(   14) = (   0.0666667   0.4000000   0.0000000), wk =   0.1066667
        k(   15) = (   0.0666667   0.4666667   0.0000000), wk =   0.0533333
        k(   16) = (   0.1333333   0.1333333   0.0000000), wk =   0.0533333
        k(   17) = (   0.1333333   0.2000000   0.0000000), wk =   0.1066667
        k(   18) = (   0.1333333   0.2666667   0.0000000), wk =   0.1066667
        k(   19) = (   0.1333333   0.3333333   0.0000000), wk =   0.1066667
        k(   20) = (   0.1333333   0.4000000   0.0000000), wk =   0.1066667
        k(   21) = (   0.2000000   0.2000000   0.0000000), wk =   0.0533333
        k(   22) = (   0.2000000   0.2666667   0.0000000), wk =   0.1066667
        k(   23) = (   0.2000000   0.3333333   0.0000000), wk =   0.1066667
        k(   24) = (   0.2000000   0.4000000   0.0000000), wk =   0.0533333
        k(   25) = (   0.2666667   0.2666667   0.0000000), wk =   0.0533333
        k(   26) = (   0.2666667   0.3333333   0.0000000), wk =   0.1066667
        k(   27) = (   0.3333333   0.3333333   0.0000000), wk =   0.0177778

     Dense  grid:   111671 G-vectors     FFT dimensions: (  30,  30, 288)

     Smooth grid:    52021 G-vectors     FFT dimensions: (  24,  24, 225)

     Dynamical RAM for                 wfc:       1.38 MB

     Dynamical RAM for     wfc (w. buffer):      11.08 MB

     Dynamical RAM for           str. fact:       1.70 MB

     Dynamical RAM for           local pot:       0.00 MB

     Dynamical RAM for          nlocal pot:       3.16 MB

     Dynamical RAM for                qrad:       0.46 MB

     Dynamical RAM for          rho,v,vnew:      11.04 MB

     Dynamical RAM for               rhoin:       3.68 MB

     Dynamical RAM for            rho*nmix:      27.26 MB

     Dynamical RAM for           G-vectors:       6.79 MB

     Dynamical RAM for          h,s,v(r/c):       0.04 MB

     Dynamical RAM for          <psi|beta>:       0.01 MB

     Dynamical RAM for                 psi:       2.77 MB

     Dynamical RAM for                hpsi:       2.77 MB

     Dynamical RAM for                spsi:       2.77 MB

     Dynamical RAM for      wfcinit/wfcrot:       2.77 MB

     Dynamical RAM for           addusdens:      21.30 MB

     Dynamical RAM for          addusforce:      23.43 MB

     Estimated static dynamical RAM per process >      51.21 MB

     Estimated max dynamical RAM per process >     101.91 MB

     Estimated total dynamical RAM >     325.84 MB

     Check: negative core charge=   -0.000003

     Initial potential from superposition of free atoms

     starting charge      15.9998, renormalised to      16.0000

     negative rho (up, down):  1.243E-04 0.000E+00
     Starting wfcs are   16 randomized atomic wfcs
     Checking if some PAW data can be deallocated... 

     total cpu time spent up to now is        2.4 secs

     Self-consistent Calculation

     iteration #  1     ecut=    60.00 Ry     beta= 0.70
     Davidson diagonalization with overlap

---- Real-time Memory Report at c_bands before calling an iterative solver
           103 MiB given to the printing process from OS
             0 MiB allocation reported by mallinfo(arena+hblkhd)
           994 MiB available memory on the node where the printing process lives
------------------
     ethr =  1.00E-02,  avg # of iterations =  5.4

     negative rho (up, down):  1.208E-04 0.000E+00

     total cpu time spent up to now is        5.6 secs

     total energy              =     -73.74225341 Ry
     estimated scf accuracy    <       0.37530348 Ry

     iteration #  2     ecut=    60.00 Ry     beta= 0.70
     Davidson diagonalization with overlap

---- Real-time Memory Report at c_bands before calling an iterative solver
           128 MiB given to the printing process from OS
             0 MiB allocation reported by mallinfo(arena+hblkhd)
           918 MiB available memory on the node where the printing process lives
------------------
     ethr =  2.35E-03,  avg # of iterations =  7.6

     negative rho (up, down):  1.340E-04 0.000E+00

     total cpu time spent up to now is        7.6 secs

     total energy              =     -73.78973390 Ry
     estimated scf accuracy    <       0.00433238 Ry

     iteration #  3     ecut=    60.00 Ry     beta= 0.70
     Davidson diagonalization with overlap

---- Real-time Memory Report at c_bands before calling an iterative solver
           129 MiB given to the printing process from OS
             0 MiB allocation reported by mallinfo(arena+hblkhd)
           948 MiB available memory on the node where the printing process lives
------------------
     ethr =  2.71E-05,  avg # of iterations = 10.4

     negative rho (up, down):  1.413E-04 0.000E+00

     total cpu time spent up to now is       11.4 secs

     total energy              =     -73.79029856 Ry
     estimated scf accuracy    <       0.00067822 Ry

     iteration #  4     ecut=    60.00 Ry     beta= 0.70
     Davidson diagonalization with overlap

---- Real-time Memory Report at c_bands before calling an iterative solver
           131 MiB given to the printing process from OS
             0 MiB allocation reported by mallinfo(arena+hblkhd)
           958 MiB available memory on the node where the printing process lives
------------------
     ethr =  4.24E-06,  avg # of iterations =  7.6

     negative rho (up, down):  1.444E-04 0.000E+00

     total cpu time spent up to now is       14.4 secs

     total energy              =     -73.79042195 Ry
     estimated scf accuracy    <       0.00051217 Ry

     iteration #  5     ecut=    60.00 Ry     beta= 0.70
     Davidson diagonalization with overlap

---- Real-time Memory Report at c_bands before calling an iterative solver
           133 MiB given to the printing process from OS
             0 MiB allocation reported by mallinfo(arena+hblkhd)
           945 MiB available memory on the node where the printing process lives
------------------
     ethr =  3.20E-06,  avg # of iterations =  3.3

     negative rho (up, down):  1.449E-04 0.000E+00

     total cpu time spent up to now is       16.1 secs

     total energy              =     -73.79052340 Ry
     estimated scf accuracy    <       0.00000153 Ry

     iteration #  6     ecut=    60.00 Ry     beta= 0.70
     Davidson diagonalization with overlap

---- Real-time Memory Report at c_bands before calling an iterative solver
           134 MiB given to the printing process from OS
             0 MiB allocation reported by mallinfo(arena+hblkhd)
           924 MiB available memory on the node where the printing process lives
------------------
     ethr =  9.54E-09,  avg # of iterations =  3.3

     negative rho (up, down):  1.449E-04 0.000E+00

     total cpu time spent up to now is       17.7 secs

     total energy              =     -73.79052442 Ry
     estimated scf accuracy    <       0.00000013 Ry

     iteration #  7     ecut=    60.00 Ry     beta= 0.70
     Davidson diagonalization with overlap

---- Real-time Memory Report at c_bands before calling an iterative solver
           136 MiB given to the printing process from OS
             0 MiB allocation reported by mallinfo(arena+hblkhd)
           938 MiB available memory on the node where the printing process lives
------------------
     ethr =  8.30E-10,  avg # of iterations =  2.0

     negative rho (up, down):  1.449E-04 0.000E+00

     total cpu time spent up to now is       19.2 secs

     total energy              =     -73.79052444 Ry
     estimated scf accuracy    <       0.00000001 Ry

     iteration #  8     ecut=    60.00 Ry     beta= 0.70
     Davidson diagonalization with overlap

---- Real-time Memory Report at c_bands before calling an iterative solver
           137 MiB given to the printing process from OS
             0 MiB allocation reported by mallinfo(arena+hblkhd)
           912 MiB available memory on the node where the printing process lives
------------------
     ethr =  7.79E-11,  avg # of iterations =  2.1

     negative rho (up, down):  1.449E-04 0.000E+00

     total cpu time spent up to now is       20.7 secs

     End of self-consistent calculation

          k = 0.0000 0.0000 0.0000 (  6469 PWs)   bands (ev):

   -20.6493 -20.4983  -9.1359  -8.1603  -4.0367  -4.0367  -4.0275  -4.0275
     2.3357   2.6471   2.9873   3.7774   4.2925   5.7903

     occupation numbers 
     1.0000   1.0000   1.0000   1.0000   1.0000   1.0000   1.0000   1.0000
     0.0000   0.0000   0.0000   0.0000   0.0000   0.0000

          k = 0.0000 0.0770 0.0000 (  6464 PWs)   bands (ev):

   -20.5434 -20.3933  -9.0080  -8.0363  -4.4650  -4.4506  -4.2623  -4.2496
     2.4787   2.7916   3.1333   3.9225   4.4348   5.9335

     occupation numbers 
     1.0000   1.0000   1.0000   1.0000   1.0000   1.0000   1.0000   1.0000
     0.0000   0.0000   0.0000   0.0000   0.0000   0.0000

          k = 0.0000 0.1540 0.0000 (  6496 PWs)   bands (ev):

   -20.2264 -20.0792  -8.6258  -7.6665  -5.6020  -5.5764  -4.8324  -4.8144
     2.9074   3.2250   3.5714   4.3577   4.8615   6.4051

     occupation numbers 
     1.0000   1.0000   1.0000   1.0000   1.0000   1.0000   1.0000   1.0000
     0.0000   0.0000   0.0000   0.0000   0.0000   0.0000

          k = 0.0000 0.2309 0.0000 (  6474 PWs)   bands (ev):

   -19.7005 -19.5582  -7.9959  -7.1614  -7.1231  -7.0579  -5.5438  -5.5218
     3.6208   3.9451   4.3015   5.0813   5.5699   7.0052

     occupation numbers 
     1.0000   1.0000   1.0000   1.0000   1.0000   1.0000   1.0000   1.0000
     0.0000   0.0000   0.0000   0.0000   0.0000   0.0000

          k = 0.0000 0.3079 0.0000 (  6492 PWs)   bands (ev):

   -18.9701 -18.8344  -8.9066  -8.8533  -7.1316  -6.2353  -6.2303  -6.2108
     4.6149   4.9288   5.3228   5.6630   5.9804   6.1254

     occupation numbers 
     1.0000   1.0000   1.0000   1.0000   1.0000   1.0000   1.0000   1.0000
     0.0000   0.0000   0.0000   0.0000   0.0000   0.0000

          k = 0.0000 0.3849 0.0000 (  6484 PWs)   bands (ev):

   -18.0426 -17.9153 -10.6846 -10.6176  -6.8103  -6.7841  -6.0620  -5.2193
     3.7198   4.1786   5.8826   6.2547   6.6189   6.7304

     occupation numbers 
     1.0000   1.0000   1.0000   1.0000   1.0000   1.0000   1.0000   1.0000
     0.0000   0.0000   0.0000   0.0000   0.0000   0.0000

          k = 0.0000 0.4619 0.0000 (  6490 PWs)   bands (ev):

   -16.9338 -16.8171 -12.3959 -12.3166  -7.2158  -7.1887  -4.8610  -4.1303
     1.9387   2.4484   6.4913   6.6724   7.4666   7.8371

     occupation numbers 
     1.0000   1.0000   1.0000   1.0000   1.0000   1.0000   1.0000   1.0000
     0.0000   0.0000   0.0000   0.0000   0.0000   0.0000

          k = 0.0000 0.5389 0.0000 (  6524 PWs)   bands (ev):

   -15.7155 -15.6197 -13.9147 -13.8349  -7.4244  -7.3969  -3.7849  -3.3137
     0.7157   1.1298   6.3856   6.5835   9.2480   9.6618

     occupation numbers 
     1.0000   1.0000   1.0000   1.0000   1.0000   1.0000   1.0000   1.0000
     0.0000   0.0000   0.0000   0.0000   0.0000   0.0000

          k = 0.0667 0.1155 0.0000 (  6499 PWs)   bands (ev):

   -20.3319 -20.1838  -8.7529  -7.7894  -5.1916  -5.1774  -4.7095  -4.6986
     2.7646   3.0806   3.4254   4.2128   4.7195   6.2200

     occupation numbers 
     1.0000   1.0000   1.0000   1.0000   1.0000   1.0000   1.0000   1.0000
     0.0000   0.0000   0.0000   0.0000   0.0000   0.0000

          k = 0.0667 0.1925 0.0000 (  6491 PWs)   bands (ev):

   -19.9105 -19.7663  -8.2466  -7.3003  -6.4500  -6.4233  -5.4433  -5.4252
     3.3360   3.6577   4.0096   4.7927   5.2885   6.8028

     occupation numbers 
     1.0000   1.0000   1.0000   1.0000   1.0000   1.0000   1.0000   1.0000
     0.0000   0.0000   0.0000   0.0000   0.0000   0.0000

          k = 0.0667 0.2694 0.0000 (  6480 PWs)   bands (ev):

   -19.2824 -19.1439  -8.0448  -8.0017  -7.4984  -6.5807  -6.2069  -6.1820
     4.1909   4.5184   4.8857   5.6568   6.1340   6.4786

     occupation numbers 
     1.0000   1.0000   1.0000   1.0000   1.0000   1.0000   1.0000   1.0000
     0.0000   0.0000   0.0000   0.0000   0.0000   0.0000

          k = 0.0667 0.3464 0.0000 (  6491 PWs)   bands (ev):

   -18.4533 -18.3223  -9.7763  -9.7179  -6.8723  -6.8436  -6.5279  -5.6557
     4.5983   4.9869   5.3284   5.6930   6.0528   6.8189

     occupation numbers 
     1.0000   1.0000   1.0000   1.0000   1.0000   1.0000   1.0000   1.0000
     0.0000   0.0000   0.0000   0.0000   0.0000   0.0000

          k = 0.0667 0.4234 0.0000 (  6487 PWs)   bands (ev):

   -17.4340 -17.3123 -11.5073 -11.4351  -7.3779  -7.3471  -5.3792  -4.5851
     2.7607   3.2310   6.7114   7.0127   7.1646   7.2558

     occupation numbers 
     1.0000   1.0000   1.0000   1.0000   1.0000   1.0000   1.0000   1.0000
     0.0000   0.0000   0.0000   0.0000   0.0000   0.0000

          k = 0.0667 0.5004 0.0000 (  6503 PWs)   bands (ev):

   -16.2531 -16.1443 -13.1360 -13.0536  -7.6916  -7.6598  -4.1814  -3.5554
     1.1952   1.6627   6.8910   7.0898   8.4269   8.8101

     occupation numbers 
     1.0000   1.0000   1.0000   1.0000   1.0000   1.0000   1.0000   1.0000
     0.0000   0.0000   0.0000   0.0000   0.0000   0.0000

          k = 0.0667 0.5774 0.0000 (  6480 PWs)   bands (ev):

   -15.2618 -15.2055 -14.2341 -14.1920  -7.7978  -7.7656  -3.4713  -3.1142
     0.5341   0.8582   6.8364   7.0429  10.2670  10.3537

     occupation numbers 
     1.0000   1.0000   1.0000   1.0000   1.0000   1.0000   1.0000   1.0000
     0.0000   0.0000   0.0000   0.0000   0.0000   0.0000

          k = 0.1333 0.2309 0.0000 (  6457 PWs)   bands (ev):

   -19.3868 -19.2474  -7.6222  -7.5497  -7.5276  -6.6984  -6.4092  -6.3929
     4.0495   4.3774   4.7401   5.5168   5.9996   6.8025

     occupation numbers 
     1.0000   1.0000   1.0000   1.0000   1.0000   1.0000   1.0000   1.0000
     0.0000   0.0000   0.0000   0.0000   0.0000   0.0000

          k = 0.1333 0.3079 0.0000 (  6480 PWs)   bands (ev):

   -18.6600 -18.5272  -8.9570  -8.9172  -7.3242  -7.2971  -6.7639  -5.8775
     5.0421   5.1952   5.3995   5.4792   5.7624   6.5294

     occupation numbers 
     1.0000   1.0000   1.0000   1.0000   1.0000   1.0000   1.0000   1.0000
     0.0000   0.0000   0.0000   0.0000   0.0000   0.0000

          k = 0.1333 0.3849 0.0000 (  6474 PWs)   bands (ev):

   -17.7383 -17.6139 -10.5628 -10.5033  -8.0050  -7.9687  -5.7013  -4.8734
     3.4806   3.8410   6.3155   6.6652   7.0752   7.8202

     occupation numbers 
     1.0000   1.0000   1.0000   1.0000   1.0000   1.0000   1.0000   1.0000
     0.0000   0.0000   0.0000   0.0000   0.0000   0.0000

          k = 0.1333 0.4619 0.0000 (  6494 PWs)   bands (ev):

   -16.6389 -16.5250 -12.1879 -12.1135  -8.4531  -8.4125  -4.5023  -3.7811
     1.8147   2.2383   7.8342   8.1333   8.2927   8.4339

     occupation numbers 
     1.0000   1.0000   1.0000   1.0000   1.0000   1.0000   1.0000   1.0000
     0.0000   0.0000   0.0000   0.0000   0.0000   0.0000

          k = 0.1333 0.5389 0.0000 (  6490 PWs)   bands (ev):

   -15.4361 -15.3431 -13.6606 -13.5845  -8.6767  -8.6345  -3.4089  -2.9373
     0.6326   0.9585   8.0892   8.3258   9.6353   9.9469

     occupation numbers 
     1.0000   1.0000   1.0000   1.0000   1.0000   1.0000   1.0000   1.0000
     0.0000   0.0000   0.0000   0.0000   0.0000   0.0000

          k = 0.2000 0.3464 0.0000 (  6482 PWs)   bands (ev):

   -17.8404 -17.7150  -9.9682  -9.9363  -8.5008  -8.4771  -5.8104  -4.9719
     3.7971   4.0680   6.1760   6.5126   6.9301   7.6746

     occupation numbers 
     1.0000   1.0000   1.0000   1.0000   1.0000   1.0000   1.0000   1.0000
     0.0000   0.0000   0.0000   0.0000   0.0000   0.0000

          k = 0.2000 0.4234 0.0000 (  6465 PWs)   bands (ev):

   -16.8364 -16.7204 -11.2662 -11.2132  -9.3309  -9.2922  -4.6765  -3.9131
     2.2893   2.6074   7.5726   7.8932   8.3865   9.0837

     occupation numbers 
     1.0000   1.0000   1.0000   1.0000   1.0000   1.0000   1.0000   1.0000
     0.0000   0.0000   0.0000   0.0000   0.0000   0.0000

          k = 0.2000 0.5004 0.0000 (  6474 PWs)   bands (ev):

   -15.6807 -15.5777 -12.7074 -12.6357  -9.7636  -9.7145  -3.4686  -2.8511
     0.8911   1.2248   9.1996   9.3730   9.8491   9.9934

     occupation numbers 
     1.0000   1.0000   1.0000   1.0000   1.0000   1.0000   1.0000   1.0000
     0.0000   0.0000   0.0000   0.0000   0.0000   0.0000

          k = 0.2000 0.5774 0.0000 (  6484 PWs)   bands (ev):

   -14.7198 -14.6665 -13.7349 -13.7007  -9.8980  -9.8462  -2.7021  -2.3527
     0.2925   0.3792   9.6848  10.0010  10.3461  10.5418

     occupation numbers 
     1.0000   1.0000   1.0000   1.0000   1.0000   1.0000   1.0000   1.0000
     0.0000   0.0000   0.0000   0.0000   0.0000   0.0000

          k = 0.2667 0.4619 0.0000 (  6452 PWs)   bands (ev):

   -15.7703 -15.6653 -12.0416 -12.0013 -10.4568 -10.4278  -3.5029  -2.8343
     1.0399   1.3524   9.0687   9.1954   9.9029  10.0912

     occupation numbers 
     1.0000   1.0000   1.0000   1.0000   1.0000   1.0000   1.0000   1.0000
     0.0000   0.0000   0.0000   0.0000   0.0000   0.0000

          k = 0.2667 0.5389 0.0000 (  6444 PWs)   bands (ev):

   -14.6174 -14.5322 -13.1003 -13.0448 -11.0077 -10.9633  -2.3369  -1.8569
    -0.0677   0.2021   9.7354   9.8630  10.6992  11.4317

     occupation numbers 
     1.0000   1.0000   1.0000   1.0000   1.0000   1.0000   1.0000   1.0000
     0.0000   0.0000   0.0000   0.0000   0.0000   0.0000

          k = 0.3333 0.5774 0.0000 (  6450 PWs)   bands (ev):

   -13.6651 -13.6150 -13.6150 -13.5697 -11.6085 -11.6085  -1.3296  -1.0009
    -1.0009  -0.6523   9.5986   9.5986  11.6488  11.9957

     occupation numbers 
     1.0000   1.0000   1.0000   1.0000   1.0000   1.0000   0.9997   0.5001
     0.5001   0.0001   0.0000   0.0000   0.0000   0.0000

     the Fermi energy is    -1.0009 ev

!    total energy              =     -73.79052445 Ry
     total all-electron energy =      -304.846913 Ry
     estimated scf accuracy    <          2.4E-09 Ry
     smearing contrib. (-TS)   =      -0.00010052 Ry
     internal energy E=F+TS    =     -73.79042393 Ry

     The total energy is F=E-TS. E is the sum of the following terms:
     one-electron contribution =    -707.75421788 Ry
     hartree contribution      =     357.55126662 Ry
     xc contribution           =     -18.57725400 Ry
     ewald contribution        =     319.67640011 Ry
     DFT-D3 Dispersion         =      -0.01770422 Ry
     one-center paw contrib.   =     -24.66891456 Ry
      -> PAW hartree energy AE =       9.53505551 Ry
      -> PAW hartree energy PS =      -9.52637368 Ry
      -> PAW xc energy AE      =     -10.68489773 Ry
      -> PAW xc energy PS      =       4.50902044 Ry
      -> total E_H with PAW    =     357.55994845 Ry
      -> total E_XC with PAW   =     -24.75313129 Ry

     convergence has been achieved in   8 iterations

     negative rho (up, down):  1.449E-04 0.000E+00

     Forces acting on atoms (cartesian axes, Ry/au):

     atom    1 type  1   force =     0.00000000   -0.00000000   -0.00083927
     atom    2 type  1   force =    -0.00000000    0.00000000   -0.00098674
     atom    3 type  1   force =     0.00000000    0.00000000    0.00098674
     atom    4 type  1   force =     0.00000000    0.00000000    0.00083927
     The non-local contrib.  to forces
     atom    1 type  1   force =     0.00000000   -0.00000000   -0.00189381
     atom    2 type  1   force =     0.00000000    0.00000000   -0.00206695
     atom    3 type  1   force =     0.00000000    0.00000000    0.00206695
     atom    4 type  1   force =     0.00000000   -0.00000000    0.00189381
     The ionic contribution  to forces
     atom    1 type  1   force =     0.00000053    0.00000661  -15.32168492
     atom    2 type  1   force =    -0.00000053   -0.00000661  -15.31068114
     atom    3 type  1   force =    -0.00000053    0.00000661   15.31068114
     atom    4 type  1   force =     0.00000053   -0.00000661   15.32168492
     The local contribution  to forces
     atom    1 type  1   force =    -0.00000000   -0.00000189   15.32128332
     atom    2 type  1   force =    -0.00000038    0.00000002   15.31041569
     atom    3 type  1   force =    -0.00000038   -0.00000376  -15.31041568
     atom    4 type  1   force =    -0.00000000   -0.00000186  -15.32128331
     The core correction contribution to forces
     atom    1 type  1   force =     0.00000000   -0.00000000    0.00011202
     atom    2 type  1   force =     0.00000004    0.00000021    0.00009897
     atom    3 type  1   force =     0.00000004    0.00000020   -0.00009897
     atom    4 type  1   force =    -0.00000000    0.00000041   -0.00011202
     The Hubbard contrib.    to forces
     atom    1 type  1   force =     0.00000000    0.00000000    0.00000000
     atom    2 type  1   force =     0.00000000    0.00000000    0.00000000
     atom    3 type  1   force =     0.00000000    0.00000000    0.00000000
     atom    4 type  1   force =     0.00000000    0.00000000    0.00000000
     The SCF correction term to forces
     atom    1 type  1   force =    -0.00000000    0.00000000    0.00008601
     atom    2 type  1   force =    -0.00000000   -0.00000000    0.00008566
     atom    3 type  1   force =     0.00000000    0.00000000   -0.00008566
     atom    4 type  1   force =     0.00000000   -0.00000000   -0.00008601

     DFT-D3 dispersion contribution to forces:
     atom    1 type  1   force =    -0.00000000   -0.00000000    0.00125812
     atom    2 type  1   force =     0.00000000    0.00000000    0.00116102
     atom    3 type  1   force =     0.00000000   -0.00000000   -0.00116102
     atom    4 type  1   force =    -0.00000000    0.00000000   -0.00125812

     Total force =     0.001832     Total SCF correction =     0.000172

     DFT-D3 dispersion Force =     0.002421

     Writing all to output data dir /home/ubuntu/projects/Graphene-Band-Structure-Quantum-Espresso/outputs/field_0/coupled/data/coupled.save/ :
     XML data file, charge density, pseudopotentials, collected wavefunctions

     init_run     :      2.19s CPU      2.31s WALL (       1 calls)
     electrons    :     18.11s CPU     18.27s WALL (       1 calls)
     forces       :      0.44s CPU      0.47s WALL (       1 calls)
     force_dftd3  :      0.07s CPU      0.07s WALL (       1 calls)

     Called by init_run:
     wfcinit      :      0.58s CPU      0.58s WALL (       1 calls)
     wfcinit:atom :      0.01s CPU      0.01s WALL (       7 calls)
     wfcinit:wfcr :      0.53s CPU      0.53s WALL (       7 calls)
     potinit      :      0.64s CPU      0.69s WALL (       1 calls)
     hinit0       :      0.84s CPU      0.87s WALL (       1 calls)

     Called by electrons:
     c_bands      :     14.40s CPU     14.47s WALL (       8 calls)
     sum_band     :      1.76s CPU      1.80s WALL (       8 calls)
     v_of_rho     :      0.88s CPU      0.95s WALL (       9 calls)
     v_h          :      0.04s CPU      0.04s WALL (       9 calls)
     v_xc         :      0.93s CPU      1.02s WALL (      10 calls)
     newd         :      0.32s CPU      0.33s WALL (       9 calls)
     PAW_pot      :      0.73s CPU      0.73s WALL (       9 calls)
     mix_rho      :      0.08s CPU      0.08s WALL (       8 calls)
     energy_dftd3 :      0.05s CPU      0.05s WALL (       1 calls)

     Called by c_bands:
     init_us_2    :      0.18s CPU      0.18s WALL (     126 calls)
     cegterg      :     10.89s CPU     10.95s WALL (      56 calls)

     Called by sum_band:
     sum_band:wei :      0.00s CPU      0.00s WALL (       8 calls)
     sum_band:loo :      1.14s CPU      1.15s WALL (       8 calls)
     sum_band:buf :      0.02s CPU      0.02s WALL (      56 calls)
     sum_band:ini :      0.08s CPU      0.08s WALL (      56 calls)
     sum_band:cal :      0.30s CPU      0.30s WALL (      56 calls)
     sum_band:bec :      0.00s CPU      0.00s WALL (      56 calls)
     addusdens    :      0.23s CPU      0.25s WALL (       8 calls)
     addusd:skk   :      0.00s CPU      0.00s WALL (       8 calls)

     Called by *egterg:
     cdiaghg      :      0.09s CPU      0.09s WALL (     346 calls)
     cegterg:over :      0.97s CPU      0.98s WALL (     290 calls)
     cegterg:upda :      0.64s CPU      0.64s WALL (     290 calls)
     cegterg:last :      1.51s CPU      1.51s WALL (     142 calls)
     h_psi        :      6.76s CPU      6.80s WALL (     353 calls)
     s_psi        :      0.99s CPU      0.99s WALL (     353 calls)
     g_psi        :      0.05s CPU      0.05s WALL (     290 calls)

     Called by h_psi:
     h_psi:calbec :      0.96s CPU      0.97s WALL (     353 calls)
     vloc_psi     :      4.79s CPU      4.82s WALL (     353 calls)
     add_vuspsi   :      0.97s CPU      0.98s WALL (     353 calls)

     General routines
     calbec       :      1.40s CPU      1.41s WALL (     437 calls)
     fft          :      0.95s CPU      0.97s WALL (     126 calls)
     ffts         :      0.29s CPU      0.29s WALL (      17 calls)
     fftw         :      4.80s CPU      4.84s WALL (    5780 calls)
     interpolate  :      0.31s CPU      0.31s WALL (       9 calls)

     Parallel routines

     PAW routines
     PAW_pot      :      0.73s CPU      0.73s WALL (       9 calls)
     PAW_symme    :      0.00s CPU      0.00s WALL (      17 calls)

     PWSCF        :     20.86s CPU     21.26s WALL


   This run was terminated on:  11: 6: 8  19Sep2026            

=------------------------------------------------------------------------------=
   JOB DONE.
=------------------------------------------------------------------------------=
Note: The following floating-point exceptions are signalling: IEEE_UNDERFLOW_FLAG IEEE_DENORMAL
Note: The following floating-point exceptions are signalling: IEEE_UNDERFLOW_FLAG IEEE_DENORMAL
Note: The following floating-point exceptions are signalling: IEEE_UNDERFLOW_FLAG IEEE_DENORMAL
