
     Program PWSCF v.7.6 starts on 19Sep2026 at 17:41:13 

     This program is part of the open-source Quantum ESPRESSO suite
     for quantum simulation of materials; please cite
         "P. Giannozzi et al., J. Phys.:Condens. Matter 21 395502 (2009);
         "P. Giannozzi et al., J. Phys.:Condens. Matter 29 465901 (2017);
         "P. Giannozzi et al., J. Chem. Phys. 152 154105 (2020);
          URL http://www.quantum-espresso.org", 
     in publications or presentations arising from this work. More details at
     http://www.quantum-espresso.org/quote

     Parallel version (MPI), running on     4 processors

     MPI processes distributed on     1 nodes
     488 MiB available memory on the printing compute node when the environment starts

     Waiting for input...
     Reading input from standard input
Warning: card &CELL ignored
Warning: card &FCP ignored
Warning: card &RISM ignored

     Current dimensions of program PWSCF are:
     Max number of different atomic species (ntypx) = 10
     Max number of k-points (npk) =  40000
     Max angular momentum in pseudopotentials (lmaxx) =  4
     Presently no symmetry can be used with electric field

     file C.pbe-n-kjpaw_psl.1.0.0.UPF: wavefunction(s)  2S 2P renormalized

     K-points division:     npool     =       4
     Subspace diagonalization in iterative solution of the eigenvalue problem:
     a serial algorithm will be used


     G-vector sticks info
     --------------------
     sticks:   dense  smooth     PW     G-vecs:    dense   smooth      PW
     Sum         595     361    121               111671    52021   10303

     Using Slab Decomposition



     bravais-lattice index     =            0
     lattice parameter (alat)  =       4.6487  a.u.
     unit-cell volume          =     825.8174 (a.u.)^3
     number of atoms/cell      =            2
     number of atomic types    =            1
     number of electrons       =         8.00
     number of Kohn-Sham states=           10
     kinetic-energy cutoff     =      60.0000  Ry
     charge density cutoff     =     400.0000  Ry
     scf convergence threshold =      1.0E-08
     mixing beta               =       0.7000
     number of iterations used =            8  plain     mixing
     Exchange-correlation= SLA  PW   PBX  PBC
                           (   1   4   3   4   0   0   0)

     celldm(1)=   4.648726  celldm(2)=   0.000000  celldm(3)=   0.000000
     celldm(4)=   0.000000  celldm(5)=   0.000000  celldm(6)=   0.000000

     crystal axes: (cart. coord. in units of alat)
               a(1) = (   1.000000   0.000000   0.000000 )  
               a(2) = (  -0.500000   0.866025   0.000000 )  
               a(3) = (   0.000000   0.000000   9.491870 )  

     reciprocal axes: (cart. coord. in units 2 pi/alat)
               b(1) = (  1.000000  0.577351 -0.000000 )  
               b(2) = (  0.000000  1.154701  0.000000 )  
               b(3) = (  0.000000 -0.000000  0.105353 )  


     PseudoPot. # 1 for C  read from file:
     /home/ubuntu/projects/Graphene-Band-Structure-Quantum-Espresso/pseudo/C.pbe-n-kjpaw_psl.1.0.0.UPF
     MD5 check sum: 5f16ad9a65e90284d1d834d4ab3b0f7d
     Pseudo is Projector augmented-wave + core cor, Zval =  4.0
     Generated using &quot;atomic&quot; code by A. Dal Corso  v.6.3
     Shape of augmentation charge: PSQ
     Using radial grid of 1073 points,  4 beta functions with: 
                l(1) =   0
                l(2) =   0
                l(3) =   1
                l(4) =   1
     Q(r) pseudized with 0 coefficients 


     atomic species   valence    mass     pseudopotential
     C                 4.00    12.01100     C ( 1.00)

     No symmetry found


                                    s                        frac. trans.

      isym =  1     identity                                     

 cryst.   s( 1) = (     1          0          0      )
                  (     0          1          0      )
                  (     0          0          1      )

 cart.    s( 1) = (  1.0000000  0.0000000  0.0000000 )
                  (  0.0000000  1.0000000  0.0000000 )
                  (  0.0000000  0.0000000  1.0000000 )


   Cartesian axes

     site n.     atom                  positions (alat units)
         1        C      tau(   1) = (   0.4997754   0.2886448   8.5675947  )
         2        C      tau(   2) = (   0.0002260   0.5773906   8.5678997  )

     --------------------------------------------
     DFT-D3 Dispersion Correction (3-body terms):
     --------------------------------------------
       Reference C6 values for interpolation: 

         atom   Coordination number   C6
         C          0.000            98.23
         C          0.987            86.49
         C          1.998            58.72
         C          2.999            51.56
         C          3.984            36.41

       Values used:

         atom   Coordination number  R0_AB[au]  C6      C8
         C          3.315            2.750     48.27   1395.93
         C          3.315            2.750     48.27   1395.93

         Molecular C6 ( Ry / a.u.^6 ) =       193.06


   Crystallographic axes

     site n.     atom                  positions (cryst. coord.)
         1        C      tau(   1) = (  0.6664246  0.3332985  0.9026245  )
         2        C      tau(   2) = (  0.3335828  0.6667136  0.9026567  )

     number of k points=   113  Gaussian smearing, width (Ry)=  0.0100
                       cart. coord. in units 2pi/alat
        k(    1) = (   0.0000000   0.0000000   0.0000000), wk =   0.0088889
        k(    2) = (   0.0000000   0.0769801   0.0000000), wk =   0.0177778
        k(    3) = (   0.0000000   0.1539601   0.0000000), wk =   0.0177778
        k(    4) = (   0.0000000   0.2309402   0.0000000), wk =   0.0177778
        k(    5) = (   0.0000000   0.3079203   0.0000000), wk =   0.0177778
        k(    6) = (   0.0000000   0.3849004   0.0000000), wk =   0.0177778
        k(    7) = (   0.0000000   0.4618804   0.0000000), wk =   0.0177778
        k(    8) = (   0.0000000   0.5388605   0.0000000), wk =   0.0177778
        k(    9) = (   0.0666667   0.0384900   0.0000000), wk =   0.0177778
        k(   10) = (   0.0666667   0.1154701   0.0000000), wk =   0.0177778
        k(   11) = (   0.0666667   0.1924502   0.0000000), wk =   0.0177778
        k(   12) = (   0.0666667   0.2694303   0.0000000), wk =   0.0177778
        k(   13) = (   0.0666667   0.3464103   0.0000000), wk =   0.0177778
        k(   14) = (   0.0666667   0.4233904   0.0000000), wk =   0.0177778
        k(   15) = (   0.0666667   0.5003705   0.0000000), wk =   0.0177778
        k(   16) = (   0.0666667   0.5773505   0.0000000), wk =   0.0177778
        k(   17) = (   0.0666667  -0.5003705   0.0000000), wk =   0.0177778
        k(   18) = (   0.0666667  -0.4233904   0.0000000), wk =   0.0177778
        k(   19) = (   0.0666667  -0.3464103   0.0000000), wk =   0.0177778
        k(   20) = (   0.0666667  -0.2694303   0.0000000), wk =   0.0177778
        k(   21) = (   0.0666667  -0.1924502   0.0000000), wk =   0.0177778
        k(   22) = (   0.0666667  -0.1154701   0.0000000), wk =   0.0177778
        k(   23) = (   0.0666667  -0.0384900   0.0000000), wk =   0.0177778
        k(   24) = (   0.1333333   0.0769801   0.0000000), wk =   0.0177778
        k(   25) = (   0.1333333   0.1539601   0.0000000), wk =   0.0177778
        k(   26) = (   0.1333333   0.2309402   0.0000000), wk =   0.0177778
        k(   27) = (   0.1333333   0.3079203   0.0000000), wk =   0.0177778
        k(   28) = (   0.1333333   0.3849004   0.0000000), wk =   0.0177778
        k(   29) = (   0.1333333   0.4618804   0.0000000), wk =   0.0177778
        k(   30) = (   0.1333333   0.5388605   0.0000000), wk =   0.0177778
        k(   31) = (   0.1333333   0.6158406   0.0000000), wk =   0.0177778
        k(   32) = (   0.1333333  -0.4618804   0.0000000), wk =   0.0177778
        k(   33) = (   0.1333333  -0.3849004   0.0000000), wk =   0.0177778
        k(   34) = (   0.1333333  -0.3079203   0.0000000), wk =   0.0177778
        k(   35) = (   0.1333333  -0.2309402   0.0000000), wk =   0.0177778
        k(   36) = (   0.1333333  -0.1539601   0.0000000), wk =   0.0177778
        k(   37) = (   0.1333333  -0.0769801   0.0000000), wk =   0.0177778
        k(   38) = (   0.1333333   0.0000000   0.0000000), wk =   0.0177778
        k(   39) = (   0.2000000   0.1154701   0.0000000), wk =   0.0177778
        k(   40) = (   0.2000000   0.1924502   0.0000000), wk =   0.0177778
        k(   41) = (   0.2000000   0.2694303   0.0000000), wk =   0.0177778
        k(   42) = (   0.2000000   0.3464103   0.0000000), wk =   0.0177778
        k(   43) = (   0.2000000   0.4233904   0.0000000), wk =   0.0177778
        k(   44) = (   0.2000000   0.5003705   0.0000000), wk =   0.0177778
        k(   45) = (   0.2000000   0.5773505   0.0000000), wk =   0.0177778
        k(   46) = (   0.2000000   0.6543306   0.0000000), wk =   0.0177778
        k(   47) = (   0.2000000  -0.4233904   0.0000000), wk =   0.0177778
        k(   48) = (   0.2000000  -0.3464103   0.0000000), wk =   0.0177778
        k(   49) = (   0.2000000  -0.2694303   0.0000000), wk =   0.0177778
        k(   50) = (   0.2000000  -0.1924502   0.0000000), wk =   0.0177778
        k(   51) = (   0.2000000  -0.1154701   0.0000000), wk =   0.0177778
        k(   52) = (   0.2000000  -0.0384900   0.0000000), wk =   0.0177778
        k(   53) = (   0.2000000   0.0384900   0.0000000), wk =   0.0177778
        k(   54) = (   0.2666667   0.1539601   0.0000000), wk =   0.0177778
        k(   55) = (   0.2666667   0.2309402   0.0000000), wk =   0.0177778
        k(   56) = (   0.2666667   0.3079203   0.0000000), wk =   0.0177778
        k(   57) = (   0.2666667   0.3849004   0.0000000), wk =   0.0177778
        k(   58) = (   0.2666667   0.4618804   0.0000000), wk =   0.0177778
        k(   59) = (   0.2666667   0.5388605   0.0000000), wk =   0.0177778
        k(   60) = (   0.2666667   0.6158406   0.0000000), wk =   0.0177778
        k(   61) = (   0.2666667   0.6928206   0.0000000), wk =   0.0177778
        k(   62) = (   0.2666667  -0.3849004   0.0000000), wk =   0.0177778
        k(   63) = (   0.2666667  -0.3079203   0.0000000), wk =   0.0177778
        k(   64) = (   0.2666667  -0.2309402   0.0000000), wk =   0.0177778
        k(   65) = (   0.2666667  -0.1539601   0.0000000), wk =   0.0177778
        k(   66) = (   0.2666667  -0.0769801   0.0000000), wk =   0.0177778
        k(   67) = (   0.2666667   0.0000000   0.0000000), wk =   0.0177778
        k(   68) = (   0.2666667   0.0769801   0.0000000), wk =   0.0177778
        k(   69) = (   0.3333333   0.1924502   0.0000000), wk =   0.0177778
        k(   70) = (   0.3333333   0.2694303   0.0000000), wk =   0.0177778
        k(   71) = (   0.3333333   0.3464103   0.0000000), wk =   0.0177778
        k(   72) = (   0.3333333   0.4233904   0.0000000), wk =   0.0177778
        k(   73) = (   0.3333333   0.5003705   0.0000000), wk =   0.0177778
        k(   74) = (   0.3333333   0.5773505   0.0000000), wk =   0.0177778
        k(   75) = (   0.3333333   0.6543306   0.0000000), wk =   0.0177778
        k(   76) = (   0.3333333   0.7313107   0.0000000), wk =   0.0177778
        k(   77) = (   0.3333333  -0.3464103   0.0000000), wk =   0.0177778
        k(   78) = (   0.3333333  -0.2694303   0.0000000), wk =   0.0177778
        k(   79) = (   0.3333333  -0.1924502   0.0000000), wk =   0.0177778
        k(   80) = (   0.3333333  -0.1154701   0.0000000), wk =   0.0177778
        k(   81) = (   0.3333333  -0.0384900   0.0000000), wk =   0.0177778
        k(   82) = (   0.3333333   0.0384900   0.0000000), wk =   0.0177778
        k(   83) = (   0.3333333   0.1154701   0.0000000), wk =   0.0177778
        k(   84) = (   0.4000000   0.2309402   0.0000000), wk =   0.0177778
        k(   85) = (   0.4000000   0.3079203   0.0000000), wk =   0.0177778
        k(   86) = (   0.4000000   0.3849004   0.0000000), wk =   0.0177778
        k(   87) = (   0.4000000   0.4618804   0.0000000), wk =   0.0177778
        k(   88) = (   0.4000000   0.5388605   0.0000000), wk =   0.0177778
        k(   89) = (   0.4000000   0.6158406   0.0000000), wk =   0.0177778
        k(   90) = (   0.4000000   0.6928206   0.0000000), wk =   0.0177778
        k(   91) = (   0.4000000   0.7698007   0.0000000), wk =   0.0177778
        k(   92) = (   0.4000000  -0.3079203   0.0000000), wk =   0.0177778
        k(   93) = (   0.4000000  -0.2309402   0.0000000), wk =   0.0177778
        k(   94) = (   0.4000000  -0.1539601   0.0000000), wk =   0.0177778
        k(   95) = (   0.4000000  -0.0769801   0.0000000), wk =   0.0177778
        k(   96) = (   0.4000000   0.0000000   0.0000000), wk =   0.0177778
        k(   97) = (   0.4000000   0.0769801   0.0000000), wk =   0.0177778
        k(   98) = (   0.4000000   0.1539601   0.0000000), wk =   0.0177778
        k(   99) = (   0.4666667   0.2694303   0.0000000), wk =   0.0177778
        k(  100) = (   0.4666667   0.3464103   0.0000000), wk =   0.0177778
        k(  101) = (   0.4666667   0.4233904   0.0000000), wk =   0.0177778
        k(  102) = (   0.4666667   0.5003705   0.0000000), wk =   0.0177778
        k(  103) = (   0.4666667   0.5773505   0.0000000), wk =   0.0177778
        k(  104) = (   0.4666667   0.6543306   0.0000000), wk =   0.0177778
        k(  105) = (   0.4666667   0.7313107   0.0000000), wk =   0.0177778
        k(  106) = (   0.4666667   0.8082908   0.0000000), wk =   0.0177778
        k(  107) = (   0.4666667  -0.2694303   0.0000000), wk =   0.0177778
        k(  108) = (   0.4666667  -0.1924502   0.0000000), wk =   0.0177778
        k(  109) = (   0.4666667  -0.1154701   0.0000000), wk =   0.0177778
        k(  110) = (   0.4666667  -0.0384900   0.0000000), wk =   0.0177778
        k(  111) = (   0.4666667   0.0384900   0.0000000), wk =   0.0177778
        k(  112) = (   0.4666667   0.1154701   0.0000000), wk =   0.0177778
        k(  113) = (   0.4666667   0.1924502   0.0000000), wk =   0.0177778

                       cryst. coord.
        k(    1) = (   0.0000000   0.0000000   0.0000000), wk =   0.0088889
        k(    2) = (   0.0000000   0.0666667   0.0000000), wk =   0.0177778
        k(    3) = (   0.0000000   0.1333333   0.0000000), wk =   0.0177778
        k(    4) = (   0.0000000   0.2000000   0.0000000), wk =   0.0177778
        k(    5) = (   0.0000000   0.2666667   0.0000000), wk =   0.0177778
        k(    6) = (   0.0000000   0.3333333   0.0000000), wk =   0.0177778
        k(    7) = (   0.0000000   0.4000000   0.0000000), wk =   0.0177778
        k(    8) = (   0.0000000   0.4666667   0.0000000), wk =   0.0177778
        k(    9) = (   0.0666667   0.0000000   0.0000000), wk =   0.0177778
        k(   10) = (   0.0666667   0.0666667   0.0000000), wk =   0.0177778
        k(   11) = (   0.0666667   0.1333333   0.0000000), wk =   0.0177778
        k(   12) = (   0.0666667   0.2000000   0.0000000), wk =   0.0177778
        k(   13) = (   0.0666667   0.2666667   0.0000000), wk =   0.0177778
        k(   14) = (   0.0666667   0.3333333   0.0000000), wk =   0.0177778
        k(   15) = (   0.0666667   0.4000000   0.0000000), wk =   0.0177778
        k(   16) = (   0.0666667   0.4666667   0.0000000), wk =   0.0177778
        k(   17) = (   0.0666667  -0.4666667   0.0000000), wk =   0.0177778
        k(   18) = (   0.0666667  -0.4000000   0.0000000), wk =   0.0177778
        k(   19) = (   0.0666667  -0.3333333   0.0000000), wk =   0.0177778
        k(   20) = (   0.0666667  -0.2666667   0.0000000), wk =   0.0177778
        k(   21) = (   0.0666667  -0.2000000   0.0000000), wk =   0.0177778
        k(   22) = (   0.0666667  -0.1333333   0.0000000), wk =   0.0177778
        k(   23) = (   0.0666667  -0.0666667   0.0000000), wk =   0.0177778
        k(   24) = (   0.1333333   0.0000000   0.0000000), wk =   0.0177778
        k(   25) = (   0.1333333   0.0666667   0.0000000), wk =   0.0177778
        k(   26) = (   0.1333333   0.1333333   0.0000000), wk =   0.0177778
        k(   27) = (   0.1333333   0.2000000   0.0000000), wk =   0.0177778
        k(   28) = (   0.1333333   0.2666667   0.0000000), wk =   0.0177778
        k(   29) = (   0.1333333   0.3333333   0.0000000), wk =   0.0177778
        k(   30) = (   0.1333333   0.4000000   0.0000000), wk =   0.0177778
        k(   31) = (   0.1333333   0.4666667   0.0000000), wk =   0.0177778
        k(   32) = (   0.1333333  -0.4666667   0.0000000), wk =   0.0177778
        k(   33) = (   0.1333333  -0.4000000   0.0000000), wk =   0.0177778
        k(   34) = (   0.1333333  -0.3333333   0.0000000), wk =   0.0177778
        k(   35) = (   0.1333333  -0.2666667   0.0000000), wk =   0.0177778
        k(   36) = (   0.1333333  -0.2000000   0.0000000), wk =   0.0177778
        k(   37) = (   0.1333333  -0.1333333   0.0000000), wk =   0.0177778
        k(   38) = (   0.1333333  -0.0666667   0.0000000), wk =   0.0177778
        k(   39) = (   0.2000000   0.0000000   0.0000000), wk =   0.0177778
        k(   40) = (   0.2000000   0.0666667   0.0000000), wk =   0.0177778
        k(   41) = (   0.2000000   0.1333333   0.0000000), wk =   0.0177778
        k(   42) = (   0.2000000   0.2000000   0.0000000), wk =   0.0177778
        k(   43) = (   0.2000000   0.2666667   0.0000000), wk =   0.0177778
        k(   44) = (   0.2000000   0.3333333   0.0000000), wk =   0.0177778
        k(   45) = (   0.2000000   0.4000000   0.0000000), wk =   0.0177778
        k(   46) = (   0.2000000   0.4666667   0.0000000), wk =   0.0177778
        k(   47) = (   0.2000000  -0.4666667   0.0000000), wk =   0.0177778
        k(   48) = (   0.2000000  -0.4000000   0.0000000), wk =   0.0177778
        k(   49) = (   0.2000000  -0.3333333   0.0000000), wk =   0.0177778
        k(   50) = (   0.2000000  -0.2666667   0.0000000), wk =   0.0177778
        k(   51) = (   0.2000000  -0.2000000   0.0000000), wk =   0.0177778
        k(   52) = (   0.2000000  -0.1333333   0.0000000), wk =   0.0177778
        k(   53) = (   0.2000000  -0.0666667   0.0000000), wk =   0.0177778
        k(   54) = (   0.2666667   0.0000000   0.0000000), wk =   0.0177778
        k(   55) = (   0.2666667   0.0666667   0.0000000), wk =   0.0177778
        k(   56) = (   0.2666667   0.1333333   0.0000000), wk =   0.0177778
        k(   57) = (   0.2666667   0.2000000   0.0000000), wk =   0.0177778
        k(   58) = (   0.2666667   0.2666667   0.0000000), wk =   0.0177778
        k(   59) = (   0.2666667   0.3333333   0.0000000), wk =   0.0177778
        k(   60) = (   0.2666667   0.4000000   0.0000000), wk =   0.0177778
        k(   61) = (   0.2666667   0.4666667   0.0000000), wk =   0.0177778
        k(   62) = (   0.2666667  -0.4666667   0.0000000), wk =   0.0177778
        k(   63) = (   0.2666667  -0.4000000   0.0000000), wk =   0.0177778
        k(   64) = (   0.2666667  -0.3333333   0.0000000), wk =   0.0177778
        k(   65) = (   0.2666667  -0.2666667   0.0000000), wk =   0.0177778
        k(   66) = (   0.2666667  -0.2000000   0.0000000), wk =   0.0177778
        k(   67) = (   0.2666667  -0.1333333   0.0000000), wk =   0.0177778
        k(   68) = (   0.2666667  -0.0666667   0.0000000), wk =   0.0177778
        k(   69) = (   0.3333333   0.0000000   0.0000000), wk =   0.0177778
        k(   70) = (   0.3333333   0.0666667   0.0000000), wk =   0.0177778
        k(   71) = (   0.3333333   0.1333333   0.0000000), wk =   0.0177778
        k(   72) = (   0.3333333   0.2000000   0.0000000), wk =   0.0177778
        k(   73) = (   0.3333333   0.2666667   0.0000000), wk =   0.0177778
        k(   74) = (   0.3333333   0.3333333   0.0000000), wk =   0.0177778
        k(   75) = (   0.3333333   0.4000000   0.0000000), wk =   0.0177778
        k(   76) = (   0.3333333   0.4666667   0.0000000), wk =   0.0177778
        k(   77) = (   0.3333333  -0.4666667   0.0000000), wk =   0.0177778
        k(   78) = (   0.3333333  -0.4000000   0.0000000), wk =   0.0177778
        k(   79) = (   0.3333333  -0.3333333   0.0000000), wk =   0.0177778
        k(   80) = (   0.3333333  -0.2666667   0.0000000), wk =   0.0177778
        k(   81) = (   0.3333333  -0.2000000   0.0000000), wk =   0.0177778
        k(   82) = (   0.3333333  -0.1333333   0.0000000), wk =   0.0177778
        k(   83) = (   0.3333333  -0.0666667   0.0000000), wk =   0.0177778
        k(   84) = (   0.4000000   0.0000000   0.0000000), wk =   0.0177778
        k(   85) = (   0.4000000   0.0666667   0.0000000), wk =   0.0177778
        k(   86) = (   0.4000000   0.1333333   0.0000000), wk =   0.0177778
        k(   87) = (   0.4000000   0.2000000   0.0000000), wk =   0.0177778
        k(   88) = (   0.4000000   0.2666667   0.0000000), wk =   0.0177778
        k(   89) = (   0.4000000   0.3333333   0.0000000), wk =   0.0177778
        k(   90) = (   0.4000000   0.4000000   0.0000000), wk =   0.0177778
        k(   91) = (   0.4000000   0.4666667   0.0000000), wk =   0.0177778
        k(   92) = (   0.4000000  -0.4666667   0.0000000), wk =   0.0177778
        k(   93) = (   0.4000000  -0.4000000   0.0000000), wk =   0.0177778
        k(   94) = (   0.4000000  -0.3333333   0.0000000), wk =   0.0177778
        k(   95) = (   0.4000000  -0.2666667   0.0000000), wk =   0.0177778
        k(   96) = (   0.4000000  -0.2000000   0.0000000), wk =   0.0177778
        k(   97) = (   0.4000000  -0.1333333   0.0000000), wk =   0.0177778
        k(   98) = (   0.4000000  -0.0666667   0.0000000), wk =   0.0177778
        k(   99) = (   0.4666667   0.0000000   0.0000000), wk =   0.0177778
        k(  100) = (   0.4666667   0.0666667   0.0000000), wk =   0.0177778
        k(  101) = (   0.4666667   0.1333333   0.0000000), wk =   0.0177778
        k(  102) = (   0.4666667   0.2000000   0.0000000), wk =   0.0177778
        k(  103) = (   0.4666667   0.2666667   0.0000000), wk =   0.0177778
        k(  104) = (   0.4666667   0.3333333   0.0000000), wk =   0.0177778
        k(  105) = (   0.4666667   0.4000000   0.0000000), wk =   0.0177778
        k(  106) = (   0.4666667   0.4666667   0.0000000), wk =   0.0177778
        k(  107) = (   0.4666667  -0.4666667   0.0000000), wk =   0.0177778
        k(  108) = (   0.4666667  -0.4000000   0.0000000), wk =   0.0177778
        k(  109) = (   0.4666667  -0.3333333   0.0000000), wk =   0.0177778
        k(  110) = (   0.4666667  -0.2666667   0.0000000), wk =   0.0177778
        k(  111) = (   0.4666667  -0.2000000   0.0000000), wk =   0.0177778
        k(  112) = (   0.4666667  -0.1333333   0.0000000), wk =   0.0177778
        k(  113) = (   0.4666667  -0.0666667   0.0000000), wk =   0.0177778

     Dense  grid:   111671 G-vectors     FFT dimensions: (  30,  30, 288)

     Smooth grid:    52021 G-vectors     FFT dimensions: (  24,  24, 225)

     Dynamical RAM for                 wfc:       0.99 MB

     Dynamical RAM for     wfc (w. buffer):      29.67 MB

     Dynamical RAM for           str. fact:       1.70 MB

     Dynamical RAM for           local pot:       0.00 MB

     Dynamical RAM for          nlocal pot:       1.58 MB

     Dynamical RAM for                qrad:       0.46 MB

     Dynamical RAM for          rho,v,vnew:      11.04 MB

     Dynamical RAM for               rhoin:       3.68 MB

     Dynamical RAM for            rho*nmix:      27.26 MB

     Dynamical RAM for           G-vectors:       6.79 MB

     Dynamical RAM for          h,s,v(r/c):       0.02 MB

     Dynamical RAM for          <psi|beta>:       0.00 MB

     Dynamical RAM for                 psi:       1.98 MB

     Dynamical RAM for                hpsi:       1.98 MB

     Dynamical RAM for                spsi:       1.98 MB

     Dynamical RAM for      wfcinit/wfcrot:       1.98 MB

     Dynamical RAM for           addusdens:      20.45 MB

     Dynamical RAM for          addusforce:      20.87 MB

     Estimated static dynamical RAM per process >      68.22 MB

     Estimated max dynamical RAM per process >     116.36 MB

     Estimated total dynamical RAM >     383.65 MB

     Adding external electric field
        E field amplitude [Ha a.u.]:  5.0000E-02
        Potential amp.        3.9713 Ry
        Total length         39.7126 bohr


     Check: negative core charge=   -0.000002

     Initial potential from superposition of free atoms

     starting charge       7.9999, renormalised to       8.0000

     negative rho (up, down):  1.241E-04 0.000E+00
     Starting wfcs are    8 randomized atomic wfcs +    2 random wfcs
     Checking if some PAW data can be deallocated... 

     total cpu time spent up to now is        3.5 secs

     Self-consistent Calculation

     iteration #  1     ecut=    60.00 Ry     beta= 0.70
     Davidson diagonalization with overlap

---- Real-time Memory Report at c_bands before calling an iterative solver
            99 MiB given to the printing process from OS
             0 MiB allocation reported by mallinfo(arena+hblkhd)
           302 MiB available memory on the node where the printing process lives
------------------
     ethr =  1.00E-02,  avg # of iterations = 12.0

     negative rho (up, down):  1.220E-05 0.000E+00

     total cpu time spent up to now is       19.0 secs

     total energy              =      77.71384767 Ry
     estimated scf accuracy    <     144.77762745 Ry

     iteration #  2     ecut=    60.00 Ry     beta= 0.70
     Davidson diagonalization with overlap

---- Real-time Memory Report at c_bands before calling an iterative solver
           138 MiB given to the printing process from OS
             0 MiB allocation reported by mallinfo(arena+hblkhd)
           400 MiB available memory on the node where the printing process lives
------------------
     c_bands:  2 eigenvalues not converged
     c_bands:  1 eigenvalues not converged
     c_bands:  2 eigenvalues not converged
     c_bands:  2 eigenvalues not converged
     c_bands:  1 eigenvalues not converged
     c_bands:  2 eigenvalues not converged
     ethr =  1.00E-02,  avg # of iterations = 17.3

     negative rho (up, down):  1.307E-04 0.000E+00

     total cpu time spent up to now is       39.8 secs

     total energy              =     -61.95948824 Ry
     estimated scf accuracy    <      90.95870387 Ry

     iteration #  3     ecut=    60.00 Ry     beta= 0.70
     Davidson diagonalization with overlap

---- Real-time Memory Report at c_bands before calling an iterative solver
           140 MiB given to the printing process from OS
             0 MiB allocation reported by mallinfo(arena+hblkhd)
           393 MiB available memory on the node where the printing process lives
------------------
     ethr =  1.00E-02,  avg # of iterations =  3.8

     negative rho (up, down):  1.579E-04 0.000E+00

     total cpu time spent up to now is       45.6 secs

     total energy              =     -54.15742770 Ry
     estimated scf accuracy    <      27.79935723 Ry

     iteration #  4     ecut=    60.00 Ry     beta= 0.70
     Davidson diagonalization with overlap

---- Real-time Memory Report at c_bands before calling an iterative solver
           141 MiB given to the printing process from OS
             0 MiB allocation reported by mallinfo(arena+hblkhd)
           403 MiB available memory on the node where the printing process lives
------------------
     ethr =  1.00E-02,  avg # of iterations =  1.9

     negative rho (up, down):  1.304E-04 0.000E+00

     total cpu time spent up to now is       50.6 secs

     total energy              =     -43.87331333 Ry
     estimated scf accuracy    <      16.74354492 Ry

     iteration #  5     ecut=    60.00 Ry     beta= 0.70
     Davidson diagonalization with overlap

---- Real-time Memory Report at c_bands before calling an iterative solver
           143 MiB given to the printing process from OS
             0 MiB allocation reported by mallinfo(arena+hblkhd)
           387 MiB available memory on the node where the printing process lives
------------------
     ethr =  1.00E-02,  avg # of iterations =  3.8

     negative rho (up, down):  1.141E-04 0.000E+00

     total cpu time spent up to now is       55.7 secs

     total energy              =     -43.87605081 Ry
     estimated scf accuracy    <       5.13153265 Ry

     iteration #  6     ecut=    60.00 Ry     beta= 0.70
     Davidson diagonalization with overlap

---- Real-time Memory Report at c_bands before calling an iterative solver
           145 MiB given to the printing process from OS
             0 MiB allocation reported by mallinfo(arena+hblkhd)
           386 MiB available memory on the node where the printing process lives
------------------
     ethr =  1.00E-02,  avg # of iterations =  1.0

     negative rho (up, down):  9.725E-05 0.000E+00

     total cpu time spent up to now is       58.4 secs

     total energy              =     -39.81271539 Ry
     estimated scf accuracy    <       4.87437286 Ry

     iteration #  7     ecut=    60.00 Ry     beta= 0.70
     Davidson diagonalization with overlap

---- Real-time Memory Report at c_bands before calling an iterative solver
           146 MiB given to the printing process from OS
             0 MiB allocation reported by mallinfo(arena+hblkhd)
           363 MiB available memory on the node where the printing process lives
------------------
     ethr =  1.00E-02,  avg # of iterations =  6.8

     negative rho (up, down):  1.334E-04 0.000E+00

     total cpu time spent up to now is       65.9 secs

     total energy              =     -41.62429162 Ry
     estimated scf accuracy    <      11.85903966 Ry

     iteration #  8     ecut=    60.00 Ry     beta= 0.70
     Davidson diagonalization with overlap

---- Real-time Memory Report at c_bands before calling an iterative solver
           148 MiB given to the printing process from OS
             0 MiB allocation reported by mallinfo(arena+hblkhd)
           396 MiB available memory on the node where the printing process lives
------------------
     ethr =  1.00E-02,  avg # of iterations =  1.2

     negative rho (up, down):  1.995E-04 0.000E+00

     total cpu time spent up to now is       69.7 secs

     total energy              =     -41.77129072 Ry
     estimated scf accuracy    <      15.69951586 Ry

     iteration #  9     ecut=    60.00 Ry     beta= 0.70
     Davidson diagonalization with overlap

---- Real-time Memory Report at c_bands before calling an iterative solver
           149 MiB given to the printing process from OS
             0 MiB allocation reported by mallinfo(arena+hblkhd)
           366 MiB available memory on the node where the printing process lives
------------------
     ethr =  1.00E-02,  avg # of iterations =  1.1

     negative rho (up, down):  2.304E-04 0.000E+00

     total cpu time spent up to now is       74.3 secs

     total energy              =     -41.95538900 Ry
     estimated scf accuracy    <      18.44709601 Ry

     iteration # 10     ecut=    60.00 Ry     beta= 0.70
     Davidson diagonalization with overlap

---- Real-time Memory Report at c_bands before calling an iterative solver
           151 MiB given to the printing process from OS
             0 MiB allocation reported by mallinfo(arena+hblkhd)
           388 MiB available memory on the node where the printing process lives
------------------
     ethr =  1.00E-02,  avg # of iterations =  1.1

     negative rho (up, down):  3.824E-02 0.000E+00

     total cpu time spent up to now is       78.2 secs

     total energy              =     -46.51772220 Ry
     estimated scf accuracy    <      22.10751738 Ry

     iteration # 11     ecut=    60.00 Ry     beta= 0.70
     Davidson diagonalization with overlap

---- Real-time Memory Report at c_bands before calling an iterative solver
           151 MiB given to the printing process from OS
             0 MiB allocation reported by mallinfo(arena+hblkhd)
           375 MiB available memory on the node where the printing process lives
------------------
     ethr =  1.00E-02,  avg # of iterations =  6.0

     negative rho (up, down):  3.699E-04 0.000E+00

     total cpu time spent up to now is       84.4 secs

     total energy              =     -21.75037264 Ry
     estimated scf accuracy    <     183.89725603 Ry

     iteration # 12     ecut=    60.00 Ry     beta= 0.70
     Davidson diagonalization with overlap

---- Real-time Memory Report at c_bands before calling an iterative solver
           151 MiB given to the printing process from OS
             0 MiB allocation reported by mallinfo(arena+hblkhd)
           391 MiB available memory on the node where the printing process lives
------------------
     ethr =  1.00E-02,  avg # of iterations =  8.2

     negative rho (up, down):  1.036E-04 0.000E+00

     total cpu time spent up to now is       96.2 secs

     total energy              =     -40.80939660 Ry
     estimated scf accuracy    <       1.25604722 Ry

     iteration # 13     ecut=    60.00 Ry     beta= 0.70
     Davidson diagonalization with overlap

---- Real-time Memory Report at c_bands before calling an iterative solver
           151 MiB given to the printing process from OS
             0 MiB allocation reported by mallinfo(arena+hblkhd)
           392 MiB available memory on the node where the printing process lives
------------------
     ethr =  1.00E-02,  avg # of iterations =  1.1

     negative rho (up, down):  5.277E-05 0.000E+00

     total cpu time spent up to now is      100.3 secs

     total energy              =     -41.51467889 Ry
     estimated scf accuracy    <       0.64909402 Ry

     iteration # 14     ecut=    60.00 Ry     beta= 0.70
     Davidson diagonalization with overlap

---- Real-time Memory Report at c_bands before calling an iterative solver
           151 MiB given to the printing process from OS
             0 MiB allocation reported by mallinfo(arena+hblkhd)
           366 MiB available memory on the node where the printing process lives
------------------
     ethr =  8.11E-03,  avg # of iterations =  3.0

     negative rho (up, down):  6.110E-05 0.000E+00

     total cpu time spent up to now is      105.5 secs

     total energy              =     -41.17203554 Ry
     estimated scf accuracy    <       2.22429980 Ry

     iteration # 15     ecut=    60.00 Ry     beta= 0.70
     Davidson diagonalization with overlap

---- Real-time Memory Report at c_bands before calling an iterative solver
           151 MiB given to the printing process from OS
             0 MiB allocation reported by mallinfo(arena+hblkhd)
           395 MiB available memory on the node where the printing process lives
------------------
     ethr =  8.11E-03,  avg # of iterations =  1.0

     negative rho (up, down):  6.731E-05 0.000E+00

     total cpu time spent up to now is      109.4 secs

     total energy              =     -41.31654677 Ry
     estimated scf accuracy    <       1.49540038 Ry

     iteration # 16     ecut=    60.00 Ry     beta= 0.70
     Davidson diagonalization with overlap

---- Real-time Memory Report at c_bands before calling an iterative solver
           151 MiB given to the printing process from OS
             0 MiB allocation reported by mallinfo(arena+hblkhd)
           363 MiB available memory on the node where the printing process lives
------------------
     ethr =  8.11E-03,  avg # of iterations =  1.0

     negative rho (up, down):  8.050E-05 0.000E+00

     total cpu time spent up to now is      112.6 secs

     total energy              =     -41.36947232 Ry
     estimated scf accuracy    <       1.68718815 Ry

     iteration # 17     ecut=    60.00 Ry     beta= 0.70
     Davidson diagonalization with overlap

---- Real-time Memory Report at c_bands before calling an iterative solver
           151 MiB given to the printing process from OS
             0 MiB allocation reported by mallinfo(arena+hblkhd)
           391 MiB available memory on the node where the printing process lives
------------------
     ethr =  8.11E-03,  avg # of iterations =  1.0

     negative rho (up, down):  8.003E-05 0.000E+00

     total cpu time spent up to now is      116.9 secs

     total energy              =     -41.27051833 Ry
     estimated scf accuracy    <       1.75495000 Ry

     iteration # 18     ecut=    60.00 Ry     beta= 0.70
     Davidson diagonalization with overlap

---- Real-time Memory Report at c_bands before calling an iterative solver
           151 MiB given to the printing process from OS
             0 MiB allocation reported by mallinfo(arena+hblkhd)
           369 MiB available memory on the node where the printing process lives
------------------
     ethr =  8.11E-03,  avg # of iterations =  1.0

     negative rho (up, down):  9.813E-05 0.000E+00

     total cpu time spent up to now is      120.9 secs

     total energy              =     -41.87782266 Ry
     estimated scf accuracy    <       1.61358509 Ry

     iteration # 19     ecut=    60.00 Ry     beta= 0.70
     Davidson diagonalization with overlap

---- Real-time Memory Report at c_bands before calling an iterative solver
           151 MiB given to the printing process from OS
             0 MiB allocation reported by mallinfo(arena+hblkhd)
           392 MiB available memory on the node where the printing process lives
------------------
     ethr =  8.11E-03,  avg # of iterations =  2.0

     negative rho (up, down):  1.195E-04 0.000E+00

     total cpu time spent up to now is      125.2 secs

     total energy              =     -41.88780332 Ry
     estimated scf accuracy    <       2.44695745 Ry

     iteration # 20     ecut=    60.00 Ry     beta= 0.70
     Davidson diagonalization with overlap

---- Real-time Memory Report at c_bands before calling an iterative solver
           151 MiB given to the printing process from OS
             0 MiB allocation reported by mallinfo(arena+hblkhd)
           361 MiB available memory on the node where the printing process lives
------------------
     ethr =  8.11E-03,  avg # of iterations =  1.0

     negative rho (up, down):  8.686E-02 0.000E+00

     total cpu time spent up to now is      129.3 secs

     total energy              =     -39.73740863 Ry
     estimated scf accuracy    <       2.43899865 Ry

     iteration # 21     ecut=    60.00 Ry     beta= 0.70
     Davidson diagonalization with overlap

---- Real-time Memory Report at c_bands before calling an iterative solver
           151 MiB given to the printing process from OS
             0 MiB allocation reported by mallinfo(arena+hblkhd)
           370 MiB available memory on the node where the printing process lives
------------------
     ethr =  8.11E-03,  avg # of iterations =  9.5

     negative rho (up, down):  2.345E-04 0.000E+00

     total cpu time spent up to now is      143.5 secs

     total energy              =     -25.74868130 Ry
     estimated scf accuracy    <     157.40348826 Ry

     iteration # 22     ecut=    60.00 Ry     beta= 0.70
     Davidson diagonalization with overlap

---- Real-time Memory Report at c_bands before calling an iterative solver
           151 MiB given to the printing process from OS
             0 MiB allocation reported by mallinfo(arena+hblkhd)
           365 MiB available memory on the node where the printing process lives
------------------
     ethr =  8.11E-03,  avg # of iterations =  8.2

     negative rho (up, down):  5.600E-05 0.000E+00

     total cpu time spent up to now is      153.1 secs

     total energy              =     -40.90787010 Ry
     estimated scf accuracy    <       0.86603621 Ry

     iteration # 23     ecut=    60.00 Ry     beta= 0.70
     Davidson diagonalization with overlap

---- Real-time Memory Report at c_bands before calling an iterative solver
           151 MiB given to the printing process from OS
             0 MiB allocation reported by mallinfo(arena+hblkhd)
           391 MiB available memory on the node where the printing process lives
------------------
     ethr =  8.11E-03,  avg # of iterations =  1.1

     negative rho (up, down):  4.980E-05 0.000E+00

     total cpu time spent up to now is      156.6 secs

     total energy              =     -40.83681536 Ry
     estimated scf accuracy    <       1.03236528 Ry

     iteration # 24     ecut=    60.00 Ry     beta= 0.70
     Davidson diagonalization with overlap

---- Real-time Memory Report at c_bands before calling an iterative solver
           151 MiB given to the printing process from OS
             0 MiB allocation reported by mallinfo(arena+hblkhd)
           357 MiB available memory on the node where the printing process lives
------------------
     ethr =  8.11E-03,  avg # of iterations =  1.1

     negative rho (up, down):  6.954E-05 0.000E+00

     total cpu time spent up to now is      159.8 secs

     total energy              =     -40.86412917 Ry
     estimated scf accuracy    <       0.85085073 Ry

     iteration # 25     ecut=    60.00 Ry     beta= 0.70
     Davidson diagonalization with overlap

---- Real-time Memory Report at c_bands before calling an iterative solver
           151 MiB given to the printing process from OS
             0 MiB allocation reported by mallinfo(arena+hblkhd)
           380 MiB available memory on the node where the printing process lives
------------------
     ethr =  8.11E-03,  avg # of iterations =  1.0

     negative rho (up, down):  6.779E-05 0.000E+00

     total cpu time spent up to now is      162.4 secs

     total energy              =     -40.75673010 Ry
     estimated scf accuracy    <       0.94901235 Ry

     iteration # 26     ecut=    60.00 Ry     beta= 0.70
     Davidson diagonalization with overlap

---- Real-time Memory Report at c_bands before calling an iterative solver
           151 MiB given to the printing process from OS
             0 MiB allocation reported by mallinfo(arena+hblkhd)
           365 MiB available memory on the node where the printing process lives
------------------
     ethr =  8.11E-03,  avg # of iterations =  1.1

     negative rho (up, down):  6.478E-05 0.000E+00

     total cpu time spent up to now is      165.0 secs

     total energy              =     -40.76582713 Ry
     estimated scf accuracy    <       0.56602076 Ry

     iteration # 27     ecut=    60.00 Ry     beta= 0.70
     Davidson diagonalization with overlap

---- Real-time Memory Report at c_bands before calling an iterative solver
           151 MiB given to the printing process from OS
             0 MiB allocation reported by mallinfo(arena+hblkhd)
           365 MiB available memory on the node where the printing process lives
------------------
     ethr =  7.08E-03,  avg # of iterations =  1.0

     negative rho (up, down):  6.621E-05 0.000E+00

     total cpu time spent up to now is      168.6 secs

     total energy              =     -40.74717680 Ry
     estimated scf accuracy    <       0.56955622 Ry

     iteration # 28     ecut=    60.00 Ry     beta= 0.70
     Davidson diagonalization with overlap

---- Real-time Memory Report at c_bands before calling an iterative solver
           151 MiB given to the printing process from OS
             0 MiB allocation reported by mallinfo(arena+hblkhd)
           381 MiB available memory on the node where the printing process lives
------------------
     ethr =  7.08E-03,  avg # of iterations =  1.0

     negative rho (up, down):  6.564E-05 0.000E+00

     total cpu time spent up to now is      172.4 secs

     total energy              =     -40.74441523 Ry
     estimated scf accuracy    <       0.52366724 Ry

     iteration # 29     ecut=    60.00 Ry     beta= 0.70
     Davidson diagonalization with overlap

---- Real-time Memory Report at c_bands before calling an iterative solver
           151 MiB given to the printing process from OS
             0 MiB allocation reported by mallinfo(arena+hblkhd)
           365 MiB available memory on the node where the printing process lives
------------------
     ethr =  6.55E-03,  avg # of iterations =  1.1

     negative rho (up, down):  6.558E-05 0.000E+00

     total cpu time spent up to now is      176.8 secs

     total energy              =     -40.75607464 Ry
     estimated scf accuracy    <       0.51461056 Ry

     iteration # 30     ecut=    60.00 Ry     beta= 0.70
     Davidson diagonalization with overlap

---- Real-time Memory Report at c_bands before calling an iterative solver
           151 MiB given to the printing process from OS
             0 MiB allocation reported by mallinfo(arena+hblkhd)
           379 MiB available memory on the node where the printing process lives
------------------
     ethr =  6.43E-03,  avg # of iterations =  1.1

     negative rho (up, down):  5.341E-03 0.000E+00

     total cpu time spent up to now is      180.4 secs

     total energy              =     -40.41192140 Ry
     estimated scf accuracy    <       0.54550719 Ry

     iteration # 31     ecut=    60.00 Ry     beta= 0.70
     Davidson diagonalization with overlap

---- Real-time Memory Report at c_bands before calling an iterative solver
           151 MiB given to the printing process from OS
             0 MiB allocation reported by mallinfo(arena+hblkhd)
           364 MiB available memory on the node where the printing process lives
------------------
     ethr =  6.43E-03,  avg # of iterations =  6.8

     negative rho (up, down):  1.991E-04 0.000E+00

     total cpu time spent up to now is      186.4 secs

     total energy              =     -40.44567117 Ry
     estimated scf accuracy    <       0.42069727 Ry

     iteration # 32     ecut=    60.00 Ry     beta= 0.70
     Davidson diagonalization with overlap

---- Real-time Memory Report at c_bands before calling an iterative solver
           151 MiB given to the printing process from OS
             0 MiB allocation reported by mallinfo(arena+hblkhd)
           384 MiB available memory on the node where the printing process lives
------------------
     ethr =  5.26E-03,  avg # of iterations =  2.0

     negative rho (up, down):  4.628E-04 0.000E+00

     total cpu time spent up to now is      189.4 secs

     total energy              =     -40.50696387 Ry
     estimated scf accuracy    <       0.07406416 Ry

     iteration # 33     ecut=    60.00 Ry     beta= 0.70
     Davidson diagonalization with overlap

---- Real-time Memory Report at c_bands before calling an iterative solver
           151 MiB given to the printing process from OS
             0 MiB allocation reported by mallinfo(arena+hblkhd)
           363 MiB available memory on the node where the printing process lives
------------------
     ethr =  9.26E-04,  avg # of iterations =  2.9

     negative rho (up, down):  8.956E-05 0.000E+00

     total cpu time spent up to now is      194.3 secs

     total energy              =     -40.50725041 Ry
     estimated scf accuracy    <       0.03045306 Ry

     iteration # 34     ecut=    60.00 Ry     beta= 0.70
     Davidson diagonalization with overlap

---- Real-time Memory Report at c_bands before calling an iterative solver
           151 MiB given to the printing process from OS
             0 MiB allocation reported by mallinfo(arena+hblkhd)
           381 MiB available memory on the node where the printing process lives
------------------
     ethr =  3.81E-04,  avg # of iterations =  2.0

     negative rho (up, down):  9.311E-05 0.000E+00

     total cpu time spent up to now is      198.8 secs

     total energy              =     -40.50274108 Ry
     estimated scf accuracy    <       0.01970092 Ry

     iteration # 35     ecut=    60.00 Ry     beta= 0.70
     Davidson diagonalization with overlap

---- Real-time Memory Report at c_bands before calling an iterative solver
           151 MiB given to the printing process from OS
             0 MiB allocation reported by mallinfo(arena+hblkhd)
           357 MiB available memory on the node where the printing process lives
------------------
     ethr =  2.46E-04,  avg # of iterations =  3.7

     negative rho (up, down):  1.449E-04 0.000E+00

     total cpu time spent up to now is      203.6 secs

     total energy              =     -40.50518534 Ry
     estimated scf accuracy    <       0.00017871 Ry

     iteration # 36     ecut=    60.00 Ry     beta= 0.70
     Davidson diagonalization with overlap

---- Real-time Memory Report at c_bands before calling an iterative solver
           151 MiB given to the printing process from OS
             0 MiB allocation reported by mallinfo(arena+hblkhd)
           379 MiB available memory on the node where the printing process lives
------------------
     c_bands:  1 eigenvalues not converged
     c_bands:  1 eigenvalues not converged
     ethr =  2.23E-06,  avg # of iterations = 10.0

     negative rho (up, down):  1.310E-04 0.000E+00

     total cpu time spent up to now is      210.8 secs

     total energy              =     -40.50500371 Ry
     estimated scf accuracy    <       0.00202322 Ry

     iteration # 37     ecut=    60.00 Ry     beta= 0.70
     Davidson diagonalization with overlap

---- Real-time Memory Report at c_bands before calling an iterative solver
           151 MiB given to the printing process from OS
             0 MiB allocation reported by mallinfo(arena+hblkhd)
           372 MiB available memory on the node where the printing process lives
------------------
     ethr =  2.23E-06,  avg # of iterations =  5.6

     negative rho (up, down):  8.752E-05 0.000E+00

     total cpu time spent up to now is      217.1 secs

     total energy              =     -40.50511844 Ry
     estimated scf accuracy    <       0.00009726 Ry

     iteration # 38     ecut=    60.00 Ry     beta= 0.70
     Davidson diagonalization with overlap

---- Real-time Memory Report at c_bands before calling an iterative solver
           151 MiB given to the printing process from OS
             0 MiB allocation reported by mallinfo(arena+hblkhd)
           376 MiB available memory on the node where the printing process lives
------------------
     ethr =  1.22E-06,  avg # of iterations =  1.0

     negative rho (up, down):  9.489E-05 0.000E+00

     total cpu time spent up to now is      221.1 secs

     total energy              =     -40.50509411 Ry
     estimated scf accuracy    <       0.00012448 Ry

     iteration # 39     ecut=    60.00 Ry     beta= 0.70
     Davidson diagonalization with overlap

---- Real-time Memory Report at c_bands before calling an iterative solver
           151 MiB given to the printing process from OS
             0 MiB allocation reported by mallinfo(arena+hblkhd)
           364 MiB available memory on the node where the printing process lives
------------------
     ethr =  1.22E-06,  avg # of iterations =  2.7

     negative rho (up, down):  9.512E-05 0.000E+00

     total cpu time spent up to now is      224.3 secs

     total energy              =     -40.50510459 Ry
     estimated scf accuracy    <       0.00000035 Ry

     iteration # 40     ecut=    60.00 Ry     beta= 0.70
     Davidson diagonalization with overlap

---- Real-time Memory Report at c_bands before calling an iterative solver
           151 MiB given to the printing process from OS
             0 MiB allocation reported by mallinfo(arena+hblkhd)
           350 MiB available memory on the node where the printing process lives
------------------
     ethr =  4.35E-09,  avg # of iterations =  1.3

     negative rho (up, down):  9.536E-05 0.000E+00

     total cpu time spent up to now is      228.1 secs

     End of self-consistent calculation

          k = 0.0000 0.0000 0.0000 (  6469 PWs)   bands (ev):

   -19.4253  -9.4345  -5.7134  -2.4717  -2.4390   0.3996   1.4199   1.8902
     2.0743   3.1430

     occupation numbers 
     1.0000   1.0000   1.0000   0.0000   0.0000   0.0000   0.0000   0.0000
     0.0000   0.0000

          k = 0.0000 0.0770 0.0000 (  6464 PWs)   bands (ev):

   -19.3178  -9.3027  -5.5727  -2.9021  -2.6704   0.5454   1.5667   2.0361
     2.2204   3.2885

     occupation numbers 
     1.0000   1.0000   1.0000   0.0000   0.0000   0.0000   0.0000   0.0000
     0.0000   0.0000

          k = 0.0000 0.1540 0.0000 (  6496 PWs)   bands (ev):

   -18.9962  -8.9089  -5.1512  -4.0729  -3.2272   0.9826   2.0071   2.4737
     2.6590   3.7246

     occupation numbers 
     1.0000   1.0000   1.0000   1.0000   0.0013   0.0000   0.0000   0.0000
     0.0000   0.0000

          k = 0.0000 0.2309 0.0000 (  6474 PWs)   bands (ev):

   -18.4631  -8.2589  -5.6701  -4.4503  -3.9251   1.7107   2.7410   3.2017
     3.3899   4.4498

     occupation numbers 
     1.0000   1.0000   1.0000   1.0000   1.0000   0.0000   0.0000   0.0000
     0.0000   0.0000

          k = 0.0000 0.3079 0.0000 (  6492 PWs)   bands (ev):

   -17.7234  -7.4561  -7.3588  -4.6062  -3.4738   2.7279   3.7682   4.2121
     4.4130   5.4009

     occupation numbers 
     1.0000   1.0000   1.0000   1.0000   0.3233   0.0000   0.0000   0.0000
     0.0000   0.0000

          k = 0.0000 0.3849 0.0000 (  6484 PWs)   bands (ev):

   -16.7864  -9.2559  -6.2562  -5.1740  -2.2326   3.6214   4.0755   5.0885
     5.5468   5.7283

     occupation numbers 
     1.0000   1.0000   1.0000   1.0000   0.0000   0.0000   0.0000   0.0000
     0.0000   0.0000

          k = 0.0000 0.4619 0.0000 (  6490 PWs)   bands (ev):

   -15.6734 -10.9840  -5.5751  -5.0085  -0.7851   1.8276   5.6330   5.7363
     6.7003   7.1299

     occupation numbers 
     1.0000   1.0000   1.0000   1.0000   0.0000   0.0000   0.0000   0.0000
     0.0000   0.0000

          k = 0.0000 0.5389 0.0000 (  6524 PWs)   bands (ev):

   -14.4928 -12.4820  -5.7816  -3.9133  -0.1056   1.4637   3.4309   7.5204
     7.6398   8.6035

     occupation numbers 
     1.0000   1.0000   1.0000   1.0000   0.0000   0.0000   0.0000   0.0000
     0.0000   0.0000

          k = 0.0667 0.0385 0.0000 (  6464 PWs)   bands (ev):

   -19.3178  -9.3027  -5.5727  -2.8848  -2.6881   0.5454   1.5667   2.0361
     2.2204   3.2887

     occupation numbers 
     1.0000   1.0000   1.0000   0.0000   0.0000   0.0000   0.0000   0.0000
     0.0000   0.0000

          k = 0.0667 0.1155 0.0000 (  6499 PWs)   bands (ev):

   -19.1033  -9.0399  -5.2916  -3.6444  -3.1244   0.8369   1.8603   2.3279
     2.5128   3.5796

     occupation numbers 
     1.0000   1.0000   1.0000   0.9058   0.0000   0.0000   0.0000   0.0000
     0.0000   0.0000

          k = 0.0667 0.1925 0.0000 (  6491 PWs)   bands (ev):

   -18.6759  -8.5179  -4.9459  -4.7303  -3.8375   1.4196   2.4475   2.9108
     3.0976   4.1603

     occupation numbers 
     1.0000   1.0000   1.0000   1.0000   0.9996   0.0000   0.0000   0.0000
     0.0000   0.0000

          k = 0.0667 0.2694 0.0000 (  6480 PWs)   bands (ev):

   -18.0394  -7.7456  -6.5765  -4.5882  -3.8911   2.2927   3.3280   3.7826
     3.9746   5.0264

     occupation numbers 
     1.0000   1.0000   1.0000   1.0000   0.9999   0.0000   0.0000   0.0000
     0.0000   0.0000

          k = 0.0667 0.3464 0.0000 (  6491 PWs)   bands (ev):

   -17.2007  -8.3386  -6.7403  -5.2465  -2.7800   3.4497   4.5000   4.5559
     4.9918   5.1443

     occupation numbers 
     1.0000   1.0000   1.0000   1.0000   0.0000   0.0000   0.0000   0.0000
     0.0000   0.0000

          k = 0.0667 0.4234 0.0000 (  6487 PWs)   bands (ev):

   -16.1732 -10.0918  -5.7491  -5.5474  -1.4183   2.6714   4.9178   5.9679
     6.4057   6.6044

     occupation numbers 
     1.0000   1.0000   1.0000   1.0000   0.0000   0.0000   0.0000   0.0000
     0.0000   0.0000

          k = 0.0667 0.5004 0.0000 (  6503 PWs)   bands (ev):

   -14.9987 -11.7251  -6.0601  -4.3084  -0.0529   1.2341   4.6107   6.6542
     7.7239   8.0698

     occupation numbers 
     1.0000   1.0000   1.0000   1.0000   0.0000   0.0000   0.0000   0.0000
     0.0000   0.0000

          k = 0.0667 0.5774 0.0000 (  6480 PWs)   bands (ev):

   -14.1025 -12.7779  -6.1654  -3.6137  -0.2181   2.2028   2.6752   8.0707
     8.6710   8.6765

     occupation numbers 
     1.0000   1.0000   1.0000   0.8402   0.0000   0.0000   0.0000   0.0000
     0.0000   0.0000

          k = 0.0667-0.5004 0.0000 (  6503 PWs)   bands (ev):

   -14.9987 -11.7256  -6.0595  -4.3076  -0.0535   1.2335   4.6103   6.6543
     7.7239   8.0708

     occupation numbers 
     1.0000   1.0000   1.0000   1.0000   0.0000   0.0000   0.0000   0.0000
     0.0000   0.0000

          k = 0.0667-0.4234 0.0000 (  6487 PWs)   bands (ev):

   -16.1733 -10.0929  -5.7477  -5.5465  -1.4182   2.6691   4.9178   5.9679
     6.4059   6.6045

     occupation numbers 
     1.0000   1.0000   1.0000   1.0000   0.0000   0.0000   0.0000   0.0000
     0.0000   0.0000

          k = 0.0667-0.3464 0.0000 (  6491 PWs)   bands (ev):

   -17.2008  -8.3412  -6.7398  -5.2434  -2.7799   3.4497   4.4998   4.5531
     4.9916   5.1441

     occupation numbers 
     1.0000   1.0000   1.0000   1.0000   0.0000   0.0000   0.0000   0.0000
     0.0000   0.0000

          k = 0.0667-0.2694 0.0000 (  6480 PWs)   bands (ev):

   -18.0396  -7.7451  -6.5822  -4.5816  -3.8910   2.2927   3.3280   3.7826
     3.9746   5.0264

     occupation numbers 
     1.0000   1.0000   1.0000   1.0000   0.9999   0.0000   0.0000   0.0000
     0.0000   0.0000

          k = 0.0667-0.1925 0.0000 (  6491 PWs)   bands (ev):

   -18.6760  -8.5176  -4.9584  -4.7302  -3.8239   1.4196   2.4475   2.9109
     3.0976   4.1605

     occupation numbers 
     1.0000   1.0000   1.0000   1.0000   0.9993   0.0000   0.0000   0.0000
     0.0000   0.0000

          k = 0.0667-0.1155 0.0000 (  6499 PWs)   bands (ev):

   -19.1033  -9.0398  -5.2916  -3.6687  -3.0989   0.8369   1.8603   2.3279
     2.5128   3.5794

     occupation numbers 
     1.0000   1.0000   1.0000   0.9414   0.0000   0.0000   0.0000   0.0000
     0.0000   0.0000

          k = 0.0667-0.0385 0.0000 (  6464 PWs)   bands (ev):

   -19.3178  -9.3027  -5.5727  -2.9108  -2.6615   0.5454   1.5667   2.0361
     2.2204   3.2887

     occupation numbers 
     1.0000   1.0000   1.0000   0.0000   0.0000   0.0000   0.0000   0.0000
     0.0000   0.0000

          k = 0.1333 0.0770 0.0000 (  6496 PWs)   bands (ev):

   -18.9962  -8.9090  -5.1512  -4.0593  -3.2419   0.9826   2.0071   2.4737
     2.6590   3.7245

     occupation numbers 
     1.0000   1.0000   1.0000   1.0000   0.0021   0.0000   0.0000   0.0000
     0.0000   0.0000

          k = 0.1333 0.1540 0.0000 (  6491 PWs)   bands (ev):

   -18.6759  -8.5180  -4.9392  -4.7304  -3.8450   1.4196   2.4475   2.9108
     3.0976   4.1603

     occupation numbers 
     1.0000   1.0000   1.0000   1.0000   0.9997   0.0000   0.0000   0.0000
     0.0000   0.0000

          k = 0.1333 0.2309 0.0000 (  6457 PWs)   bands (ev):

   -18.1451  -7.8729  -6.0910  -4.7981  -4.0304   2.1474   3.1813   3.6383
     3.8285   4.8850

     occupation numbers 
     1.0000   1.0000   1.0000   1.0000   1.0000   0.0000   0.0000   0.0000
     0.0000   0.0000

          k = 0.1333 0.3079 0.0000 (  6480 PWs)   bands (ev):

   -17.4093  -7.5314  -6.9862  -5.7035  -3.0548   3.1646   4.2083   4.6494
     4.8517   5.2104

     occupation numbers 
     1.0000   1.0000   1.0000   1.0000   0.0000   0.0000   0.0000   0.0000
     0.0000   0.0000

          k = 0.1333 0.3849 0.0000 (  6474 PWs)   bands (ev):

   -16.4784  -9.1548  -6.3879  -5.8836  -1.8123   3.4304   4.4779   5.5281
     5.9593   6.1667

     occupation numbers 
     1.0000   1.0000   1.0000   1.0000   0.0000   0.0000   0.0000   0.0000
     0.0000   0.0000

          k = 0.1333 0.4619 0.0000 (  6494 PWs)   bands (ev):

   -15.3750 -10.7901  -6.8385  -4.6410  -0.3568   1.7400   6.0164   6.0688
     7.1392   7.5373

     occupation numbers 
     1.0000   1.0000   1.0000   1.0000   0.0000   0.0000   0.0000   0.0000
     0.0000   0.0000

          k = 0.1333 0.5389 0.0000 (  6490 PWs)   bands (ev):

   -14.2069 -12.2421  -7.0636  -3.5305   0.0417   1.7276   3.7195   7.9347
     9.0215   9.1241

     occupation numbers 
     1.0000   1.0000   1.0000   0.5520   0.0000   0.0000   0.0000   0.0000
     0.0000   0.0000

          k = 0.1333 0.6158 0.0000 (  6490 PWs)   bands (ev):

   -14.2068 -12.2427  -7.0629  -3.5293   0.0396   1.7285   3.7186   7.9348
     9.0227   9.1250

     occupation numbers 
     1.0000   1.0000   1.0000   0.5470   0.0000   0.0000   0.0000   0.0000
     0.0000   0.0000

          k = 0.1333-0.4619 0.0000 (  6494 PWs)   bands (ev):

   -15.3751 -10.7921  -6.8360  -4.6392  -0.3568   1.7362   6.0157   6.0689
     7.1392   7.5378

     occupation numbers 
     1.0000   1.0000   1.0000   1.0000   0.0000   0.0000   0.0000   0.0000
     0.0000   0.0000

          k = 0.1333-0.3849 0.0000 (  6474 PWs)   bands (ev):

   -16.4787  -9.1596  -6.3822  -5.8821  -1.8119   3.4246   4.4779   5.5281
     5.9595   6.1667

     occupation numbers 
     1.0000   1.0000   1.0000   1.0000   0.0000   0.0000   0.0000   0.0000
     0.0000   0.0000

          k = 0.1333-0.3079 0.0000 (  6480 PWs)   bands (ev):

   -17.4096  -7.5418  -6.9852  -5.6915  -3.0544   3.1647   4.2083   4.6493
     4.8516   5.2037

     occupation numbers 
     1.0000   1.0000   1.0000   1.0000   0.0000   0.0000   0.0000   0.0000
     0.0000   0.0000

          k = 0.1333-0.2309 0.0000 (  6457 PWs)   bands (ev):

   -18.1453  -7.8721  -6.1097  -4.7774  -4.0302   2.1475   3.1813   3.6384
     3.8285   4.8851

     occupation numbers 
     1.0000   1.0000   1.0000   1.0000   1.0000   0.0000   0.0000   0.0000
     0.0000   0.0000

          k = 0.1333-0.1540 0.0000 (  6491 PWs)   bands (ev):

   -18.6760  -8.5176  -4.9621  -4.7302  -3.8197   1.4196   2.4475   2.9109
     3.0976   4.1603

     occupation numbers 
     1.0000   1.0000   1.0000   1.0000   0.9991   0.0000   0.0000   0.0000
     0.0000   0.0000

          k = 0.1333-0.0770 0.0000 (  6496 PWs)   bands (ev):

   -18.9963  -8.9088  -5.1511  -4.0804  -3.2190   0.9826   2.0071   2.4737
     2.6590   3.7248

     occupation numbers 
     1.0000   1.0000   1.0000   1.0000   0.0009   0.0000   0.0000   0.0000
     0.0000   0.0000

          k = 0.1333 0.0000 0.0000 (  6499 PWs)   bands (ev):

   -19.1033  -9.0399  -5.2916  -3.6535  -3.1149   0.8369   1.8603   2.3279
     2.5128   3.5793

     occupation numbers 
     1.0000   1.0000   1.0000   0.9206   0.0000   0.0000   0.0000   0.0000
     0.0000   0.0000

          k = 0.2000 0.1155 0.0000 (  6474 PWs)   bands (ev):

   -18.4630  -8.2593  -5.6597  -4.4504  -3.9374   1.7107   2.7410   3.2017
     3.3899   4.4497

     occupation numbers 
     1.0000   1.0000   1.0000   1.0000   1.0000   0.0000   0.0000   0.0000
     0.0000   0.0000

          k = 0.2000 0.1925 0.0000 (  6480 PWs)   bands (ev):

   -18.0393  -7.7459  -6.5692  -4.5970  -3.8913   2.2927   3.3280   3.7825
     3.9746   5.0260

     occupation numbers 
     1.0000   1.0000   1.0000   1.0000   0.9999   0.0000   0.0000   0.0000
     0.0000   0.0000

          k = 0.2000 0.2694 0.0000 (  6480 PWs)   bands (ev):

   -17.4093  -7.5271  -6.9865  -5.7085  -3.0549   3.1646   4.2083   4.6491
     4.8517   5.2122

     occupation numbers 
     1.0000   1.0000   1.0000   1.0000   0.0000   0.0000   0.0000   0.0000
     0.0000   0.0000

          k = 0.2000 0.3464 0.0000 (  6482 PWs)   bands (ev):

   -16.5809  -8.5967  -6.8746  -5.9981  -1.9451   3.7623   4.3250   5.3814
     5.8045   6.0205

     occupation numbers 
     1.0000   1.0000   1.0000   1.0000   0.0000   0.0000   0.0000   0.0000
     0.0000   0.0000

          k = 0.2000 0.4234 0.0000 (  6465 PWs)   bands (ev):

   -15.5698  -9.9095  -7.7046  -4.8244  -0.5748   2.2246   5.7678   6.8450
     7.1720   7.4791

     occupation numbers 
     1.0000   1.0000   1.0000   1.0000   0.0000   0.0000   0.0000   0.0000
     0.0000   0.0000

          k = 0.2000 0.5004 0.0000 (  6474 PWs)   bands (ev):

   -14.4192 -11.3388  -8.1491  -3.5792   0.5258   1.2722   5.2052   7.4814
     8.5405   8.6352

     occupation numbers 
     1.0000   1.0000   1.0000   0.7380   0.0000   0.0000   0.0000   0.0000
     0.0000   0.0000

          k = 0.2000 0.5774 0.0000 (  6484 PWs)   bands (ev):

   -13.5374 -12.3298  -8.2873  -2.8325  -0.1947   3.0513   3.0633   8.4653
     9.5031   9.5290

     occupation numbers 
     1.0000   1.0000   1.0000   0.0000   0.0000   0.0000   0.0000   0.0000
     0.0000   0.0000

          k = 0.2000 0.6543 0.0000 (  6474 PWs)   bands (ev):

   -14.4191 -11.3420  -8.1456  -3.5762   0.5204   1.2727   5.2041   7.4816
     8.5422   8.6355

     occupation numbers 
     1.0000   1.0000   1.0000   0.7275   0.0000   0.0000   0.0000   0.0000
     0.0000   0.0000

          k = 0.2000-0.4234 0.0000 (  6465 PWs)   bands (ev):

   -15.5700  -9.9173  -7.6957  -4.8216  -0.5742   2.2165   5.7680   6.8450
     7.1730   7.4791

     occupation numbers 
     1.0000   1.0000   1.0000   1.0000   0.0000   0.0000   0.0000   0.0000
     0.0000   0.0000

          k = 0.2000-0.3464 0.0000 (  6482 PWs)   bands (ev):

   -16.5812  -8.6110  -6.8585  -5.9959  -1.9445   3.7528   4.3250   5.3814
     5.8048   6.0205

     occupation numbers 
     1.0000   1.0000   1.0000   1.0000   0.0000   0.0000   0.0000   0.0000
     0.0000   0.0000

          k = 0.2000-0.2694 0.0000 (  6480 PWs)   bands (ev):

   -17.4096  -7.5442  -6.9850  -5.6887  -3.0544   3.1647   4.2083   4.6494
     4.8517   5.2028

     occupation numbers 
     1.0000   1.0000   1.0000   1.0000   0.0000   0.0000   0.0000   0.0000
     0.0000   0.0000

          k = 0.2000-0.1925 0.0000 (  6480 PWs)   bands (ev):

   -18.0396  -7.7449  -6.5863  -4.5767  -3.8909   2.2927   3.3281   3.7827
     3.9746   5.0263

     occupation numbers 
     1.0000   1.0000   1.0000   1.0000   0.9999   0.0000   0.0000   0.0000
     0.0000   0.0000

          k = 0.2000-0.1155 0.0000 (  6474 PWs)   bands (ev):

   -18.4632  -8.2587  -5.6760  -4.4502  -3.9181   1.7107   2.7410   3.2017
     3.3899   4.4496

     occupation numbers 
     1.0000   1.0000   1.0000   1.0000   1.0000   0.0000   0.0000   0.0000
     0.0000   0.0000

          k = 0.2000-0.0385 0.0000 (  6491 PWs)   bands (ev):

   -18.6760  -8.5177  -4.9542  -4.7303  -3.8284   1.4196   2.4475   2.9109
     3.0976   4.1603

     occupation numbers 
     1.0000   1.0000   1.0000   1.0000   0.9994   0.0000   0.0000   0.0000
     0.0000   0.0000

          k = 0.2000 0.0385 0.0000 (  6491 PWs)   bands (ev):

   -18.6759  -8.5179  -4.9438  -4.7303  -3.8400   1.4196   2.4475   2.9108
     3.0976   4.1603

     occupation numbers 
     1.0000   1.0000   1.0000   1.0000   0.9996   0.0000   0.0000   0.0000
     0.0000   0.0000

          k = 0.2667 0.1540 0.0000 (  6492 PWs)   bands (ev):

   -17.7233  -7.4484  -7.3591  -4.6168  -3.4741   2.7279   3.7682   4.2119
     4.4130   5.4010

     occupation numbers 
     1.0000   1.0000   1.0000   1.0000   0.3244   0.0000   0.0000   0.0000
     0.0000   0.0000

          k = 0.2667 0.2309 0.0000 (  6491 PWs)   bands (ev):

   -17.2005  -8.3321  -6.7413  -5.2551  -2.7804   3.4496   4.5000   4.5589
     4.9930   5.1444

     occupation numbers 
     1.0000   1.0000   1.0000   1.0000   0.0000   0.0000   0.0000   0.0000
     0.0000   0.0000

          k = 0.2667 0.3079 0.0000 (  6474 PWs)   bands (ev):

   -16.4784  -9.1495  -6.3944  -5.8845  -1.8126   3.4339   4.4780   5.5281
     5.9594   6.1667

     occupation numbers 
     1.0000   1.0000   1.0000   1.0000   0.0000   0.0000   0.0000   0.0000
     0.0000   0.0000

          k = 0.2667 0.3849 0.0000 (  6465 PWs)   bands (ev):

   -15.5698  -9.9060  -7.7086  -4.8252  -0.5752   2.2271   5.7679   6.8450
     7.1720   7.4790

     occupation numbers 
     1.0000   1.0000   1.0000   1.0000   0.0000   0.0000   0.0000   0.0000
     0.0000   0.0000

          k = 0.2667 0.4619 0.0000 (  6452 PWs)   bands (ev):

   -14.5020 -10.7485  -8.8068  -3.6142   0.9246   0.9525   6.5292   7.3379
     7.3700   8.4537

     occupation numbers 
     1.0000   1.0000   1.0000   0.8416   0.0000   0.0000   0.0000   0.0000
     0.0000   0.0000

          k = 0.2667 0.5389 0.0000 (  6444 PWs)   bands (ev):

   -13.3725 -11.7967  -9.3500  -2.4326  -0.2536   2.6690   4.6718   6.6350
     9.1234   9.9786

     occupation numbers 
     1.0000   1.0000   1.0000   0.0000   0.0000   0.0000   0.0000   0.0000
     0.0000   0.0000

          k = 0.2667 0.6158 0.0000 (  6444 PWs)   bands (ev):

   -13.3710 -11.8016  -9.3462  -2.4278  -0.2606   2.6706   4.6706   6.6351
     9.1243   9.9796

     occupation numbers 
     1.0000   1.0000   1.0000   0.0000   0.0000   0.0000   0.0000   0.0000
     0.0000   0.0000

          k = 0.2667 0.6928 0.0000 (  6452 PWs)   bands (ev):

   -14.5016 -10.7594  -8.7953  -3.6090   0.9258   0.9417   6.5302   7.3368
     7.3702   8.4536

     occupation numbers 
     1.0000   1.0000   1.0000   0.8282   0.0000   0.0000   0.0000   0.0000
     0.0000   0.0000

          k = 0.2667-0.3849 0.0000 (  6465 PWs)   bands (ev):

   -15.5699  -9.9193  -7.6935  -4.8212  -0.5740   2.2150   5.7679   6.8450
     7.1730   7.4789

     occupation numbers 
     1.0000   1.0000   1.0000   1.0000   0.0000   0.0000   0.0000   0.0000
     0.0000   0.0000

          k = 0.2667-0.3079 0.0000 (  6474 PWs)   bands (ev):

   -16.4787  -9.1625  -6.3785  -5.8816  -1.8117   3.4226   4.4778   5.5280
     5.9595   6.1667

     occupation numbers 
     1.0000   1.0000   1.0000   1.0000   0.0000   0.0000   0.0000   0.0000
     0.0000   0.0000

          k = 0.2667-0.2309 0.0000 (  6491 PWs)   bands (ev):

   -17.2009  -8.3449  -6.7393  -5.2385  -2.7797   3.4498   4.4998   4.5513
     4.9909   5.1441

     occupation numbers 
     1.0000   1.0000   1.0000   1.0000   0.0000   0.0000   0.0000   0.0000
     0.0000   0.0000

          k = 0.2667-0.1540 0.0000 (  6492 PWs)   bands (ev):

   -17.7235  -7.4605  -7.3586  -4.6003  -3.4737   2.7280   3.7682   4.2122
     4.4130   5.4015

     occupation numbers 
     1.0000   1.0000   1.0000   1.0000   0.3227   0.0000   0.0000   0.0000
     0.0000   0.0000

          k = 0.2667-0.0770 0.0000 (  6480 PWs)   bands (ev):

   -18.0395  -7.7452  -6.5827  -4.5808  -3.8910   2.2927   3.3280   3.7827
     3.9746   5.0264

     occupation numbers 
     1.0000   1.0000   1.0000   1.0000   0.9999   0.0000   0.0000   0.0000
     0.0000   0.0000

          k = 0.2667 0.0000 0.0000 (  6457 PWs)   bands (ev):

   -18.1452  -7.8726  -6.0978  -4.7906  -4.0303   2.1474   3.1813   3.6383
     3.8285   4.8850

     occupation numbers 
     1.0000   1.0000   1.0000   1.0000   1.0000   0.0000   0.0000   0.0000
     0.0000   0.0000

          k = 0.2667 0.0770 0.0000 (  6480 PWs)   bands (ev):

   -18.0394  -7.7458  -6.5713  -4.5946  -3.8912   2.2927   3.3280   3.7826
     3.9746   5.0262

     occupation numbers 
     1.0000   1.0000   1.0000   1.0000   0.9999   0.0000   0.0000   0.0000
     0.0000   0.0000

          k = 0.3333 0.1925 0.0000 (  6484 PWs)   bands (ev):

   -16.7862  -9.2492  -6.2578  -5.1833  -2.2332   3.6265   4.0764   5.0885
     5.5471   5.7283

     occupation numbers 
     1.0000   1.0000   1.0000   1.0000   0.0000   0.0000   0.0000   0.0000
     0.0000   0.0000

          k = 0.3333 0.2694 0.0000 (  6487 PWs)   bands (ev):

   -16.1732 -10.0859  -5.7572  -5.5494  -1.4191   2.6777   4.9179   5.9679
     6.4059   6.6045

     occupation numbers 
     1.0000   1.0000   1.0000   1.0000   0.0000   0.0000   0.0000   0.0000
     0.0000   0.0000

          k = 0.3333 0.3464 0.0000 (  6494 PWs)   bands (ev):

   -15.3752 -10.7845  -6.8453  -4.6434  -0.3580   1.7468   6.0166   6.0688
     7.1392   7.5385

     occupation numbers 
     1.0000   1.0000   1.0000   1.0000   0.0000   0.0000   0.0000   0.0000
     0.0000   0.0000

          k = 0.3333 0.4234 0.0000 (  6474 PWs)   bands (ev):

   -14.4199 -11.3333  -8.1547  -3.5822   0.5274   1.2763   5.2048   7.4814
     8.5407   8.6351

     occupation numbers 
     1.0000   1.0000   1.0000   0.7481   0.0000   0.0000   0.0000   0.0000
     0.0000   0.0000

          k = 0.3333 0.5004 0.0000 (  6444 PWs)   bands (ev):

   -13.3741 -11.7914  -9.3539  -2.4362  -0.2487   2.6693   4.6709   6.6358
     9.1233   9.9778

     occupation numbers 
     1.0000   1.0000   1.0000   0.0000   0.0000   0.0000   0.0000   0.0000
     0.0000   0.0000

          k = 0.3333 0.5774 0.0000 (  6450 PWs)   bands (ev):

   -12.4200 -12.4099  -9.9037  -1.3003  -1.2868   4.0082   4.7787   4.7808
     9.6254  11.1835

     occupation numbers 
     1.0000   1.0000   1.0000   0.0000   0.0000   0.0000   0.0000   0.0000
     0.0000   0.0000

          k = 0.3333 0.6543 0.0000 (  6444 PWs)   bands (ev):

   -13.3701 -11.8046  -9.3440  -2.4257  -0.2634   2.6704   4.6711   6.6347
     9.1243   9.9803

     occupation numbers 
     1.0000   1.0000   1.0000   0.0000   0.0000   0.0000   0.0000   0.0000
     0.0000   0.0000

          k = 0.3333 0.7313 0.0000 (  6474 PWs)   bands (ev):

   -14.4187 -11.3450  -8.1424  -3.5744   0.5195   1.2704   5.2044   7.4817
     8.5421   8.6356

     occupation numbers 
     1.0000   1.0000   1.0000   0.7215   0.0000   0.0000   0.0000   0.0000
     0.0000   0.0000

          k = 0.3333-0.3464 0.0000 (  6494 PWs)   bands (ev):

   -15.3750 -10.7952  -6.8320  -4.6378  -0.3562   1.7323   6.0156   6.0689
     7.1392   7.5376

     occupation numbers 
     1.0000   1.0000   1.0000   1.0000   0.0000   0.0000   0.0000   0.0000
     0.0000   0.0000

          k = 0.3333-0.2694 0.0000 (  6487 PWs)   bands (ev):

   -16.1734 -10.0963  -5.7431  -5.5454  -1.4177   2.6655   4.9177   5.9678
     6.4058   6.6044

     occupation numbers 
     1.0000   1.0000   1.0000   1.0000   0.0000   0.0000   0.0000   0.0000
     0.0000   0.0000

          k = 0.3333-0.1925 0.0000 (  6484 PWs)   bands (ev):

   -16.7865  -9.2596  -6.2553  -5.1688  -2.2323   3.6184   4.0750   5.0885
     5.5467   5.7285

     occupation numbers 
     1.0000   1.0000   1.0000   1.0000   0.0000   0.0000   0.0000   0.0000
     0.0000   0.0000

          k = 0.3333-0.1155 0.0000 (  6491 PWs)   bands (ev):

   -17.2008  -8.3433  -6.7396  -5.2405  -2.7798   3.4498   4.4999   4.5531
     4.9910   5.1443

     occupation numbers 
     1.0000   1.0000   1.0000   1.0000   0.0000   0.0000   0.0000   0.0000
     0.0000   0.0000

          k = 0.3333-0.0385 0.0000 (  6480 PWs)   bands (ev):

   -17.4094  -7.5376  -6.9856  -5.6964  -3.0546   3.1647   4.2083   4.6495
     4.8517   5.2071

     occupation numbers 
     1.0000   1.0000   1.0000   1.0000   0.0000   0.0000   0.0000   0.0000
     0.0000   0.0000

          k = 0.3333 0.0385 0.0000 (  6480 PWs)   bands (ev):

   -17.4094  -7.5309  -6.9861  -5.7041  -3.0548   3.1646   4.2083   4.6491
     4.8517   5.2097

     occupation numbers 
     1.0000   1.0000   1.0000   1.0000   0.0000   0.0000   0.0000   0.0000
     0.0000   0.0000

          k = 0.3333 0.1155 0.0000 (  6491 PWs)   bands (ev):

   -17.2006  -8.3330  -6.7411  -5.2540  -2.7803   3.4496   4.5000   4.5579
     4.9929   5.1444

     occupation numbers 
     1.0000   1.0000   1.0000   1.0000   0.0000   0.0000   0.0000   0.0000
     0.0000   0.0000

          k = 0.4000 0.2309 0.0000 (  6490 PWs)   bands (ev):

   -15.6735 -10.9780  -5.5836  -5.0118  -0.7863   1.8361   5.6328   5.7373
     6.7004   7.1301

     occupation numbers 
     1.0000   1.0000   1.0000   1.0000   0.0000   0.0000   0.0000   0.0000
     0.0000   0.0000

          k = 0.4000 0.3079 0.0000 (  6503 PWs)   bands (ev):

   -14.9993 -11.7190  -6.0680  -4.3128  -0.0534   1.2427   4.6115   6.6543
     7.7239   8.0685

     occupation numbers 
     1.0000   1.0000   1.0000   1.0000   0.0000   0.0000   0.0000   0.0000
     0.0000   0.0000

          k = 0.4000 0.3849 0.0000 (  6490 PWs)   bands (ev):

   -14.2090 -12.2346  -7.0707  -3.5365   0.0485   1.7303   3.7202   7.9347
     9.0216   9.1221

     occupation numbers 
     1.0000   1.0000   1.0000   0.5766   0.0000   0.0000   0.0000   0.0000
     0.0000   0.0000

          k = 0.4000 0.4619 0.0000 (  6484 PWs)   bands (ev):

   -13.5419 -12.3198  -8.2940  -2.8400  -0.1845   3.0528   3.0625   8.4644
     9.5036   9.5287

     occupation numbers 
     1.0000   1.0000   1.0000   0.0000   0.0000   0.0000   0.0000   0.0000
     0.0000   0.0000

          k = 0.4000 0.5389 0.0000 (  6444 PWs)   bands (ev):

   -13.3736 -11.7932  -9.3525  -2.4345  -0.2512   2.6699   4.6705   6.6358
     9.1236   9.9781

     occupation numbers 
     1.0000   1.0000   1.0000   0.0000   0.0000   0.0000   0.0000   0.0000
     0.0000   0.0000

          k = 0.4000 0.6158 0.0000 (  6444 PWs)   bands (ev):

   -13.3710 -11.8014  -9.3464  -2.4288  -0.2589   2.6694   4.6718   6.6347
     9.1237   9.9795

     occupation numbers 
     1.0000   1.0000   1.0000   0.0000   0.0000   0.0000   0.0000   0.0000
     0.0000   0.0000

          k = 0.4000 0.6928 0.0000 (  6484 PWs)   bands (ev):

   -13.5348 -12.3355  -8.2836  -2.8282  -0.2005   3.0505   3.0637   8.4657
     9.5028   9.5292

     occupation numbers 
     1.0000   1.0000   1.0000   0.0000   0.0000   0.0000   0.0000   0.0000
     0.0000   0.0000

          k = 0.4000 0.7698 0.0000 (  6490 PWs)   bands (ev):

   -14.2056 -12.2470  -7.0589  -3.5259   0.0357   1.7270   3.7182   7.9348
     9.0226   9.1262

     occupation numbers 
     1.0000   1.0000   1.0000   0.5328   0.0000   0.0000   0.0000   0.0000
     0.0000   0.0000

          k = 0.4000-0.3079 0.0000 (  6503 PWs)   bands (ev):

   -14.9984 -11.7290  -6.0551  -4.3051  -0.0532   1.2285   4.6098   6.6542
     7.7239   8.0716

     occupation numbers 
     1.0000   1.0000   1.0000   1.0000   0.0000   0.0000   0.0000   0.0000
     0.0000   0.0000

          k = 0.4000-0.2309 0.0000 (  6490 PWs)   bands (ev):

   -15.6734 -10.9874  -5.5702  -5.0066  -0.7844   1.8228   5.6331   5.7357
     6.7003   7.1300

     occupation numbers 
     1.0000   1.0000   1.0000   1.0000   0.0000   0.0000   0.0000   0.0000
     0.0000   0.0000

          k = 0.4000-0.1540 0.0000 (  6487 PWs)   bands (ev):

   -16.1733 -10.0955  -5.7440  -5.5460  -1.4178   2.6669   4.9177   5.9678
     6.4057   6.6044

     occupation numbers 
     1.0000   1.0000   1.0000   1.0000   0.0000   0.0000   0.0000   0.0000
     0.0000   0.0000

          k = 0.4000-0.0770 0.0000 (  6474 PWs)   bands (ev):

   -16.4785  -9.1595  -6.3821  -5.8825  -1.8119   3.4263   4.4778   5.5280
     5.9593   6.1667

     occupation numbers 
     1.0000   1.0000   1.0000   1.0000   0.0000   0.0000   0.0000   0.0000
     0.0000   0.0000

          k = 0.4000 0.0000 0.0000 (  6482 PWs)   bands (ev):

   -16.5810  -8.6019  -6.8688  -5.9973  -1.9449   3.7589   4.3250   5.3814
     5.8046   6.0204

     occupation numbers 
     1.0000   1.0000   1.0000   1.0000   0.0000   0.0000   0.0000   0.0000
     0.0000   0.0000

          k = 0.4000 0.0770 0.0000 (  6474 PWs)   bands (ev):

   -16.4785  -9.1513  -6.3923  -5.8840  -1.8125   3.4318   4.4781   5.5281
     5.9595   6.1667

     occupation numbers 
     1.0000   1.0000   1.0000   1.0000   0.0000   0.0000   0.0000   0.0000
     0.0000   0.0000

          k = 0.4000 0.1540 0.0000 (  6487 PWs)   bands (ev):

   -16.1732 -10.0864  -5.7567  -5.5491  -1.4190   2.6768   4.9179   5.9679
     6.4060   6.6045

     occupation numbers 
     1.0000   1.0000   1.0000   1.0000   0.0000   0.0000   0.0000   0.0000
     0.0000   0.0000

          k = 0.4667 0.2694 0.0000 (  6524 PWs)   bands (ev):

   -14.4948 -12.4746  -5.7898  -3.9199  -0.0995   1.4673   3.4329   7.5203
     7.6369   8.6035

     occupation numbers 
     1.0000   1.0000   1.0000   1.0000   0.0000   0.0000   0.0000   0.0000
     0.0000   0.0000

          k = 0.4667 0.3464 0.0000 (  6480 PWs)   bands (ev):

   -14.1066 -12.7684  -6.1733  -3.6213  -0.2091   2.2020   2.6795   8.0674
     8.6714   8.6762

     occupation numbers 
     1.0000   1.0000   1.0000   0.8586   0.0000   0.0000   0.0000   0.0000
     0.0000   0.0000

          k = 0.4667 0.4234 0.0000 (  6490 PWs)   bands (ev):

   -14.2090 -12.2349  -7.0705  -3.5361   0.0478   1.7306   3.7198   7.9347
     9.0220   9.1225

     occupation numbers 
     1.0000   1.0000   1.0000   0.5748   0.0000   0.0000   0.0000   0.0000
     0.0000   0.0000

          k = 0.4667 0.5004 0.0000 (  6474 PWs)   bands (ev):

   -14.4199 -11.3345  -8.1535  -3.5811   0.5255   1.2765   5.2044   7.4814
     8.5414   8.6351

     occupation numbers 
     1.0000   1.0000   1.0000   0.7444   0.0000   0.0000   0.0000   0.0000
     0.0000   0.0000

          k = 0.4667 0.5774 0.0000 (  6452 PWs)   bands (ev):

   -14.5019 -10.7525  -8.8026  -3.6124   0.9249   0.9488   6.5296   7.3375
     7.3701   8.4537

     occupation numbers 
     1.0000   1.0000   1.0000   0.8368   0.0000   0.0000   0.0000   0.0000
     0.0000   0.0000

          k = 0.4667 0.6543 0.0000 (  6474 PWs)   bands (ev):

   -14.4188 -11.3430  -8.1446  -3.5764   0.5230   1.2701   5.2051   7.4815
     8.5410   8.6354

     occupation numbers 
     1.0000   1.0000   1.0000   0.7283   0.0000   0.0000   0.0000   0.0000
     0.0000   0.0000

          k = 0.4667 0.7313 0.0000 (  6490 PWs)   bands (ev):

   -14.2057 -12.2466  -7.0594  -3.5266   0.0371   1.7264   3.7188   7.9347
     9.0219   9.1256

     occupation numbers 
     1.0000   1.0000   1.0000   0.5360   0.0000   0.0000   0.0000   0.0000
     0.0000   0.0000

          k = 0.4667 0.8083 0.0000 (  6480 PWs)   bands (ev):

   -14.1002 -12.7832  -6.1609  -3.6093  -0.2233   2.2032   2.6728   8.0726
     8.6707   8.6766

     occupation numbers 
     1.0000   1.0000   1.0000   0.8289   0.0000   0.0000   0.0000   0.0000
     0.0000   0.0000

          k = 0.4667-0.2694 0.0000 (  6524 PWs)   bands (ev):

   -14.4916 -12.4862  -5.7770  -3.9095  -0.1091   1.4616   3.4299   7.5204
     7.6416   8.6035

     occupation numbers 
     1.0000   1.0000   1.0000   1.0000   0.0000   0.0000   0.0000   0.0000
     0.0000   0.0000

          k = 0.4667-0.1925 0.0000 (  6503 PWs)   bands (ev):

   -14.9983 -11.7288  -6.0554  -4.3056  -0.0529   1.2289   4.6101   6.6542
     7.7239   8.0709

     occupation numbers 
     1.0000   1.0000   1.0000   1.0000   0.0000   0.0000   0.0000   0.0000
     0.0000   0.0000

          k = 0.4667-0.1155 0.0000 (  6494 PWs)   bands (ev):

   -15.3749 -10.7939  -6.8337  -4.6389  -0.3562   1.7347   6.0161   6.0689
     7.1392   7.5375

     occupation numbers 
     1.0000   1.0000   1.0000   1.0000   0.0000   0.0000   0.0000   0.0000
     0.0000   0.0000

          k = 0.4667-0.0385 0.0000 (  6465 PWs)   bands (ev):

   -15.5698  -9.9143  -7.6991  -4.8230  -0.5744   2.2202   5.7679   6.8450
     7.1724   7.4788

     occupation numbers 
     1.0000   1.0000   1.0000   1.0000   0.0000   0.0000   0.0000   0.0000
     0.0000   0.0000

          k = 0.4667 0.0385 0.0000 (  6465 PWs)   bands (ev):

   -15.5699  -9.9089  -7.7054  -4.8242  -0.5750   2.2242   5.7679   6.8450
     7.1724   7.4791

     occupation numbers 
     1.0000   1.0000   1.0000   1.0000   0.0000   0.0000   0.0000   0.0000
     0.0000   0.0000

          k = 0.4667 0.1155 0.0000 (  6494 PWs)   bands (ev):

   -15.3752 -10.7853  -6.8444  -4.6428  -0.3580   1.7454   6.0163   6.0688
     7.1392   7.5375

     occupation numbers 
     1.0000   1.0000   1.0000   1.0000   0.0000   0.0000   0.0000   0.0000
     0.0000   0.0000

          k = 0.4667 0.1925 0.0000 (  6503 PWs)   bands (ev):

   -14.9994 -11.7192  -6.0678  -4.3125  -0.0536   1.2425   4.6114   6.6543
     7.7239   8.0689

     occupation numbers 
     1.0000   1.0000   1.0000   1.0000   0.0000   0.0000   0.0000   0.0000
     0.0000   0.0000

     the Fermi energy is    -3.5179 ev

!    total energy              =     -40.50510464 Ry
     total all-electron energy =      -156.033299 Ry
     estimated scf accuracy    <          1.3E-09 Ry
     smearing contrib. (-TS)   =      -0.00092248 Ry
     internal energy E=F+TS    =     -40.50418216 Ry

     The total energy is F=E-TS. E is the sum of the following terms:
     one-electron contribution =    -249.03050968 Ry
     hartree contribution      =     126.21878794 Ry
     xc contribution           =      -8.71137819 Ry
     ewald contribution        =     118.39457190 Ry
     DFT-D3 Dispersion         =      -0.00522136 Ry
     electric field correction =     -15.04611755 Ry
     one-center paw contrib.   =     -12.32431521 Ry
      -> PAW hartree energy AE =       7.84882820 Ry
      -> PAW hartree energy PS =      -7.84115215 Ry
      -> PAW xc energy AE      =     -10.26624232 Ry
      -> PAW xc energy PS      =       4.09640843 Ry
      -> total E_H with PAW    =     126.22646399 Ry
      -> total E_XC with PAW   =     -14.88121208 Ry

     convergence has been achieved in  40 iterations

     negative rho (up, down):  9.536E-05 0.000E+00

     Forces acting on atoms (cartesian axes, Ry/au):

     atom    1 type  1   force =     0.00088155    0.00014626   -0.00084300
     atom    2 type  1   force =    -0.00088155   -0.00014626    0.00084300
     The non-local contrib.  to forces
     atom    1 type  1   force =     0.00205402    0.00031518   -0.01496680
     atom    2 type  1   force =    -0.00205420   -0.00031717   -0.01618647
     The ionic contribution  to forces
     atom    1 type  1   force =     0.00771893    0.00120296   -0.00976509
     atom    2 type  1   force =    -0.00771893   -0.00120296    0.00976509
     The local contribution  to forces
     atom    1 type  1   force =    -0.00881761   -0.00136171    1.83140139
     atom    2 type  1   force =     0.00881780    0.00136176    1.81474596
     The core correction contribution to forces
     atom    1 type  1   force =    -0.00007316   -0.00001127    0.00286317
     atom    2 type  1   force =     0.00007309    0.00001118    0.00289437
     The Hubbard contrib.    to forces
     atom    1 type  1   force =     0.00000000    0.00000000    0.00000000
     atom    2 type  1   force =     0.00000000    0.00000000    0.00000000
     The SCF correction term to forces
     atom    1 type  1   force =     0.00000056    0.00000019    0.00003275
     atom    2 type  1   force =    -0.00000043   -0.00000036    0.00003260

     DFT-D3 dispersion contribution to forces:
     atom    1 type  1   force =    -0.00000116   -0.00000018    0.00000007
     atom    2 type  1   force =     0.00000116    0.00000018   -0.00000007

     Total force =     0.001737     Total SCF correction =     0.000046

     DFT-D3 dispersion Force =     0.000002

     Writing all to output data dir /home/ubuntu/projects/Graphene-Band-Structure-Quantum-Espresso/outputs/field_0.05/top/data/top.save/ :
     XML data file, charge density, pseudopotentials, collected wavefunctions

     init_run     :      3.08s CPU      3.38s WALL (       1 calls)
     electrons    :    222.69s CPU    224.63s WALL (       1 calls)
     forces       :      0.71s CPU      0.75s WALL (       1 calls)
     force_dftd3  :      0.13s CPU      0.13s WALL (       1 calls)

     Called by init_run:
     wfcinit      :      1.36s CPU      1.42s WALL (       1 calls)
     wfcinit:atom :      0.03s CPU      0.03s WALL (      29 calls)
     wfcinit:wfcr :      1.28s CPU      1.32s WALL (      29 calls)
     potinit      :      0.57s CPU      0.71s WALL (       1 calls)
     hinit0       :      1.01s CPU      1.08s WALL (       1 calls)

     Called by electrons:
     c_bands      :    189.79s CPU    191.13s WALL (      40 calls)
     sum_band     :     22.43s CPU     22.79s WALL (      40 calls)
     v_of_rho     :      4.61s CPU      4.85s WALL (      41 calls)
     v_h          :      0.21s CPU      0.22s WALL (      41 calls)
     v_xc         :      4.47s CPU      4.73s WALL (      42 calls)
     newd         :      1.53s CPU      1.55s WALL (      41 calls)
     PAW_pot      :      3.28s CPU      3.34s WALL (      41 calls)
     mix_rho      :      0.74s CPU      0.75s WALL (      40 calls)
     energy_dftd3 :      0.02s CPU      0.02s WALL (       1 calls)

     Called by c_bands:
     init_us_2    :      2.81s CPU      2.86s WALL (    2378 calls)
     cegterg      :    147.23s CPU    148.34s WALL (    1160 calls)

     Called by sum_band:
     sum_band:wei :      0.02s CPU      0.02s WALL (      40 calls)
     sum_band:loo :     17.82s CPU     18.03s WALL (      40 calls)
     sum_band:buf :      0.23s CPU      0.24s WALL (    1160 calls)
     sum_band:ini :      1.36s CPU      1.39s WALL (    1160 calls)
     sum_band:cal :      2.67s CPU      2.70s WALL (    1160 calls)
     sum_band:bec :      0.02s CPU      0.02s WALL (    1160 calls)
     addusdens    :      1.26s CPU      1.34s WALL (      40 calls)
     addusd:skk   :      0.01s CPU      0.01s WALL (      40 calls)

     Called by *egterg:
     cdiaghg      :      0.89s CPU      0.90s WALL (    5305 calls)
     cegterg:over :     12.22s CPU     12.29s WALL (    4145 calls)
     cegterg:upda :      7.46s CPU      7.52s WALL (    4145 calls)
     cegterg:last :     17.77s CPU     17.85s WALL (    3012 calls)
     h_psi        :     96.83s CPU     97.67s WALL (    5334 calls)
     s_psi        :      8.00s CPU      8.08s WALL (    5334 calls)
     g_psi        :      0.80s CPU      0.81s WALL (    4145 calls)

     Called by h_psi:
     h_psi:calbec :      7.97s CPU      8.05s WALL (    5334 calls)
     vloc_psi     :     80.31s CPU     81.00s WALL (    5334 calls)
     add_vuspsi   :      8.09s CPU      8.16s WALL (    5334 calls)

     General routines
     calbec       :     10.81s CPU     10.92s WALL (    6610 calls)
     fft          :      2.46s CPU      2.51s WALL (     542 calls)
     ffts         :      0.47s CPU      0.48s WALL (      81 calls)
     fftw         :     81.81s CPU     82.57s WALL (   86240 calls)
     interpolate  :      0.58s CPU      0.58s WALL (      41 calls)

     Parallel routines

     PAW routines
     PAW_pot      :      3.28s CPU      3.34s WALL (      41 calls)

     PWSCF        :   3m46.66s CPU   3m49.04s WALL


   This run was terminated on:  17:45: 2  19Sep2026            

=------------------------------------------------------------------------------=
   JOB DONE.
=------------------------------------------------------------------------------=
Note: The following floating-point exceptions are signalling: IEEE_DENORMAL
Note: The following floating-point exceptions are signalling: IEEE_DENORMAL
Note: The following floating-point exceptions are signalling: IEEE_DENORMAL
