&CONTROL
   calculation      = 'nscf'
   verbosity        = 'high'
   tprnfor          = .true.
   outdir           = '/home/ubuntu/projects/Graphene-Band-Structure-Quantum-Espresso/outputs/bilayer/field_0.01/coupled/data'
   prefix           = 'coupled'
   disk_io          = 'low'
   pseudo_dir       = '/home/ubuntu/projects/Graphene-Band-Structure-Quantum-Espresso/pseudo'
   tefield          = .true.
/
&SYSTEM
   nbnd             = 24
   ecutwfc          = 60.0
   ecutrho          = 400.0
   occupations      = 'smearing'
   degauss          = 0.01
   smearing         = 'gauss'
   edir             = 3
   emaxpos          = 0.9
   eopreg           = 0.1
   eamp             = 0.01
   assume_isolated  = '2D'
   ntyp             = 1
   nat              = 4
   ibrav            = 0
/
&ELECTRONS
   electron_maxstep = 200
   conv_thr         = 1e-08
   mixing_beta      = 0.7
/
&IONS
/
&CELL
/
&FCP
/
&RISM
/
ATOMIC_SPECIES
C 12.011 C.pbe-n-kjpaw_psl.1.0.0.UPF

K_POINTS automatic
60 60 1  0 0 0

CELL_PARAMETERS angstrom
2.45999984708052 0.00000000000000 0.00000000000000
-1.22999992354026 2.13042136756791 0.00000000000000
0.00000000000000 0.00000000000000 23.34999874850822

ATOMIC_POSITIONS angstrom
C 0.0000538815 -0.0000026500 9.4306114900  
C 1.2299735531 0.7101931924 9.4304510211  
C 1.2299869540 0.7101209198 13.9195189746  
C -0.0000143885 1.4202518622 13.9194185143  

