&CONTROL
   calculation      = 'nscf'
   verbosity        = 'high'
   tprnfor          = .true.
   outdir           = '/home/ubuntu/projects/Graphene-Band-Structure-Quantum-Espresso/outputs/field_0.1/bottom/data'
   prefix           = 'bottom'
   disk_io          = 'low'
   pseudo_dir       = '/home/ubuntu/projects/Graphene-Band-Structure-Quantum-Espresso/pseudo'
   tefield          = .true.
/
&SYSTEM
   nbnd             = 12
   ecutwfc          = 60.0
   ecutrho          = 400.0
   occupations      = 'smearing'
   degauss          = 0.01
   smearing         = 'gauss'
   edir             = 3
   emaxpos          = 0.9
   eopreg           = 0.1
   eamp             = 0.1
   vdw_corr         = 'grimme-d3'
   ntyp             = 1
   nat              = 2
   ibrav            = 0
/
&ELECTRONS
   electron_maxstep = 200
   conv_thr         = 1e-08
   mixing_beta      = 0.7
/
&IONS
/
&CELL
/
&FCP
/
&RISM
/
ATOMIC_SPECIES
C 12.011 C.pbe-n-kjpaw_psl.1.0.0.UPF

K_POINTS automatic
30 30 1  0 0 0

CELL_PARAMETERS angstrom
2.45999984708052 0.00000000000000 0.00000000000000
-1.22999992354026 2.13042136756791 0.00000000000000
0.00000000000000 0.00000000000000 23.34999874850822

ATOMIC_POSITIONS angstrom
C 0.0415453042 0.0905062213 1.6589664162  
C 1.1884289511 0.6196435340 2.7767551879  

