
     Program PWSCF v.7.6 starts on 19Sep2026 at 20:27:53 

     This program is part of the open-source Quantum ESPRESSO suite
     for quantum simulation of materials; please cite
         "P. Giannozzi et al., J. Phys.:Condens. Matter 21 395502 (2009);
         "P. Giannozzi et al., J. Phys.:Condens. Matter 29 465901 (2017);
         "P. Giannozzi et al., J. Chem. Phys. 152 154105 (2020);
          URL http://www.quantum-espresso.org", 
     in publications or presentations arising from this work. More details at
     http://www.quantum-espresso.org/quote

     Parallel version (MPI), running on     4 processors

     MPI processes distributed on     1 nodes
     460 MiB available memory on the printing compute node when the environment starts

     Waiting for input...
     Reading input from standard input
Warning: card &CELL ignored
Warning: card &FCP ignored
Warning: card &RISM ignored

     Current dimensions of program PWSCF are:
     Max number of different atomic species (ntypx) = 10
     Max number of k-points (npk) =  40000
     Max angular momentum in pseudopotentials (lmaxx) =  4
     Presently no symmetry can be used with electric field

     file C.pbe-n-kjpaw_psl.1.0.0.UPF: wavefunction(s)  2S 2P renormalized

     K-points division:     npool     =       4
     Subspace diagonalization in iterative solution of the eigenvalue problem:
     a serial algorithm will be used


     G-vector sticks info
     --------------------
     sticks:   dense  smooth     PW     G-vecs:    dense   smooth      PW
     Sum         595     361    121               111671    52021   10303

     Using Slab Decomposition



     bravais-lattice index     =            0
     lattice parameter (alat)  =       4.6487  a.u.
     unit-cell volume          =     825.8174 (a.u.)^3
     number of atoms/cell      =            2
     number of atomic types    =            1
     number of electrons       =         8.00
     number of Kohn-Sham states=           10
     kinetic-energy cutoff     =      60.0000  Ry
     charge density cutoff     =     400.0000  Ry
     scf convergence threshold =      1.0E-08
     mixing beta               =       0.7000
     number of iterations used =            8  plain     mixing
     Exchange-correlation= SLA  PW   PBX  PBC
                           (   1   4   3   4   0   0   0)

     celldm(1)=   4.648726  celldm(2)=   0.000000  celldm(3)=   0.000000
     celldm(4)=   0.000000  celldm(5)=   0.000000  celldm(6)=   0.000000

     crystal axes: (cart. coord. in units of alat)
               a(1) = (   1.000000   0.000000   0.000000 )  
               a(2) = (  -0.500000   0.866025   0.000000 )  
               a(3) = (   0.000000   0.000000   9.491870 )  

     reciprocal axes: (cart. coord. in units 2 pi/alat)
               b(1) = (  1.000000  0.577351 -0.000000 )  
               b(2) = (  0.000000  1.154701  0.000000 )  
               b(3) = (  0.000000 -0.000000  0.105353 )  


     PseudoPot. # 1 for C  read from file:
     /home/ubuntu/projects/Graphene-Band-Structure-Quantum-Espresso/pseudo/C.pbe-n-kjpaw_psl.1.0.0.UPF
     MD5 check sum: 5f16ad9a65e90284d1d834d4ab3b0f7d
     Pseudo is Projector augmented-wave + core cor, Zval =  4.0
     Generated using &quot;atomic&quot; code by A. Dal Corso  v.6.3
     Shape of augmentation charge: PSQ
     Using radial grid of 1073 points,  4 beta functions with: 
                l(1) =   0
                l(2) =   0
                l(3) =   1
                l(4) =   1
     Q(r) pseudized with 0 coefficients 


     atomic species   valence    mass     pseudopotential
     C                 4.00    12.01100     C ( 1.00)

     No symmetry found


                                    s                        frac. trans.

      isym =  1     identity                                     

 cryst.   s( 1) = (     1          0          0      )
                  (     0          1          0      )
                  (     0          0          1      )

 cart.    s( 1) = (  1.0000000  0.0000000  0.0000000 )
                  (  0.0000000  1.0000000  0.0000000 )
                  (  0.0000000  0.0000000  1.0000000 )


   Cartesian axes

     site n.     atom                  positions (alat units)
         1        C      tau(   1) = (   0.0168883   0.0367911   0.6743766  )
         2        C      tau(   2) = (   0.4831012   0.2518876   1.1287623  )

     --------------------------------------------
     DFT-D3 Dispersion Correction (3-body terms):
     --------------------------------------------
       Reference C6 values for interpolation: 

         atom   Coordination number   C6
         C          0.000            98.23
         C          0.987            86.49
         C          1.998            58.72
         C          2.999            51.56
         C          3.984            36.41

       Values used:

         atom   Coordination number  R0_AB[au]  C6      C8
         C          2.700            2.750     52.69   1523.90
         C          2.700            2.750     52.69   1523.90

         Molecular C6 ( Ry / a.u.^6 ) =       210.76


   Crystallographic axes

     site n.     atom                  positions (cryst. coord.)
         1        C      tau(   1) = (  0.0381297  0.0424828  0.0710478  )
         2        C      tau(   2) = (  0.6285287  0.2908549  0.1189189  )

     number of k points=   113  Gaussian smearing, width (Ry)=  0.0100
                       cart. coord. in units 2pi/alat
        k(    1) = (   0.0000000   0.0000000   0.0000000), wk =   0.0088889
        k(    2) = (   0.0000000   0.0769801   0.0000000), wk =   0.0177778
        k(    3) = (   0.0000000   0.1539601   0.0000000), wk =   0.0177778
        k(    4) = (   0.0000000   0.2309402   0.0000000), wk =   0.0177778
        k(    5) = (   0.0000000   0.3079203   0.0000000), wk =   0.0177778
        k(    6) = (   0.0000000   0.3849004   0.0000000), wk =   0.0177778
        k(    7) = (   0.0000000   0.4618804   0.0000000), wk =   0.0177778
        k(    8) = (   0.0000000   0.5388605   0.0000000), wk =   0.0177778
        k(    9) = (   0.0666667   0.0384900   0.0000000), wk =   0.0177778
        k(   10) = (   0.0666667   0.1154701   0.0000000), wk =   0.0177778
        k(   11) = (   0.0666667   0.1924502   0.0000000), wk =   0.0177778
        k(   12) = (   0.0666667   0.2694303   0.0000000), wk =   0.0177778
        k(   13) = (   0.0666667   0.3464103   0.0000000), wk =   0.0177778
        k(   14) = (   0.0666667   0.4233904   0.0000000), wk =   0.0177778
        k(   15) = (   0.0666667   0.5003705   0.0000000), wk =   0.0177778
        k(   16) = (   0.0666667   0.5773505   0.0000000), wk =   0.0177778
        k(   17) = (   0.0666667  -0.5003705   0.0000000), wk =   0.0177778
        k(   18) = (   0.0666667  -0.4233904   0.0000000), wk =   0.0177778
        k(   19) = (   0.0666667  -0.3464103   0.0000000), wk =   0.0177778
        k(   20) = (   0.0666667  -0.2694303   0.0000000), wk =   0.0177778
        k(   21) = (   0.0666667  -0.1924502   0.0000000), wk =   0.0177778
        k(   22) = (   0.0666667  -0.1154701   0.0000000), wk =   0.0177778
        k(   23) = (   0.0666667  -0.0384900   0.0000000), wk =   0.0177778
        k(   24) = (   0.1333333   0.0769801   0.0000000), wk =   0.0177778
        k(   25) = (   0.1333333   0.1539601   0.0000000), wk =   0.0177778
        k(   26) = (   0.1333333   0.2309402   0.0000000), wk =   0.0177778
        k(   27) = (   0.1333333   0.3079203   0.0000000), wk =   0.0177778
        k(   28) = (   0.1333333   0.3849004   0.0000000), wk =   0.0177778
        k(   29) = (   0.1333333   0.4618804   0.0000000), wk =   0.0177778
        k(   30) = (   0.1333333   0.5388605   0.0000000), wk =   0.0177778
        k(   31) = (   0.1333333   0.6158406   0.0000000), wk =   0.0177778
        k(   32) = (   0.1333333  -0.4618804   0.0000000), wk =   0.0177778
        k(   33) = (   0.1333333  -0.3849004   0.0000000), wk =   0.0177778
        k(   34) = (   0.1333333  -0.3079203   0.0000000), wk =   0.0177778
        k(   35) = (   0.1333333  -0.2309402   0.0000000), wk =   0.0177778
        k(   36) = (   0.1333333  -0.1539601   0.0000000), wk =   0.0177778
        k(   37) = (   0.1333333  -0.0769801   0.0000000), wk =   0.0177778
        k(   38) = (   0.1333333   0.0000000   0.0000000), wk =   0.0177778
        k(   39) = (   0.2000000   0.1154701   0.0000000), wk =   0.0177778
        k(   40) = (   0.2000000   0.1924502   0.0000000), wk =   0.0177778
        k(   41) = (   0.2000000   0.2694303   0.0000000), wk =   0.0177778
        k(   42) = (   0.2000000   0.3464103   0.0000000), wk =   0.0177778
        k(   43) = (   0.2000000   0.4233904   0.0000000), wk =   0.0177778
        k(   44) = (   0.2000000   0.5003705   0.0000000), wk =   0.0177778
        k(   45) = (   0.2000000   0.5773505   0.0000000), wk =   0.0177778
        k(   46) = (   0.2000000   0.6543306   0.0000000), wk =   0.0177778
        k(   47) = (   0.2000000  -0.4233904   0.0000000), wk =   0.0177778
        k(   48) = (   0.2000000  -0.3464103   0.0000000), wk =   0.0177778
        k(   49) = (   0.2000000  -0.2694303   0.0000000), wk =   0.0177778
        k(   50) = (   0.2000000  -0.1924502   0.0000000), wk =   0.0177778
        k(   51) = (   0.2000000  -0.1154701   0.0000000), wk =   0.0177778
        k(   52) = (   0.2000000  -0.0384900   0.0000000), wk =   0.0177778
        k(   53) = (   0.2000000   0.0384900   0.0000000), wk =   0.0177778
        k(   54) = (   0.2666667   0.1539601   0.0000000), wk =   0.0177778
        k(   55) = (   0.2666667   0.2309402   0.0000000), wk =   0.0177778
        k(   56) = (   0.2666667   0.3079203   0.0000000), wk =   0.0177778
        k(   57) = (   0.2666667   0.3849004   0.0000000), wk =   0.0177778
        k(   58) = (   0.2666667   0.4618804   0.0000000), wk =   0.0177778
        k(   59) = (   0.2666667   0.5388605   0.0000000), wk =   0.0177778
        k(   60) = (   0.2666667   0.6158406   0.0000000), wk =   0.0177778
        k(   61) = (   0.2666667   0.6928206   0.0000000), wk =   0.0177778
        k(   62) = (   0.2666667  -0.3849004   0.0000000), wk =   0.0177778
        k(   63) = (   0.2666667  -0.3079203   0.0000000), wk =   0.0177778
        k(   64) = (   0.2666667  -0.2309402   0.0000000), wk =   0.0177778
        k(   65) = (   0.2666667  -0.1539601   0.0000000), wk =   0.0177778
        k(   66) = (   0.2666667  -0.0769801   0.0000000), wk =   0.0177778
        k(   67) = (   0.2666667   0.0000000   0.0000000), wk =   0.0177778
        k(   68) = (   0.2666667   0.0769801   0.0000000), wk =   0.0177778
        k(   69) = (   0.3333333   0.1924502   0.0000000), wk =   0.0177778
        k(   70) = (   0.3333333   0.2694303   0.0000000), wk =   0.0177778
        k(   71) = (   0.3333333   0.3464103   0.0000000), wk =   0.0177778
        k(   72) = (   0.3333333   0.4233904   0.0000000), wk =   0.0177778
        k(   73) = (   0.3333333   0.5003705   0.0000000), wk =   0.0177778
        k(   74) = (   0.3333333   0.5773505   0.0000000), wk =   0.0177778
        k(   75) = (   0.3333333   0.6543306   0.0000000), wk =   0.0177778
        k(   76) = (   0.3333333   0.7313107   0.0000000), wk =   0.0177778
        k(   77) = (   0.3333333  -0.3464103   0.0000000), wk =   0.0177778
        k(   78) = (   0.3333333  -0.2694303   0.0000000), wk =   0.0177778
        k(   79) = (   0.3333333  -0.1924502   0.0000000), wk =   0.0177778
        k(   80) = (   0.3333333  -0.1154701   0.0000000), wk =   0.0177778
        k(   81) = (   0.3333333  -0.0384900   0.0000000), wk =   0.0177778
        k(   82) = (   0.3333333   0.0384900   0.0000000), wk =   0.0177778
        k(   83) = (   0.3333333   0.1154701   0.0000000), wk =   0.0177778
        k(   84) = (   0.4000000   0.2309402   0.0000000), wk =   0.0177778
        k(   85) = (   0.4000000   0.3079203   0.0000000), wk =   0.0177778
        k(   86) = (   0.4000000   0.3849004   0.0000000), wk =   0.0177778
        k(   87) = (   0.4000000   0.4618804   0.0000000), wk =   0.0177778
        k(   88) = (   0.4000000   0.5388605   0.0000000), wk =   0.0177778
        k(   89) = (   0.4000000   0.6158406   0.0000000), wk =   0.0177778
        k(   90) = (   0.4000000   0.6928206   0.0000000), wk =   0.0177778
        k(   91) = (   0.4000000   0.7698007   0.0000000), wk =   0.0177778
        k(   92) = (   0.4000000  -0.3079203   0.0000000), wk =   0.0177778
        k(   93) = (   0.4000000  -0.2309402   0.0000000), wk =   0.0177778
        k(   94) = (   0.4000000  -0.1539601   0.0000000), wk =   0.0177778
        k(   95) = (   0.4000000  -0.0769801   0.0000000), wk =   0.0177778
        k(   96) = (   0.4000000   0.0000000   0.0000000), wk =   0.0177778
        k(   97) = (   0.4000000   0.0769801   0.0000000), wk =   0.0177778
        k(   98) = (   0.4000000   0.1539601   0.0000000), wk =   0.0177778
        k(   99) = (   0.4666667   0.2694303   0.0000000), wk =   0.0177778
        k(  100) = (   0.4666667   0.3464103   0.0000000), wk =   0.0177778
        k(  101) = (   0.4666667   0.4233904   0.0000000), wk =   0.0177778
        k(  102) = (   0.4666667   0.5003705   0.0000000), wk =   0.0177778
        k(  103) = (   0.4666667   0.5773505   0.0000000), wk =   0.0177778
        k(  104) = (   0.4666667   0.6543306   0.0000000), wk =   0.0177778
        k(  105) = (   0.4666667   0.7313107   0.0000000), wk =   0.0177778
        k(  106) = (   0.4666667   0.8082908   0.0000000), wk =   0.0177778
        k(  107) = (   0.4666667  -0.2694303   0.0000000), wk =   0.0177778
        k(  108) = (   0.4666667  -0.1924502   0.0000000), wk =   0.0177778
        k(  109) = (   0.4666667  -0.1154701   0.0000000), wk =   0.0177778
        k(  110) = (   0.4666667  -0.0384900   0.0000000), wk =   0.0177778
        k(  111) = (   0.4666667   0.0384900   0.0000000), wk =   0.0177778
        k(  112) = (   0.4666667   0.1154701   0.0000000), wk =   0.0177778
        k(  113) = (   0.4666667   0.1924502   0.0000000), wk =   0.0177778

                       cryst. coord.
        k(    1) = (   0.0000000   0.0000000   0.0000000), wk =   0.0088889
        k(    2) = (   0.0000000   0.0666667   0.0000000), wk =   0.0177778
        k(    3) = (   0.0000000   0.1333333   0.0000000), wk =   0.0177778
        k(    4) = (   0.0000000   0.2000000   0.0000000), wk =   0.0177778
        k(    5) = (   0.0000000   0.2666667   0.0000000), wk =   0.0177778
        k(    6) = (   0.0000000   0.3333333   0.0000000), wk =   0.0177778
        k(    7) = (   0.0000000   0.4000000   0.0000000), wk =   0.0177778
        k(    8) = (   0.0000000   0.4666667   0.0000000), wk =   0.0177778
        k(    9) = (   0.0666667   0.0000000   0.0000000), wk =   0.0177778
        k(   10) = (   0.0666667   0.0666667   0.0000000), wk =   0.0177778
        k(   11) = (   0.0666667   0.1333333   0.0000000), wk =   0.0177778
        k(   12) = (   0.0666667   0.2000000   0.0000000), wk =   0.0177778
        k(   13) = (   0.0666667   0.2666667   0.0000000), wk =   0.0177778
        k(   14) = (   0.0666667   0.3333333   0.0000000), wk =   0.0177778
        k(   15) = (   0.0666667   0.4000000   0.0000000), wk =   0.0177778
        k(   16) = (   0.0666667   0.4666667   0.0000000), wk =   0.0177778
        k(   17) = (   0.0666667  -0.4666667   0.0000000), wk =   0.0177778
        k(   18) = (   0.0666667  -0.4000000   0.0000000), wk =   0.0177778
        k(   19) = (   0.0666667  -0.3333333   0.0000000), wk =   0.0177778
        k(   20) = (   0.0666667  -0.2666667   0.0000000), wk =   0.0177778
        k(   21) = (   0.0666667  -0.2000000   0.0000000), wk =   0.0177778
        k(   22) = (   0.0666667  -0.1333333   0.0000000), wk =   0.0177778
        k(   23) = (   0.0666667  -0.0666667   0.0000000), wk =   0.0177778
        k(   24) = (   0.1333333   0.0000000   0.0000000), wk =   0.0177778
        k(   25) = (   0.1333333   0.0666667   0.0000000), wk =   0.0177778
        k(   26) = (   0.1333333   0.1333333   0.0000000), wk =   0.0177778
        k(   27) = (   0.1333333   0.2000000   0.0000000), wk =   0.0177778
        k(   28) = (   0.1333333   0.2666667   0.0000000), wk =   0.0177778
        k(   29) = (   0.1333333   0.3333333   0.0000000), wk =   0.0177778
        k(   30) = (   0.1333333   0.4000000   0.0000000), wk =   0.0177778
        k(   31) = (   0.1333333   0.4666667   0.0000000), wk =   0.0177778
        k(   32) = (   0.1333333  -0.4666667   0.0000000), wk =   0.0177778
        k(   33) = (   0.1333333  -0.4000000   0.0000000), wk =   0.0177778
        k(   34) = (   0.1333333  -0.3333333   0.0000000), wk =   0.0177778
        k(   35) = (   0.1333333  -0.2666667   0.0000000), wk =   0.0177778
        k(   36) = (   0.1333333  -0.2000000   0.0000000), wk =   0.0177778
        k(   37) = (   0.1333333  -0.1333333   0.0000000), wk =   0.0177778
        k(   38) = (   0.1333333  -0.0666667   0.0000000), wk =   0.0177778
        k(   39) = (   0.2000000   0.0000000   0.0000000), wk =   0.0177778
        k(   40) = (   0.2000000   0.0666667   0.0000000), wk =   0.0177778
        k(   41) = (   0.2000000   0.1333333   0.0000000), wk =   0.0177778
        k(   42) = (   0.2000000   0.2000000   0.0000000), wk =   0.0177778
        k(   43) = (   0.2000000   0.2666667   0.0000000), wk =   0.0177778
        k(   44) = (   0.2000000   0.3333333   0.0000000), wk =   0.0177778
        k(   45) = (   0.2000000   0.4000000   0.0000000), wk =   0.0177778
        k(   46) = (   0.2000000   0.4666667   0.0000000), wk =   0.0177778
        k(   47) = (   0.2000000  -0.4666667   0.0000000), wk =   0.0177778
        k(   48) = (   0.2000000  -0.4000000   0.0000000), wk =   0.0177778
        k(   49) = (   0.2000000  -0.3333333   0.0000000), wk =   0.0177778
        k(   50) = (   0.2000000  -0.2666667   0.0000000), wk =   0.0177778
        k(   51) = (   0.2000000  -0.2000000   0.0000000), wk =   0.0177778
        k(   52) = (   0.2000000  -0.1333333   0.0000000), wk =   0.0177778
        k(   53) = (   0.2000000  -0.0666667   0.0000000), wk =   0.0177778
        k(   54) = (   0.2666667   0.0000000   0.0000000), wk =   0.0177778
        k(   55) = (   0.2666667   0.0666667   0.0000000), wk =   0.0177778
        k(   56) = (   0.2666667   0.1333333   0.0000000), wk =   0.0177778
        k(   57) = (   0.2666667   0.2000000   0.0000000), wk =   0.0177778
        k(   58) = (   0.2666667   0.2666667   0.0000000), wk =   0.0177778
        k(   59) = (   0.2666667   0.3333333   0.0000000), wk =   0.0177778
        k(   60) = (   0.2666667   0.4000000   0.0000000), wk =   0.0177778
        k(   61) = (   0.2666667   0.4666667   0.0000000), wk =   0.0177778
        k(   62) = (   0.2666667  -0.4666667   0.0000000), wk =   0.0177778
        k(   63) = (   0.2666667  -0.4000000   0.0000000), wk =   0.0177778
        k(   64) = (   0.2666667  -0.3333333   0.0000000), wk =   0.0177778
        k(   65) = (   0.2666667  -0.2666667   0.0000000), wk =   0.0177778
        k(   66) = (   0.2666667  -0.2000000   0.0000000), wk =   0.0177778
        k(   67) = (   0.2666667  -0.1333333   0.0000000), wk =   0.0177778
        k(   68) = (   0.2666667  -0.0666667   0.0000000), wk =   0.0177778
        k(   69) = (   0.3333333   0.0000000   0.0000000), wk =   0.0177778
        k(   70) = (   0.3333333   0.0666667   0.0000000), wk =   0.0177778
        k(   71) = (   0.3333333   0.1333333   0.0000000), wk =   0.0177778
        k(   72) = (   0.3333333   0.2000000   0.0000000), wk =   0.0177778
        k(   73) = (   0.3333333   0.2666667   0.0000000), wk =   0.0177778
        k(   74) = (   0.3333333   0.3333333   0.0000000), wk =   0.0177778
        k(   75) = (   0.3333333   0.4000000   0.0000000), wk =   0.0177778
        k(   76) = (   0.3333333   0.4666667   0.0000000), wk =   0.0177778
        k(   77) = (   0.3333333  -0.4666667   0.0000000), wk =   0.0177778
        k(   78) = (   0.3333333  -0.4000000   0.0000000), wk =   0.0177778
        k(   79) = (   0.3333333  -0.3333333   0.0000000), wk =   0.0177778
        k(   80) = (   0.3333333  -0.2666667   0.0000000), wk =   0.0177778
        k(   81) = (   0.3333333  -0.2000000   0.0000000), wk =   0.0177778
        k(   82) = (   0.3333333  -0.1333333   0.0000000), wk =   0.0177778
        k(   83) = (   0.3333333  -0.0666667   0.0000000), wk =   0.0177778
        k(   84) = (   0.4000000   0.0000000   0.0000000), wk =   0.0177778
        k(   85) = (   0.4000000   0.0666667   0.0000000), wk =   0.0177778
        k(   86) = (   0.4000000   0.1333333   0.0000000), wk =   0.0177778
        k(   87) = (   0.4000000   0.2000000   0.0000000), wk =   0.0177778
        k(   88) = (   0.4000000   0.2666667   0.0000000), wk =   0.0177778
        k(   89) = (   0.4000000   0.3333333   0.0000000), wk =   0.0177778
        k(   90) = (   0.4000000   0.4000000   0.0000000), wk =   0.0177778
        k(   91) = (   0.4000000   0.4666667   0.0000000), wk =   0.0177778
        k(   92) = (   0.4000000  -0.4666667   0.0000000), wk =   0.0177778
        k(   93) = (   0.4000000  -0.4000000   0.0000000), wk =   0.0177778
        k(   94) = (   0.4000000  -0.3333333   0.0000000), wk =   0.0177778
        k(   95) = (   0.4000000  -0.2666667   0.0000000), wk =   0.0177778
        k(   96) = (   0.4000000  -0.2000000   0.0000000), wk =   0.0177778
        k(   97) = (   0.4000000  -0.1333333   0.0000000), wk =   0.0177778
        k(   98) = (   0.4000000  -0.0666667   0.0000000), wk =   0.0177778
        k(   99) = (   0.4666667   0.0000000   0.0000000), wk =   0.0177778
        k(  100) = (   0.4666667   0.0666667   0.0000000), wk =   0.0177778
        k(  101) = (   0.4666667   0.1333333   0.0000000), wk =   0.0177778
        k(  102) = (   0.4666667   0.2000000   0.0000000), wk =   0.0177778
        k(  103) = (   0.4666667   0.2666667   0.0000000), wk =   0.0177778
        k(  104) = (   0.4666667   0.3333333   0.0000000), wk =   0.0177778
        k(  105) = (   0.4666667   0.4000000   0.0000000), wk =   0.0177778
        k(  106) = (   0.4666667   0.4666667   0.0000000), wk =   0.0177778
        k(  107) = (   0.4666667  -0.4666667   0.0000000), wk =   0.0177778
        k(  108) = (   0.4666667  -0.4000000   0.0000000), wk =   0.0177778
        k(  109) = (   0.4666667  -0.3333333   0.0000000), wk =   0.0177778
        k(  110) = (   0.4666667  -0.2666667   0.0000000), wk =   0.0177778
        k(  111) = (   0.4666667  -0.2000000   0.0000000), wk =   0.0177778
        k(  112) = (   0.4666667  -0.1333333   0.0000000), wk =   0.0177778
        k(  113) = (   0.4666667  -0.0666667   0.0000000), wk =   0.0177778

     Dense  grid:   111671 G-vectors     FFT dimensions: (  30,  30, 288)

     Smooth grid:    52021 G-vectors     FFT dimensions: (  24,  24, 225)

     Dynamical RAM for                 wfc:       0.99 MB

     Dynamical RAM for     wfc (w. buffer):      29.67 MB

     Dynamical RAM for           str. fact:       1.70 MB

     Dynamical RAM for           local pot:       0.00 MB

     Dynamical RAM for          nlocal pot:       1.58 MB

     Dynamical RAM for                qrad:       0.46 MB

     Dynamical RAM for          rho,v,vnew:      11.04 MB

     Dynamical RAM for               rhoin:       3.68 MB

     Dynamical RAM for            rho*nmix:      27.26 MB

     Dynamical RAM for           G-vectors:       6.79 MB

     Dynamical RAM for          h,s,v(r/c):       0.02 MB

     Dynamical RAM for          <psi|beta>:       0.00 MB

     Dynamical RAM for                 psi:       1.98 MB

     Dynamical RAM for                hpsi:       1.98 MB

     Dynamical RAM for                spsi:       1.98 MB

     Dynamical RAM for      wfcinit/wfcrot:       1.98 MB

     Dynamical RAM for           addusdens:      20.45 MB

     Dynamical RAM for          addusforce:      20.87 MB

     Estimated static dynamical RAM per process >      68.22 MB

     Estimated max dynamical RAM per process >     116.36 MB

     Estimated total dynamical RAM >     383.65 MB

     Adding external electric field
        E field amplitude [Ha a.u.]:  1.0000E-01
        Potential amp.        7.9425 Ry
        Total length         39.7126 bohr


     Check: negative core charge=   -0.000002

     Initial potential from superposition of free atoms

     starting charge       7.9999, renormalised to       8.0000

     negative rho (up, down):  1.174E-04 0.000E+00
     Starting wfcs are    8 randomized atomic wfcs +    2 random wfcs
     Checking if some PAW data can be deallocated... 

     total cpu time spent up to now is        4.0 secs

     Self-consistent Calculation

     iteration #  1     ecut=    60.00 Ry     beta= 0.70
     Davidson diagonalization with overlap

---- Real-time Memory Report at c_bands before calling an iterative solver
            99 MiB given to the printing process from OS
             0 MiB allocation reported by mallinfo(arena+hblkhd)
           355 MiB available memory on the node where the printing process lives
------------------
     ethr =  1.00E-02,  avg # of iterations =  9.9

     negative rho (up, down):  1.131E-04 0.000E+00

     total cpu time spent up to now is       11.9 secs

     total energy              =     -32.96529870 Ry
     estimated scf accuracy    <       4.64657333 Ry

     iteration #  2     ecut=    60.00 Ry     beta= 0.70
     Davidson diagonalization with overlap

---- Real-time Memory Report at c_bands before calling an iterative solver
           138 MiB given to the printing process from OS
             0 MiB allocation reported by mallinfo(arena+hblkhd)
           323 MiB available memory on the node where the printing process lives
------------------
     ethr =  1.00E-02,  avg # of iterations =  8.3

     negative rho (up, down):  4.826E-04 0.000E+00

     total cpu time spent up to now is       20.7 secs

     total energy              =     -34.86339510 Ry
     estimated scf accuracy    <      32.43449304 Ry

     iteration #  3     ecut=    60.00 Ry     beta= 0.70
     Davidson diagonalization with overlap

---- Real-time Memory Report at c_bands before calling an iterative solver
           139 MiB given to the printing process from OS
             0 MiB allocation reported by mallinfo(arena+hblkhd)
           348 MiB available memory on the node where the printing process lives
------------------
     ethr =  1.00E-02,  avg # of iterations =  5.9

     negative rho (up, down):  3.570E-04 0.000E+00

     total cpu time spent up to now is       28.1 secs

     total energy              =     -36.40084178 Ry
     estimated scf accuracy    <       3.12815421 Ry

     iteration #  4     ecut=    60.00 Ry     beta= 0.70
     Davidson diagonalization with overlap

---- Real-time Memory Report at c_bands before calling an iterative solver
           141 MiB given to the printing process from OS
             0 MiB allocation reported by mallinfo(arena+hblkhd)
           357 MiB available memory on the node where the printing process lives
------------------
     ethr =  1.00E-02,  avg # of iterations =  1.7

     negative rho (up, down):  2.104E-04 0.000E+00

     total cpu time spent up to now is       31.2 secs

     total energy              =     -36.36826268 Ry
     estimated scf accuracy    <       0.91431887 Ry

     iteration #  5     ecut=    60.00 Ry     beta= 0.70
     Davidson diagonalization with overlap

---- Real-time Memory Report at c_bands before calling an iterative solver
           143 MiB given to the printing process from OS
             0 MiB allocation reported by mallinfo(arena+hblkhd)
           325 MiB available memory on the node where the printing process lives
------------------
     ethr =  1.00E-02,  avg # of iterations =  1.4

     negative rho (up, down):  1.444E-04 0.000E+00

     total cpu time spent up to now is       34.5 secs

     total energy              =     -36.37553211 Ry
     estimated scf accuracy    <       0.15997494 Ry

     iteration #  6     ecut=    60.00 Ry     beta= 0.70
     Davidson diagonalization with overlap

---- Real-time Memory Report at c_bands before calling an iterative solver
           144 MiB given to the printing process from OS
             0 MiB allocation reported by mallinfo(arena+hblkhd)
           354 MiB available memory on the node where the printing process lives
------------------
     ethr =  2.00E-03,  avg # of iterations =  6.9

     negative rho (up, down):  1.062E-04 0.000E+00

     total cpu time spent up to now is       38.8 secs

     total energy              =     -36.40020541 Ry
     estimated scf accuracy    <       0.00209264 Ry

     iteration #  7     ecut=    60.00 Ry     beta= 0.70
     Davidson diagonalization with overlap

---- Real-time Memory Report at c_bands before calling an iterative solver
           146 MiB given to the printing process from OS
             0 MiB allocation reported by mallinfo(arena+hblkhd)
           322 MiB available memory on the node where the printing process lives
------------------
     c_bands:  1 eigenvalues not converged
     ethr =  2.62E-05,  avg # of iterations = 11.7

     negative rho (up, down):  1.080E-04 0.000E+00

     total cpu time spent up to now is       50.3 secs

     total energy              =     -36.40282552 Ry
     estimated scf accuracy    <       0.00321876 Ry

     iteration #  8     ecut=    60.00 Ry     beta= 0.70
     Davidson diagonalization with overlap

---- Real-time Memory Report at c_bands before calling an iterative solver
           147 MiB given to the printing process from OS
             0 MiB allocation reported by mallinfo(arena+hblkhd)
           356 MiB available memory on the node where the printing process lives
------------------
     ethr =  2.62E-05,  avg # of iterations =  1.5

     negative rho (up, down):  1.404E-04 0.000E+00

     total cpu time spent up to now is       54.2 secs

     total energy              =     -36.40254130 Ry
     estimated scf accuracy    <       0.00117444 Ry

     iteration #  9     ecut=    60.00 Ry     beta= 0.70
     Davidson diagonalization with overlap

---- Real-time Memory Report at c_bands before calling an iterative solver
           149 MiB given to the printing process from OS
             0 MiB allocation reported by mallinfo(arena+hblkhd)
           315 MiB available memory on the node where the printing process lives
------------------
     ethr =  1.47E-05,  avg # of iterations =  3.5

     negative rho (up, down):  1.383E-04 0.000E+00

     total cpu time spent up to now is       57.6 secs

     total energy              =     -36.40270389 Ry
     estimated scf accuracy    <       0.00010010 Ry

     iteration # 10     ecut=    60.00 Ry     beta= 0.70
     Davidson diagonalization with overlap

---- Real-time Memory Report at c_bands before calling an iterative solver
           151 MiB given to the printing process from OS
             0 MiB allocation reported by mallinfo(arena+hblkhd)
           337 MiB available memory on the node where the printing process lives
------------------
     c_bands:  1 eigenvalues not converged
     ethr =  1.25E-06,  avg # of iterations =  5.6

     negative rho (up, down):  1.422E-04 0.000E+00

     total cpu time spent up to now is       61.6 secs

     total energy              =     -36.40272444 Ry
     estimated scf accuracy    <       0.00002651 Ry

     iteration # 11     ecut=    60.00 Ry     beta= 0.70
     Davidson diagonalization with overlap

---- Real-time Memory Report at c_bands before calling an iterative solver
           151 MiB given to the printing process from OS
             0 MiB allocation reported by mallinfo(arena+hblkhd)
           330 MiB available memory on the node where the printing process lives
------------------
     ethr =  3.31E-07,  avg # of iterations =  1.2

     negative rho (up, down):  1.432E-04 0.000E+00

     total cpu time spent up to now is       64.3 secs

     total energy              =     -36.40272646 Ry
     estimated scf accuracy    <       0.00000087 Ry

     iteration # 12     ecut=    60.00 Ry     beta= 0.70
     Davidson diagonalization with overlap

---- Real-time Memory Report at c_bands before calling an iterative solver
           151 MiB given to the printing process from OS
             0 MiB allocation reported by mallinfo(arena+hblkhd)
           310 MiB available memory on the node where the printing process lives
------------------
     ethr =  1.09E-08,  avg # of iterations =  3.5

     negative rho (up, down):  1.431E-04 0.000E+00

     total cpu time spent up to now is       68.8 secs

     total energy              =     -36.40272682 Ry
     estimated scf accuracy    <       0.00000005 Ry

     iteration # 13     ecut=    60.00 Ry     beta= 0.70
     Davidson diagonalization with overlap

---- Real-time Memory Report at c_bands before calling an iterative solver
           151 MiB given to the printing process from OS
             0 MiB allocation reported by mallinfo(arena+hblkhd)
           333 MiB available memory on the node where the printing process lives
------------------
     ethr =  6.74E-10,  avg # of iterations =  3.2

     negative rho (up, down):  1.429E-04 0.000E+00

     total cpu time spent up to now is       73.0 secs

     total energy              =     -36.40272683 Ry
     estimated scf accuracy    <       0.00000003 Ry

     iteration # 14     ecut=    60.00 Ry     beta= 0.70
     Davidson diagonalization with overlap

---- Real-time Memory Report at c_bands before calling an iterative solver
           151 MiB given to the printing process from OS
             0 MiB allocation reported by mallinfo(arena+hblkhd)
           310 MiB available memory on the node where the printing process lives
------------------
     ethr =  3.96E-10,  avg # of iterations =  1.0

     negative rho (up, down):  1.429E-04 0.000E+00

     total cpu time spent up to now is       77.0 secs

     End of self-consistent calculation

          k = 0.0000 0.0000 0.0000 (  6469 PWs)   bands (ev):

   -63.6166 -54.4828 -48.2052 -44.9886 -42.9385 -41.2941 -39.1244 -37.2467
   -35.0628 -32.7919

     occupation numbers 
     1.0000   1.0000   1.0000   0.0000   0.0000   0.0000   0.0000   0.0000
     0.0000   0.0000

          k = 0.0000 0.0770 0.0000 (  6464 PWs)   bands (ev):

   -63.5004 -54.3717 -48.1217 -45.1587 -43.7294 -41.1230 -39.0858 -37.1850
   -35.0411 -32.6979

     occupation numbers 
     1.0000   1.0000   1.0000   0.0000   0.0000   0.0000   0.0000   0.0000
     0.0000   0.0000

          k = 0.0000 0.1540 0.0000 (  6496 PWs)   bands (ev):

   -63.1531 -54.0412 -47.9023 -45.7668 -45.1589 -41.1812 -39.0606 -37.0499
   -35.0195 -32.4334

     occupation numbers 
     1.0000   1.0000   1.0000   0.0000   0.0000   0.0000   0.0000   0.0000
     0.0000   0.0000

          k = 0.0000 0.2309 0.0000 (  6474 PWs)   bands (ev):

   -62.5791 -53.5001 -48.0066 -47.0170 -45.9175 -41.6229 -39.1773 -37.0435
   -34.9563 -32.0387

     occupation numbers 
     1.0000   1.0000   1.0000   0.2345   0.0000   0.0000   0.0000   0.0000
     0.0000   0.0000

          k = 0.0000 0.3079 0.0000 (  6492 PWs)   bands (ev):

   -61.7884 -52.7715 -49.7630 -46.9265 -46.3929 -42.3089 -39.4634 -37.3748
   -34.6459 -31.5727

     occupation numbers 
     1.0000   1.0000   1.0000   0.0480   0.0000   0.0000   0.0000   0.0000
     0.0000   0.0000

          k = 0.0000 0.3849 0.0000 (  6484 PWs)   bands (ev):

   -60.8036 -52.1217 -51.5010 -47.0666 -46.4301 -42.9984 -39.8747 -37.8774
   -34.1635 -31.1068

     occupation numbers 
     1.0000   1.0000   1.0000   0.4172   0.0000   0.0000   0.0000   0.0000
     0.0000   0.0000

          k = 0.0000 0.4619 0.0000 (  6490 PWs)   bands (ev):

   -59.6884 -53.6686 -50.7881 -47.3666 -46.6576 -43.2970 -40.3236 -38.3004
   -33.8031 -30.5929

     occupation numbers 
     1.0000   1.0000   1.0000   0.9982   0.0000   0.0000   0.0000   0.0000
     0.0000   0.0000

          k = 0.0000 0.5389 0.0000 (  6524 PWs)   bands (ev):

   -58.6990 -55.0179 -49.9369 -47.5743 -47.2097 -43.2024 -40.6594 -38.5319
   -33.6916 -29.8951

     occupation numbers 
     1.0000   1.0000   1.0000   1.0000   0.8994   0.0000   0.0000   0.0000
     0.0000   0.0000

          k = 0.0667 0.0385 0.0000 (  6464 PWs)   bands (ev):

   -63.4986 -54.3714 -48.1169 -45.4704 -43.3589 -41.0798 -39.2169 -37.1365
   -34.9539 -32.6803

     occupation numbers 
     1.0000   1.0000   1.0000   0.0000   0.0000   0.0000   0.0000   0.0000
     0.0000   0.0000

          k = 0.0667 0.1155 0.0000 (  6499 PWs)   bands (ev):

   -63.2659 -54.1505 -47.9603 -45.9381 -44.4449 -40.8737 -39.2633 -37.0330
   -34.9392 -32.4978

     occupation numbers 
     1.0000   1.0000   1.0000   0.0000   0.0000   0.0000   0.0000   0.0000
     0.0000   0.0000

          k = 0.0667 0.1925 0.0000 (  6491 PWs)   bands (ev):

   -62.8040 -53.7143 -47.8011 -46.7940 -45.7319 -41.0916 -39.2868 -36.9697
   -34.9311 -32.1611

     occupation numbers 
     1.0000   1.0000   1.0000   0.0012   0.0000   0.0000   0.0000   0.0000
     0.0000   0.0000

          k = 0.0667 0.2694 0.0000 (  6480 PWs)   bands (ev):

   -62.1195 -53.0775 -48.9015 -46.9785 -46.5988 -41.6924 -39.3753 -37.2116
   -34.7351 -31.7047

     occupation numbers 
     1.0000   1.0000   1.0000   0.1303   0.0000   0.0000   0.0000   0.0000
     0.0000   0.0000

          k = 0.0667 0.3464 0.0000 (  6491 PWs)   bands (ev):

   -61.2273 -52.2933 -50.7563 -47.2815 -46.5589 -42.4848 -39.5510 -37.7647
   -34.2642 -31.1989

     occupation numbers 
     1.0000   1.0000   1.0000   0.9786   0.0000   0.0000   0.0000   0.0000
     0.0000   0.0000

          k = 0.0667 0.4234 0.0000 (  6487 PWs)   bands (ev):

   -60.1641 -52.7922 -51.1872 -47.7362 -46.4513 -43.1289 -39.8046 -38.3239
   -33.7569 -30.7216

     occupation numbers 
     1.0000   1.0000   1.0000   1.0000   0.0000   0.0000   0.0000   0.0000
     0.0000   0.0000

          k = 0.0667 0.5004 0.0000 (  6503 PWs)   bands (ev):

   -59.0533 -54.3882 -50.2528 -48.0181 -46.8891 -43.2852 -40.1433 -38.6192
   -33.5000 -30.1812

     occupation numbers 
     1.0000   1.0000   1.0000   1.0000   0.0200   0.0000   0.0000   0.0000
     0.0000   0.0000

          k = 0.0667 0.5774 0.0000 (  6480 PWs)   bands (ev):

   -58.4349 -55.1725 -49.7395 -48.0727 -47.3480 -43.1975 -40.4533 -38.5614
   -33.4973 -29.4857

     occupation numbers 
     1.0000   1.0000   1.0000   1.0000   0.9967   0.0000   0.0000   0.0000
     0.0000   0.0000

          k = 0.0667-0.5004 0.0000 (  6503 PWs)   bands (ev):

   -59.0666 -54.3465 -50.2624 -47.9924 -46.9628 -43.1901 -40.5123 -38.2360
   -33.5990 -30.1361

     occupation numbers 
     1.0000   1.0000   1.0000   1.0000   0.0989   0.0000   0.0000   0.0000
     0.0000   0.0000

          k = 0.0667-0.4234 0.0000 (  6487 PWs)   bands (ev):

   -60.1761 -52.7176 -51.1902 -47.7740 -46.5020 -43.0450 -40.2930 -37.7680
   -33.8664 -30.7468

     occupation numbers 
     1.0000   1.0000   1.0000   1.0000   0.0000   0.0000   0.0000   0.0000
     0.0000   0.0000

          k = 0.0667-0.3464 0.0000 (  6491 PWs)   bands (ev):

   -61.2361 -52.2896 -50.6306 -47.4215 -46.5357 -42.5085 -39.9108 -37.2798
   -34.3183 -31.2405

     occupation numbers 
     1.0000   1.0000   1.0000   0.9997   0.0000   0.0000   0.0000   0.0000
     0.0000   0.0000

          k = 0.0667-0.2694 0.0000 (  6480 PWs)   bands (ev):

   -62.1256 -53.0778 -48.6671 -47.1665 -46.6044 -41.8716 -39.4810 -36.9372
   -34.7232 -31.7264

     occupation numbers 
     1.0000   1.0000   1.0000   0.7965   0.0000   0.0000   0.0000   0.0000
     0.0000   0.0000

          k = 0.0667-0.1925 0.0000 (  6491 PWs)   bands (ev):

   -62.8079 -53.7147 -47.7430 -46.3512 -46.1622 -41.4323 -39.1399 -36.8955
   -34.8988 -32.1711

     occupation numbers 
     1.0000   1.0000   1.0000   0.0000   0.0000   0.0000   0.0000   0.0000
     0.0000   0.0000

          k = 0.0667-0.1155 0.0000 (  6499 PWs)   bands (ev):

   -63.2681 -54.1507 -47.9647 -45.6881 -44.5867 -41.2772 -39.0110 -37.0352
   -34.9468 -32.5063

     occupation numbers 
     1.0000   1.0000   1.0000   0.0000   0.0000   0.0000   0.0000   0.0000
     0.0000   0.0000

          k = 0.0667-0.0385 0.0000 (  6464 PWs)   bands (ev):

   -63.4993 -54.3715 -48.1194 -45.4010 -43.3445 -41.2969 -39.0932 -37.1423
   -34.9676 -32.6845

     occupation numbers 
     1.0000   1.0000   1.0000   0.0000   0.0000   0.0000   0.0000   0.0000
     0.0000   0.0000

          k = 0.1333 0.0770 0.0000 (  6496 PWs)   bands (ev):

   -63.1449 -54.0398 -47.8822 -46.7240 -44.1721 -40.9060 -39.4306 -36.8749
   -34.7717 -32.3717

     occupation numbers 
     1.0000   1.0000   1.0000   0.0001   0.0000   0.0000   0.0000   0.0000
     0.0000   0.0000

          k = 0.1333 0.1540 0.0000 (  6491 PWs)   bands (ev):

   -62.7971 -53.7131 -47.8388 -47.2641 -45.2414 -40.8727 -39.5136 -36.8137
   -34.7779 -32.1216

     occupation numbers 
     1.0000   1.0000   1.0000   0.9674   0.0000   0.0000   0.0000   0.0000
     0.0000   0.0000

          k = 0.1333 0.2309 0.0000 (  6457 PWs)   bands (ev):

   -62.2233 -53.1802 -48.6361 -47.1516 -46.6132 -41.1087 -39.6848 -36.8962
   -34.6430 -31.7114

     occupation numbers 
     1.0000   1.0000   1.0000   0.7502   0.0000   0.0000   0.0000   0.0000
     0.0000   0.0000

          k = 0.1333 0.3079 0.0000 (  6480 PWs)   bands (ev):

   -61.4336 -52.4713 -49.9929 -47.8854 -46.6943 -41.7348 -39.8544 -37.2507
   -34.2287 -31.1608

     occupation numbers 
     1.0000   1.0000   1.0000   1.0000   0.0000   0.0000   0.0000   0.0000
     0.0000   0.0000

          k = 0.1333 0.3849 0.0000 (  6474 PWs)   bands (ev):

   -60.4510 -52.0201 -51.2567 -48.6643 -46.4253 -42.5475 -39.9604 -37.7718
   -33.6304 -30.5696

     occupation numbers 
     1.0000   1.0000   1.0000   1.0000   0.0000   0.0000   0.0000   0.0000
     0.0000   0.0000

          k = 0.1333 0.4619 0.0000 (  6494 PWs)   bands (ev):

   -59.3408 -53.4985 -50.5174 -49.1144 -46.5651 -43.1354 -40.0016 -38.2526
   -33.1131 -30.1077

     occupation numbers 
     1.0000   1.0000   1.0000   1.0000   0.0000   0.0000   0.0000   0.0000
     0.0000   0.0000

          k = 0.1333 0.5389 0.0000 (  6490 PWs)   bands (ev):

   -58.3659 -54.7618 -49.8825 -49.1461 -47.0970 -43.3035 -40.1175 -38.4117
   -32.9292 -29.7275

     occupation numbers 
     1.0000   1.0000   1.0000   1.0000   0.5426   0.0000   0.0000   0.0000
     0.0000   0.0000

          k = 0.1333 0.6158 0.0000 (  6490 PWs)   bands (ev):

   -58.3872 -54.7061 -49.9272 -49.1208 -47.1237 -43.2581 -40.3898 -38.1008
   -33.0326 -29.5895

     occupation numbers 
     1.0000   1.0000   1.0000   1.0000   0.6497   0.0000   0.0000   0.0000
     0.0000   0.0000

          k = 0.1333-0.4619 0.0000 (  6494 PWs)   bands (ev):

   -59.3702 -53.3548 -50.5498 -49.1843 -46.5974 -43.0477 -40.5782 -37.5605
   -33.3181 -30.1017

     occupation numbers 
     1.0000   1.0000   1.0000   1.0000   0.0000   0.0000   0.0000   0.0000
     0.0000   0.0000

          k = 0.1333-0.3849 0.0000 (  6474 PWs)   bands (ev):

   -60.4738 -51.8704 -51.1525 -48.8989 -46.4160 -42.5334 -40.5134 -37.0329
   -33.7802 -30.6584

     occupation numbers 
     1.0000   1.0000   1.0000   1.0000   0.0000   0.0000   0.0000   0.0000
     0.0000   0.0000

          k = 0.1333-0.3079 0.0000 (  6480 PWs)   bands (ev):

   -61.4497 -52.4693 -49.4871 -48.4110 -46.6171 -41.9255 -40.1666 -36.6785
   -34.2713 -31.2196

     occupation numbers 
     1.0000   1.0000   1.0000   1.0000   0.0000   0.0000   0.0000   0.0000
     0.0000   0.0000

          k = 0.1333-0.2309 0.0000 (  6457 PWs)   bands (ev):

   -62.2341 -53.1810 -47.9441 -47.6935 -46.6629 -41.5750 -39.6524 -36.6030
   -34.5999 -31.7347

     occupation numbers 
     1.0000   1.0000   1.0000   1.0000   0.0000   0.0000   0.0000   0.0000
     0.0000   0.0000

          k = 0.1333-0.1540 0.0000 (  6491 PWs)   bands (ev):

   -62.8037 -53.7138 -47.7389 -47.0605 -45.3883 -41.4911 -39.2622 -36.7270
   -34.7499 -32.1364

     occupation numbers 
     1.0000   1.0000   1.0000   0.3929   0.0000   0.0000   0.0000   0.0000
     0.0000   0.0000

          k = 0.1333-0.0770 0.0000 (  6496 PWs)   bands (ev):

   -63.1480 -54.0401 -47.8913 -46.5530 -44.1665 -41.4201 -39.1821 -36.8616
   -34.7899 -32.3846

     occupation numbers 
     1.0000   1.0000   1.0000   0.0000   0.0000   0.0000   0.0000   0.0000
     0.0000   0.0000

          k = 0.1333 0.0000 0.0000 (  6499 PWs)   bands (ev):

   -63.2623 -54.1498 -47.9550 -46.3917 -43.7804 -41.1224 -39.3289 -36.9133
   -34.7739 -32.4624

     occupation numbers 
     1.0000   1.0000   1.0000   0.0000   0.0000   0.0000   0.0000   0.0000
     0.0000   0.0000

          k = 0.2000 0.1155 0.0000 (  6474 PWs)   bands (ev):

   -62.5576 -53.4965 -48.5769 -47.3883 -45.0031 -41.1903 -39.5863 -36.6881
   -34.6699 -31.9450

     occupation numbers 
     1.0000   1.0000   1.0000   0.9991   0.0000   0.0000   0.0000   0.0000
     0.0000   0.0000

          k = 0.2000 0.1925 0.0000 (  6480 PWs)   bands (ev):

   -62.0970 -53.0744 -49.4137 -47.1604 -45.9983 -41.2671 -39.7654 -36.7738
   -34.5417 -31.6673

     occupation numbers 
     1.0000   1.0000   1.0000   0.7782   0.0000   0.0000   0.0000   0.0000
     0.0000   0.0000

          k = 0.2000 0.2694 0.0000 (  6480 PWs)   bands (ev):

   -61.4157 -52.4727 -50.3092 -47.6171 -46.7268 -41.3236 -40.2645 -36.9418
   -34.1546 -31.1700

     occupation numbers 
     1.0000   1.0000   1.0000   1.0000   0.0001   0.0000   0.0000   0.0000
     0.0000   0.0000

          k = 0.2000 0.3464 0.0000 (  6482 PWs)   bands (ev):

   -60.5289 -51.9192 -51.0751 -49.0917 -46.4903 -41.8184 -40.5974 -37.2321
   -33.5379 -30.4508

     occupation numbers 
     1.0000   1.0000   1.0000   1.0000   0.0000   0.0000   0.0000   0.0000
     0.0000   0.0000

          k = 0.2000 0.4234 0.0000 (  6465 PWs)   bands (ev):

   -59.4750 -52.7527 -50.5972 -50.1375 -46.4457 -42.6731 -40.5115 -37.6156
   -32.8349 -29.7388

     occupation numbers 
     1.0000   1.0000   1.0000   1.0000   0.0000   0.0000   0.0000   0.0000
     0.0000   0.0000

          k = 0.2000 0.5004 0.0000 (  6474 PWs)   bands (ev):

   -58.3817 -54.0331 -50.8242 -49.5804 -46.7663 -43.3168 -40.2996 -37.9343
   -32.3022 -29.8474

     occupation numbers 
     1.0000   1.0000   1.0000   1.0000   0.0004   0.0000   0.0000   0.0000
     0.0000   0.0000

          k = 0.2000 0.5774 0.0000 (  6484 PWs)   bands (ev):

   -57.7989 -54.6622 -51.0492 -49.0540 -47.1005 -43.5293 -40.3208 -37.8803
   -32.2154 -29.9707

     occupation numbers 
     1.0000   1.0000   1.0000   1.0000   0.5569   0.0000   0.0000   0.0000
     0.0000   0.0000

          k = 0.2000 0.6543 0.0000 (  6474 PWs)   bands (ev):

   -58.4356 -53.8149 -51.0070 -49.5583 -46.7556 -43.3275 -40.6551 -37.4182
   -32.5387 -29.7657

     occupation numbers 
     1.0000   1.0000   1.0000   1.0000   0.0003   0.0000   0.0000   0.0000
     0.0000   0.0000

          k = 0.2000-0.4234 0.0000 (  6465 PWs)   bands (ev):

   -59.5222 -52.3309 -50.7705 -50.3372 -46.4111 -42.7137 -40.9906 -36.8839
   -33.0786 -29.8708

     occupation numbers 
     1.0000   1.0000   1.0000   1.0000   0.0000   0.0000   0.0000   0.0000
     0.0000   0.0000

          k = 0.2000-0.3464 0.0000 (  6482 PWs)   bands (ev):

   -60.5628 -51.7959 -50.5734 -49.6829 -46.4282 -41.9639 -41.0344 -36.5115
   -33.6839 -30.5597

     occupation numbers 
     1.0000   1.0000   1.0000   1.0000   0.0000   0.0000   0.0000   0.0000
     0.0000   0.0000

          k = 0.2000-0.2694 0.0000 (  6480 PWs)   bands (ev):

   -61.4386 -52.4695 -49.8459 -48.0791 -46.6050 -41.7391 -40.4735 -36.3890
   -34.1912 -31.2003

     occupation numbers 
     1.0000   1.0000   1.0000   1.0000   0.0000   0.0000   0.0000   0.0000
     0.0000   0.0000

          k = 0.2000-0.1925 0.0000 (  6480 PWs)   bands (ev):

   -62.1117 -53.0755 -49.0961 -47.2660 -46.0219 -41.8244 -39.8364 -36.4584
   -34.5189 -31.6676

     occupation numbers 
     1.0000   1.0000   1.0000   0.9689   0.0000   0.0000   0.0000   0.0000
     0.0000   0.0000

          k = 0.2000-0.1155 0.0000 (  6474 PWs)   bands (ev):

   -62.5658 -53.4974 -48.3924 -47.3831 -44.9719 -41.7661 -39.5150 -36.5706
   -34.6640 -31.9527

     occupation numbers 
     1.0000   1.0000   1.0000   0.9990   0.0000   0.0000   0.0000   0.0000
     0.0000   0.0000

          k = 0.2000-0.0385 0.0000 (  6491 PWs)   bands (ev):

   -62.7932 -53.7121 -47.9900 -47.4151 -44.6876 -41.2713 -39.5688 -36.6355
   -34.6649 -32.0814

     occupation numbers 
     1.0000   1.0000   1.0000   0.9997   0.0000   0.0000   0.0000   0.0000
     0.0000   0.0000

          k = 0.2000 0.0385 0.0000 (  6491 PWs)   bands (ev):

   -62.7906 -53.7117 -48.0304 -47.4514 -44.7053 -40.9829 -39.6717 -36.6570
   -34.6540 -32.0746

     occupation numbers 
     1.0000   1.0000   1.0000   0.9999   0.0000   0.0000   0.0000   0.0000
     0.0000   0.0000

          k = 0.2667 0.1540 0.0000 (  6492 PWs)   bands (ev):

   -61.7402 -52.7689 -50.4810 -47.0185 -45.7278 -41.7968 -39.7083 -36.9651
   -34.3960 -31.5690

     occupation numbers 
     1.0000   1.0000   1.0000   0.2394   0.0000   0.0000   0.0000   0.0000
     0.0000   0.0000

          k = 0.2667 0.2309 0.0000 (  6491 PWs)   bands (ev):

   -61.1705 -52.3263 -51.2989 -46.9394 -46.5656 -41.7996 -40.0773 -37.1462
   -34.0830 -31.3571

     occupation numbers 
     1.0000   1.0000   1.0000   0.0629   0.0000   0.0000   0.0000   0.0000
     0.0000   0.0000

          k = 0.2667 0.3079 0.0000 (  6474 PWs)   bands (ev):

   -60.3883 -52.4164 -51.3423 -48.2398 -46.6332 -41.5423 -40.8612 -37.2867
   -33.5246 -30.7295

     occupation numbers 
     1.0000   1.0000   1.0000   1.0000   0.0000   0.0000   0.0000   0.0000
     0.0000   0.0000

          k = 0.2667 0.3849 0.0000 (  6465 PWs)   bands (ev):

   -59.4178 -53.1087 -50.5682 -49.8486 -46.6105 -42.0055 -41.0333 -37.5027
   -32.7756 -29.7398

     occupation numbers 
     1.0000   1.0000   1.0000   1.0000   0.0000   0.0000   0.0000   0.0000
     0.0000   0.0000

          k = 0.2667 0.4619 0.0000 (  6452 PWs)   bands (ev):

   -58.3272 -53.8512 -51.2435 -49.6191 -46.7623 -43.0143 -40.5600 -37.7742
   -32.0320 -29.7922

     occupation numbers 
     1.0000   1.0000   1.0000   1.0000   0.0004   0.0000   0.0000   0.0000
     0.0000   0.0000

          k = 0.2667 0.5389 0.0000 (  6444 PWs)   bands (ev):

   -57.3915 -54.5165 -52.0511 -48.8274 -47.0586 -43.6879 -40.2457 -37.8862
   -31.6060 -30.2687

     occupation numbers 
     1.0000   1.0000   1.0000   1.0000   0.3853   0.0000   0.0000   0.0000
     0.0000   0.0000

          k = 0.2667 0.6158 0.0000 (  6444 PWs)   bands (ev):

   -57.4677 -54.2735 -52.2214 -48.8348 -47.0118 -43.7560 -40.4127 -37.5982
   -31.7740 -30.2387

     occupation numbers 
     1.0000   1.0000   1.0000   1.0000   0.2182   0.0000   0.0000   0.0000
     0.0000   0.0000

          k = 0.2667 0.6928 0.0000 (  6452 PWs)   bands (ev):

   -58.4237 -53.3451 -51.6675 -49.6111 -46.6704 -43.2022 -40.8956 -37.1208
   -32.3191 -29.8469

     occupation numbers 
     1.0000   1.0000   1.0000   1.0000   0.0000   0.0000   0.0000   0.0000
     0.0000   0.0000

          k = 0.2667-0.3849 0.0000 (  6465 PWs)   bands (ev):

   -59.4878 -52.6486 -50.6731 -50.1256 -46.5124 -42.2877 -41.4000 -36.7391
   -33.0145 -29.8898

     occupation numbers 
     1.0000   1.0000   1.0000   1.0000   0.0000   0.0000   0.0000   0.0000
     0.0000   0.0000

          k = 0.2667-0.3079 0.0000 (  6474 PWs)   bands (ev):

   -60.4353 -52.1153 -51.2912 -48.5216 -46.5244 -41.8552 -41.3144 -36.5527
   -33.6697 -30.6936

     occupation numbers 
     1.0000   1.0000   1.0000   1.0000   0.0000   0.0000   0.0000   0.0000
     0.0000   0.0000

          k = 0.2667-0.2309 0.0000 (  6491 PWs)   bands (ev):

   -61.2010 -52.3041 -51.0415 -47.1668 -46.3933 -42.2054 -40.5469 -36.5395
   -34.1391 -31.2414

     occupation numbers 
     1.0000   1.0000   1.0000   0.7975   0.0000   0.0000   0.0000   0.0000
     0.0000   0.0000

          k = 0.2667-0.1540 0.0000 (  6492 PWs)   bands (ev):

   -61.7585 -52.7690 -50.2695 -47.0627 -45.6297 -42.2798 -40.0242 -36.5973
   -34.4084 -31.4923

     occupation numbers 
     1.0000   1.0000   1.0000   0.4017   0.0000   0.0000   0.0000   0.0000
     0.0000   0.0000

          k = 0.2667-0.0770 0.0000 (  6480 PWs)   bands (ev):

   -62.0952 -53.0735 -49.5433 -47.1661 -45.5988 -41.6972 -39.8915 -36.6097
   -34.5024 -31.5811

     occupation numbers 
     1.0000   1.0000   1.0000   0.7954   0.0000   0.0000   0.0000   0.0000
     0.0000   0.0000

          k = 0.2667 0.0000 0.0000 (  6457 PWs)   bands (ev):

   -62.2054 -53.1769 -49.2528 -47.2018 -45.7948 -41.0478 -40.0794 -36.6031
   -34.4960 -31.6013

     occupation numbers 
     1.0000   1.0000   1.0000   0.8843   0.0000   0.0000   0.0000   0.0000
     0.0000   0.0000

          k = 0.2667 0.0770 0.0000 (  6480 PWs)   bands (ev):

   -62.0867 -53.0726 -49.6711 -47.1531 -45.6428 -41.3258 -39.8478 -36.7261
   -34.4934 -31.5963

     occupation numbers 
     1.0000   1.0000   1.0000   0.7550   0.0000   0.0000   0.0000   0.0000
     0.0000   0.0000

          k = 0.3333 0.1925 0.0000 (  6484 PWs)   bands (ev):

   -60.6983 -52.6518 -51.6588 -46.8686 -46.2933 -42.2901 -39.8932 -37.7153
   -33.8692 -31.4894

     occupation numbers 
     1.0000   1.0000   1.0000   0.0117   0.0000   0.0000   0.0000   0.0000
     0.0000   0.0000

          k = 0.3333 0.2694 0.0000 (  6487 PWs)   bands (ev):

   -60.0256 -53.4574 -51.1400 -47.2095 -46.8632 -42.0161 -40.4511 -37.8362
   -33.5669 -31.2249

     occupation numbers 
     1.0000   1.0000   1.0000   0.8991   0.0101   0.0000   0.0000   0.0000
     0.0000   0.0000

          k = 0.3333 0.3464 0.0000 (  6494 PWs)   bands (ev):

   -59.1532 -54.1965 -50.4130 -48.6355 -47.0118 -41.4699 -41.2643 -37.9537
   -32.9324 -30.4338

     occupation numbers 
     1.0000   1.0000   1.0000   1.0000   0.2183   0.0000   0.0000   0.0000
     0.0000   0.0000

          k = 0.3333 0.4234 0.0000 (  6474 PWs)   bands (ev):

   -58.1213 -54.8006 -50.3048 -49.4761 -47.1921 -42.3752 -40.6963 -38.1452
   -32.0874 -29.7596

     occupation numbers 
     1.0000   1.0000   1.0000   1.0000   0.8634   0.0000   0.0000   0.0000
     0.0000   0.0000

          k = 0.3333 0.5004 0.0000 (  6444 PWs)   bands (ev):

   -57.0617 -55.2572 -51.6274 -48.6919 -47.3859 -43.3158 -40.1231 -38.2973
   -31.4176 -30.1734

     occupation numbers 
     1.0000   1.0000   1.0000   1.0000   0.9991   0.0000   0.0000   0.0000
     0.0000   0.0000

          k = 0.3333 0.5774 0.0000 (  6450 PWs)   bands (ev):

   -56.6220 -55.2632 -52.3210 -48.3098 -47.4422 -43.8005 -40.0232 -38.1433
   -31.2770 -30.3872

     occupation numbers 
     1.0000   1.0000   1.0000   1.0000   0.9999   0.0000   0.0000   0.0000
     0.0000   0.0000

          k = 0.3333 0.6543 0.0000 (  6444 PWs)   bands (ev):

   -57.2975 -54.7741 -51.8763 -48.7489 -47.2199 -43.5502 -40.4188 -37.7436
   -31.6404 -30.2069

     occupation numbers 
     1.0000   1.0000   1.0000   1.0000   0.9170   0.0000   0.0000   0.0000
     0.0000   0.0000

          k = 0.3333 0.7313 0.0000 (  6474 PWs)   bands (ev):

   -58.2874 -54.3546 -50.6031 -49.4730 -47.0262 -42.8073 -41.0142 -37.3773
   -32.3474 -29.8093

     occupation numbers 
     1.0000   1.0000   1.0000   1.0000   0.2647   0.0000   0.0000   0.0000
     0.0000   0.0000

          k = 0.3333-0.3464 0.0000 (  6494 PWs)   bands (ev):

   -59.2580 -53.8390 -50.4745 -48.7961 -46.8671 -42.0311 -41.6120 -37.1285
   -33.1183 -30.2542

     occupation numbers 
     1.0000   1.0000   1.0000   1.0000   0.0112   0.0000   0.0000   0.0000
     0.0000   0.0000

          k = 0.3333-0.2694 0.0000 (  6487 PWs)   bands (ev):

   -60.0914 -53.1728 -51.1614 -47.3755 -46.6695 -42.3560 -41.2029 -37.0201
   -33.6479 -30.9222

     occupation numbers 
     1.0000   1.0000   1.0000   0.9987   0.0000   0.0000   0.0000   0.0000
     0.0000   0.0000

          k = 0.3333-0.1925 0.0000 (  6484 PWs)   bands (ev):

   -60.7385 -52.4535 -51.6386 -46.9526 -46.1029 -42.7189 -40.5847 -37.0438
   -33.8965 -31.1830

     occupation numbers 
     1.0000   1.0000   1.0000   0.0816   0.0000   0.0000   0.0000   0.0000
     0.0000   0.0000

          k = 0.3333-0.1155 0.0000 (  6491 PWs)   bands (ev):

   -61.1767 -52.3239 -51.3049 -46.9945 -46.2104 -42.3079 -40.2116 -37.0582
   -34.0049 -31.0926

     occupation numbers 
     1.0000   1.0000   1.0000   0.1689   0.0000   0.0000   0.0000   0.0000
     0.0000   0.0000

          k = 0.3333-0.0385 0.0000 (  6480 PWs)   bands (ev):

   -61.3949 -52.4759 -50.7178 -47.1453 -46.6352 -41.4923 -40.3536 -36.9585
   -34.0359 -30.9702

     occupation numbers 
     1.0000   1.0000   1.0000   0.7290   0.0000   0.0000   0.0000   0.0000
     0.0000   0.0000

          k = 0.3333 0.0385 0.0000 (  6480 PWs)   bands (ev):

   -61.3880 -52.4773 -50.7862 -47.0671 -46.7151 -41.2787 -40.3631 -37.0218
   -34.0316 -30.9916

     occupation numbers 
     1.0000   1.0000   1.0000   0.4194   0.0001   0.0000   0.0000   0.0000
     0.0000   0.0000

          k = 0.3333 0.1155 0.0000 (  6491 PWs)   bands (ev):

   -61.1550 -52.3453 -51.4474 -46.8911 -46.3760 -41.9237 -39.8892 -37.3835
   -33.9929 -31.2462

     occupation numbers 
     1.0000   1.0000   1.0000   0.0210   0.0000   0.0000   0.0000   0.0000
     0.0000   0.0000

          k = 0.4000 0.2309 0.0000 (  6490 PWs)   bands (ev):

   -59.4419 -54.4922 -50.6798 -47.2349 -46.7245 -42.2476 -40.1697 -38.5660
   -33.5329 -31.2448

     occupation numbers 
     1.0000   1.0000   1.0000   0.9383   0.0001   0.0000   0.0000   0.0000
     0.0000   0.0000

          k = 0.4000 0.3079 0.0000 (  6503 PWs)   bands (ev):

   -58.6771 -55.3103 -50.0682 -47.5605 -47.4496 -41.6603 -40.8441 -38.6100
   -33.3239 -30.7168

     occupation numbers 
     1.0000   1.0000   1.0000   1.0000   0.9999   0.0000   0.0000   0.0000
     0.0000   0.0000

          k = 0.4000 0.3849 0.0000 (  6490 PWs)   bands (ev):

   -57.7365 -55.9650 -49.4445 -48.7346 -47.8105 -41.6977 -40.7594 -38.7794
   -32.5688 -30.0112

     occupation numbers 
     1.0000   1.0000   1.0000   1.0000   1.0000   0.0000   0.0000   0.0000
     0.0000   0.0000

          k = 0.4000 0.4619 0.0000 (  6484 PWs)   bands (ev):

   -56.7036 -56.4263 -50.3356 -48.7139 -47.8650 -42.5496 -40.0045 -38.9554
   -31.6437 -30.0280

     occupation numbers 
     1.0000   1.0000   1.0000   1.0000   1.0000   0.0000   0.0000   0.0000
     0.0000   0.0000

          k = 0.4000 0.5389 0.0000 (  6444 PWs)   bands (ev):

   -56.7603 -55.7397 -51.4263 -48.6058 -47.5402 -43.2419 -39.7409 -38.8030
   -31.1643 -30.2606

     occupation numbers 
     1.0000   1.0000   1.0000   1.0000   1.0000   0.0000   0.0000   0.0000
     0.0000   0.0000

          k = 0.4000 0.6158 0.0000 (  6444 PWs)   bands (ev):

   -56.9826 -55.4095 -51.5320 -48.6654 -47.4112 -43.4064 -39.9768 -38.4307
   -31.2170 -30.3230

     occupation numbers 
     1.0000   1.0000   1.0000   1.0000   0.9996   0.0000   0.0000   0.0000
     0.0000   0.0000

          k = 0.4000 0.6928 0.0000 (  6484 PWs)   bands (ev):

   -57.3578 -55.5705 -50.5375 -48.8455 -47.5710 -43.0029 -40.4477 -38.1360
   -31.8076 -30.0650

     occupation numbers 
     1.0000   1.0000   1.0000   1.0000   1.0000   0.0000   0.0000   0.0000
     0.0000   0.0000

          k = 0.4000 0.7698 0.0000 (  6490 PWs)   bands (ev):

   -58.0566 -55.4351 -49.6489 -48.7757 -47.5680 -42.3992 -41.1412 -37.8674
   -32.6792 -29.8314

     occupation numbers 
     1.0000   1.0000   1.0000   1.0000   1.0000   0.0000   0.0000   0.0000
     0.0000   0.0000

          k = 0.4000-0.3079 0.0000 (  6503 PWs)   bands (ev):

   -58.8475 -54.9403 -50.1473 -47.5821 -47.2924 -42.0554 -41.7308 -37.6576
   -33.3006 -30.3997

     occupation numbers 
     1.0000   1.0000   1.0000   1.0000   0.9838   0.0000   0.0000   0.0000
     0.0000   0.0000

          k = 0.4000-0.2309 0.0000 (  6490 PWs)   bands (ev):

   -59.5388 -54.2109 -50.7191 -47.2286 -46.5638 -42.7121 -41.1182 -37.6261
   -33.4620 -30.8789

     occupation numbers 
     1.0000   1.0000   1.0000   0.9299   0.0000   0.0000   0.0000   0.0000
     0.0000   0.0000

          k = 0.4000-0.1540 0.0000 (  6487 PWs)   bands (ev):

   -60.0566 -53.3539 -51.1517 -47.3140 -46.4911 -42.7251 -40.5091 -37.7064
   -33.3711 -30.8600

     occupation numbers 
     1.0000   1.0000   1.0000   0.9909   0.0000   0.0000   0.0000   0.0000
     0.0000   0.0000

          k = 0.4000-0.0770 0.0000 (  6474 PWs)   bands (ev):

   -60.3713 -52.5775 -51.3643 -47.9509 -46.5625 -42.1674 -40.4032 -37.6051
   -33.3090 -30.3841

     occupation numbers 
     1.0000   1.0000   1.0000   1.0000   0.0000   0.0000   0.0000   0.0000
     0.0000   0.0000

          k = 0.4000 0.0000 0.0000 (  6482 PWs)   bands (ev):

   -60.4699 -52.2991 -51.3693 -48.3399 -46.5999 -41.5649 -40.6996 -37.5056
   -33.2990 -30.1483

     occupation numbers 
     1.0000   1.0000   1.0000   1.0000   0.0000   0.0000   0.0000   0.0000
     0.0000   0.0000

          k = 0.4000 0.0770 0.0000 (  6474 PWs)   bands (ev):

   -60.3470 -52.7054 -51.3656 -47.8624 -46.6786 -41.7977 -40.3272 -37.8112
   -33.3074 -30.5151

     occupation numbers 
     1.0000   1.0000   1.0000   1.0000   0.0000   0.0000   0.0000   0.0000
     0.0000   0.0000

          k = 0.4000 0.1540 0.0000 (  6487 PWs)   bands (ev):

   -60.0027 -53.5679 -51.1331 -47.1765 -46.7523 -42.2428 -39.8945 -38.3661
   -33.3888 -31.2004

     occupation numbers 
     1.0000   1.0000   1.0000   0.8248   0.0003   0.0000   0.0000   0.0000
     0.0000   0.0000

          k = 0.4667 0.2694 0.0000 (  6524 PWs)   bands (ev):

   -57.9986 -56.2765 -49.6063 -48.0590 -46.9522 -41.7467 -40.5975 -39.1258
   -33.5319 -30.4582

     occupation numbers 
     1.0000   1.0000   1.0000   1.0000   0.0811   0.0000   0.0000   0.0000
     0.0000   0.0000

          k = 0.4667 0.3464 0.0000 (  6480 PWs)   bands (ev):

   -57.3192 -56.8574 -49.2685 -48.2757 -47.5015 -41.5329 -40.6588 -39.2218
   -33.2415 -30.0925

     occupation numbers 
     1.0000   1.0000   1.0000   1.0000   1.0000   0.0000   0.0000   0.0000
     0.0000   0.0000

          k = 0.4667 0.4234 0.0000 (  6490 PWs)   bands (ev):

   -57.6477 -56.1005 -49.3860 -48.7380 -47.8084 -41.9399 -39.9228 -39.4638
   -32.4114 -30.1672

     occupation numbers 
     1.0000   1.0000   1.0000   1.0000   1.0000   0.0000   0.0000   0.0000
     0.0000   0.0000

          k = 0.4667 0.5004 0.0000 (  6474 PWs)   bands (ev):

   -57.9862 -55.1260 -50.0633 -49.4511 -47.2897 -42.4328 -39.9773 -38.9555
   -31.7533 -29.9397

     occupation numbers 
     1.0000   1.0000   1.0000   1.0000   0.9826   0.0000   0.0000   0.0000
     0.0000   0.0000

          k = 0.4667 0.5774 0.0000 (  6452 PWs)   bands (ev):

   -58.1348 -54.5468 -50.6777 -49.5606 -46.9936 -42.7912 -40.1257 -38.5334
   -31.6147 -29.8268

     occupation numbers 
     1.0000   1.0000   1.0000   1.0000   0.1665   0.0000   0.0000   0.0000
     0.0000   0.0000

          k = 0.4667 0.6543 0.0000 (  6474 PWs)   bands (ev):

   -58.1052 -54.8690 -50.2006 -49.4762 -47.1302 -42.8301 -40.2030 -38.4581
   -31.7768 -30.0210

     occupation numbers 
     1.0000   1.0000   1.0000   1.0000   0.6743   0.0000   0.0000   0.0000
     0.0000   0.0000

          k = 0.4667 0.7313 0.0000 (  6490 PWs)   bands (ev):

   -57.9686 -55.6019 -49.5556 -48.8089 -47.5277 -42.6107 -40.5875 -38.3782
   -32.4190 -30.0780

     occupation numbers 
     1.0000   1.0000   1.0000   1.0000   1.0000   0.0000   0.0000   0.0000
     0.0000   0.0000

          k = 0.4667 0.8083 0.0000 (  6480 PWs)   bands (ev):

   -57.9626 -56.0301 -49.4843 -48.0171 -47.4498 -42.2542 -41.4081 -38.1417
   -33.1095 -29.8445

     occupation numbers 
     1.0000   1.0000   1.0000   1.0000   0.9999   0.0000   0.0000   0.0000
     0.0000   0.0000

          k = 0.4667-0.2694 0.0000 (  6524 PWs)   bands (ev):

   -58.3265 -55.7674 -49.7444 -47.8429 -46.8916 -42.2831 -41.6336 -38.0382
   -33.3307 -30.1832

     occupation numbers 
     1.0000   1.0000   1.0000   1.0000   0.0213   0.0000   0.0000   0.0000
     0.0000   0.0000

          k = 0.4667-0.1925 0.0000 (  6503 PWs)   bands (ev):

   -58.8028 -55.0527 -50.1233 -47.7389 -47.0249 -42.6435 -40.8670 -38.1703
   -33.0459 -30.5251

     occupation numbers 
     1.0000   1.0000   1.0000   1.0000   0.2603   0.0000   0.0000   0.0000
     0.0000   0.0000

          k = 0.4667-0.1155 0.0000 (  6494 PWs)   bands (ev):

   -59.1684 -54.1824 -50.4199 -48.5615 -46.8488 -42.5861 -40.3797 -38.2326
   -32.6161 -30.2971

     occupation numbers 
     1.0000   1.0000   1.0000   1.0000   0.0067   0.0000   0.0000   0.0000
     0.0000   0.0000

          k = 0.4667-0.0385 0.0000 (  6465 PWs)   bands (ev):

   -59.3517 -53.5046 -50.5481 -49.4288 -46.6695 -42.2870 -40.4871 -38.0691
   -32.4474 -29.5144

     occupation numbers 
     1.0000   1.0000   1.0000   1.0000   0.0000   0.0000   0.0000   0.0000
     0.0000   0.0000

          k = 0.4667 0.0385 0.0000 (  6465 PWs)   bands (ev):

   -59.3287 -53.5985 -50.5369 -49.3740 -46.7353 -42.0329 -40.5245 -38.1889
   -32.4491 -29.4928

     occupation numbers 
     1.0000   1.0000   1.0000   1.0000   0.0001   0.0000   0.0000   0.0000
     0.0000   0.0000

          k = 0.4667 0.1155 0.0000 (  6494 PWs)   bands (ev):

   -59.0921 -54.4070 -50.3837 -48.4576 -47.0375 -42.0360 -40.1068 -38.7720
   -32.6263 -30.4770

     occupation numbers 
     1.0000   1.0000   1.0000   1.0000   0.3046   0.0000   0.0000   0.0000
     0.0000   0.0000

          k = 0.4667 0.1925 0.0000 (  6503 PWs)   bands (ev):

   -58.6438 -55.3843 -50.0525 -47.6991 -47.2519 -42.0180 -39.9446 -39.2811
   -33.1660 -30.7897

     occupation numbers 
     1.0000   1.0000   1.0000   1.0000   0.9570   0.0000   0.0000   0.0000
     0.0000   0.0000

     the Fermi energy is   -47.0867 ev

!    total energy              =     -36.40272683 Ry
     total all-electron energy =      -151.930921 Ry
     estimated scf accuracy    <          3.5E-09 Ry
     smearing contrib. (-TS)   =      -0.00142254 Ry
     internal energy E=F+TS    =     -36.40130429 Ry

     The total energy is F=E-TS. E is the sum of the following terms:
     one-electron contribution =    -272.12589450 Ry
     hartree contribution      =     124.85256154 Ry
     xc contribution           =      -8.56067525 Ry
     ewald contribution        =     106.75085917 Ry
     DFT-D3 Dispersion         =      -0.00556561 Ry
     electric field correction =      25.06423471 Ry
     one-center paw contrib.   =     -12.37682435 Ry
      -> PAW hartree energy AE =       5.98190323 Ry
      -> PAW hartree energy PS =      -5.97243816 Ry
      -> PAW xc energy AE      =      -9.79992865 Ry
      -> PAW xc energy PS      =       3.60307272 Ry
      -> total E_H with PAW    =     124.86202661 Ry
      -> total E_XC with PAW   =     -14.75753119 Ry

     convergence has been achieved in  14 iterations

     negative rho (up, down):  1.429E-04 0.000E+00

     Forces acting on atoms (cartesian axes, Ry/au):

     atom    1 type  1   force =     0.01900317    0.03479538    0.22280609
     atom    2 type  1   force =    -0.01900317   -0.03479538   -0.22280609
     The non-local contrib.  to forces
     atom    1 type  1   force =     0.00855113    0.00282945    0.79914714
     atom    2 type  1   force =    -0.06162998   -0.05973461   -0.63191992
     The ionic contribution  to forces
     atom    1 type  1   force =    -0.16972357   -0.19127058   -8.74659456
     atom    2 type  1   force =     0.16972357    0.19127058    8.74659456
     The local contribution  to forces
     atom    1 type  1   force =     0.17938011    0.22208533    7.40117507
     atom    2 type  1   force =    -0.12744198   -0.16647231   -9.13245871
     The core correction contribution to forces
     atom    1 type  1   force =     0.00055606    0.00069299   -0.01367209
     atom    2 type  1   force =     0.00058903    0.00061787    0.01036929
     The Hubbard contrib.    to forces
     atom    1 type  1   force =     0.00000000    0.00000000    0.00000000
     atom    2 type  1   force =     0.00000000    0.00000000    0.00000000
     The SCF correction term to forces
     atom    1 type  1   force =    -0.00000140    0.00000098   -0.00000902
     atom    2 type  1   force =    -0.00000000   -0.00000315   -0.00001589

     DFT-D3 dispersion contribution to forces:
     atom    1 type  1   force =     0.00024232    0.00046548   -0.00093253
     atom    2 type  1   force =    -0.00024232   -0.00046548    0.00093253

     Total force =     0.320045     Total SCF correction =     0.000019

     DFT-D3 dispersion Force =     0.001513

     Writing all to output data dir /home/ubuntu/projects/Graphene-Band-Structure-Quantum-Espresso/outputs/field_0.1/bottom/data/bottom.save/ :
     XML data file, charge density, pseudopotentials, collected wavefunctions

     init_run     :      3.46s CPU      3.80s WALL (       1 calls)
     electrons    :     71.65s CPU     73.07s WALL (       1 calls)
     forces       :      0.54s CPU      0.58s WALL (       1 calls)
     force_dftd3  :      0.02s CPU      0.02s WALL (       1 calls)

     Called by init_run:
     wfcinit      :      1.24s CPU      1.30s WALL (       1 calls)
     wfcinit:atom :      0.02s CPU      0.02s WALL (      29 calls)
     wfcinit:wfcr :      1.16s CPU      1.22s WALL (      29 calls)
     potinit      :      0.62s CPU      0.77s WALL (       1 calls)
     hinit0       :      0.99s CPU      1.04s WALL (       1 calls)

     Called by electrons:
     c_bands      :     62.12s CPU     63.18s WALL (      14 calls)
     sum_band     :      6.66s CPU      6.84s WALL (      14 calls)
     v_of_rho     :      1.45s CPU      1.68s WALL (      15 calls)
     v_h          :      0.07s CPU      0.08s WALL (      15 calls)
     v_xc         :      1.47s CPU      1.71s WALL (      16 calls)
     newd         :      0.43s CPU      0.45s WALL (      15 calls)
     PAW_pot      :      0.83s CPU      0.85s WALL (      15 calls)
     mix_rho      :      0.20s CPU      0.20s WALL (      14 calls)
     energy_dftd3 :      0.02s CPU      0.02s WALL (       1 calls)

     Called by c_bands:
     init_us_2    :      0.92s CPU      0.95s WALL (     870 calls)
     cegterg      :     46.85s CPU     47.70s WALL (     406 calls)

     Called by sum_band:
     sum_band:wei :      0.01s CPU      0.01s WALL (      14 calls)
     sum_band:loo :      5.29s CPU      5.40s WALL (      14 calls)
     sum_band:buf :      0.07s CPU      0.07s WALL (     406 calls)
     sum_band:ini :      0.41s CPU      0.42s WALL (     406 calls)
     sum_band:cal :      0.81s CPU      0.82s WALL (     406 calls)
     sum_band:bec :      0.00s CPU      0.00s WALL (     406 calls)
     addusdens    :      0.35s CPU      0.38s WALL (      14 calls)
     addusd:skk   :      0.00s CPU      0.00s WALL (      14 calls)

     Called by *egterg:
     cdiaghg      :      0.33s CPU      0.34s WALL (    2104 calls)
     cegterg:over :      3.81s CPU      3.87s WALL (    1698 calls)
     cegterg:upda :      2.45s CPU      2.49s WALL (    1698 calls)
     cegterg:last :      5.59s CPU      5.71s WALL (     997 calls)
     h_psi        :     31.38s CPU     31.99s WALL (    2133 calls)
     s_psi        :      2.61s CPU      2.67s WALL (    2133 calls)
     g_psi        :      0.26s CPU      0.26s WALL (    1698 calls)

     Called by h_psi:
     h_psi:calbec :      2.57s CPU      2.64s WALL (    2133 calls)
     vloc_psi     :     26.00s CPU     26.49s WALL (    2133 calls)
     add_vuspsi   :      2.65s CPU      2.70s WALL (    2133 calls)

     General routines
     calbec       :      3.64s CPU      3.73s WALL (    2655 calls)
     fft          :      1.24s CPU      1.27s WALL (     204 calls)
     ffts         :      0.40s CPU      0.40s WALL (      29 calls)
     fftw         :     26.22s CPU     26.71s WALL (   29388 calls)
     interpolate  :      0.43s CPU      0.44s WALL (      15 calls)

     Parallel routines

     PAW routines
     PAW_pot      :      0.83s CPU      0.85s WALL (      15 calls)

     PWSCF        :   1m15.84s CPU   1m17.74s WALL


   This run was terminated on:  20:29:10  19Sep2026            

=------------------------------------------------------------------------------=
   JOB DONE.
=------------------------------------------------------------------------------=
Note: The following floating-point exceptions are signalling: IEEE_DENORMAL
Note: The following floating-point exceptions are signalling: IEEE_DENORMAL
Note: The following floating-point exceptions are signalling: IEEE_DENORMAL
