
     Program PWSCF v.7.6 starts on 15Sep2026 at  2:42: 4 

     This program is part of the open-source Quantum ESPRESSO suite
     for quantum simulation of materials; please cite
         "P. Giannozzi et al., J. Phys.:Condens. Matter 21 395502 (2009);
         "P. Giannozzi et al., J. Phys.:Condens. Matter 29 465901 (2017);
         "P. Giannozzi et al., J. Chem. Phys. 152 154105 (2020);
          URL http://www.quantum-espresso.org", 
     in publications or presentations arising from this work. More details at
     http://www.quantum-espresso.org/quote

     Parallel version (MPI), running on     4 processors

     MPI processes distributed on     1 nodes
     2940 MiB available memory on the printing compute node when the environment starts

     Waiting for input...
     Reading input from standard input
Warning: card &IONS ignored
Warning: card &CELL ignored
Warning: card &FCP ignored
Warning: card &RISM ignored

     Current dimensions of program PWSCF are:
     Max number of different atomic species (ntypx) = 10
     Max number of k-points (npk) =  40000
     Max angular momentum in pseudopotentials (lmaxx) =  4
     file C.pbe-n-kjpaw_psl.1.0.0.UPF: wavefunction(s)  2S 2P renormalized

     Atomic positions and unit cell read from directory:
     /home/ubuntu/projects/Graphene-Band-Structure-Quantum-Espresso/outputs/field_0/bottom/data/bottom.save/

     Message from routine setup:
     using ibrav=0 with symmetry is DISCOURAGED, use correct ibrav instead

     K-points division:     npool     =       4
     Subspace diagonalization in iterative solution of the eigenvalue problem:
     a serial algorithm will be used


     G-vector sticks info
     --------------------
     sticks:   dense  smooth     PW     G-vecs:    dense   smooth      PW
     Sum         595     361    109               111671    52021    9049

     Using Slab Decomposition



     bravais-lattice index     =            0
     lattice parameter (alat)  =       4.6487  a.u.
     unit-cell volume          =     825.8174 (a.u.)^3
     number of atoms/cell      =            2
     number of atomic types    =            1
     number of electrons       =         8.00
     number of Kohn-Sham states=           12
     kinetic-energy cutoff     =      60.0000  Ry
     charge density cutoff     =     400.0000  Ry
     Exchange-correlation= SLA  PW   PBX  PBC
                           (   1   4   3   4   0   0   0)

     celldm(1)=   4.648726  celldm(2)=   0.000000  celldm(3)=   0.000000
     celldm(4)=   0.000000  celldm(5)=   0.000000  celldm(6)=   0.000000

     crystal axes: (cart. coord. in units of alat)
               a(1) = (   1.000000   0.000000   0.000000 )  
               a(2) = (  -0.500000   0.866025   0.000000 )  
               a(3) = (   0.000000   0.000000   9.491870 )  

     reciprocal axes: (cart. coord. in units 2 pi/alat)
               b(1) = (  1.000000  0.577351 -0.000000 )  
               b(2) = (  0.000000  1.154701  0.000000 )  
               b(3) = (  0.000000 -0.000000  0.105353 )  


     PseudoPot. # 1 for C  read from file:
     /home/ubuntu/projects/Graphene-Band-Structure-Quantum-Espresso/pseudo/C.pbe-n-kjpaw_psl.1.0.0.UPF
     MD5 check sum: 5f16ad9a65e90284d1d834d4ab3b0f7d
     Pseudo is Projector augmented-wave + core cor, Zval =  4.0
     Generated using &quot;atomic&quot; code by A. Dal Corso  v.6.3
     Shape of augmentation charge: PSQ
     Using radial grid of 1073 points,  4 beta functions with: 
                l(1) =   0
                l(2) =   0
                l(3) =   1
                l(4) =   1
     Q(r) pseudized with 0 coefficients 


     atomic species   valence    mass     pseudopotential
     C                 4.00    12.01100     C ( 1.00)

      6 Sym. Ops. (no inversion) found


                                    s                        frac. trans.

      isym =  1     identity                                     

 cryst.   s( 1) = (     1          0          0      )
                  (     0          1          0      )
                  (     0          0          1      )

 cart.    s( 1) = (  1.0000000  0.0000000  0.0000000 )
                  (  0.0000000  1.0000000  0.0000000 )
                  (  0.0000000  0.0000000  1.0000000 )


      isym =  2     120 deg rotation - cryst. axis [0,0,1]       

 cryst.   s( 2) = (     0          1          0      )
                  (    -1         -1          0      )
                  (     0          0          1      )

 cart.    s( 2) = ( -0.5000000 -0.8660258  0.0000000 )
                  (  0.8660250 -0.5000000  0.0000000 )
                  (  0.0000000  0.0000000  1.0000000 )


      isym =  3     120 deg rotation - cryst. axis [0,0,-1]      

 cryst.   s( 3) = (    -1         -1          0      )
                  (     1          0          0      )
                  (     0          0          1      )

 cart.    s( 3) = ( -0.5000000  0.8660258  0.0000000 )
                  ( -0.8660250 -0.5000000  0.0000000 )
                  (  0.0000000  0.0000000  1.0000000 )


      isym =  4     inv. 180 deg rotation - cart. axis [1,0,0]   

 cryst.   s( 4) = (    -1          0          0      )
                  (     1          1          0      )
                  (     0          0          1      )

 cart.    s( 4) = ( -1.0000000  0.0000000  0.0000000 )
                  (  0.0000000  1.0000000  0.0000000 )
                  (  0.0000000  0.0000000  1.0000000 )


      isym =  5     inv. 180 deg rotation - cryst. axis [0,1,0]  

 cryst.   s( 5) = (     1          1          0      )
                  (     0         -1          0      )
                  (     0          0          1      )

 cart.    s( 5) = (  0.5000000  0.8660258  0.0000000 )
                  (  0.8660250 -0.5000000  0.0000000 )
                  (  0.0000000  0.0000000  1.0000000 )


      isym =  6     inv. 180 deg rotation - cryst. axis [1,1,0]  

 cryst.   s( 6) = (     0         -1          0      )
                  (    -1          0          0      )
                  (     0          0          1      )

 cart.    s( 6) = (  0.5000000 -0.8660258  0.0000000 )
                  ( -0.8660250 -0.5000000  0.0000000 )
                  (  0.0000000  0.0000000  1.0000000 )


   Cartesian axes

     site n.     atom                  positions (alat units)
         1        C      tau(   1) = (   0.0000000   0.0000000   3.9155091  )
         2        C      tau(   2) = (   0.5000000   0.2886752   3.9153312  )

   Crystallographic axes

     site n.     atom                  positions (cryst. coord.)
         1        C      tau(   1) = (  0.0000000  0.0000000  0.4125119  )
         2        C      tau(   2) = (  0.6666668  0.3333335  0.4124931  )

     number of k points=    91  Gaussian smearing, width (Ry)=  0.0100
                       cart. coord. in units 2pi/alat
        k(    1) = (   0.0000000   0.0000000   0.0000000), wk =   0.0022222
        k(    2) = (   0.0000000   0.0384900   0.0000000), wk =   0.0133333
        k(    3) = (   0.0000000   0.0769801   0.0000000), wk =   0.0133333
        k(    4) = (   0.0000000   0.1154701   0.0000000), wk =   0.0133333
        k(    5) = (   0.0000000   0.1539601   0.0000000), wk =   0.0133333
        k(    6) = (   0.0000000   0.1924502   0.0000000), wk =   0.0133333
        k(    7) = (   0.0000000   0.2309402   0.0000000), wk =   0.0133333
        k(    8) = (   0.0000000   0.2694303   0.0000000), wk =   0.0133333
        k(    9) = (   0.0000000   0.3079203   0.0000000), wk =   0.0133333
        k(   10) = (   0.0000000   0.3464103   0.0000000), wk =   0.0133333
        k(   11) = (   0.0000000   0.3849004   0.0000000), wk =   0.0133333
        k(   12) = (   0.0000000   0.4233904   0.0000000), wk =   0.0133333
        k(   13) = (   0.0000000   0.4618804   0.0000000), wk =   0.0133333
        k(   14) = (   0.0000000   0.5003705   0.0000000), wk =   0.0133333
        k(   15) = (   0.0000000   0.5388605   0.0000000), wk =   0.0133333
        k(   16) = (   0.0000000  -0.5773505   0.0000000), wk =   0.0066667
        k(   17) = (   0.0333333   0.0577351   0.0000000), wk =   0.0133333
        k(   18) = (   0.0333333   0.0962251   0.0000000), wk =   0.0266667
        k(   19) = (   0.0333333   0.1347151   0.0000000), wk =   0.0266667
        k(   20) = (   0.0333333   0.1732052   0.0000000), wk =   0.0266667
        k(   21) = (   0.0333333   0.2116952   0.0000000), wk =   0.0266667
        k(   22) = (   0.0333333   0.2501852   0.0000000), wk =   0.0266667
        k(   23) = (   0.0333333   0.2886753   0.0000000), wk =   0.0266667
        k(   24) = (   0.0333333   0.3271653   0.0000000), wk =   0.0266667
        k(   25) = (   0.0333333   0.3656553   0.0000000), wk =   0.0266667
        k(   26) = (   0.0333333   0.4041454   0.0000000), wk =   0.0266667
        k(   27) = (   0.0333333   0.4426354   0.0000000), wk =   0.0266667
        k(   28) = (   0.0333333   0.4811254   0.0000000), wk =   0.0266667
        k(   29) = (   0.0333333   0.5196155   0.0000000), wk =   0.0266667
        k(   30) = (   0.0333333   0.5581055   0.0000000), wk =   0.0266667
        k(   31) = (   0.0666667   0.1154701   0.0000000), wk =   0.0133333
        k(   32) = (   0.0666667   0.1539601   0.0000000), wk =   0.0266667
        k(   33) = (   0.0666667   0.1924502   0.0000000), wk =   0.0266667
        k(   34) = (   0.0666667   0.2309402   0.0000000), wk =   0.0266667
        k(   35) = (   0.0666667   0.2694303   0.0000000), wk =   0.0266667
        k(   36) = (   0.0666667   0.3079203   0.0000000), wk =   0.0266667
        k(   37) = (   0.0666667   0.3464103   0.0000000), wk =   0.0266667
        k(   38) = (   0.0666667   0.3849004   0.0000000), wk =   0.0266667
        k(   39) = (   0.0666667   0.4233904   0.0000000), wk =   0.0266667
        k(   40) = (   0.0666667   0.4618804   0.0000000), wk =   0.0266667
        k(   41) = (   0.0666667   0.5003705   0.0000000), wk =   0.0266667
        k(   42) = (   0.0666667   0.5388605   0.0000000), wk =   0.0266667
        k(   43) = (   0.0666667   0.5773505   0.0000000), wk =   0.0133333
        k(   44) = (   0.1000000   0.1732052   0.0000000), wk =   0.0133333
        k(   45) = (   0.1000000   0.2116952   0.0000000), wk =   0.0266667
        k(   46) = (   0.1000000   0.2501852   0.0000000), wk =   0.0266667
        k(   47) = (   0.1000000   0.2886753   0.0000000), wk =   0.0266667
        k(   48) = (   0.1000000   0.3271653   0.0000000), wk =   0.0266667
        k(   49) = (   0.1000000   0.3656553   0.0000000), wk =   0.0266667
        k(   50) = (   0.1000000   0.4041454   0.0000000), wk =   0.0266667
        k(   51) = (   0.1000000   0.4426354   0.0000000), wk =   0.0266667
        k(   52) = (   0.1000000   0.4811254   0.0000000), wk =   0.0266667
        k(   53) = (   0.1000000   0.5196155   0.0000000), wk =   0.0266667
        k(   54) = (   0.1000000   0.5581055   0.0000000), wk =   0.0266667
        k(   55) = (   0.1333333   0.2309402   0.0000000), wk =   0.0133333
        k(   56) = (   0.1333333   0.2694303   0.0000000), wk =   0.0266667
        k(   57) = (   0.1333333   0.3079203   0.0000000), wk =   0.0266667
        k(   58) = (   0.1333333   0.3464103   0.0000000), wk =   0.0266667
        k(   59) = (   0.1333333   0.3849004   0.0000000), wk =   0.0266667
        k(   60) = (   0.1333333   0.4233904   0.0000000), wk =   0.0266667
        k(   61) = (   0.1333333   0.4618804   0.0000000), wk =   0.0266667
        k(   62) = (   0.1333333   0.5003705   0.0000000), wk =   0.0266667
        k(   63) = (   0.1333333   0.5388605   0.0000000), wk =   0.0266667
        k(   64) = (   0.1333333   0.5773505   0.0000000), wk =   0.0133333
        k(   65) = (   0.1666667   0.2886753   0.0000000), wk =   0.0133333
        k(   66) = (   0.1666667   0.3271653   0.0000000), wk =   0.0266667
        k(   67) = (   0.1666667   0.3656553   0.0000000), wk =   0.0266667
        k(   68) = (   0.1666667   0.4041454   0.0000000), wk =   0.0266667
        k(   69) = (   0.1666667   0.4426354   0.0000000), wk =   0.0266667
        k(   70) = (   0.1666667   0.4811254   0.0000000), wk =   0.0266667
        k(   71) = (   0.1666667   0.5196155   0.0000000), wk =   0.0266667
        k(   72) = (   0.1666667   0.5581055   0.0000000), wk =   0.0266667
        k(   73) = (   0.2000000   0.3464103   0.0000000), wk =   0.0133333
        k(   74) = (   0.2000000   0.3849004   0.0000000), wk =   0.0266667
        k(   75) = (   0.2000000   0.4233904   0.0000000), wk =   0.0266667
        k(   76) = (   0.2000000   0.4618804   0.0000000), wk =   0.0266667
        k(   77) = (   0.2000000   0.5003705   0.0000000), wk =   0.0266667
        k(   78) = (   0.2000000   0.5388605   0.0000000), wk =   0.0266667
        k(   79) = (   0.2000000   0.5773505   0.0000000), wk =   0.0133333
        k(   80) = (   0.2333333   0.4041454   0.0000000), wk =   0.0133333
        k(   81) = (   0.2333333   0.4426354   0.0000000), wk =   0.0266667
        k(   82) = (   0.2333333   0.4811254   0.0000000), wk =   0.0266667
        k(   83) = (   0.2333333   0.5196155   0.0000000), wk =   0.0266667
        k(   84) = (   0.2333333   0.5581055   0.0000000), wk =   0.0266667
        k(   85) = (   0.2666667   0.4618804   0.0000000), wk =   0.0133333
        k(   86) = (   0.2666667   0.5003705   0.0000000), wk =   0.0266667
        k(   87) = (   0.2666667   0.5388605   0.0000000), wk =   0.0266667
        k(   88) = (   0.2666667   0.5773505   0.0000000), wk =   0.0133333
        k(   89) = (   0.3000000   0.5196155   0.0000000), wk =   0.0133333
        k(   90) = (   0.3000000   0.5581055   0.0000000), wk =   0.0266667
        k(   91) = (   0.3333333   0.5773505   0.0000000), wk =   0.0044444

                       cryst. coord.
        k(    1) = (   0.0000000   0.0000000   0.0000000), wk =   0.0022222
        k(    2) = (   0.0000000   0.0333333   0.0000000), wk =   0.0133333
        k(    3) = (   0.0000000   0.0666667   0.0000000), wk =   0.0133333
        k(    4) = (   0.0000000   0.1000000   0.0000000), wk =   0.0133333
        k(    5) = (   0.0000000   0.1333333   0.0000000), wk =   0.0133333
        k(    6) = (   0.0000000   0.1666667   0.0000000), wk =   0.0133333
        k(    7) = (   0.0000000   0.2000000   0.0000000), wk =   0.0133333
        k(    8) = (   0.0000000   0.2333333   0.0000000), wk =   0.0133333
        k(    9) = (   0.0000000   0.2666667   0.0000000), wk =   0.0133333
        k(   10) = (   0.0000000   0.3000000   0.0000000), wk =   0.0133333
        k(   11) = (   0.0000000   0.3333333   0.0000000), wk =   0.0133333
        k(   12) = (   0.0000000   0.3666667   0.0000000), wk =   0.0133333
        k(   13) = (   0.0000000   0.4000000   0.0000000), wk =   0.0133333
        k(   14) = (   0.0000000   0.4333333   0.0000000), wk =   0.0133333
        k(   15) = (   0.0000000   0.4666667   0.0000000), wk =   0.0133333
        k(   16) = (   0.0000000  -0.5000000   0.0000000), wk =   0.0066667
        k(   17) = (   0.0333333   0.0333333   0.0000000), wk =   0.0133333
        k(   18) = (   0.0333333   0.0666667   0.0000000), wk =   0.0266667
        k(   19) = (   0.0333333   0.1000000   0.0000000), wk =   0.0266667
        k(   20) = (   0.0333333   0.1333333   0.0000000), wk =   0.0266667
        k(   21) = (   0.0333333   0.1666667   0.0000000), wk =   0.0266667
        k(   22) = (   0.0333333   0.2000000   0.0000000), wk =   0.0266667
        k(   23) = (   0.0333333   0.2333333   0.0000000), wk =   0.0266667
        k(   24) = (   0.0333333   0.2666667   0.0000000), wk =   0.0266667
        k(   25) = (   0.0333333   0.3000000   0.0000000), wk =   0.0266667
        k(   26) = (   0.0333333   0.3333333   0.0000000), wk =   0.0266667
        k(   27) = (   0.0333333   0.3666667   0.0000000), wk =   0.0266667
        k(   28) = (   0.0333333   0.4000000   0.0000000), wk =   0.0266667
        k(   29) = (   0.0333333   0.4333333   0.0000000), wk =   0.0266667
        k(   30) = (   0.0333333   0.4666667   0.0000000), wk =   0.0266667
        k(   31) = (   0.0666667   0.0666667   0.0000000), wk =   0.0133333
        k(   32) = (   0.0666667   0.1000000   0.0000000), wk =   0.0266667
        k(   33) = (   0.0666667   0.1333333   0.0000000), wk =   0.0266667
        k(   34) = (   0.0666667   0.1666667   0.0000000), wk =   0.0266667
        k(   35) = (   0.0666667   0.2000000   0.0000000), wk =   0.0266667
        k(   36) = (   0.0666667   0.2333333   0.0000000), wk =   0.0266667
        k(   37) = (   0.0666667   0.2666667   0.0000000), wk =   0.0266667
        k(   38) = (   0.0666667   0.3000000   0.0000000), wk =   0.0266667
        k(   39) = (   0.0666667   0.3333333   0.0000000), wk =   0.0266667
        k(   40) = (   0.0666667   0.3666667   0.0000000), wk =   0.0266667
        k(   41) = (   0.0666667   0.4000000   0.0000000), wk =   0.0266667
        k(   42) = (   0.0666667   0.4333333   0.0000000), wk =   0.0266667
        k(   43) = (   0.0666667   0.4666667   0.0000000), wk =   0.0133333
        k(   44) = (   0.1000000   0.1000000   0.0000000), wk =   0.0133333
        k(   45) = (   0.1000000   0.1333333   0.0000000), wk =   0.0266667
        k(   46) = (   0.1000000   0.1666667   0.0000000), wk =   0.0266667
        k(   47) = (   0.1000000   0.2000000   0.0000000), wk =   0.0266667
        k(   48) = (   0.1000000   0.2333333   0.0000000), wk =   0.0266667
        k(   49) = (   0.1000000   0.2666667   0.0000000), wk =   0.0266667
        k(   50) = (   0.1000000   0.3000000   0.0000000), wk =   0.0266667
        k(   51) = (   0.1000000   0.3333333   0.0000000), wk =   0.0266667
        k(   52) = (   0.1000000   0.3666667   0.0000000), wk =   0.0266667
        k(   53) = (   0.1000000   0.4000000   0.0000000), wk =   0.0266667
        k(   54) = (   0.1000000   0.4333333   0.0000000), wk =   0.0266667
        k(   55) = (   0.1333333   0.1333333   0.0000000), wk =   0.0133333
        k(   56) = (   0.1333333   0.1666667   0.0000000), wk =   0.0266667
        k(   57) = (   0.1333333   0.2000000   0.0000000), wk =   0.0266667
        k(   58) = (   0.1333333   0.2333333   0.0000000), wk =   0.0266667
        k(   59) = (   0.1333333   0.2666667   0.0000000), wk =   0.0266667
        k(   60) = (   0.1333333   0.3000000   0.0000000), wk =   0.0266667
        k(   61) = (   0.1333333   0.3333333   0.0000000), wk =   0.0266667
        k(   62) = (   0.1333333   0.3666667   0.0000000), wk =   0.0266667
        k(   63) = (   0.1333333   0.4000000   0.0000000), wk =   0.0266667
        k(   64) = (   0.1333333   0.4333333   0.0000000), wk =   0.0133333
        k(   65) = (   0.1666667   0.1666667   0.0000000), wk =   0.0133333
        k(   66) = (   0.1666667   0.2000000   0.0000000), wk =   0.0266667
        k(   67) = (   0.1666667   0.2333333   0.0000000), wk =   0.0266667
        k(   68) = (   0.1666667   0.2666667   0.0000000), wk =   0.0266667
        k(   69) = (   0.1666667   0.3000000   0.0000000), wk =   0.0266667
        k(   70) = (   0.1666667   0.3333333   0.0000000), wk =   0.0266667
        k(   71) = (   0.1666667   0.3666667   0.0000000), wk =   0.0266667
        k(   72) = (   0.1666667   0.4000000   0.0000000), wk =   0.0266667
        k(   73) = (   0.2000000   0.2000000   0.0000000), wk =   0.0133333
        k(   74) = (   0.2000000   0.2333333   0.0000000), wk =   0.0266667
        k(   75) = (   0.2000000   0.2666667   0.0000000), wk =   0.0266667
        k(   76) = (   0.2000000   0.3000000   0.0000000), wk =   0.0266667
        k(   77) = (   0.2000000   0.3333333   0.0000000), wk =   0.0266667
        k(   78) = (   0.2000000   0.3666667   0.0000000), wk =   0.0266667
        k(   79) = (   0.2000000   0.4000000   0.0000000), wk =   0.0133333
        k(   80) = (   0.2333333   0.2333333   0.0000000), wk =   0.0133333
        k(   81) = (   0.2333333   0.2666667   0.0000000), wk =   0.0266667
        k(   82) = (   0.2333333   0.3000000   0.0000000), wk =   0.0266667
        k(   83) = (   0.2333333   0.3333333   0.0000000), wk =   0.0266667
        k(   84) = (   0.2333333   0.3666667   0.0000000), wk =   0.0266667
        k(   85) = (   0.2666667   0.2666667   0.0000000), wk =   0.0133333
        k(   86) = (   0.2666667   0.3000000   0.0000000), wk =   0.0266667
        k(   87) = (   0.2666667   0.3333333   0.0000000), wk =   0.0266667
        k(   88) = (   0.2666667   0.3666667   0.0000000), wk =   0.0133333
        k(   89) = (   0.3000000   0.3000000   0.0000000), wk =   0.0133333
        k(   90) = (   0.3000000   0.3333333   0.0000000), wk =   0.0266667
        k(   91) = (   0.3333333   0.3333333   0.0000000), wk =   0.0044444

     Dense  grid:   111671 G-vectors     FFT dimensions: (  30,  30, 288)

     Smooth grid:    52021 G-vectors     FFT dimensions: (  24,  24, 225)

     Dynamical RAM for                 wfc:       1.19 MB

     Dynamical RAM for     wfc (w. buffer):      28.48 MB

     Dynamical RAM for           str. fact:       1.70 MB

     Dynamical RAM for           local pot:       0.00 MB

     Dynamical RAM for          nlocal pot:       1.58 MB

     Dynamical RAM for                qrad:       0.46 MB

     Dynamical RAM for          rho,v,vnew:      11.04 MB

     Dynamical RAM for           G-vectors:       6.79 MB

     Dynamical RAM for          h,s,v(r/c):       0.03 MB

     Dynamical RAM for          <psi|beta>:       0.00 MB

     Dynamical RAM for                 psi:       2.37 MB

     Dynamical RAM for                hpsi:       2.37 MB

     Dynamical RAM for                spsi:       2.37 MB

     Dynamical RAM for      wfcinit/wfcrot:       2.38 MB

     Dynamical RAM for           addusdens:      20.45 MB

     Estimated static dynamical RAM per process >      63.35 MB

     Estimated max dynamical RAM per process >      83.80 MB

     Estimated total dynamical RAM >     335.20 MB
 ----2D----2D----2D----2D----2D----2D----2D----2D----2D----2D----2D----2D
  The code is running with the 2D cutoff
  Please refer to:
  Sohier, T., Calandra, M., & Mauri, F. (2017), 
  Density functional perturbation theory for gated two-dimensional heterostructures:
  Theoretical developments and application to flexural phonons in graphene.
  Physical Review B, 96(7), 75448. https://doi.org/10.1103/PhysRevB.96.075448
 ----2D----2D----2D----2D----2D----2D----2D----2D----2D----2D----2D----2D

     Check: negative core charge=   -0.000002

     The potential is recalculated from file :
     /home/ubuntu/projects/Graphene-Band-Structure-Quantum-Espresso/outputs/field_0/bottom/data/bottom.save/charge-density


     negative rho (up, down):  1.441E-04 0.000E+00
     Starting wfcs are    8 randomized atomic wfcs +    4 random wfcs
     Checking if some PAW data can be deallocated... 

     Band Structure Calculation
     Davidson diagonalization with overlap

     Computing kpt #:     1  of    23 on this pool
     total cpu time spent up to now is        5.1 secs

     Computing kpt #:     2  of    23 on this pool
     total cpu time spent up to now is        7.6 secs

     Computing kpt #:     3  of    23 on this pool
     total cpu time spent up to now is       10.3 secs

     Computing kpt #:     4  of    23 on this pool
     total cpu time spent up to now is       12.7 secs

     Computing kpt #:     5  of    23 on this pool
     total cpu time spent up to now is       15.2 secs

     Computing kpt #:     6  of    23 on this pool
     total cpu time spent up to now is       18.4 secs

     Computing kpt #:     7  of    23 on this pool
     total cpu time spent up to now is       21.6 secs

     Computing kpt #:     8  of    23 on this pool
     total cpu time spent up to now is       24.9 secs

     Computing kpt #:     9  of    23 on this pool
     total cpu time spent up to now is       27.3 secs

     Computing kpt #:    10  of    23 on this pool
     total cpu time spent up to now is       30.1 secs

     Computing kpt #:    11  of    23 on this pool
     total cpu time spent up to now is       32.7 secs

     Computing kpt #:    12  of    23 on this pool
     total cpu time spent up to now is       36.5 secs

     Computing kpt #:    13  of    23 on this pool
     total cpu time spent up to now is       39.3 secs

     Computing kpt #:    14  of    23 on this pool
     total cpu time spent up to now is       41.9 secs

     Computing kpt #:    15  of    23 on this pool
     total cpu time spent up to now is       44.3 secs

     Computing kpt #:    16  of    23 on this pool
     total cpu time spent up to now is       46.9 secs

     Computing kpt #:    17  of    23 on this pool
     total cpu time spent up to now is       49.5 secs

     Computing kpt #:    18  of    23 on this pool
     total cpu time spent up to now is       53.0 secs

     Computing kpt #:    19  of    23 on this pool
     total cpu time spent up to now is       56.8 secs

     Computing kpt #:    20  of    23 on this pool
     total cpu time spent up to now is       60.0 secs

     Computing kpt #:    21  of    23 on this pool
     total cpu time spent up to now is       63.4 secs

     Computing kpt #:    22  of    23 on this pool
     total cpu time spent up to now is       66.1 secs

     Computing kpt #:    23  of    23 on this pool
     total cpu time spent up to now is       67.9 secs

     ethr =  1.25E-10,  avg # of iterations = 65.8

     total cpu time spent up to now is       69.4 secs

     End of band structure calculation

          k = 0.0000 0.0000 0.0000 (  6469 PWs)   bands (ev):

   -23.8083 -11.8922  -7.2713  -7.2713  -1.0384  -0.4052   0.1201   0.4689
     1.5480   2.0850   3.5720   4.1558

     occupation numbers 
     1.0000   1.0000   1.0000   1.0000   0.0000   0.0000   0.0000   0.0000
     0.0000   0.0000   0.0000   0.0000

          k = 0.0000 0.0385 0.0000 (  6459 PWs)   bands (ev):

   -23.7819 -11.8606  -7.3804  -7.3292  -1.0025  -0.3687   0.1567   0.5053
     1.5843   2.1213   3.6071   4.1730

     occupation numbers 
     1.0000   1.0000   1.0000   1.0000   0.0000   0.0000   0.0000   0.0000
     0.0000   0.0000   0.0000   0.0000

          k = 0.0000 0.0770 0.0000 (  6464 PWs)   bands (ev):

   -23.7029 -11.7660  -7.6968  -7.4951  -0.8948  -0.2593   0.2664   0.6146
     1.6933   2.2300   3.7119   4.2126

     occupation numbers 
     1.0000   1.0000   1.0000   1.0000   0.0000   0.0000   0.0000   0.0000
     0.0000   0.0000   0.0000   0.0000

          k = 0.0000 0.1155 0.0000 (  6488 PWs)   bands (ev):

   -23.5713 -11.6086  -8.1917  -7.7484  -0.7154  -0.0770   0.4494   0.7966
     1.8749   2.4111   3.8833   4.2502

     occupation numbers 
     1.0000   1.0000   1.0000   1.0000   0.0000   0.0000   0.0000   0.0000
     0.0000   0.0000   0.0000   0.0000

          k = 0.0000 0.1540 0.0000 (  6496 PWs)   bands (ev):

   -23.3875 -11.3892  -8.8279  -8.0625  -0.4641   0.1781   0.7055   1.0512
     2.1292   2.6643   4.0913   4.2906

     occupation numbers 
     1.0000   1.0000   1.0000   1.0000   0.0000   0.0000   0.0000   0.0000
     0.0000   0.0000   0.0000   0.0000

          k = 0.0000 0.1925 0.0000 (  6486 PWs)   bands (ev):

   -23.1516 -11.1089  -9.5682  -8.4111  -0.1412   0.5058   1.0347   1.3782
     2.4558   2.9890   4.1461   4.5130

     occupation numbers 
     1.0000   1.0000   1.0000   1.0000   0.0000   0.0000   0.0000   0.0000
     0.0000   0.0000   0.0000   0.0000

          k = 0.0000 0.2309 0.0000 (  6474 PWs)   bands (ev):

   -22.8642 -10.7691 -10.3801  -8.7718   0.2532   0.9056   1.4371   1.7768
     2.8541   3.3819   4.0757   4.4090

     occupation numbers 
     1.0000   1.0000   1.0000   1.0000   0.0000   0.0000   0.0000   0.0000
     0.0000   0.0000   0.0000   0.0000

          k = 0.0000 0.2694 0.0000 (  6494 PWs)   bands (ev):

   -22.5258 -11.2369 -10.3720  -9.1266   0.7188   1.3758   1.9124   2.2438
     3.3206   3.5139   3.8907   3.9716

     occupation numbers 
     1.0000   1.0000   1.0000   1.0000   0.0000   0.0000   0.0000   0.0000
     0.0000   0.0000   0.0000   0.0000

          k = 0.0000 0.3079 0.0000 (  6492 PWs)   bands (ev):

   -22.1373 -12.1177  -9.9208  -9.4619   1.2550   1.9026   2.4604   2.5678
     2.8644   3.7583   3.9532   4.4091

     occupation numbers 
     1.0000   1.0000   1.0000   1.0000   0.0000   0.0000   0.0000   0.0000
     0.0000   0.0000   0.0000   0.0000

          k = 0.0000 0.3464 0.0000 (  6492 PWs)   bands (ev):

   -21.6997 -13.0059  -9.7676  -9.4201   1.6381   1.8610   2.5709   3.0788
     3.4269   3.6945   4.5096   5.0189

     occupation numbers 
     1.0000   1.0000   1.0000   1.0000   0.0000   0.0000   0.0000   0.0000
     0.0000   0.0000   0.0000   0.0000

          k = 0.0000 0.3849 0.0000 (  6484 PWs)   bands (ev):

   -21.2143 -13.8884 -10.0360  -8.8775   0.7193   2.5335   3.2472   3.5578
     3.7976   4.1115   5.1945   5.7004

     occupation numbers 
     1.0000   1.0000   1.0000   1.0000   0.0000   0.0000   0.0000   0.0000
     0.0000   0.0000   0.0000   0.0000

          k = 0.0000 0.4234 0.0000 (  6498 PWs)   bands (ev):

   -20.6835 -14.7543 -10.2618  -8.3054  -0.1882   3.2316   3.5133   4.0050
     4.5516   4.8697   5.9549   6.4510

     occupation numbers 
     1.0000   1.0000   1.0000   1.0000   0.0000   0.0000   0.0000   0.0000
     0.0000   0.0000   0.0000   0.0000

          k = 0.0000 0.4619 0.0000 (  6490 PWs)   bands (ev):

   -20.1111 -15.5932 -10.4410  -7.7262  -1.0404   3.3445   4.1287   4.8342
     5.3904   5.6986   6.7876   7.2679

     occupation numbers 
     1.0000   1.0000   1.0000   1.0000   0.0000   0.0000   0.0000   0.0000
     0.0000   0.0000   0.0000   0.0000

          k = 0.0000 0.5004 0.0000 (  6488 PWs)   bands (ev):

   -19.5063 -16.3913 -10.5708  -7.1836  -1.7840   3.2886   5.0012   5.7320
     6.3026   6.5962   7.6910   8.1444

     occupation numbers 
     1.0000   1.0000   1.0000   1.0000   0.0000   0.0000   0.0000   0.0000
     0.0000   0.0000   0.0000   0.0000

          k = 0.0000 0.5389 0.0000 (  6524 PWs)   bands (ev):

   -18.9033 -17.1116 -10.6494  -6.7628  -2.3277   3.2507   5.9434   6.6939
     7.2865   7.5576   8.0064   8.6664

     occupation numbers 
     1.0000   1.0000   1.0000   1.0000   0.0000   0.0000   0.0000   0.0000
     0.0000   0.0000   0.0000   0.0000

          k = 0.0000-0.5774 0.0000 (  6508 PWs)   bands (ev):

   -18.5356 -17.5185 -10.6757  -6.5959  -2.5360   3.2377   6.8771   7.0220
     7.6435   7.7849   8.3388   8.3487

     occupation numbers 
     1.0000   1.0000   1.0000   1.0000   0.0000   0.0000   0.0000   0.0000
     0.0000   0.0000   0.0000   0.0000

          k = 0.0333 0.0577 0.0000 (  6475 PWs)   bands (ev):

   -23.7292 -11.7975  -7.5892  -7.4451  -0.9307  -0.2958   0.2298   0.5781
     1.6570   2.1938   3.6771   4.2122

     occupation numbers 
     1.0000   1.0000   1.0000   1.0000   0.0000   0.0000   0.0000   0.0000
     0.0000   0.0000   0.0000   0.0000

          k = 0.0333 0.0962 0.0000 (  6479 PWs)   bands (ev):

   -23.6239 -11.6715  -7.9851  -7.6645  -0.7871  -0.1499   0.3762   0.7238
     1.8023   2.3387   3.8164   4.2754

     occupation numbers 
     1.0000   1.0000   1.0000   1.0000   0.0000   0.0000   0.0000   0.0000
     0.0000   0.0000   0.0000   0.0000

          k = 0.0333 0.1347 0.0000 (  6491 PWs)   bands (ev):

   -23.4662 -11.4831  -8.5394  -7.9596  -0.5718   0.0688   0.5957   0.9421
     2.0203   2.5558   4.0184   4.3287

     occupation numbers 
     1.0000   1.0000   1.0000   1.0000   0.0000   0.0000   0.0000   0.0000
     0.0000   0.0000   0.0000   0.0000

          k = 0.0333 0.1732 0.0000 (  6490 PWs)   bands (ev):

   -23.2564 -11.2332  -9.2174  -8.3015  -0.2847   0.3603   0.8884   1.2329
     2.3108   2.8449   4.2127   4.4173

     occupation numbers 
     1.0000   1.0000   1.0000   1.0000   0.0000   0.0000   0.0000   0.0000
     0.0000   0.0000   0.0000   0.0000

          k = 0.0333 0.2117 0.0000 (  6502 PWs)   bands (ev):

   -22.9947 -10.9231  -9.9851  -8.6648   0.0740   0.7241   1.2542   1.5959
     2.6736   3.2047   4.2141   4.7226

     occupation numbers 
     1.0000   1.0000   1.0000   1.0000   0.0000   0.0000   0.0000   0.0000
     0.0000   0.0000   0.0000   0.0000

          k = 0.0333 0.2502 0.0000 (  6482 PWs)   bands (ev):

   -22.6818 -10.8130 -10.5545  -9.0292   0.5041   1.1594   1.6932   2.0297
     3.1074   3.6171   3.9645   4.1326

     occupation numbers 
     1.0000   1.0000   1.0000   1.0000   0.0000   0.0000   0.0000   0.0000
     0.0000   0.0000   0.0000   0.0000

          k = 0.0333 0.2887 0.0000 (  6484 PWs)   bands (ev):

   -22.3184 -11.6771 -10.1301  -9.3792   1.0052   1.6626   2.2049   2.5199
     3.0692   3.6038   4.0308   4.1580

     occupation numbers 
     1.0000   1.0000   1.0000   1.0000   0.0000   0.0000   0.0000   0.0000
     0.0000   0.0000   0.0000   0.0000

          k = 0.0333 0.3272 0.0000 (  6487 PWs)   bands (ev):

   -21.9053 -12.5581  -9.7032  -9.6536   1.5766   2.0235   2.3340   2.7890
     3.1408   3.8582   4.2329   4.7301

     occupation numbers 
     1.0000   1.0000   1.0000   1.0000   0.0000   0.0000   0.0000   0.0000
     0.0000   0.0000   0.0000   0.0000

          k = 0.0333 0.3657 0.0000 (  6486 PWs)   bands (ev):

   -21.4438 -13.4410  -9.9927  -9.1310   1.1645   2.2169   2.9223   3.4387
     3.7600   3.7852   4.8699   5.3759

     occupation numbers 
     1.0000   1.0000   1.0000   1.0000   0.0000   0.0000   0.0000   0.0000
     0.0000   0.0000   0.0000   0.0000

          k = 0.0333 0.4041 0.0000 (  6497 PWs)   bands (ev):

   -20.9356 -14.3136 -10.2416  -8.5717   0.2486   2.9196   3.6374   3.6425
     4.1893   4.5071   5.5929   6.0916

     occupation numbers 
     1.0000   1.0000   1.0000   1.0000   0.0000   0.0000   0.0000   0.0000
     0.0000   0.0000   0.0000   0.0000

          k = 0.0333 0.4426 0.0000 (  6493 PWs)   bands (ev):

   -20.3835 -15.1651 -10.4452  -7.9923  -0.6331   3.4701   3.7743   4.4361
     4.9891   5.3005   6.3895   6.8746

     occupation numbers 
     1.0000   1.0000   1.0000   1.0000   0.0000   0.0000   0.0000   0.0000
     0.0000   0.0000   0.0000   0.0000

          k = 0.0333 0.4811 0.0000 (  6498 PWs)   bands (ev):

   -19.7935 -15.9842 -10.6005  -7.4237  -1.4371   3.4347   4.5817   5.2992
     5.8647   6.1633   7.2576   7.7204

     occupation numbers 
     1.0000   1.0000   1.0000   1.0000   0.0000   0.0000   0.0000   0.0000
     0.0000   0.0000   0.0000   0.0000

          k = 0.0333 0.5196 0.0000 (  6505 PWs)   bands (ev):

   -19.1820 -16.7506 -10.7051  -6.9272  -2.0943   3.3865   5.4902   6.2282
     6.8130   7.0923   8.1937   8.5695

     occupation numbers 
     1.0000   1.0000   1.0000   1.0000   0.0000   0.0000   0.0000   0.0000
     0.0000   0.0000   0.0000   0.0000

          k = 0.0333 0.5581 0.0000 (  6512 PWs)   bands (ev):

   -18.6333 -17.3772 -10.7578  -6.6153  -2.4878   3.3608   6.4605   7.2141
     7.4979   7.8356   8.0560   8.2981

     occupation numbers 
     1.0000   1.0000   1.0000   1.0000   0.0000   0.0000   0.0000   0.0000
     0.0000   0.0000   0.0000   0.0000

          k = 0.0667 0.1155 0.0000 (  6499 PWs)   bands (ev):

   -23.4925 -11.5145  -8.4232  -7.9432  -0.6076   0.0324   0.5591   0.9057
     1.9840   2.5197   3.9900   4.3991

     occupation numbers 
     1.0000   1.0000   1.0000   1.0000   0.0000   0.0000   0.0000   0.0000
     0.0000   0.0000   0.0000   0.0000

          k = 0.0667 0.1540 0.0000 (  6481 PWs)   bands (ev):

   -23.3088 -11.2955  -8.9938  -8.2921  -0.3563   0.2875   0.8153   1.1603
     2.2384   2.7728   4.2246   4.5213

     occupation numbers 
     1.0000   1.0000   1.0000   1.0000   0.0000   0.0000   0.0000   0.0000
     0.0000   0.0000   0.0000   0.0000

          k = 0.0667 0.1925 0.0000 (  6491 PWs)   bands (ev):

   -23.0731 -11.0158  -9.6751  -8.6732  -0.0333   0.6151   1.1446   1.4873
     2.5654   3.0976   4.4409   4.6691

     occupation numbers 
     1.0000   1.0000   1.0000   1.0000   0.0000   0.0000   0.0000   0.0000
     0.0000   0.0000   0.0000   0.0000

          k = 0.0667 0.2309 0.0000 (  6488 PWs)   bands (ev):

   -22.7860 -10.6766 -10.4399  -9.0596   0.3612   1.0148   1.5470   1.8860
     2.9645   3.4908   4.2329   4.4641

     occupation numbers 
     1.0000   1.0000   1.0000   1.0000   0.0000   0.0000   0.0000   0.0000
     0.0000   0.0000   0.0000   0.0000

          k = 0.0667 0.2694 0.0000 (  6480 PWs)   bands (ev):

   -22.4481 -11.2612 -10.2803  -9.4333   0.8269   1.4852   2.0225   2.3531
     3.3869   3.4344   3.9766   4.3958

     occupation numbers 
     1.0000   1.0000   1.0000   1.0000   0.0000   0.0000   0.0000   0.0000
     0.0000   0.0000   0.0000   0.0000

          k = 0.0667 0.3079 0.0000 (  6479 PWs)   bands (ev):

   -22.0601 -12.1157  -9.8300  -9.7819   1.3633   2.0089   2.4971   2.5708
     2.9309   3.9619   4.3071   4.5104

     occupation numbers 
     1.0000   1.0000   1.0000   1.0000   0.0000   0.0000   0.0000   0.0000
     0.0000   0.0000   0.0000   0.0000

          k = 0.0667 0.3464 0.0000 (  6491 PWs)   bands (ev):

   -21.6230 -12.9847 -10.0966  -9.3302   1.5633   1.9699   2.6682   3.1911
     3.5289   4.1433   4.6259   5.1200

     occupation numbers 
     1.0000   1.0000   1.0000   1.0000   0.0000   0.0000   0.0000   0.0000
     0.0000   0.0000   0.0000   0.0000

          k = 0.0667 0.3849 0.0000 (  6493 PWs)   bands (ev):

   -21.1385 -13.8530 -10.3713  -8.7883   0.6581   2.6446   3.3495   3.8684
     4.0567   4.2140   5.3045   5.7994

     occupation numbers 
     1.0000   1.0000   1.0000   1.0000   0.0000   0.0000   0.0000   0.0000
     0.0000   0.0000   0.0000   0.0000

          k = 0.0667 0.4234 0.0000 (  6487 PWs)   bands (ev):

   -20.6087 -14.7083 -10.6011  -8.2164  -0.2335   3.3778   3.9396   4.1065
     4.6624   4.9709   6.0638   6.5460

     occupation numbers 
     1.0000   1.0000   1.0000   1.0000   0.0000   0.0000   0.0000   0.0000
     0.0000   0.0000   0.0000   0.0000

          k = 0.0667 0.4619 0.0000 (  6487 PWs)   bands (ev):

   -20.0375 -15.5394 -10.7829  -7.6368  -1.0736   3.8011   4.2458   4.9333
     5.5000   5.7972   6.8958   7.3557

     occupation numbers 
     1.0000   1.0000   1.0000   1.0000   0.0000   0.0000   0.0000   0.0000
     0.0000   0.0000   0.0000   0.0000

          k = 0.0667 0.5004 0.0000 (  6503 PWs)   bands (ev):

   -19.4345 -16.3315 -10.9143  -7.0923  -1.8100   3.7563   5.1060   5.8261
     6.4117   6.6898   7.7982   8.2156

     occupation numbers 
     1.0000   1.0000   1.0000   1.0000   0.0000   0.0000   0.0000   0.0000
     0.0000   0.0000   0.0000   0.0000

          k = 0.0667 0.5389 0.0000 (  6509 PWs)   bands (ev):

   -18.8336 -17.0472 -10.9937  -6.6683  -2.3515   3.7193   6.0447   6.7775
     7.3949   7.6397   8.0937   8.7726

     occupation numbers 
     1.0000   1.0000   1.0000   1.0000   0.0000   0.0000   0.0000   0.0000
     0.0000   0.0000   0.0000   0.0000

          k = 0.0667 0.5774 0.0000 (  6480 PWs)   bands (ev):

   -18.4680 -17.4513 -11.0203  -6.4993  -2.5600   3.7064   6.9708   7.1216
     7.6661   7.8944   8.4460   8.4569

     occupation numbers 
     1.0000   1.0000   1.0000   1.0000   0.0000   0.0000   0.0000   0.0000
     0.0000   0.0000   0.0000   0.0000

          k = 0.1000 0.1732 0.0000 (  6479 PWs)   bands (ev):

   -23.0993 -11.0467  -9.5455  -8.7025  -0.0691   0.5787   1.1080   1.4510
     2.5293   3.0618   4.4945   4.7632

     occupation numbers 
     1.0000   1.0000   1.0000   1.0000   0.0000   0.0000   0.0000   0.0000
     0.0000   0.0000   0.0000   0.0000

          k = 0.1000 0.2117 0.0000 (  6475 PWs)   bands (ev):

   -22.8382 -10.7378 -10.1923  -9.1386   0.2897   0.9424   1.4740   1.8140
     2.8928   3.4220   4.3817   4.7662

     occupation numbers 
     1.0000   1.0000   1.0000   1.0000   0.0000   0.0000   0.0000   0.0000
     0.0000   0.0000   0.0000   0.0000

          k = 0.1000 0.2502 0.0000 (  6481 PWs)   bands (ev):

   -22.5260 -10.9228 -10.3708  -9.5623   0.7199   1.3779   1.9130   2.2481
     3.3285   3.6043   3.8628   4.8704

     occupation numbers 
     1.0000   1.0000   1.0000   1.0000   0.0000   0.0000   0.0000   0.0000
     0.0000   0.0000   0.0000   0.0000

          k = 0.1000 0.2887 0.0000 (  6477 PWs)   bands (ev):

   -22.1635 -11.7147  -9.9547  -9.9481   1.2211   1.8814   2.4251   2.7003
     2.8413   3.8349   4.3610   4.8422

     occupation numbers 
     1.0000   1.0000   1.0000   1.0000   0.0000   0.0000   0.0000   0.0000
     0.0000   0.0000   0.0000   0.0000

          k = 0.1000 0.3272 0.0000 (  6487 PWs)   bands (ev):

   -21.7515 -12.5440 -10.3075  -9.4735   1.7928   1.8890   2.4845   3.0100
     3.3425   4.4011   4.7710   4.9342

     occupation numbers 
     1.0000   1.0000   1.0000   1.0000   0.0000   0.0000   0.0000   0.0000
     0.0000   0.0000   0.0000   0.0000

          k = 0.1000 0.3657 0.0000 (  6475 PWs)   bands (ev):

   -21.2914 -13.3897 -10.6160  -8.9526   1.0144   2.4343   3.1265   3.6669
     3.9912   4.6231   5.0975   5.5765

     occupation numbers 
     1.0000   1.0000   1.0000   1.0000   0.0000   0.0000   0.0000   0.0000
     0.0000   0.0000   0.0000   0.0000

          k = 0.1000 0.4041 0.0000 (  6485 PWs)   bands (ev):

   -20.7850 -14.2355 -10.8773  -8.3945   0.1337   3.1434   3.8467   4.3794
     4.5479   4.7112   5.8118   6.2853

     occupation numbers 
     1.0000   1.0000   1.0000   1.0000   0.0000   0.0000   0.0000   0.0000
     0.0000   0.0000   0.0000   0.0000

          k = 0.1000 0.4426 0.0000 (  6490 PWs)   bands (ev):

   -20.2353 -15.0675 -11.0890  -7.8151  -0.7183   3.9103   4.4408   4.6361
     5.2095   5.4999   6.6064   7.0556

     occupation numbers 
     1.0000   1.0000   1.0000   1.0000   0.0000   0.0000   0.0000   0.0000
     0.0000   0.0000   0.0000   0.0000

          k = 0.1000 0.4811 0.0000 (  6491 PWs)   bands (ev):

   -19.6482 -15.8721 -11.2492  -7.2442  -1.5020   4.3206   4.8027   5.4905
     6.0834   6.3540   7.4729   7.8748

     occupation numbers 
     1.0000   1.0000   1.0000   1.0000   0.0000   0.0000   0.0000   0.0000
     0.0000   0.0000   0.0000   0.0000

          k = 0.1000 0.5196 0.0000 (  6503 PWs)   bands (ev):

   -19.0405 -16.6275 -11.3568  -6.7422  -2.1498   4.2834   5.6964   6.4016
     7.0306   7.2652   8.4050   8.6715

     occupation numbers 
     1.0000   1.0000   1.0000   1.0000   0.0000   0.0000   0.0000   0.0000
     0.0000   0.0000   0.0000   0.0000

          k = 0.1000 0.5581 0.0000 (  6500 PWs)   bands (ev):

   -18.4967 -17.2459 -11.4107  -6.4236  -2.5425   4.2587   6.6578   7.3357
     7.6826   8.0521   8.1387   8.4873

     occupation numbers 
     1.0000   1.0000   1.0000   1.0000   0.0000   0.0000   0.0000   0.0000
     0.0000   0.0000   0.0000   0.0000

          k = 0.1333 0.2309 0.0000 (  6457 PWs)   bands (ev):

   -22.5520 -10.7770 -10.4010  -9.6398   0.6843   1.3420   1.8766   2.2128
     3.2929   3.6873   3.8179   5.1198

     occupation numbers 
     1.0000   1.0000   1.0000   1.0000   0.0000   0.0000   0.0000   0.0000
     0.0000   0.0000   0.0000   0.0000

          k = 0.1333 0.2694 0.0000 (  6490 PWs)   bands (ev):

   -22.2152 -11.4399 -10.1208 -10.0073   1.1500   1.8129   2.3522   2.6809
     2.9328   3.7651   4.2844   5.3675

     occupation numbers 
     1.0000   1.0000   1.0000   1.0000   0.0000   0.0000   0.0000   0.0000
     0.0000   0.0000   0.0000   0.0000

          k = 0.1333 0.3079 0.0000 (  6480 PWs)   bands (ev):

   -21.8287 -12.1749 -10.5492  -9.5598   1.6865   2.1119   2.3680   2.9009
     3.2275   4.3085   4.8208   5.4293

     occupation numbers 
     1.0000   1.0000   1.0000   1.0000   0.0000   0.0000   0.0000   0.0000
     0.0000   0.0000   0.0000   0.0000

          k = 0.1333 0.3464 0.0000 (  6479 PWs)   bands (ev):

   -21.3936 -12.9600 -10.9168  -9.0630   1.2845   2.2932   2.9744   3.5223
     3.8403   4.9162   5.3908   5.4253

     occupation numbers 
     1.0000   1.0000   1.0000   1.0000   0.0000   0.0000   0.0000   0.0000
     0.0000   0.0000   0.0000   0.0000

          k = 0.1333 0.3849 0.0000 (  6474 PWs)   bands (ev):

   -20.9115 -13.7704 -11.2251  -8.5236   0.4369   2.9690   3.6579   4.2158
     4.5229   5.2638   5.6454   6.0950

     occupation numbers 
     1.0000   1.0000   1.0000   1.0000   0.0000   0.0000   0.0000   0.0000
     0.0000   0.0000   0.0000   0.0000

          k = 0.1333 0.4234 0.0000 (  6485 PWs)   bands (ev):

   -20.3848 -14.5854 -11.4761  -7.9531  -0.4020   3.7120   4.4091   4.9722
     5.1962   5.2732   6.3912   6.8238

     occupation numbers 
     1.0000   1.0000   1.0000   1.0000   0.0000   0.0000   0.0000   0.0000
     0.0000   0.0000   0.0000   0.0000

          k = 0.1333 0.4619 0.0000 (  6494 PWs)   bands (ev):

   -19.8177 -15.3877 -11.6710  -7.3722  -1.2023   4.5141   5.1054   5.2233
     5.8297   6.0870   7.2200   7.5964

     occupation numbers 
     1.0000   1.0000   1.0000   1.0000   0.0000   0.0000   0.0000   0.0000
     0.0000   0.0000   0.0000   0.0000

          k = 0.1333 0.5004 0.0000 (  6495 PWs)   bands (ev):

   -19.2198 -16.1590 -11.8102  -6.8217  -1.9151   5.0021   5.4302   6.0897
     6.7390   6.9549   8.1189   8.3573

     occupation numbers 
     1.0000   1.0000   1.0000   1.0000   0.0000   0.0000   0.0000   0.0000
     0.0000   0.0000   0.0000   0.0000

          k = 0.1333 0.5389 0.0000 (  6490 PWs)   bands (ev):

   -18.6254 -16.8594 -11.8938  -6.3866  -2.4500   4.9777   6.3474   6.9725
     7.7199   7.8383   8.3441   8.7513

     occupation numbers 
     1.0000   1.0000   1.0000   1.0000   0.0000   0.0000   0.0000   0.0000
     0.0000   0.0000   0.0000   0.0000

          k = 0.1333 0.5774 0.0000 (  6486 PWs)   bands (ev):

   -18.2653 -17.2552 -11.9216  -6.2104  -2.6598   4.9656   7.2465   7.4174
     7.5807   8.2227   8.7588   8.7665

     occupation numbers 
     1.0000   1.0000   1.0000   1.0000   0.0000   0.0000   0.0000   0.0000
     0.0000   0.0000   0.0000   0.0000

          k = 0.1667 0.2887 0.0000 (  6494 PWs)   bands (ev):

   -21.8545 -12.0115 -10.6720  -9.5887   1.6510   2.2007   2.3194   2.8644
     3.1881   4.2740   4.7826   5.8324

     occupation numbers 
     1.0000   1.0000   1.0000   1.0000   0.0000   0.0000   0.0000   0.0000
     0.0000   0.0000   0.0000   0.0000

          k = 0.1667 0.3272 0.0000 (  6476 PWs)   bands (ev):

   -21.4448 -12.6568 -11.1611  -9.1184   1.4326   2.2224   2.8964   3.4496
     3.7636   4.8541   5.3486   6.0893

     occupation numbers 
     1.0000   1.0000   1.0000   1.0000   0.0000   0.0000   0.0000   0.0000
     0.0000   0.0000   0.0000   0.0000

          k = 0.1667 0.3657 0.0000 (  6476 PWs)   bands (ev):

   -20.9877 -13.3712 -11.5640  -8.6018   0.6402   2.8634   3.5424   4.1074
     4.4082   5.5014   5.9786   6.1278

     occupation numbers 
     1.0000   1.0000   1.0000   1.0000   0.0000   0.0000   0.0000   0.0000
     0.0000   0.0000   0.0000   0.0000

          k = 0.1667 0.4041 0.0000 (  6474 PWs)   bands (ev):

   -20.4850 -14.1292 -11.8840  -8.0470  -0.1603   3.5726   4.2546   4.8374
     5.1193   6.0199   6.2737   6.6647

     occupation numbers 
     1.0000   1.0000   1.0000   1.0000   0.0000   0.0000   0.0000   0.0000
     0.0000   0.0000   0.0000   0.0000

          k = 0.1667 0.4426 0.0000 (  6475 PWs)   bands (ev):

   -19.9402 -14.9027 -12.1308  -7.4684  -0.9469   4.3480   5.0271   5.6350
     5.8917   5.9720   7.0417   7.3872

     occupation numbers 
     1.0000   1.0000   1.0000   1.0000   0.0000   0.0000   0.0000   0.0000
     0.0000   0.0000   0.0000   0.0000

          k = 0.1667 0.4811 0.0000 (  6474 PWs)   bands (ev):

   -19.3593 -15.6676 -12.3117  -6.8931  -1.6855   5.1826   5.8449   5.8945
     6.5221   6.7133   7.9028   8.0868

     occupation numbers 
     1.0000   1.0000   1.0000   1.0000   0.0000   0.0000   0.0000   0.0000
     0.0000   0.0000   0.0000   0.0000

          k = 0.1667 0.5196 0.0000 (  6492 PWs)   bands (ev):

   -18.7594 -16.3955 -12.4307  -6.3781  -2.3130   5.8020   6.1236   6.6610
     7.4655   7.5502   8.6088   8.8170

     occupation numbers 
     1.0000   1.0000   1.0000   1.0000   0.0000   0.0000   0.0000   0.0000
     0.0000   0.0000   0.0000   0.0000

          k = 0.1667 0.5581 0.0000 (  6496 PWs)   bands (ev):

   -18.2244 -16.9960 -12.4899  -6.0424  -2.7060   5.7952   7.0467   7.2910
     8.0373   8.2905   8.4841   8.8989

     occupation numbers 
     1.0000   1.0000   1.0000   1.0000   0.0000   0.0000   0.0000   0.0000
     0.0000   0.0000   0.0000   0.0000

          k = 0.2000 0.3464 0.0000 (  6482 PWs)   bands (ev):

   -21.0131 -13.1895 -11.7272  -8.6279   0.7122   2.8281   3.5034   4.0711
     4.3696   5.4706   5.9394   6.6722

     occupation numbers 
     1.0000   1.0000   1.0000   1.0000   0.0000   0.0000   0.0000   0.0000
     0.0000   0.0000   0.0000   0.0000

          k = 0.2000 0.3849 0.0000 (  6476 PWs)   bands (ev):

   -20.5353 -13.7984 -12.1951  -8.0946  -0.0280   3.5024   4.1760   4.7652
     5.0413   6.1553   6.5832   6.9230

     occupation numbers 
     1.0000   1.0000   1.0000   1.0000   0.0000   0.0000   0.0000   0.0000
     0.0000   0.0000   0.0000   0.0000

          k = 0.2000 0.4234 0.0000 (  6465 PWs)   bands (ev):

   -20.0141 -14.4768 -12.5496  -7.5281  -0.7732   4.2435   4.9059   5.5313
     5.7718   6.8258   7.0027   7.2557

     occupation numbers 
     1.0000   1.0000   1.0000   1.0000   0.0000   0.0000   0.0000   0.0000
     0.0000   0.0000   0.0000   0.0000

          k = 0.2000 0.4619 0.0000 (  6463 PWs)   bands (ev):

   -19.4541 -15.1923 -12.8045  -6.9461  -1.5011   5.0484   5.6730   6.3664
     6.5461   6.8299   7.7616   7.8892

     occupation numbers 
     1.0000   1.0000   1.0000   1.0000   0.0000   0.0000   0.0000   0.0000
     0.0000   0.0000   0.0000   0.0000

          k = 0.2000 0.5004 0.0000 (  6474 PWs)   bands (ev):

   -18.8652 -15.9084 -12.9768  -6.3845  -2.1711   5.9093   6.4133   6.7617
     7.2861   7.3304   8.3936   8.6492

     occupation numbers 
     1.0000   1.0000   1.0000   1.0000   0.0000   0.0000   0.0000   0.0000
     0.0000   0.0000   0.0000   0.0000

          k = 0.2000 0.5389 0.0000 (  6478 PWs)   bands (ev):

   -18.2814 -16.5742 -13.0769  -5.9249  -2.6976   6.6635   6.8804   6.9495
     8.1048   8.2591   8.7097   8.9282

     occupation numbers 
     1.0000   1.0000   1.0000   1.0000   0.0000   0.0000   0.0000   0.0000
     0.0000   0.0000   0.0000   0.0000

          k = 0.2000 0.5774 0.0000 (  6484 PWs)   bands (ev):

   -17.9278 -16.9560 -13.1098  -5.7312  -2.9139   6.6855   7.1212   7.6834
     7.9003   8.7696   9.1675   9.2958

     occupation numbers 
     1.0000   1.0000   1.0000   1.0000   0.0000   0.0000   0.0000   0.0000
     0.0000   0.0000   0.0000   0.0000

          k = 0.2333 0.4041 0.0000 (  6446 PWs)   bands (ev):

   -20.0389 -14.2781 -12.7473  -7.5483  -0.7113   4.2085   4.8648   5.4952
     5.7313   6.8759   7.2107   7.6158

     occupation numbers 
     1.0000   1.0000   1.0000   1.0000   0.0000   0.0000   0.0000   0.0000
     0.0000   0.0000   0.0000   0.0000

          k = 0.2333 0.4426 0.0000 (  6452 PWs)   bands (ev):

   -19.5020 -14.8391 -13.1698  -6.9743  -1.3978   4.9789   5.5832   6.2967
     6.4601   7.6222   7.7844   7.8320

     occupation numbers 
     1.0000   1.0000   1.0000   1.0000   0.0000   0.0000   0.0000   0.0000
     0.0000   0.0000   0.0000   0.0000

          k = 0.2333 0.4811 0.0000 (  6443 PWs)   bands (ev):

   -18.9314 -15.4682 -13.4563  -6.3936  -2.0651   5.8084   6.2494   7.1668
     7.1932   7.7089   8.2452   8.5443

     occupation numbers 
     1.0000   1.0000   1.0000   1.0000   0.0000   0.0000   0.0000   0.0000
     0.0000   0.0000   0.0000   0.0000

          k = 0.2333 0.5196 0.0000 (  6451 PWs)   bands (ev):

   -18.3439 -16.1163 -13.6302  -5.8541  -2.6637   6.6784   6.6844   7.6441
     7.9483   8.1185   8.8281   9.1588

     occupation numbers 
     1.0000   1.0000   1.0000   1.0000   0.0000   0.0000   0.0000   0.0000
     0.0000   0.0000   0.0000   0.0000

          k = 0.2333 0.5581 0.0000 (  6468 PWs)   bands (ev):

   -17.8191 -16.6776 -13.7124  -5.4782  -3.0698   6.8226   7.5067   7.6863
     8.5218   8.8065   9.1290   9.5421

     occupation numbers 
     1.0000   1.0000   1.0000   1.0000   0.0000   0.0000   0.0000   0.0000
     0.0000   0.0000   0.0000   0.0000

          k = 0.2667 0.4619 0.0000 (  6452 PWs)   bands (ev):

   -18.9538 -15.2581 -13.6802  -6.3975  -2.0258   5.7738   6.1913   7.1326
     7.1466   8.1938   8.3970   8.6456

     occupation numbers 
     1.0000   1.0000   1.0000   1.0000   0.0000   0.0000   0.0000   0.0000
     0.0000   0.0000   0.0000   0.0000

          k = 0.2667 0.5004 0.0000 (  6436 PWs)   bands (ev):

   -18.3798 -15.7615 -14.0309  -5.8217  -2.6364   6.5290   6.6179   7.8665
     8.0338   8.5024   8.7610   9.0891

     occupation numbers 
     1.0000   1.0000   1.0000   1.0000   0.0000   0.0000   0.0000   0.0000
     0.0000   0.0000   0.0000   0.0000

          k = 0.2667 0.5389 0.0000 (  6444 PWs)   bands (ev):

   -17.8109 -16.3093 -14.2231  -5.3106  -3.1679   6.6006   7.4841   8.4238
     8.7233   8.9646   9.1081   9.5633

     occupation numbers 
     1.0000   1.0000   1.0000   1.0000   0.0000   0.0000   0.0000   0.0000
     0.0000   0.0000   0.0000   0.0000

          k = 0.2667 0.5774 0.0000 (  6432 PWs)   bands (ev):

   -17.4564 -16.6612 -14.2831  -5.0655  -3.4197   6.6010   8.2223   8.2693
     8.6549   9.5345   9.8581  10.0182

     occupation numbers 
     1.0000   1.0000   1.0000   1.0000   0.0000   0.0000   0.0000   0.0000
     0.0000   0.0000   0.0000   0.0000

          k = 0.3000 0.5196 0.0000 (  6422 PWs)   bands (ev):

   -17.8154 -16.1184 -14.4550  -5.2516  -3.2016   6.5206   7.4527   8.6910
     8.8662   8.9413   9.2073   9.5452

     occupation numbers 
     1.0000   1.0000   1.0000   1.0000   0.0000   0.0000   0.0000   0.0000
     0.0000   0.0000   0.0000   0.0000

          k = 0.3000 0.5581 0.0000 (  6447 PWs)   bands (ev):

   -17.2960 -16.5315 -14.6713  -4.7629  -3.6865   6.4635   8.2365   8.7623
     9.1776   9.6266   9.9778  10.4066

     occupation numbers 
     1.0000   1.0000   1.0000   1.0000   0.0000   0.0000   0.0000   0.0000
     0.0000   0.0000   0.0000   0.0000

          k = 0.3333 0.5774 0.0000 (  6450 PWs)   bands (ev):

   -16.8526 -16.8525 -14.8463  -4.2194  -4.2192   6.4071   8.7038   8.7039
     9.2816  10.5162  10.5163  10.8685

     occupation numbers 
     1.0000   1.0000   1.0000   0.5004   0.4996   0.0000   0.0000   0.0000
     0.0000   0.0000   0.0000   0.0000

     the Fermi energy is    -4.2193 ev
     (compare with:    -4.2193 eV, computed in scf)

     Writing all to output data dir /home/ubuntu/projects/Graphene-Band-Structure-Quantum-Espresso/outputs/field_0/bottom/data/bottom.save/ :
     XML data file, pseudopotentials, collected wavefunctions

     init_run     :      1.62s CPU      1.74s WALL (       1 calls)
     electrons    :     67.27s CPU     67.53s WALL (       1 calls)

     Called by init_run:
     wfcinit      :      0.00s CPU      0.00s WALL (       1 calls)
     wfcinit:atom :      0.02s CPU      0.02s WALL (      23 calls)
     wfcinit:wfcr :      1.13s CPU      1.14s WALL (      23 calls)
     potinit      :      0.46s CPU      0.50s WALL (       1 calls)
     hinit0       :      0.97s CPU      1.00s WALL (       1 calls)

     Called by electrons:
     c_bands      :     67.27s CPU     67.52s WALL (       1 calls)
     v_of_rho     :      0.12s CPU      0.15s WALL (       1 calls)
     v_h          :      0.01s CPU      0.01s WALL (       1 calls)
     v_xc         :      0.11s CPU      0.15s WALL (       1 calls)
     newd         :      0.10s CPU      0.12s WALL (       1 calls)
     PAW_pot      :      0.05s CPU      0.05s WALL (       1 calls)

     Called by c_bands:
     init_us_2    :      0.03s CPU      0.03s WALL (      23 calls)
     cegterg      :     55.58s CPU     55.80s WALL (      91 calls)

     Called by sum_band:

     Called by *egterg:
     cdiaghg      :      0.39s CPU      0.40s WALL (    1627 calls)
     cegterg:over :      5.75s CPU      5.76s WALL (    1604 calls)
     cegterg:upda :      3.71s CPU      3.72s WALL (    1604 calls)
     cegterg:last :     11.85s CPU     11.86s WALL (    1102 calls)
     h_psi        :     31.16s CPU     31.33s WALL (    1718 calls)
     s_psi        :      2.54s CPU      2.56s WALL (    1718 calls)
     g_psi        :      0.33s CPU      0.34s WALL (    1604 calls)

     Called by h_psi:
     h_psi:calbec :      2.55s CPU      2.56s WALL (    1718 calls)
     vloc_psi     :     25.92s CPU     26.06s WALL (    1718 calls)
     add_vuspsi   :      2.55s CPU      2.57s WALL (    1718 calls)

     General routines
     calbec       :      2.55s CPU      2.56s WALL (    1718 calls)
     fft          :      0.72s CPU      0.73s WALL (      13 calls)
     ffts         :      0.27s CPU      0.27s WALL (       1 calls)
     fftw         :     22.76s CPU     22.87s WALL (   22858 calls)
     interpolate  :      0.28s CPU      0.28s WALL (       1 calls)

     Parallel routines

     PAW routines
     PAW_pot      :      0.05s CPU      0.05s WALL (       1 calls)

     PWSCF        :   1m 9.10s CPU   1m 9.56s WALL


   This run was terminated on:   2:43:14  15Sep2026            

=------------------------------------------------------------------------------=
   JOB DONE.
=------------------------------------------------------------------------------=
Note: The following floating-point exceptions are signalling: IEEE_UNDERFLOW_FLAG IEEE_DENORMAL
