
     Program PWSCF v.7.6 starts on 17Sep2026 at  1:13:39 

     This program is part of the open-source Quantum ESPRESSO suite
     for quantum simulation of materials; please cite
         "P. Giannozzi et al., J. Phys.:Condens. Matter 21 395502 (2009);
         "P. Giannozzi et al., J. Phys.:Condens. Matter 29 465901 (2017);
         "P. Giannozzi et al., J. Chem. Phys. 152 154105 (2020);
          URL http://www.quantum-espresso.org", 
     in publications or presentations arising from this work. More details at
     http://www.quantum-espresso.org/quote

     Parallel version (MPI), running on     4 processors

     MPI processes distributed on     1 nodes
     288 MiB available memory on the printing compute node when the environment starts

     Waiting for input...
     Reading input from standard input
Warning: card &CELL ignored
Warning: card &FCP ignored
Warning: card &RISM ignored

     Current dimensions of program PWSCF are:
     Max number of different atomic species (ntypx) = 10
     Max number of k-points (npk) =  40000
     Max angular momentum in pseudopotentials (lmaxx) =  4
     file C.pbe-n-kjpaw_psl.1.0.0.UPF: wavefunction(s)  2S 2P renormalized
     Message from routine setup:
     using ibrav=0 with symmetry is DISCOURAGED, use correct ibrav instead

     K-points division:     npool     =       4
     Subspace diagonalization in iterative solution of the eigenvalue problem:
     a serial algorithm will be used


     G-vector sticks info
     --------------------
     sticks:   dense  smooth     PW     G-vecs:    dense   smooth      PW
     Sum         595     361    109               111671    52021    9049

     Using Slab Decomposition



     bravais-lattice index     =            0
     lattice parameter (alat)  =       4.6487  a.u.
     unit-cell volume          =     825.8174 (a.u.)^3
     number of atoms/cell      =            2
     number of atomic types    =            1
     number of electrons       =         8.00
     number of Kohn-Sham states=           10
     kinetic-energy cutoff     =      60.0000  Ry
     charge density cutoff     =     400.0000  Ry
     scf convergence threshold =      1.0E-08
     mixing beta               =       0.7000
     number of iterations used =            8  plain     mixing
     Exchange-correlation= SLA  PW   PBX  PBC
                           (   1   4   3   4   0   0   0)

     celldm(1)=   4.648726  celldm(2)=   0.000000  celldm(3)=   0.000000
     celldm(4)=   0.000000  celldm(5)=   0.000000  celldm(6)=   0.000000

     crystal axes: (cart. coord. in units of alat)
               a(1) = (   1.000000   0.000000   0.000000 )  
               a(2) = (  -0.500000   0.866025   0.000000 )  
               a(3) = (   0.000000   0.000000   9.491870 )  

     reciprocal axes: (cart. coord. in units 2 pi/alat)
               b(1) = (  1.000000  0.577351 -0.000000 )  
               b(2) = (  0.000000  1.154701  0.000000 )  
               b(3) = (  0.000000 -0.000000  0.105353 )  


     PseudoPot. # 1 for C  read from file:
     /home/ubuntu/projects/Graphene-Band-Structure-Quantum-Espresso/pseudo/C.pbe-n-kjpaw_psl.1.0.0.UPF
     MD5 check sum: 5f16ad9a65e90284d1d834d4ab3b0f7d
     Pseudo is Projector augmented-wave + core cor, Zval =  4.0
     Generated using &quot;atomic&quot; code by A. Dal Corso  v.6.3
     Shape of augmentation charge: PSQ
     Using radial grid of 1073 points,  4 beta functions with: 
                l(1) =   0
                l(2) =   0
                l(3) =   1
                l(4) =   1
     Q(r) pseudized with 0 coefficients 


     atomic species   valence    mass     pseudopotential
     C                 4.00    12.01100     C ( 1.00)

      6 Sym. Ops. (no inversion) found


                                    s                        frac. trans.

      isym =  1     identity                                     

 cryst.   s( 1) = (     1          0          0      )
                  (     0          1          0      )
                  (     0          0          1      )

 cart.    s( 1) = (  1.0000000  0.0000000  0.0000000 )
                  (  0.0000000  1.0000000  0.0000000 )
                  (  0.0000000  0.0000000  1.0000000 )


      isym =  2     120 deg rotation - cryst. axis [0,0,1]       

 cryst.   s( 2) = (     0          1          0      )
                  (    -1         -1          0      )
                  (     0          0          1      )

 cart.    s( 2) = ( -0.5000000 -0.8660258  0.0000000 )
                  (  0.8660250 -0.5000000  0.0000000 )
                  (  0.0000000  0.0000000  1.0000000 )


      isym =  3     120 deg rotation - cryst. axis [0,0,-1]      

 cryst.   s( 3) = (    -1         -1          0      )
                  (     1          0          0      )
                  (     0          0          1      )

 cart.    s( 3) = ( -0.5000000  0.8660258  0.0000000 )
                  ( -0.8660250 -0.5000000  0.0000000 )
                  (  0.0000000  0.0000000  1.0000000 )


      isym =  4     inv. 180 deg rotation - cart. axis [1,0,0]   

 cryst.   s( 4) = (    -1          0          0      )
                  (     1          1          0      )
                  (     0          0          1      )

 cart.    s( 4) = ( -1.0000000  0.0000000  0.0000000 )
                  (  0.0000000  1.0000000  0.0000000 )
                  (  0.0000000  0.0000000  1.0000000 )


      isym =  5     inv. 180 deg rotation - cryst. axis [0,1,0]  

 cryst.   s( 5) = (     1          1          0      )
                  (     0         -1          0      )
                  (     0          0          1      )

 cart.    s( 5) = (  0.5000000  0.8660258  0.0000000 )
                  (  0.8660250 -0.5000000  0.0000000 )
                  (  0.0000000  0.0000000  1.0000000 )


      isym =  6     inv. 180 deg rotation - cryst. axis [1,1,0]  

 cryst.   s( 6) = (     0         -1          0      )
                  (    -1          0          0      )
                  (     0          0          1      )

 cart.    s( 6) = (  0.5000000 -0.8660258  0.0000000 )
                  ( -0.8660250 -0.5000000  0.0000000 )
                  (  0.0000000  0.0000000  1.0000000 )


   Cartesian axes

     site n.     atom                  positions (alat units)
         1        C      tau(   1) = (   0.0000000   0.0000000   3.9155091  )
         2        C      tau(   2) = (   0.5000000   0.2886752   3.9153312  )

   Crystallographic axes

     site n.     atom                  positions (cryst. coord.)
         1        C      tau(   1) = (  0.0000000  0.0000000  0.4125119  )
         2        C      tau(   2) = (  0.6666668  0.3333335  0.4124931  )

     number of k points=    27  Gaussian smearing, width (Ry)=  0.0100
                       cart. coord. in units 2pi/alat
        k(    1) = (   0.0000000   0.0000000   0.0000000), wk =   0.0088889
        k(    2) = (   0.0000000   0.0769801   0.0000000), wk =   0.0533333
        k(    3) = (   0.0000000   0.1539601   0.0000000), wk =   0.0533333
        k(    4) = (   0.0000000   0.2309402   0.0000000), wk =   0.0533333
        k(    5) = (   0.0000000   0.3079203   0.0000000), wk =   0.0533333
        k(    6) = (   0.0000000   0.3849004   0.0000000), wk =   0.0533333
        k(    7) = (   0.0000000   0.4618804   0.0000000), wk =   0.0533333
        k(    8) = (   0.0000000   0.5388605   0.0000000), wk =   0.0533333
        k(    9) = (   0.0666667   0.1154701   0.0000000), wk =   0.0533333
        k(   10) = (   0.0666667   0.1924502   0.0000000), wk =   0.1066667
        k(   11) = (   0.0666667   0.2694303   0.0000000), wk =   0.1066667
        k(   12) = (   0.0666667   0.3464103   0.0000000), wk =   0.1066667
        k(   13) = (   0.0666667   0.4233904   0.0000000), wk =   0.1066667
        k(   14) = (   0.0666667   0.5003705   0.0000000), wk =   0.1066667
        k(   15) = (   0.0666667   0.5773505   0.0000000), wk =   0.0533333
        k(   16) = (   0.1333333   0.2309402   0.0000000), wk =   0.0533333
        k(   17) = (   0.1333333   0.3079203   0.0000000), wk =   0.1066667
        k(   18) = (   0.1333333   0.3849004   0.0000000), wk =   0.1066667
        k(   19) = (   0.1333333   0.4618804   0.0000000), wk =   0.1066667
        k(   20) = (   0.1333333   0.5388605   0.0000000), wk =   0.1066667
        k(   21) = (   0.2000000   0.3464103   0.0000000), wk =   0.0533333
        k(   22) = (   0.2000000   0.4233904   0.0000000), wk =   0.1066667
        k(   23) = (   0.2000000   0.5003705   0.0000000), wk =   0.1066667
        k(   24) = (   0.2000000   0.5773505   0.0000000), wk =   0.0533333
        k(   25) = (   0.2666667   0.4618804   0.0000000), wk =   0.0533333
        k(   26) = (   0.2666667   0.5388605   0.0000000), wk =   0.1066667
        k(   27) = (   0.3333333   0.5773505   0.0000000), wk =   0.0177778

                       cryst. coord.
        k(    1) = (   0.0000000   0.0000000   0.0000000), wk =   0.0088889
        k(    2) = (   0.0000000   0.0666667   0.0000000), wk =   0.0533333
        k(    3) = (   0.0000000   0.1333333   0.0000000), wk =   0.0533333
        k(    4) = (   0.0000000   0.2000000   0.0000000), wk =   0.0533333
        k(    5) = (   0.0000000   0.2666667   0.0000000), wk =   0.0533333
        k(    6) = (   0.0000000   0.3333333   0.0000000), wk =   0.0533333
        k(    7) = (   0.0000000   0.4000000   0.0000000), wk =   0.0533333
        k(    8) = (   0.0000000   0.4666667   0.0000000), wk =   0.0533333
        k(    9) = (   0.0666667   0.0666667   0.0000000), wk =   0.0533333
        k(   10) = (   0.0666667   0.1333333   0.0000000), wk =   0.1066667
        k(   11) = (   0.0666667   0.2000000   0.0000000), wk =   0.1066667
        k(   12) = (   0.0666667   0.2666667   0.0000000), wk =   0.1066667
        k(   13) = (   0.0666667   0.3333333   0.0000000), wk =   0.1066667
        k(   14) = (   0.0666667   0.4000000   0.0000000), wk =   0.1066667
        k(   15) = (   0.0666667   0.4666667   0.0000000), wk =   0.0533333
        k(   16) = (   0.1333333   0.1333333   0.0000000), wk =   0.0533333
        k(   17) = (   0.1333333   0.2000000   0.0000000), wk =   0.1066667
        k(   18) = (   0.1333333   0.2666667   0.0000000), wk =   0.1066667
        k(   19) = (   0.1333333   0.3333333   0.0000000), wk =   0.1066667
        k(   20) = (   0.1333333   0.4000000   0.0000000), wk =   0.1066667
        k(   21) = (   0.2000000   0.2000000   0.0000000), wk =   0.0533333
        k(   22) = (   0.2000000   0.2666667   0.0000000), wk =   0.1066667
        k(   23) = (   0.2000000   0.3333333   0.0000000), wk =   0.1066667
        k(   24) = (   0.2000000   0.4000000   0.0000000), wk =   0.0533333
        k(   25) = (   0.2666667   0.2666667   0.0000000), wk =   0.0533333
        k(   26) = (   0.2666667   0.3333333   0.0000000), wk =   0.1066667
        k(   27) = (   0.3333333   0.3333333   0.0000000), wk =   0.0177778

     Dense  grid:   111671 G-vectors     FFT dimensions: (  30,  30, 288)

     Smooth grid:    52021 G-vectors     FFT dimensions: (  24,  24, 225)

     Dynamical RAM for                 wfc:       0.99 MB

     Dynamical RAM for     wfc (w. buffer):       7.91 MB

     Dynamical RAM for           str. fact:       1.70 MB

     Dynamical RAM for           local pot:       0.00 MB

     Dynamical RAM for          nlocal pot:       1.58 MB

     Dynamical RAM for                qrad:       0.46 MB

     Dynamical RAM for          rho,v,vnew:      11.04 MB

     Dynamical RAM for               rhoin:       3.68 MB

     Dynamical RAM for            rho*nmix:      27.26 MB

     Dynamical RAM for           G-vectors:       6.79 MB

     Dynamical RAM for          h,s,v(r/c):       0.02 MB

     Dynamical RAM for          <psi|beta>:       0.00 MB

     Dynamical RAM for                 psi:       1.98 MB

     Dynamical RAM for                hpsi:       1.98 MB

     Dynamical RAM for                spsi:       1.98 MB

     Dynamical RAM for      wfcinit/wfcrot:       1.98 MB

     Dynamical RAM for           addusdens:      20.45 MB

     Dynamical RAM for          addusforce:      20.87 MB

     Estimated static dynamical RAM per process >      46.46 MB

     Estimated max dynamical RAM per process >      94.60 MB

     Estimated total dynamical RAM >     296.62 MB
 ----2D----2D----2D----2D----2D----2D----2D----2D----2D----2D----2D----2D
  The code is running with the 2D cutoff
  Please refer to:
  Sohier, T., Calandra, M., & Mauri, F. (2017), 
  Density functional perturbation theory for gated two-dimensional heterostructures:
  Theoretical developments and application to flexural phonons in graphene.
  Physical Review B, 96(7), 75448. https://doi.org/10.1103/PhysRevB.96.075448
 ----2D----2D----2D----2D----2D----2D----2D----2D----2D----2D----2D----2D

     Check: negative core charge=   -0.000002

     Initial potential from superposition of free atoms

     starting charge       7.9999, renormalised to       8.0000

     negative rho (up, down):  1.246E-04 0.000E+00
     Starting wfcs are    8 randomized atomic wfcs +    2 random wfcs
     Checking if some PAW data can be deallocated... 

     total cpu time spent up to now is        3.1 secs

     Self-consistent Calculation

     iteration #  1     ecut=    60.00 Ry     beta= 0.70
     Davidson diagonalization with overlap

---- Real-time Memory Report at c_bands before calling an iterative solver
            97 MiB given to the printing process from OS
             0 MiB allocation reported by mallinfo(arena+hblkhd)
           318 MiB available memory on the node where the printing process lives
------------------
     ethr =  1.00E-02,  avg # of iterations = 11.0

     negative rho (up, down):  1.328E-04 0.000E+00

     total cpu time spent up to now is        6.3 secs

     total energy              =     -36.85596704 Ry
     estimated scf accuracy    <       0.20282446 Ry

     iteration #  2     ecut=    60.00 Ry     beta= 0.70
     Davidson diagonalization with overlap

---- Real-time Memory Report at c_bands before calling an iterative solver
           117 MiB given to the printing process from OS
             0 MiB allocation reported by mallinfo(arena+hblkhd)
           350 MiB available memory on the node where the printing process lives
------------------
     ethr =  2.54E-03,  avg # of iterations =  2.9

     negative rho (up, down):  1.358E-04 0.000E+00

     total cpu time spent up to now is        8.0 secs

     total energy              =     -36.88694596 Ry
     estimated scf accuracy    <       0.00227450 Ry

     iteration #  3     ecut=    60.00 Ry     beta= 0.70
     Davidson diagonalization with overlap

---- Real-time Memory Report at c_bands before calling an iterative solver
           119 MiB given to the printing process from OS
             0 MiB allocation reported by mallinfo(arena+hblkhd)
           348 MiB available memory on the node where the printing process lives
------------------
     ethr =  2.84E-05,  avg # of iterations = 11.8

     negative rho (up, down):  1.437E-04 0.000E+00

     total cpu time spent up to now is       11.4 secs

     total energy              =     -36.88730425 Ry
     estimated scf accuracy    <       0.00016137 Ry

     iteration #  4     ecut=    60.00 Ry     beta= 0.70
     Davidson diagonalization with overlap

---- Real-time Memory Report at c_bands before calling an iterative solver
           120 MiB given to the printing process from OS
             0 MiB allocation reported by mallinfo(arena+hblkhd)
           376 MiB available memory on the node where the printing process lives
------------------
     ethr =  2.02E-06,  avg # of iterations =  4.9

     negative rho (up, down):  1.440E-04 0.000E+00

     total cpu time spent up to now is       12.8 secs

     total energy              =     -36.88731752 Ry
     estimated scf accuracy    <       0.00000367 Ry

     iteration #  5     ecut=    60.00 Ry     beta= 0.70
     Davidson diagonalization with overlap

---- Real-time Memory Report at c_bands before calling an iterative solver
           122 MiB given to the printing process from OS
             0 MiB allocation reported by mallinfo(arena+hblkhd)
           340 MiB available memory on the node where the printing process lives
------------------
     ethr =  4.59E-08,  avg # of iterations =  2.6

     negative rho (up, down):  1.441E-04 0.000E+00

     total cpu time spent up to now is       14.3 secs

     total energy              =     -36.88731920 Ry
     estimated scf accuracy    <       0.00000036 Ry

     iteration #  6     ecut=    60.00 Ry     beta= 0.70
     Davidson diagonalization with overlap

---- Real-time Memory Report at c_bands before calling an iterative solver
           124 MiB given to the printing process from OS
             0 MiB allocation reported by mallinfo(arena+hblkhd)
           371 MiB available memory on the node where the printing process lives
------------------
     ethr =  4.55E-09,  avg # of iterations =  2.2

     negative rho (up, down):  1.441E-04 0.000E+00

     total cpu time spent up to now is       15.5 secs

     total energy              =     -36.88731930 Ry
     estimated scf accuracy    <       0.00000002 Ry

     iteration #  7     ecut=    60.00 Ry     beta= 0.70
     Davidson diagonalization with overlap

---- Real-time Memory Report at c_bands before calling an iterative solver
           125 MiB given to the printing process from OS
             0 MiB allocation reported by mallinfo(arena+hblkhd)
           324 MiB available memory on the node where the printing process lives
------------------
     ethr =  2.02E-10,  avg # of iterations =  2.8

     negative rho (up, down):  1.441E-04 0.000E+00

     total cpu time spent up to now is       17.1 secs

     End of self-consistent calculation

          k = 0.0000 0.0000 0.0000 (  6469 PWs)   bands (ev):

   -23.8082 -11.8922  -7.2712  -7.2712  -1.0383  -0.4052   0.1201   0.4689
     1.5480   2.0851

     occupation numbers 
     1.0000   1.0000   1.0000   1.0000   0.0000   0.0000   0.0000   0.0000
     0.0000   0.0000

          k = 0.0000 0.0770 0.0000 (  6464 PWs)   bands (ev):

   -23.7029 -11.7659  -7.6968  -7.4951  -0.8948  -0.2593   0.2664   0.6146
     1.6933   2.2300

     occupation numbers 
     1.0000   1.0000   1.0000   1.0000   0.0000   0.0000   0.0000   0.0000
     0.0000   0.0000

          k = 0.0000 0.1540 0.0000 (  6496 PWs)   bands (ev):

   -23.3874 -11.3892  -8.8279  -8.0624  -0.4641   0.1782   0.7055   1.0512
     2.1292   2.6643

     occupation numbers 
     1.0000   1.0000   1.0000   1.0000   0.0000   0.0000   0.0000   0.0000
     0.0000   0.0000

          k = 0.0000 0.2309 0.0000 (  6474 PWs)   bands (ev):

   -22.8641 -10.7691 -10.3800  -8.7717   0.2532   0.9056   1.4371   1.7769
     2.8541   3.3820

     occupation numbers 
     1.0000   1.0000   1.0000   1.0000   0.0000   0.0000   0.0000   0.0000
     0.0000   0.0000

          k = 0.0000 0.3079 0.0000 (  6492 PWs)   bands (ev):

   -22.1373 -12.1176  -9.9208  -9.4619   1.2551   1.9026   2.4604   2.5678
     2.8645   3.7589

     occupation numbers 
     1.0000   1.0000   1.0000   1.0000   0.0000   0.0000   0.0000   0.0000
     0.0000   0.0000

          k = 0.0000 0.3849 0.0000 (  6484 PWs)   bands (ev):

   -21.2143 -13.8884 -10.0360  -8.8775   0.7194   2.5335   3.2473   3.5579
     3.7976   4.1115

     occupation numbers 
     1.0000   1.0000   1.0000   1.0000   0.0000   0.0000   0.0000   0.0000
     0.0000   0.0000

          k = 0.0000 0.4619 0.0000 (  6490 PWs)   bands (ev):

   -20.1110 -15.5931 -10.4410  -7.7261  -1.0404   3.3445   4.1288   4.8343
     5.3904   5.6988

     occupation numbers 
     1.0000   1.0000   1.0000   1.0000   0.0000   0.0000   0.0000   0.0000
     0.0000   0.0000

          k = 0.0000 0.5389 0.0000 (  6524 PWs)   bands (ev):

   -18.9032 -17.1116 -10.6494  -6.7628  -2.3277   3.2507   5.9435   6.6939
     7.2865   7.5576

     occupation numbers 
     1.0000   1.0000   1.0000   1.0000   0.0000   0.0000   0.0000   0.0000
     0.0000   0.0000

          k = 0.0667 0.1155 0.0000 (  6499 PWs)   bands (ev):

   -23.4924 -11.5144  -8.4232  -7.9432  -0.6076   0.0324   0.5591   0.9057
     1.9840   2.5197

     occupation numbers 
     1.0000   1.0000   1.0000   1.0000   0.0000   0.0000   0.0000   0.0000
     0.0000   0.0000

          k = 0.0667 0.1925 0.0000 (  6491 PWs)   bands (ev):

   -23.0731 -11.0157  -9.6751  -8.6731  -0.0333   0.6151   1.1446   1.4873
     2.5654   3.0976

     occupation numbers 
     1.0000   1.0000   1.0000   1.0000   0.0000   0.0000   0.0000   0.0000
     0.0000   0.0000

          k = 0.0667 0.2694 0.0000 (  6480 PWs)   bands (ev):

   -22.4480 -11.2612 -10.2803  -9.4332   0.8269   1.4852   2.0225   2.3532
     3.3870   3.4344

     occupation numbers 
     1.0000   1.0000   1.0000   1.0000   0.0000   0.0000   0.0000   0.0000
     0.0000   0.0000

          k = 0.0667 0.3464 0.0000 (  6491 PWs)   bands (ev):

   -21.6230 -12.9846 -10.0966  -9.3301   1.5634   1.9699   2.6683   3.1911
     3.5289   4.1434

     occupation numbers 
     1.0000   1.0000   1.0000   1.0000   0.0000   0.0000   0.0000   0.0000
     0.0000   0.0000

          k = 0.0667 0.4234 0.0000 (  6487 PWs)   bands (ev):

   -20.6086 -14.7083 -10.6011  -8.2164  -0.2334   3.3778   3.9396   4.1065
     4.6624   4.9710

     occupation numbers 
     1.0000   1.0000   1.0000   1.0000   0.0000   0.0000   0.0000   0.0000
     0.0000   0.0000

          k = 0.0667 0.5004 0.0000 (  6503 PWs)   bands (ev):

   -19.4345 -16.3315 -10.9143  -7.0923  -1.8099   3.7563   5.1060   5.8261
     6.4117   6.6898

     occupation numbers 
     1.0000   1.0000   1.0000   1.0000   0.0000   0.0000   0.0000   0.0000
     0.0000   0.0000

          k = 0.0667 0.5774 0.0000 (  6480 PWs)   bands (ev):

   -18.4680 -17.4512 -11.0202  -6.4993  -2.5600   3.7065   6.9708   7.1217
     7.6664   7.8945

     occupation numbers 
     1.0000   1.0000   1.0000   1.0000   0.0000   0.0000   0.0000   0.0000
     0.0000   0.0000

          k = 0.1333 0.2309 0.0000 (  6457 PWs)   bands (ev):

   -22.5520 -10.7770 -10.4009  -9.6398   0.6843   1.3420   1.8766   2.2128
     3.2929   3.6874

     occupation numbers 
     1.0000   1.0000   1.0000   1.0000   0.0000   0.0000   0.0000   0.0000
     0.0000   0.0000

          k = 0.1333 0.3079 0.0000 (  6480 PWs)   bands (ev):

   -21.8287 -12.1748 -10.5491  -9.5598   1.6866   2.1120   2.3680   2.9009
     3.2276   4.3087

     occupation numbers 
     1.0000   1.0000   1.0000   1.0000   0.0000   0.0000   0.0000   0.0000
     0.0000   0.0000

          k = 0.1333 0.3849 0.0000 (  6474 PWs)   bands (ev):

   -20.9115 -13.7704 -11.2251  -8.5235   0.4370   2.9690   3.6579   4.2159
     4.5229   5.2639

     occupation numbers 
     1.0000   1.0000   1.0000   1.0000   0.0000   0.0000   0.0000   0.0000
     0.0000   0.0000

          k = 0.1333 0.4619 0.0000 (  6494 PWs)   bands (ev):

   -19.8177 -15.3876 -11.6710  -7.3721  -1.2022   4.5142   5.1055   5.2233
     5.8297   6.0871

     occupation numbers 
     1.0000   1.0000   1.0000   1.0000   0.0000   0.0000   0.0000   0.0000
     0.0000   0.0000

          k = 0.1333 0.5389 0.0000 (  6490 PWs)   bands (ev):

   -18.6254 -16.8594 -11.8937  -6.3865  -2.4500   4.9777   6.3474   6.9725
     7.7200   7.8384

     occupation numbers 
     1.0000   1.0000   1.0000   1.0000   0.0000   0.0000   0.0000   0.0000
     0.0000   0.0000

          k = 0.2000 0.3464 0.0000 (  6482 PWs)   bands (ev):

   -21.0131 -13.1895 -11.7272  -8.6279   0.7123   2.8281   3.5034   4.0711
     4.3696   5.4707

     occupation numbers 
     1.0000   1.0000   1.0000   1.0000   0.0000   0.0000   0.0000   0.0000
     0.0000   0.0000

          k = 0.2000 0.4234 0.0000 (  6465 PWs)   bands (ev):

   -20.0141 -14.4768 -12.5495  -7.5281  -0.7732   4.2436   4.9060   5.5313
     5.7719   6.8258

     occupation numbers 
     1.0000   1.0000   1.0000   1.0000   0.0000   0.0000   0.0000   0.0000
     0.0000   0.0000

          k = 0.2000 0.5004 0.0000 (  6474 PWs)   bands (ev):

   -18.8651 -15.9083 -12.9768  -6.3845  -2.1711   5.9093   6.4134   6.7618
     7.2861   7.3305

     occupation numbers 
     1.0000   1.0000   1.0000   1.0000   0.0000   0.0000   0.0000   0.0000
     0.0000   0.0000

          k = 0.2000 0.5774 0.0000 (  6484 PWs)   bands (ev):

   -17.9278 -16.9559 -13.1097  -5.7311  -2.9139   6.6855   7.1212   7.6835
     7.9003   8.7698

     occupation numbers 
     1.0000   1.0000   1.0000   1.0000   0.0000   0.0000   0.0000   0.0000
     0.0000   0.0000

          k = 0.2667 0.4619 0.0000 (  6452 PWs)   bands (ev):

   -18.9538 -15.2580 -13.6802  -6.3975  -2.0257   5.7739   6.1914   7.1326
     7.1466   8.1939

     occupation numbers 
     1.0000   1.0000   1.0000   1.0000   0.0000   0.0000   0.0000   0.0000
     0.0000   0.0000

          k = 0.2667 0.5389 0.0000 (  6444 PWs)   bands (ev):

   -17.8108 -16.3093 -14.2230  -5.3105  -3.1678   6.6006   7.4842   8.4239
     8.7234   8.9648

     occupation numbers 
     1.0000   1.0000   1.0000   1.0000   0.0000   0.0000   0.0000   0.0000
     0.0000   0.0000

          k = 0.3333 0.5774 0.0000 (  6450 PWs)   bands (ev):

   -16.8525 -16.8525 -14.8462  -4.2193  -4.2192   6.4072   8.7039   8.7039
     9.2817  10.5163

     occupation numbers 
     1.0000   1.0000   1.0000   0.5002   0.4998   0.0000   0.0000   0.0000
     0.0000   0.0000

     the Fermi energy is    -4.2193 ev

!    total energy              =     -36.88731931 Ry
     total all-electron energy =      -152.415514 Ry
     estimated scf accuracy    <          1.0E-09 Ry
     smearing contrib. (-TS)   =      -0.00010030 Ry
     internal energy E=F+TS    =     -36.88721901 Ry

     The total energy is F=E-TS. E is the sum of the following terms:
     one-electron contribution =    -427.10528982 Ry
     hartree contribution      =     214.43583115 Ry
     xc contribution           =      -9.28500759 Ry
     ewald contribution        =     197.40164625 Ry
     one-center paw contrib.   =     -12.33439900 Ry
      -> PAW hartree energy AE =       9.52738851 Ry
      -> PAW hartree energy PS =      -9.51870863 Ry
      -> PAW xc energy AE      =     -10.68311691 Ry
      -> PAW xc energy PS      =       4.50723834 Ry
      -> total E_H with PAW    =     214.44451103 Ry
      -> total E_XC with PAW   =     -15.46088616 Ry

     convergence has been achieved in   7 iterations

     negative rho (up, down):  1.441E-04 0.000E+00

     Forces acting on atoms (cartesian axes, Ry/au):

     atom    1 type  1   force =     0.00000000   -0.00000000   -0.00028596
     atom    2 type  1   force =     0.00000000    0.00000000    0.00028596
     The non-local contrib.  to forces
     atom    1 type  1   force =     0.00000000    0.00000000   -0.00056472
     atom    2 type  1   force =     0.00000000    0.00000000    0.00048614
     The ionic contribution  to forces
     atom    1 type  1   force =     0.00000053    0.00000661    0.00609800
     atom    2 type  1   force =    -0.00000053   -0.00000661   -0.00609800
     The local contribution  to forces
     atom    1 type  1   force =     0.00000000   -0.00000189   -0.00577043
     atom    2 type  1   force =    -0.00000038    0.00000002    0.00595557
     The core correction contribution to forces
     atom    1 type  1   force =    -0.00000000   -0.00000000   -0.00005701
     atom    2 type  1   force =     0.00000004    0.00000021   -0.00006587
     The Hubbard contrib.    to forces
     atom    1 type  1   force =     0.00000000    0.00000000    0.00000000
     atom    2 type  1   force =     0.00000000    0.00000000    0.00000000
     The SCF correction term to forces
     atom    1 type  1   force =     0.00000000    0.00000000   -0.00004917
     atom    2 type  1   force =     0.00000000    0.00000000   -0.00004925

     Total force =     0.000404     Total SCF correction =     0.000070
     SCF correction compared to forces is large: reduce conv_thr to get better values

     Writing all to output data dir /home/ubuntu/projects/Graphene-Band-Structure-Quantum-Espresso/outputs/field_0/bottom/data/bottom.save/ :
     XML data file, charge density, pseudopotentials, collected wavefunctions

     init_run     :      2.35s CPU      2.97s WALL (       1 calls)
     electrons    :     13.59s CPU     13.95s WALL (       1 calls)
     forces       :      0.24s CPU      0.28s WALL (       1 calls)

     Called by init_run:
     wfcinit      :      0.57s CPU      0.57s WALL (       1 calls)
     wfcinit:atom :      0.01s CPU      0.01s WALL (       7 calls)
     wfcinit:wfcr :      0.54s CPU      0.54s WALL (       7 calls)
     potinit      :      0.60s CPU      0.93s WALL (       1 calls)
     hinit0       :      1.00s CPU      1.09s WALL (       1 calls)

     Called by electrons:
     c_bands      :     10.20s CPU     10.29s WALL (       7 calls)
     sum_band     :      1.32s CPU      1.39s WALL (       7 calls)
     v_of_rho     :      0.88s CPU      1.36s WALL (       8 calls)
     v_h          :      0.05s CPU      0.05s WALL (       8 calls)
     v_xc         :      0.92s CPU      1.42s WALL (       9 calls)
     newd         :      0.35s CPU      0.38s WALL (       8 calls)
     PAW_pot      :      0.81s CPU      0.82s WALL (       8 calls)
     mix_rho      :      0.10s CPU      0.10s WALL (       7 calls)

     Called by c_bands:
     init_us_2    :      0.14s CPU      0.14s WALL (     112 calls)
     cegterg      :      7.29s CPU      7.37s WALL (      49 calls)

     Called by sum_band:
     sum_band:wei :      0.00s CPU      0.00s WALL (       7 calls)
     sum_band:loo :      0.68s CPU      0.69s WALL (       7 calls)
     sum_band:buf :      0.01s CPU      0.01s WALL (      49 calls)
     sum_band:ini :      0.05s CPU      0.05s WALL (      49 calls)
     sum_band:cal :      0.10s CPU      0.10s WALL (      49 calls)
     sum_band:bec :      0.00s CPU      0.00s WALL (      49 calls)
     addusdens    :      0.25s CPU      0.30s WALL (       7 calls)
     addusd:skk   :      0.00s CPU      0.00s WALL (       7 calls)

     Called by *egterg:
     cdiaghg      :      0.06s CPU      0.06s WALL (     306 calls)
     cegterg:over :      0.59s CPU      0.60s WALL (     257 calls)
     cegterg:upda :      0.40s CPU      0.41s WALL (     257 calls)
     cegterg:last :      0.97s CPU      0.97s WALL (     131 calls)
     h_psi        :      5.11s CPU      5.16s WALL (     313 calls)
     s_psi        :      0.40s CPU      0.40s WALL (     313 calls)
     g_psi        :      0.04s CPU      0.04s WALL (     257 calls)

     Called by h_psi:
     h_psi:calbec :      0.44s CPU      0.45s WALL (     313 calls)
     vloc_psi     :      4.23s CPU      4.26s WALL (     313 calls)
     add_vuspsi   :      0.40s CPU      0.41s WALL (     313 calls)

     General routines
     calbec       :      0.59s CPU      0.59s WALL (     390 calls)
     fft          :      1.06s CPU      1.09s WALL (     113 calls)
     ffts         :      0.37s CPU      0.38s WALL (      15 calls)
     fftw         :      4.10s CPU      4.13s WALL (    3662 calls)
     interpolate  :      0.40s CPU      0.40s WALL (       8 calls)

     Parallel routines

     PAW routines
     PAW_pot      :      0.81s CPU      0.82s WALL (       8 calls)
     PAW_symme    :      0.00s CPU      0.00s WALL (      15 calls)

     PWSCF        :     16.34s CPU     17.47s WALL


   This run was terminated on:   1:13:56  17Sep2026            

=------------------------------------------------------------------------------=
   JOB DONE.
=------------------------------------------------------------------------------=
Note: The following floating-point exceptions are signalling: IEEE_UNDERFLOW_FLAG IEEE_DENORMAL
Note: The following floating-point exceptions are signalling: IEEE_UNDERFLOW_FLAG IEEE_DENORMAL
Note: The following floating-point exceptions are signalling: IEEE_UNDERFLOW_FLAG IEEE_DENORMAL
Note: The following floating-point exceptions are signalling: IEEE_UNDERFLOW_FLAG IEEE_DENORMAL
