
     Program PWSCF v.7.6 starts on  4Oct2026 at 20:13: 9 

     This program is part of the open-source Quantum ESPRESSO suite
     for quantum simulation of materials; please cite
         "P. Giannozzi et al., J. Phys.:Condens. Matter 21 395502 (2009);
         "P. Giannozzi et al., J. Phys.:Condens. Matter 29 465901 (2017);
         "P. Giannozzi et al., J. Chem. Phys. 152 154105 (2020);
          URL http://www.quantum-espresso.org", 
     in publications or presentations arising from this work. More details at
     http://www.quantum-espresso.org/quote

     Parallel version (MPI), running on    16 processors

     MPI processes distributed on     1 nodes
     30934 MiB available memory on the printing compute node when the environment starts

     Waiting for input...
     Reading input from standard input
Warning: card &CELL ignored
Warning: card &FCP ignored
Warning: card &RISM ignored

     Current dimensions of program PWSCF are:
     Max number of different atomic species (ntypx) = 10
     Max number of k-points (npk) =  40000
     Max angular momentum in pseudopotentials (lmaxx) =  4
     Presently no symmetry can be used with electric field


     IMPORTANT: XC functional enforced from input :
     Exchange-correlation= VDW-DF2-C09
                           (   1   4  16   0   2   0   0)
     Any further DFT definition will be discarded
     Please, verify this is what you really want


     K-points division:     npool     =      16
     Subspace diagonalization in iterative solution of the eigenvalue problem:
     a serial algorithm will be used


     G-vector sticks info
     --------------------
     sticks:   dense  smooth     PW     G-vecs:    dense   smooth      PW
     Sum         535     535    163                94953    94953   17173

     Using Slab Decomposition



     bravais-lattice index     =            0
     lattice parameter (alat)  =       4.6487  a.u.
     unit-cell volume          =     825.8174 (a.u.)^3
     number of atoms/cell      =            4
     number of atomic types    =            1
     number of electrons       =        16.00
     number of Kohn-Sham states=           14
     kinetic-energy cutoff     =      90.0000  Ry
     charge density cutoff     =     360.0000  Ry
     scf convergence threshold =      1.0E-08
     mixing beta               =       0.7000
     number of iterations used =            8  plain     mixing
     Exchange-correlation= VDW-DF2-C09
                           (   1   4  16   0   2   0   0)

     celldm(1)=   4.648726  celldm(2)=   0.000000  celldm(3)=   0.000000
     celldm(4)=   0.000000  celldm(5)=   0.000000  celldm(6)=   0.000000

     crystal axes: (cart. coord. in units of alat)
               a(1) = (   1.000000   0.000000   0.000000 )  
               a(2) = (  -0.500000   0.866025   0.000000 )  
               a(3) = (   0.000000   0.000000   9.491870 )  

     reciprocal axes: (cart. coord. in units 2 pi/alat)
               b(1) = (  1.000000  0.577351 -0.000000 )  
               b(2) = (  0.000000  1.154701  0.000000 )  
               b(3) = (  0.000000 -0.000000  0.105353 )  


     PseudoPot. # 1 for C  read from file:
     /home/ubuntu/projects/Graphene-Band-Structure-Quantum-Espresso/pseudo/C.upf
     MD5 check sum: 34a24e64c0a39f27c6c36b90a16ac686
     Pseudo is Norm-conserving + core correction, Zval =  4.0
     Generated using ONCVPSP code by D. R. Hamann
     Using radial grid of 1248 points,  4 beta functions with: 
                l(1) =   0
                l(2) =   0
                l(3) =   1
                l(4) =   1

     atomic species   valence    mass     pseudopotential
     C                 4.00    12.01100     C ( 1.00)

     No symmetry found


                                    s                        frac. trans.

      isym =  1     identity                                     

 cryst.   s( 1) = (     1          0          0      )
                  (     0          1          0      )
                  (     0          0          1      )

 cart.    s( 1) = (  1.0000000  0.0000000  0.0000000 )
                  (  0.0000000  1.0000000  0.0000000 )
                  (  0.0000000  0.0000000  1.0000000 )


   Cartesian axes

     site n.     atom                  positions (alat units)
         1        C      tau(   1) = (   0.0000114   0.0000017   4.0317418  )
         2        C      tau(   2) = (   0.4999997   0.2886781   4.0322363  )
         3        C      tau(   3) = (   0.4999876   0.2886584   5.4596454  )
         4        C      tau(   4) = (   0.0000014   0.5773623   5.4601174  )

   Crystallographic axes

     site n.     atom                  positions (cryst. coord.)
         1        C      tau(   1) = (  0.0000124  0.0000020  0.4247574  )
         2        C      tau(   2) = (  0.6666681  0.3333369  0.4248095  )
         3        C      tau(   3) = (  0.6666447  0.3333142  0.5751918  )
         4        C      tau(   4) = (  0.3333418  0.6666809  0.5752415  )

     number of k points=   113  Gaussian smearing, width (Ry)=  0.0100
                       cart. coord. in units 2pi/alat
        k(    1) = (   0.0000000   0.0000000   0.0000000), wk =   0.0088889
        k(    2) = (   0.0000000   0.0769801   0.0000000), wk =   0.0177778
        k(    3) = (   0.0000000   0.1539601   0.0000000), wk =   0.0177778
        k(    4) = (   0.0000000   0.2309402   0.0000000), wk =   0.0177778
        k(    5) = (   0.0000000   0.3079203   0.0000000), wk =   0.0177778
        k(    6) = (   0.0000000   0.3849004   0.0000000), wk =   0.0177778
        k(    7) = (   0.0000000   0.4618804   0.0000000), wk =   0.0177778
        k(    8) = (   0.0000000   0.5388605   0.0000000), wk =   0.0177778
        k(    9) = (   0.0666667   0.0384900   0.0000000), wk =   0.0177778
        k(   10) = (   0.0666667   0.1154701   0.0000000), wk =   0.0177778
        k(   11) = (   0.0666667   0.1924502   0.0000000), wk =   0.0177778
        k(   12) = (   0.0666667   0.2694303   0.0000000), wk =   0.0177778
        k(   13) = (   0.0666667   0.3464103   0.0000000), wk =   0.0177778
        k(   14) = (   0.0666667   0.4233904   0.0000000), wk =   0.0177778
        k(   15) = (   0.0666667   0.5003705   0.0000000), wk =   0.0177778
        k(   16) = (   0.0666667   0.5773505   0.0000000), wk =   0.0177778
        k(   17) = (   0.0666667  -0.5003705   0.0000000), wk =   0.0177778
        k(   18) = (   0.0666667  -0.4233904   0.0000000), wk =   0.0177778
        k(   19) = (   0.0666667  -0.3464103   0.0000000), wk =   0.0177778
        k(   20) = (   0.0666667  -0.2694303   0.0000000), wk =   0.0177778
        k(   21) = (   0.0666667  -0.1924502   0.0000000), wk =   0.0177778
        k(   22) = (   0.0666667  -0.1154701   0.0000000), wk =   0.0177778
        k(   23) = (   0.0666667  -0.0384900   0.0000000), wk =   0.0177778
        k(   24) = (   0.1333333   0.0769801   0.0000000), wk =   0.0177778
        k(   25) = (   0.1333333   0.1539601   0.0000000), wk =   0.0177778
        k(   26) = (   0.1333333   0.2309402   0.0000000), wk =   0.0177778
        k(   27) = (   0.1333333   0.3079203   0.0000000), wk =   0.0177778
        k(   28) = (   0.1333333   0.3849004   0.0000000), wk =   0.0177778
        k(   29) = (   0.1333333   0.4618804   0.0000000), wk =   0.0177778
        k(   30) = (   0.1333333   0.5388605   0.0000000), wk =   0.0177778
        k(   31) = (   0.1333333   0.6158406   0.0000000), wk =   0.0177778
        k(   32) = (   0.1333333  -0.4618804   0.0000000), wk =   0.0177778
        k(   33) = (   0.1333333  -0.3849004   0.0000000), wk =   0.0177778
        k(   34) = (   0.1333333  -0.3079203   0.0000000), wk =   0.0177778
        k(   35) = (   0.1333333  -0.2309402   0.0000000), wk =   0.0177778
        k(   36) = (   0.1333333  -0.1539601   0.0000000), wk =   0.0177778
        k(   37) = (   0.1333333  -0.0769801   0.0000000), wk =   0.0177778
        k(   38) = (   0.1333333   0.0000000   0.0000000), wk =   0.0177778
        k(   39) = (   0.2000000   0.1154701   0.0000000), wk =   0.0177778
        k(   40) = (   0.2000000   0.1924502   0.0000000), wk =   0.0177778
        k(   41) = (   0.2000000   0.2694303   0.0000000), wk =   0.0177778
        k(   42) = (   0.2000000   0.3464103   0.0000000), wk =   0.0177778
        k(   43) = (   0.2000000   0.4233904   0.0000000), wk =   0.0177778
        k(   44) = (   0.2000000   0.5003705   0.0000000), wk =   0.0177778
        k(   45) = (   0.2000000   0.5773505   0.0000000), wk =   0.0177778
        k(   46) = (   0.2000000   0.6543306   0.0000000), wk =   0.0177778
        k(   47) = (   0.2000000  -0.4233904   0.0000000), wk =   0.0177778
        k(   48) = (   0.2000000  -0.3464103   0.0000000), wk =   0.0177778
        k(   49) = (   0.2000000  -0.2694303   0.0000000), wk =   0.0177778
        k(   50) = (   0.2000000  -0.1924502   0.0000000), wk =   0.0177778
        k(   51) = (   0.2000000  -0.1154701   0.0000000), wk =   0.0177778
        k(   52) = (   0.2000000  -0.0384900   0.0000000), wk =   0.0177778
        k(   53) = (   0.2000000   0.0384900   0.0000000), wk =   0.0177778
        k(   54) = (   0.2666667   0.1539601   0.0000000), wk =   0.0177778
        k(   55) = (   0.2666667   0.2309402   0.0000000), wk =   0.0177778
        k(   56) = (   0.2666667   0.3079203   0.0000000), wk =   0.0177778
        k(   57) = (   0.2666667   0.3849004   0.0000000), wk =   0.0177778
        k(   58) = (   0.2666667   0.4618804   0.0000000), wk =   0.0177778
        k(   59) = (   0.2666667   0.5388605   0.0000000), wk =   0.0177778
        k(   60) = (   0.2666667   0.6158406   0.0000000), wk =   0.0177778
        k(   61) = (   0.2666667   0.6928206   0.0000000), wk =   0.0177778
        k(   62) = (   0.2666667  -0.3849004   0.0000000), wk =   0.0177778
        k(   63) = (   0.2666667  -0.3079203   0.0000000), wk =   0.0177778
        k(   64) = (   0.2666667  -0.2309402   0.0000000), wk =   0.0177778
        k(   65) = (   0.2666667  -0.1539601   0.0000000), wk =   0.0177778
        k(   66) = (   0.2666667  -0.0769801   0.0000000), wk =   0.0177778
        k(   67) = (   0.2666667   0.0000000   0.0000000), wk =   0.0177778
        k(   68) = (   0.2666667   0.0769801   0.0000000), wk =   0.0177778
        k(   69) = (   0.3333333   0.1924502   0.0000000), wk =   0.0177778
        k(   70) = (   0.3333333   0.2694303   0.0000000), wk =   0.0177778
        k(   71) = (   0.3333333   0.3464103   0.0000000), wk =   0.0177778
        k(   72) = (   0.3333333   0.4233904   0.0000000), wk =   0.0177778
        k(   73) = (   0.3333333   0.5003705   0.0000000), wk =   0.0177778
        k(   74) = (   0.3333333   0.5773505   0.0000000), wk =   0.0177778
        k(   75) = (   0.3333333   0.6543306   0.0000000), wk =   0.0177778
        k(   76) = (   0.3333333   0.7313107   0.0000000), wk =   0.0177778
        k(   77) = (   0.3333333  -0.3464103   0.0000000), wk =   0.0177778
        k(   78) = (   0.3333333  -0.2694303   0.0000000), wk =   0.0177778
        k(   79) = (   0.3333333  -0.1924502   0.0000000), wk =   0.0177778
        k(   80) = (   0.3333333  -0.1154701   0.0000000), wk =   0.0177778
        k(   81) = (   0.3333333  -0.0384900   0.0000000), wk =   0.0177778
        k(   82) = (   0.3333333   0.0384900   0.0000000), wk =   0.0177778
        k(   83) = (   0.3333333   0.1154701   0.0000000), wk =   0.0177778
        k(   84) = (   0.4000000   0.2309402   0.0000000), wk =   0.0177778
        k(   85) = (   0.4000000   0.3079203   0.0000000), wk =   0.0177778
        k(   86) = (   0.4000000   0.3849004   0.0000000), wk =   0.0177778
        k(   87) = (   0.4000000   0.4618804   0.0000000), wk =   0.0177778
        k(   88) = (   0.4000000   0.5388605   0.0000000), wk =   0.0177778
        k(   89) = (   0.4000000   0.6158406   0.0000000), wk =   0.0177778
        k(   90) = (   0.4000000   0.6928206   0.0000000), wk =   0.0177778
        k(   91) = (   0.4000000   0.7698007   0.0000000), wk =   0.0177778
        k(   92) = (   0.4000000  -0.3079203   0.0000000), wk =   0.0177778
        k(   93) = (   0.4000000  -0.2309402   0.0000000), wk =   0.0177778
        k(   94) = (   0.4000000  -0.1539601   0.0000000), wk =   0.0177778
        k(   95) = (   0.4000000  -0.0769801   0.0000000), wk =   0.0177778
        k(   96) = (   0.4000000   0.0000000   0.0000000), wk =   0.0177778
        k(   97) = (   0.4000000   0.0769801   0.0000000), wk =   0.0177778
        k(   98) = (   0.4000000   0.1539601   0.0000000), wk =   0.0177778
        k(   99) = (   0.4666667   0.2694303   0.0000000), wk =   0.0177778
        k(  100) = (   0.4666667   0.3464103   0.0000000), wk =   0.0177778
        k(  101) = (   0.4666667   0.4233904   0.0000000), wk =   0.0177778
        k(  102) = (   0.4666667   0.5003705   0.0000000), wk =   0.0177778
        k(  103) = (   0.4666667   0.5773505   0.0000000), wk =   0.0177778
        k(  104) = (   0.4666667   0.6543306   0.0000000), wk =   0.0177778
        k(  105) = (   0.4666667   0.7313107   0.0000000), wk =   0.0177778
        k(  106) = (   0.4666667   0.8082908   0.0000000), wk =   0.0177778
        k(  107) = (   0.4666667  -0.2694303   0.0000000), wk =   0.0177778
        k(  108) = (   0.4666667  -0.1924502   0.0000000), wk =   0.0177778
        k(  109) = (   0.4666667  -0.1154701   0.0000000), wk =   0.0177778
        k(  110) = (   0.4666667  -0.0384900   0.0000000), wk =   0.0177778
        k(  111) = (   0.4666667   0.0384900   0.0000000), wk =   0.0177778
        k(  112) = (   0.4666667   0.1154701   0.0000000), wk =   0.0177778
        k(  113) = (   0.4666667   0.1924502   0.0000000), wk =   0.0177778

                       cryst. coord.
        k(    1) = (   0.0000000   0.0000000   0.0000000), wk =   0.0088889
        k(    2) = (   0.0000000   0.0666667   0.0000000), wk =   0.0177778
        k(    3) = (   0.0000000   0.1333333   0.0000000), wk =   0.0177778
        k(    4) = (   0.0000000   0.2000000   0.0000000), wk =   0.0177778
        k(    5) = (   0.0000000   0.2666667   0.0000000), wk =   0.0177778
        k(    6) = (   0.0000000   0.3333333   0.0000000), wk =   0.0177778
        k(    7) = (   0.0000000   0.4000000   0.0000000), wk =   0.0177778
        k(    8) = (   0.0000000   0.4666667   0.0000000), wk =   0.0177778
        k(    9) = (   0.0666667   0.0000000   0.0000000), wk =   0.0177778
        k(   10) = (   0.0666667   0.0666667   0.0000000), wk =   0.0177778
        k(   11) = (   0.0666667   0.1333333   0.0000000), wk =   0.0177778
        k(   12) = (   0.0666667   0.2000000   0.0000000), wk =   0.0177778
        k(   13) = (   0.0666667   0.2666667   0.0000000), wk =   0.0177778
        k(   14) = (   0.0666667   0.3333333   0.0000000), wk =   0.0177778
        k(   15) = (   0.0666667   0.4000000   0.0000000), wk =   0.0177778
        k(   16) = (   0.0666667   0.4666667   0.0000000), wk =   0.0177778
        k(   17) = (   0.0666667  -0.4666667   0.0000000), wk =   0.0177778
        k(   18) = (   0.0666667  -0.4000000   0.0000000), wk =   0.0177778
        k(   19) = (   0.0666667  -0.3333333   0.0000000), wk =   0.0177778
        k(   20) = (   0.0666667  -0.2666667   0.0000000), wk =   0.0177778
        k(   21) = (   0.0666667  -0.2000000   0.0000000), wk =   0.0177778
        k(   22) = (   0.0666667  -0.1333333   0.0000000), wk =   0.0177778
        k(   23) = (   0.0666667  -0.0666667   0.0000000), wk =   0.0177778
        k(   24) = (   0.1333333   0.0000000   0.0000000), wk =   0.0177778
        k(   25) = (   0.1333333   0.0666667   0.0000000), wk =   0.0177778
        k(   26) = (   0.1333333   0.1333333   0.0000000), wk =   0.0177778
        k(   27) = (   0.1333333   0.2000000   0.0000000), wk =   0.0177778
        k(   28) = (   0.1333333   0.2666667   0.0000000), wk =   0.0177778
        k(   29) = (   0.1333333   0.3333333   0.0000000), wk =   0.0177778
        k(   30) = (   0.1333333   0.4000000   0.0000000), wk =   0.0177778
        k(   31) = (   0.1333333   0.4666667   0.0000000), wk =   0.0177778
        k(   32) = (   0.1333333  -0.4666667   0.0000000), wk =   0.0177778
        k(   33) = (   0.1333333  -0.4000000   0.0000000), wk =   0.0177778
        k(   34) = (   0.1333333  -0.3333333   0.0000000), wk =   0.0177778
        k(   35) = (   0.1333333  -0.2666667   0.0000000), wk =   0.0177778
        k(   36) = (   0.1333333  -0.2000000   0.0000000), wk =   0.0177778
        k(   37) = (   0.1333333  -0.1333333   0.0000000), wk =   0.0177778
        k(   38) = (   0.1333333  -0.0666667   0.0000000), wk =   0.0177778
        k(   39) = (   0.2000000   0.0000000   0.0000000), wk =   0.0177778
        k(   40) = (   0.2000000   0.0666667   0.0000000), wk =   0.0177778
        k(   41) = (   0.2000000   0.1333333   0.0000000), wk =   0.0177778
        k(   42) = (   0.2000000   0.2000000   0.0000000), wk =   0.0177778
        k(   43) = (   0.2000000   0.2666667   0.0000000), wk =   0.0177778
        k(   44) = (   0.2000000   0.3333333   0.0000000), wk =   0.0177778
        k(   45) = (   0.2000000   0.4000000   0.0000000), wk =   0.0177778
        k(   46) = (   0.2000000   0.4666667   0.0000000), wk =   0.0177778
        k(   47) = (   0.2000000  -0.4666667   0.0000000), wk =   0.0177778
        k(   48) = (   0.2000000  -0.4000000   0.0000000), wk =   0.0177778
        k(   49) = (   0.2000000  -0.3333333   0.0000000), wk =   0.0177778
        k(   50) = (   0.2000000  -0.2666667   0.0000000), wk =   0.0177778
        k(   51) = (   0.2000000  -0.2000000   0.0000000), wk =   0.0177778
        k(   52) = (   0.2000000  -0.1333333   0.0000000), wk =   0.0177778
        k(   53) = (   0.2000000  -0.0666667   0.0000000), wk =   0.0177778
        k(   54) = (   0.2666667   0.0000000   0.0000000), wk =   0.0177778
        k(   55) = (   0.2666667   0.0666667   0.0000000), wk =   0.0177778
        k(   56) = (   0.2666667   0.1333333   0.0000000), wk =   0.0177778
        k(   57) = (   0.2666667   0.2000000   0.0000000), wk =   0.0177778
        k(   58) = (   0.2666667   0.2666667   0.0000000), wk =   0.0177778
        k(   59) = (   0.2666667   0.3333333   0.0000000), wk =   0.0177778
        k(   60) = (   0.2666667   0.4000000   0.0000000), wk =   0.0177778
        k(   61) = (   0.2666667   0.4666667   0.0000000), wk =   0.0177778
        k(   62) = (   0.2666667  -0.4666667   0.0000000), wk =   0.0177778
        k(   63) = (   0.2666667  -0.4000000   0.0000000), wk =   0.0177778
        k(   64) = (   0.2666667  -0.3333333   0.0000000), wk =   0.0177778
        k(   65) = (   0.2666667  -0.2666667   0.0000000), wk =   0.0177778
        k(   66) = (   0.2666667  -0.2000000   0.0000000), wk =   0.0177778
        k(   67) = (   0.2666667  -0.1333333   0.0000000), wk =   0.0177778
        k(   68) = (   0.2666667  -0.0666667   0.0000000), wk =   0.0177778
        k(   69) = (   0.3333333   0.0000000   0.0000000), wk =   0.0177778
        k(   70) = (   0.3333333   0.0666667   0.0000000), wk =   0.0177778
        k(   71) = (   0.3333333   0.1333333   0.0000000), wk =   0.0177778
        k(   72) = (   0.3333333   0.2000000   0.0000000), wk =   0.0177778
        k(   73) = (   0.3333333   0.2666667   0.0000000), wk =   0.0177778
        k(   74) = (   0.3333333   0.3333333   0.0000000), wk =   0.0177778
        k(   75) = (   0.3333333   0.4000000   0.0000000), wk =   0.0177778
        k(   76) = (   0.3333333   0.4666667   0.0000000), wk =   0.0177778
        k(   77) = (   0.3333333  -0.4666667   0.0000000), wk =   0.0177778
        k(   78) = (   0.3333333  -0.4000000   0.0000000), wk =   0.0177778
        k(   79) = (   0.3333333  -0.3333333   0.0000000), wk =   0.0177778
        k(   80) = (   0.3333333  -0.2666667   0.0000000), wk =   0.0177778
        k(   81) = (   0.3333333  -0.2000000   0.0000000), wk =   0.0177778
        k(   82) = (   0.3333333  -0.1333333   0.0000000), wk =   0.0177778
        k(   83) = (   0.3333333  -0.0666667   0.0000000), wk =   0.0177778
        k(   84) = (   0.4000000   0.0000000   0.0000000), wk =   0.0177778
        k(   85) = (   0.4000000   0.0666667   0.0000000), wk =   0.0177778
        k(   86) = (   0.4000000   0.1333333   0.0000000), wk =   0.0177778
        k(   87) = (   0.4000000   0.2000000   0.0000000), wk =   0.0177778
        k(   88) = (   0.4000000   0.2666667   0.0000000), wk =   0.0177778
        k(   89) = (   0.4000000   0.3333333   0.0000000), wk =   0.0177778
        k(   90) = (   0.4000000   0.4000000   0.0000000), wk =   0.0177778
        k(   91) = (   0.4000000   0.4666667   0.0000000), wk =   0.0177778
        k(   92) = (   0.4000000  -0.4666667   0.0000000), wk =   0.0177778
        k(   93) = (   0.4000000  -0.4000000   0.0000000), wk =   0.0177778
        k(   94) = (   0.4000000  -0.3333333   0.0000000), wk =   0.0177778
        k(   95) = (   0.4000000  -0.2666667   0.0000000), wk =   0.0177778
        k(   96) = (   0.4000000  -0.2000000   0.0000000), wk =   0.0177778
        k(   97) = (   0.4000000  -0.1333333   0.0000000), wk =   0.0177778
        k(   98) = (   0.4000000  -0.0666667   0.0000000), wk =   0.0177778
        k(   99) = (   0.4666667   0.0000000   0.0000000), wk =   0.0177778
        k(  100) = (   0.4666667   0.0666667   0.0000000), wk =   0.0177778
        k(  101) = (   0.4666667   0.1333333   0.0000000), wk =   0.0177778
        k(  102) = (   0.4666667   0.2000000   0.0000000), wk =   0.0177778
        k(  103) = (   0.4666667   0.2666667   0.0000000), wk =   0.0177778
        k(  104) = (   0.4666667   0.3333333   0.0000000), wk =   0.0177778
        k(  105) = (   0.4666667   0.4000000   0.0000000), wk =   0.0177778
        k(  106) = (   0.4666667   0.4666667   0.0000000), wk =   0.0177778
        k(  107) = (   0.4666667  -0.4666667   0.0000000), wk =   0.0177778
        k(  108) = (   0.4666667  -0.4000000   0.0000000), wk =   0.0177778
        k(  109) = (   0.4666667  -0.3333333   0.0000000), wk =   0.0177778
        k(  110) = (   0.4666667  -0.2666667   0.0000000), wk =   0.0177778
        k(  111) = (   0.4666667  -0.2000000   0.0000000), wk =   0.0177778
        k(  112) = (   0.4666667  -0.1333333   0.0000000), wk =   0.0177778
        k(  113) = (   0.4666667  -0.0666667   0.0000000), wk =   0.0177778

     Dense  grid:    94953 G-vectors     FFT dimensions: (  30,  30, 270)

     Dynamical RAM for                 wfc:       2.54 MB

     Dynamical RAM for     wfc (w. buffer):      22.89 MB

     Dynamical RAM for           str. fact:       1.45 MB

     Dynamical RAM for           local pot:       0.00 MB

     Dynamical RAM for          nlocal pot:       5.81 MB

     Dynamical RAM for                qrad:       0.44 MB

     Dynamical RAM for          rho,v,vnew:       9.91 MB

     Dynamical RAM for               rhoin:       3.30 MB

     Dynamical RAM for            rho*nmix:      23.18 MB

     Dynamical RAM for           G-vectors:       6.16 MB

     Dynamical RAM for          h,s,v(r/c):       0.04 MB

     Dynamical RAM for          <psi|beta>:       0.01 MB

     Dynamical RAM for                 psi:       5.09 MB

     Dynamical RAM for                hpsi:       5.09 MB

     Dynamical RAM for      wfcinit/wfcrot:       5.09 MB

     Estimated static dynamical RAM per process >      62.13 MB

     Estimated max dynamical RAM per process >      95.53 MB

     Estimated total dynamical RAM >       1.15 GB

     Adding external electric field
        E field amplitude [Ha a.u.]:  1.0000E-03
        Potential amp.        0.0794 Ry
        Total length         39.7126 bohr


     Initial potential from superposition of free atoms

     starting charge      15.9998, renormalised to      16.0000

     negative rho (up, down):  7.732E-06 0.000E+00


     %%%%%%%%%%%%%%%%%%%%%%%%%%%%%%%%%%%%%%%%%%%%%%%%%%%%%%%%%%%%%%%%%%%%%%%%
     %                                                                      %
     % You are using vdW-DF, which was implemented by the Thonhauser group. %
     % Please cite the following two papers that made this development      %
     % possible and the two reviews that describe the various versions:     %
     %                                                                      %
     %   T. Thonhauser et al., PRL 115, 136402 (2015).                      %
     %   T. Thonhauser et al., PRB 76,  125112 (2007).                      %
     %   K. Berland et al., Rep. Prog. Phys. 78, 066501 (2015).             %
     %   D.C. Langreth et al., J. Phys.: Condens. Matter 21, 084203 (2009). %
     %                                                                      %
     % If you are calculating stress with vdW-DF, please also cite:         %
     %                                                                      %
     %   R. Sabatini et al., J. Phys.: Condens. Matter 24, 424209 (2012).   %
     %                                                                      %
     %   And for spin-polarized stress cases also:                          %
     %   C.M. Frostenson et al., Electr. Struct. 4, 014001 (2022).          %
     %                                                                      %
     %%%%%%%%%%%%%%%%%%%%%%%%%%%%%%%%%%%%%%%%%%%%%%%%%%%%%%%%%%%%%%%%%%%%%%%%

     %%%%%%%%%%%%%%%%%%%%%%%%%%%%%%%%%%%%%%%%%%%%%%%%%%%%%%%%%%%%%%%%%%%%%%%%
     %                                                                      %
     %  vdW-DF NEWS:                                                        %
     %                                                                      %
     %  * vdW-DF3-mc is now available. DOI: 10.1103/hp9d-4kpf               %
     %    use with input_dft = 'vdW-DF3-mc'                                 %
     %  * vdW-DF3 is now available. DOI: 10.1021/acs.jctc.0c00471           %
     %    use with input_dft = 'vdW-DF3-opt1' or 'vdW-DF3-opt2'             %
     %                                                                      %
     %  * Unscreened and range-separated hybrid vdW-DF-cx functionals       %
     %    DOI: 10.1063/1.4986522 and 10.1088/1361-648X/ac2ad2               %
     %    use with input_dft = 'vdW-DF-cx0' and 'vdW-DF-ahcx'               %
     %  * Unscreened and range-separated hybrid vdW-DF2-b86r functionals    %
     %    DOI: 10.1063/1.4986522 and DOI: 10.1103/PhysRevX.12.041003        %
     %    use with input_dft = 'vdW-DF2-br0' and 'vdW-DF2-ahbr'             %
     %                                                                      %
     %%%%%%%%%%%%%%%%%%%%%%%%%%%%%%%%%%%%%%%%%%%%%%%%%%%%%%%%%%%%%%%%%%%%%%%%


     Carrying out vdW-DF run using the following parameters:
     Nqs    =  20  Npoints =  1024  r_max =  100.000
     q_mesh =  0.00001000  0.04494208  0.09755937  0.15916263
               0.23128650  0.31572767  0.41458969  0.53033537
               0.66584808  0.82450364  1.01025438  1.22772762
               1.48234092  1.78043706  2.12944203  2.53805004
               3.01644009  3.57652955  4.23227104  5.00000000


     -----------------------------------------------
     Non-local corr. energy    =       0.17270429 Ry
     -----------------------------------------------

     Starting wfcs are   16 randomized atomic wfcs

     total cpu time spent up to now is       11.4 secs

     Self-consistent Calculation

     iteration #  1     ecut=    90.00 Ry     beta= 0.70
     Davidson diagonalization with overlap

---- Real-time Memory Report at c_bands before calling an iterative solver
           225 MiB given to the printing process from OS
             0 MiB allocation reported by mallinfo(arena+hblkhd)
         27803 MiB available memory on the node where the printing process lives
------------------
     ethr =  1.00E-02,  avg # of iterations =  6.6


     -----------------------------------------------
     Non-local corr. energy    =       0.19622933 Ry
     -----------------------------------------------


     total cpu time spent up to now is       18.2 secs

     total energy              =     -48.11561050 Ry
     estimated scf accuracy    <       0.36441706 Ry

     iteration #  2     ecut=    90.00 Ry     beta= 0.70
     Davidson diagonalization with overlap

---- Real-time Memory Report at c_bands before calling an iterative solver
           279 MiB given to the printing process from OS
             0 MiB allocation reported by mallinfo(arena+hblkhd)
         27124 MiB available memory on the node where the printing process lives
------------------
     ethr =  2.28E-03,  avg # of iterations =  5.5


     -----------------------------------------------
     Non-local corr. energy    =       0.19632761 Ry
     -----------------------------------------------


     total cpu time spent up to now is       24.5 secs

     total energy              =     -48.16221759 Ry
     estimated scf accuracy    <       0.00698604 Ry

     iteration #  3     ecut=    90.00 Ry     beta= 0.70
     Davidson diagonalization with overlap

---- Real-time Memory Report at c_bands before calling an iterative solver
           282 MiB given to the printing process from OS
             0 MiB allocation reported by mallinfo(arena+hblkhd)
         27309 MiB available memory on the node where the printing process lives
------------------
     ethr =  4.37E-05,  avg # of iterations = 11.6


     -----------------------------------------------
     Non-local corr. energy    =       0.19621725 Ry
     -----------------------------------------------


     total cpu time spent up to now is       34.1 secs

     total energy              =     -48.16317610 Ry
     estimated scf accuracy    <       0.00854052 Ry

     iteration #  4     ecut=    90.00 Ry     beta= 0.70
     Davidson diagonalization with overlap

---- Real-time Memory Report at c_bands before calling an iterative solver
           285 MiB given to the printing process from OS
             0 MiB allocation reported by mallinfo(arena+hblkhd)
         27204 MiB available memory on the node where the printing process lives
------------------
     ethr =  4.37E-05,  avg # of iterations =  7.3


     -----------------------------------------------
     Non-local corr. energy    =       0.19615613 Ry
     -----------------------------------------------


     total cpu time spent up to now is       39.8 secs

     total energy              =     -48.16480431 Ry
     estimated scf accuracy    <       0.00049106 Ry

     iteration #  5     ecut=    90.00 Ry     beta= 0.70
     Davidson diagonalization with overlap

---- Real-time Memory Report at c_bands before calling an iterative solver
           288 MiB given to the printing process from OS
             0 MiB allocation reported by mallinfo(arena+hblkhd)
         27371 MiB available memory on the node where the printing process lives
------------------
     ethr =  3.07E-06,  avg # of iterations =  7.9


     -----------------------------------------------
     Non-local corr. energy    =       0.19622785 Ry
     -----------------------------------------------


     total cpu time spent up to now is       46.2 secs

     total energy              =     -48.16488146 Ry
     estimated scf accuracy    <       0.00012278 Ry

     iteration #  6     ecut=    90.00 Ry     beta= 0.70
     Davidson diagonalization with overlap

---- Real-time Memory Report at c_bands before calling an iterative solver
           291 MiB given to the printing process from OS
             0 MiB allocation reported by mallinfo(arena+hblkhd)
         27338 MiB available memory on the node where the printing process lives
------------------
     ethr =  7.67E-07,  avg # of iterations =  5.2


     -----------------------------------------------
     Non-local corr. energy    =       0.19627327 Ry
     -----------------------------------------------


     total cpu time spent up to now is       51.8 secs

     total energy              =     -48.16490515 Ry
     estimated scf accuracy    <       0.00000807 Ry

     iteration #  7     ecut=    90.00 Ry     beta= 0.70
     Davidson diagonalization with overlap

---- Real-time Memory Report at c_bands before calling an iterative solver
           294 MiB given to the printing process from OS
             0 MiB allocation reported by mallinfo(arena+hblkhd)
         27371 MiB available memory on the node where the printing process lives
------------------
     ethr =  5.04E-08,  avg # of iterations =  2.0


     -----------------------------------------------
     Non-local corr. energy    =       0.19629280 Ry
     -----------------------------------------------


     total cpu time spent up to now is       56.7 secs

     total energy              =     -48.16490696 Ry
     estimated scf accuracy    <       0.00000016 Ry

     iteration #  8     ecut=    90.00 Ry     beta= 0.70
     Davidson diagonalization with overlap

---- Real-time Memory Report at c_bands before calling an iterative solver
           297 MiB given to the printing process from OS
             0 MiB allocation reported by mallinfo(arena+hblkhd)
         27440 MiB available memory on the node where the printing process lives
------------------
     ethr =  1.01E-09,  avg # of iterations =  3.4


     -----------------------------------------------
     Non-local corr. energy    =       0.19629112 Ry
     -----------------------------------------------


     total cpu time spent up to now is       62.6 secs

     total energy              =     -48.16490705 Ry
     estimated scf accuracy    <       0.00000007 Ry

     iteration #  9     ecut=    90.00 Ry     beta= 0.70
     Davidson diagonalization with overlap

---- Real-time Memory Report at c_bands before calling an iterative solver
           300 MiB given to the printing process from OS
             0 MiB allocation reported by mallinfo(arena+hblkhd)
         27275 MiB available memory on the node where the printing process lives
------------------
     ethr =  4.19E-10,  avg # of iterations =  3.0


     -----------------------------------------------
     Non-local corr. energy    =       0.19629169 Ry
     -----------------------------------------------


     total cpu time spent up to now is       68.0 secs

     total energy              =     -48.16490706 Ry
     estimated scf accuracy    <       0.00000001 Ry

     iteration # 10     ecut=    90.00 Ry     beta= 0.70
     Davidson diagonalization with overlap

---- Real-time Memory Report at c_bands before calling an iterative solver
           303 MiB given to the printing process from OS
             0 MiB allocation reported by mallinfo(arena+hblkhd)
         27339 MiB available memory on the node where the printing process lives
------------------
     ethr =  6.33E-11,  avg # of iterations =  1.8


     -----------------------------------------------
     Non-local corr. energy    =       0.19629187 Ry
     -----------------------------------------------


     total cpu time spent up to now is       72.5 secs

     End of self-consistent calculation

          k = 0.0000 0.0000 0.0000 ( 11659 PWs)   bands (ev):

   -20.6628 -20.5525  -9.1272  -8.3291  -4.0760  -4.0751  -4.0538  -4.0514
     2.0115   2.4800   3.2444   4.1885   4.3807   5.6660

     occupation numbers 
     1.0000   1.0000   1.0000   1.0000   1.0000   1.0000   1.0000   1.0000
     0.0000   0.0000   0.0000   0.0000   0.0000   0.0000

          k = 0.0000 0.0770 0.0000 ( 11791 PWs)   bands (ev):

   -20.5570 -20.4475  -8.9988  -8.2042  -4.5016  -4.4784  -4.3002  -4.2756
     2.1535   2.6231   3.3909   4.3339   4.5198   5.8028

     occupation numbers 
     1.0000   1.0000   1.0000   1.0000   1.0000   1.0000   1.0000   1.0000
     0.0000   0.0000   0.0000   0.0000   0.0000   0.0000

          k = 0.0000 0.1540 0.0000 ( 11788 PWs)   bands (ev):

   -20.2405 -20.1331  -8.6158  -7.8317  -5.6348  -5.6075  -4.8697  -4.8439
     2.5798   3.0524   3.8306   4.7697   4.9366   6.2124

     occupation numbers 
     1.0000   1.0000   1.0000   1.0000   1.0000   1.0000   1.0000   1.0000
     0.0000   0.0000   0.0000   0.0000   0.0000   0.0000

          k = 0.0000 0.2309 0.0000 ( 11848 PWs)   bands (ev):

   -19.7154 -19.6116  -7.9844  -7.2200  -7.1909  -7.1565  -5.5820  -5.5550
     3.2892   3.7654   4.5631   5.4927   5.6259   6.8691

     occupation numbers 
     1.0000   1.0000   1.0000   1.0000   1.0000   1.0000   1.0000   1.0000
     0.0000   0.0000   0.0000   0.0000   0.0000   0.0000

          k = 0.0000 0.3079 0.0000 ( 11876 PWs)   bands (ev):

   -18.9860 -18.8870  -8.9342  -8.8919  -7.1184  -6.3835  -6.2752  -6.2473
     4.2782   4.7411   5.5798   5.6886   5.9061   6.5102

     occupation numbers 
     1.0000   1.0000   1.0000   1.0000   1.0000   1.0000   1.0000   1.0000
     0.0000   0.0000   0.0000   0.0000   0.0000   0.0000

          k = 0.0000 0.3849 0.0000 ( 11914 PWs)   bands (ev):

   -18.0595 -17.9667 -10.7109 -10.6599  -6.8520  -6.8235  -6.0474  -5.3618
     3.7280   4.0926   5.5446   6.0606   6.7572   6.8573

     occupation numbers 
     1.0000   1.0000   1.0000   1.0000   1.0000   1.0000   1.0000   1.0000
     0.0000   0.0000   0.0000   0.0000   0.0000   0.0000

          k = 0.0000 0.4619 0.0000 ( 11910 PWs)   bands (ev):

   -16.9516 -16.8663 -12.4217 -12.3625  -7.2589  -7.2300  -4.8471  -4.2544
     1.9401   2.3533   6.5340   6.6626   7.1276   7.6255

     occupation numbers 
     1.0000   1.0000   1.0000   1.0000   1.0000   1.0000   1.0000   1.0000
     0.0000   0.0000   0.0000   0.0000   0.0000   0.0000

          k = 0.0000 0.5389 0.0000 ( 11924 PWs)   bands (ev):

   -15.7337 -15.6627 -13.9440 -13.8838  -7.4682  -7.4392  -3.7806  -3.4014
     0.6875   1.0363   6.4334   6.5809   8.8897   9.4256

     occupation numbers 
     1.0000   1.0000   1.0000   1.0000   1.0000   1.0000   1.0000   1.0000
     0.0000   0.0000   0.0000   0.0000   0.0000   0.0000

          k = 0.0667 0.0385 0.0000 ( 11791 PWs)   bands (ev):

   -20.5570 -20.4475  -8.9988  -8.2042  -4.5018  -4.4766  -4.3000  -4.2775
     2.1535   2.6232   3.3909   4.3339   4.5198   5.8028

     occupation numbers 
     1.0000   1.0000   1.0000   1.0000   1.0000   1.0000   1.0000   1.0000
     0.0000   0.0000   0.0000   0.0000   0.0000   0.0000

          k = 0.0667 0.1155 0.0000 ( 11813 PWs)   bands (ev):

   -20.3459 -20.2378  -8.7431  -7.9554  -5.2284  -5.2040  -4.7488  -4.7257
     2.4378   2.9094   3.6841   4.6246   4.7980   6.0768

     occupation numbers 
     1.0000   1.0000   1.0000   1.0000   1.0000   1.0000   1.0000   1.0000
     0.0000   0.0000   0.0000   0.0000   0.0000   0.0000

          k = 0.0667 0.1925 0.0000 ( 11832 PWs)   bands (ev):

   -19.9251 -19.8199  -8.2357  -7.4627  -6.4829  -6.4545  -5.4816  -5.4561
     3.0060   3.4810   4.2703   5.2048   5.3533   6.6209

     occupation numbers 
     1.0000   1.0000   1.0000   1.0000   1.0000   1.0000   1.0000   1.0000
     0.0000   0.0000   0.0000   0.0000   0.0000   0.0000

          k = 0.0667 0.2694 0.0000 ( 11880 PWs)   bands (ev):

   -19.2979 -19.1968  -8.0741  -8.0377  -7.4860  -6.7372  -6.2453  -6.2173
     3.8562   4.3331   5.1489   6.0614   6.1642   6.4901

     occupation numbers 
     1.0000   1.0000   1.0000   1.0000   1.0000   1.0000   1.0000   1.0000
     0.0000   0.0000   0.0000   0.0000   0.0000   0.0000

          k = 0.0667 0.3464 0.0000 ( 11910 PWs)   bands (ev):

   -18.4698 -18.3742  -9.8036  -9.7580  -6.9118  -6.8822  -6.5138  -5.8034
     4.5988   4.9075   4.9937   5.5083   6.3205   7.1642

     occupation numbers 
     1.0000   1.0000   1.0000   1.0000   1.0000   1.0000   1.0000   1.0000
     0.0000   0.0000   0.0000   0.0000   0.0000   0.0000

          k = 0.0667 0.4234 0.0000 ( 11938 PWs)   bands (ev):

   -17.4514 -17.3627 -11.5334 -11.4789  -7.4187  -7.3882  -5.3643  -4.7192
     2.7676   3.1446   6.3792   6.8762   7.1313   7.2571

     occupation numbers 
     1.0000   1.0000   1.0000   1.0000   1.0000   1.0000   1.0000   1.0000
     0.0000   0.0000   0.0000   0.0000   0.0000   0.0000

          k = 0.0667 0.5004 0.0000 ( 11920 PWs)   bands (ev):

   -16.2713 -16.1915 -13.1623 -13.1009  -7.7334  -7.7024  -4.1703  -3.6638
     1.1856   1.5697   6.9361   7.0849   8.0733   8.5836

     occupation numbers 
     1.0000   1.0000   1.0000   1.0000   1.0000   1.0000   1.0000   1.0000
     0.0000   0.0000   0.0000   0.0000   0.0000   0.0000

          k = 0.0667 0.5774 0.0000 ( 11913 PWs)   bands (ev):

   -15.2832 -15.2375 -14.2748 -14.2375  -7.8399  -7.8087  -3.4721  -3.1880
     0.4924   0.7738   6.8828   7.0387   9.9035   9.9961

     occupation numbers 
     1.0000   1.0000   1.0000   1.0000   1.0000   1.0000   1.0000   1.0000
     0.0000   0.0000   0.0000   0.0000   0.0000   0.0000

          k = 0.0667-0.5004 0.0000 ( 11920 PWs)   bands (ev):

   -16.2713 -16.1915 -13.1623 -13.1009  -7.7334  -7.7024  -4.1703  -3.6638
     1.1856   1.5697   6.9361   7.0849   8.0733   8.5836

     occupation numbers 
     1.0000   1.0000   1.0000   1.0000   1.0000   1.0000   1.0000   1.0000
     0.0000   0.0000   0.0000   0.0000   0.0000   0.0000

          k = 0.0667-0.4234 0.0000 ( 11938 PWs)   bands (ev):

   -17.4514 -17.3627 -11.5334 -11.4789  -7.4187  -7.3882  -5.3643  -4.7192
     2.7676   3.1446   6.3792   6.8762   7.1313   7.2570

     occupation numbers 
     1.0000   1.0000   1.0000   1.0000   1.0000   1.0000   1.0000   1.0000
     0.0000   0.0000   0.0000   0.0000   0.0000   0.0000

          k = 0.0667-0.3464 0.0000 ( 11910 PWs)   bands (ev):

   -18.4698 -18.3742  -9.8035  -9.7580  -6.9119  -6.8822  -6.5138  -5.8034
     4.5988   4.9075   4.9937   5.5083   6.3206   7.1642

     occupation numbers 
     1.0000   1.0000   1.0000   1.0000   1.0000   1.0000   1.0000   1.0000
     0.0000   0.0000   0.0000   0.0000   0.0000   0.0000

          k = 0.0667-0.2694 0.0000 ( 11880 PWs)   bands (ev):

   -19.2979 -19.1968  -8.0741  -8.0378  -7.4860  -6.7372  -6.2454  -6.2171
     3.8562   4.3331   5.1489   6.0614   6.1641   6.4900

     occupation numbers 
     1.0000   1.0000   1.0000   1.0000   1.0000   1.0000   1.0000   1.0000
     0.0000   0.0000   0.0000   0.0000   0.0000   0.0000

          k = 0.0667-0.1925 0.0000 ( 11832 PWs)   bands (ev):

   -19.9251 -19.8199  -8.2357  -7.4627  -6.4826  -6.4548  -5.4819  -5.4557
     3.0060   3.4810   4.2703   5.2048   5.3533   6.6208

     occupation numbers 
     1.0000   1.0000   1.0000   1.0000   1.0000   1.0000   1.0000   1.0000
     0.0000   0.0000   0.0000   0.0000   0.0000   0.0000

          k = 0.0667-0.1155 0.0000 ( 11813 PWs)   bands (ev):

   -20.3459 -20.2378  -8.7431  -7.9554  -5.2278  -5.2047  -4.7494  -4.7249
     2.4378   2.9094   3.6841   4.6246   4.7980   6.0768

     occupation numbers 
     1.0000   1.0000   1.0000   1.0000   1.0000   1.0000   1.0000   1.0000
     0.0000   0.0000   0.0000   0.0000   0.0000   0.0000

          k = 0.0667-0.0385 0.0000 ( 11791 PWs)   bands (ev):

   -20.5570 -20.4475  -8.9988  -8.2042  -4.5012  -4.4773  -4.3006  -4.2767
     2.1535   2.6231   3.3909   4.3339   4.5198   5.8029

     occupation numbers 
     1.0000   1.0000   1.0000   1.0000   1.0000   1.0000   1.0000   1.0000
     0.0000   0.0000   0.0000   0.0000   0.0000   0.0000

          k = 0.1333 0.0770 0.0000 ( 11788 PWs)   bands (ev):

   -20.2405 -20.1331  -8.6158  -7.8317  -5.6349  -5.6061  -4.8696  -4.8455
     2.5798   3.0524   3.8306   4.7697   4.9366   6.2124

     occupation numbers 
     1.0000   1.0000   1.0000   1.0000   1.0000   1.0000   1.0000   1.0000
     0.0000   0.0000   0.0000   0.0000   0.0000   0.0000

          k = 0.1333 0.1540 0.0000 ( 11832 PWs)   bands (ev):

   -19.9251 -19.8199  -8.2357  -7.4627  -6.4829  -6.4538  -5.4815  -5.4569
     3.0060   3.4810   4.2703   5.2048   5.3533   6.6209

     occupation numbers 
     1.0000   1.0000   1.0000   1.0000   1.0000   1.0000   1.0000   1.0000
     0.0000   0.0000   0.0000   0.0000   0.0000   0.0000

          k = 0.1333 0.2309 0.0000 ( 11879 PWs)   bands (ev):

   -19.4022 -19.3004  -7.6098  -7.5844  -7.5574  -6.8559  -6.4499  -6.4252
     3.7155   4.1937   5.0029   5.9271   6.0471   6.8058

     occupation numbers 
     1.0000   1.0000   1.0000   1.0000   1.0000   1.0000   1.0000   1.0000
     0.0000   0.0000   0.0000   0.0000   0.0000   0.0000

          k = 0.1333 0.3079 0.0000 ( 11929 PWs)   bands (ev):

   -18.6763 -18.5793  -8.9875  -8.9525  -7.3634  -7.3344  -6.7500  -6.0278
     4.7042   5.1366   5.2701   5.4233   6.0279   6.9223

     occupation numbers 
     1.0000   1.0000   1.0000   1.0000   1.0000   1.0000   1.0000   1.0000
     0.0000   0.0000   0.0000   0.0000   0.0000   0.0000

          k = 0.1333 0.3849 0.0000 ( 11925 PWs)   bands (ev):

   -17.7556 -17.6648 -10.5903 -10.5438  -8.0433  -8.0099  -5.6861  -5.0131
     3.4879   3.7731   5.9701   6.4586   7.3421   8.1110

     occupation numbers 
     1.0000   1.0000   1.0000   1.0000   1.0000   1.0000   1.0000   1.0000
     0.0000   0.0000   0.0000   0.0000   0.0000   0.0000

          k = 0.1333 0.4619 0.0000 ( 11927 PWs)   bands (ev):

   -16.6571 -16.5738 -12.2141 -12.1580  -8.4915  -8.4560  -4.4876  -3.9032
     1.8164   2.1582   7.4915   7.9626   8.2740   8.4294

     occupation numbers 
     1.0000   1.0000   1.0000   1.0000   1.0000   1.0000   1.0000   1.0000
     0.0000   0.0000   0.0000   0.0000   0.0000   0.0000

          k = 0.1333 0.5389 0.0000 ( 11935 PWs)   bands (ev):

   -15.4550 -15.3860 -13.6899 -13.6322  -8.7154  -8.6789  -3.4032  -3.0239
     0.6050   0.8798   8.1306   8.3163   9.2744   9.7034

     occupation numbers 
     1.0000   1.0000   1.0000   1.0000   1.0000   1.0000   1.0000   1.0000
     0.0000   0.0000   0.0000   0.0000   0.0000   0.0000

          k = 0.1333 0.6158 0.0000 ( 11935 PWs)   bands (ev):

   -15.4550 -15.3860 -13.6899 -13.6322  -8.7154  -8.6789  -3.4032  -3.0239
     0.6050   0.8798   8.1306   8.3163   9.2744   9.7034

     occupation numbers 
     1.0000   1.0000   1.0000   1.0000   1.0000   1.0000   1.0000   1.0000
     0.0000   0.0000   0.0000   0.0000   0.0000   0.0000

          k = 0.1333-0.4619 0.0000 ( 11927 PWs)   bands (ev):

   -16.6571 -16.5739 -12.2141 -12.1581  -8.4916  -8.4559  -4.4876  -3.9032
     1.8164   2.1582   7.4915   7.9626   8.2740   8.4292

     occupation numbers 
     1.0000   1.0000   1.0000   1.0000   1.0000   1.0000   1.0000   1.0000
     0.0000   0.0000   0.0000   0.0000   0.0000   0.0000

          k = 0.1333-0.3849 0.0000 ( 11925 PWs)   bands (ev):

   -17.7556 -17.6648 -10.5903 -10.5439  -8.0434  -8.0098  -5.6861  -5.0130
     3.4879   3.7731   5.9701   6.4586   7.3421   8.1108

     occupation numbers 
     1.0000   1.0000   1.0000   1.0000   1.0000   1.0000   1.0000   1.0000
     0.0000   0.0000   0.0000   0.0000   0.0000   0.0000

          k = 0.1333-0.3079 0.0000 ( 11929 PWs)   bands (ev):

   -18.6763 -18.5793  -8.9874  -8.9527  -7.3637  -7.3341  -6.7500  -6.0278
     4.7042   5.1366   5.2701   5.4232   6.0279   6.9223

     occupation numbers 
     1.0000   1.0000   1.0000   1.0000   1.0000   1.0000   1.0000   1.0000
     0.0000   0.0000   0.0000   0.0000   0.0000   0.0000

          k = 0.1333-0.2309 0.0000 ( 11879 PWs)   bands (ev):

   -19.4022 -19.3004  -7.6098  -7.5840  -7.5580  -6.8559  -6.4505  -6.4246
     3.7155   4.1937   5.0029   5.9270   6.0471   6.8060

     occupation numbers 
     1.0000   1.0000   1.0000   1.0000   1.0000   1.0000   1.0000   1.0000
     0.0000   0.0000   0.0000   0.0000   0.0000   0.0000

          k = 0.1333-0.1540 0.0000 ( 11832 PWs)   bands (ev):

   -19.9251 -19.8199  -8.2357  -7.4627  -6.4824  -6.4544  -5.4821  -5.4562
     3.0060   3.4810   4.2703   5.2048   5.3533   6.6209

     occupation numbers 
     1.0000   1.0000   1.0000   1.0000   1.0000   1.0000   1.0000   1.0000
     0.0000   0.0000   0.0000   0.0000   0.0000   0.0000

          k = 0.1333-0.0770 0.0000 ( 11788 PWs)   bands (ev):

   -20.2405 -20.1331  -8.6158  -7.8317  -5.6344  -5.6066  -4.8701  -4.8448
     2.5798   3.0524   3.8306   4.7697   4.9366   6.2124

     occupation numbers 
     1.0000   1.0000   1.0000   1.0000   1.0000   1.0000   1.0000   1.0000
     0.0000   0.0000   0.0000   0.0000   0.0000   0.0000

          k = 0.1333 0.0000 0.0000 ( 11813 PWs)   bands (ev):

   -20.3459 -20.2378  -8.7431  -7.9554  -5.2280  -5.2030  -4.7492  -4.7267
     2.4378   2.9094   3.6841   4.6246   4.7980   6.0767

     occupation numbers 
     1.0000   1.0000   1.0000   1.0000   1.0000   1.0000   1.0000   1.0000
     0.0000   0.0000   0.0000   0.0000   0.0000   0.0000

          k = 0.2000 0.1155 0.0000 ( 11848 PWs)   bands (ev):

   -19.7154 -19.6116  -7.9845  -7.2200  -7.1908  -7.1555  -5.5819  -5.5563
     3.2892   3.7654   4.5631   5.4927   5.6259   6.8691

     occupation numbers 
     1.0000   1.0000   1.0000   1.0000   1.0000   1.0000   1.0000   1.0000
     0.0000   0.0000   0.0000   0.0000   0.0000   0.0000

          k = 0.2000 0.1925 0.0000 ( 11880 PWs)   bands (ev):

   -19.2979 -19.1968  -8.0741  -8.0370  -7.4860  -6.7372  -6.2453  -6.2182
     3.8562   4.3331   5.1489   6.0614   6.1641   6.4901

     occupation numbers 
     1.0000   1.0000   1.0000   1.0000   1.0000   1.0000   1.0000   1.0000
     0.0000   0.0000   0.0000   0.0000   0.0000   0.0000

          k = 0.2000 0.2694 0.0000 ( 11929 PWs)   bands (ev):

   -18.6763 -18.5793  -8.9875  -8.9521  -7.3634  -7.3349  -6.7500  -6.0279
     4.7042   5.1365   5.2702   5.4234   6.0279   6.9223

     occupation numbers 
     1.0000   1.0000   1.0000   1.0000   1.0000   1.0000   1.0000   1.0000
     0.0000   0.0000   0.0000   0.0000   0.0000   0.0000

          k = 0.2000 0.3464 0.0000 ( 11953 PWs)   bands (ev):

   -17.8576 -17.7661 -10.0004  -9.9690  -8.5433  -8.5156  -5.7951  -5.1133
     3.8025   4.0133   5.8303   6.3052   7.1959   7.9851

     occupation numbers 
     1.0000   1.0000   1.0000   1.0000   1.0000   1.0000   1.0000   1.0000
     0.0000   0.0000   0.0000   0.0000   0.0000   0.0000

          k = 0.2000 0.4234 0.0000 ( 11949 PWs)   bands (ev):

   -16.8546 -16.7699 -11.2945 -11.2517  -9.3706  -9.3357  -4.6606  -4.0416
     2.2938   2.5446   7.2194   7.6689   8.6416   9.1314

     occupation numbers 
     1.0000   1.0000   1.0000   1.0000   1.0000   1.0000   1.0000   1.0000
     0.0000   0.0000   0.0000   0.0000   0.0000   0.0000

          k = 0.2000 0.5004 0.0000 ( 11953 PWs)   bands (ev):

   -15.6998 -15.6241 -12.7341 -12.6796  -9.8012  -9.7606  -3.4555  -2.9570
     0.8853   1.1541   8.8397   9.1570   9.8203   9.8899

     occupation numbers 
     1.0000   1.0000   1.0000   1.0000   1.0000   1.0000   1.0000   1.0000
     0.0000   0.0000   0.0000   0.0000   0.0000   0.0000

          k = 0.2000 0.5774 0.0000 ( 11949 PWs)   bands (ev):

   -14.7428 -14.6991 -13.7749 -13.7418  -9.9350  -9.8929  -2.7002  -2.4224
     0.2403   0.3299   9.6969   9.9326  10.1452  10.2807

     occupation numbers 
     1.0000   1.0000   1.0000   1.0000   1.0000   1.0000   1.0000   1.0000
     0.0000   0.0000   0.0000   0.0000   0.0000   0.0000

          k = 0.2000 0.6543 0.0000 ( 11953 PWs)   bands (ev):

   -15.6998 -15.6241 -12.7341 -12.6796  -9.8012  -9.7605  -3.4555  -2.9570
     0.8853   1.1541   8.8397   9.1571   9.8204   9.8906

     occupation numbers 
     1.0000   1.0000   1.0000   1.0000   1.0000   1.0000   1.0000   1.0000
     0.0000   0.0000   0.0000   0.0000   0.0000   0.0000

          k = 0.2000-0.4234 0.0000 ( 11949 PWs)   bands (ev):

   -16.8546 -16.7699 -11.2944 -11.2518  -9.3708  -9.3355  -4.6606  -4.0416
     2.2938   2.5446   7.2194   7.6689   8.6416   9.1313

     occupation numbers 
     1.0000   1.0000   1.0000   1.0000   1.0000   1.0000   1.0000   1.0000
     0.0000   0.0000   0.0000   0.0000   0.0000   0.0000

          k = 0.2000-0.3464 0.0000 ( 11953 PWs)   bands (ev):

   -17.8576 -17.7661 -10.0001  -9.9693  -8.5437  -8.5151  -5.7951  -5.1133
     3.8026   4.0132   5.8303   6.3052   7.1959   7.9850

     occupation numbers 
     1.0000   1.0000   1.0000   1.0000   1.0000   1.0000   1.0000   1.0000
     0.0000   0.0000   0.0000   0.0000   0.0000   0.0000

          k = 0.2000-0.2694 0.0000 ( 11929 PWs)   bands (ev):

   -18.6763 -18.5793  -8.9872  -8.9525  -7.3638  -7.3344  -6.7500  -6.0279
     4.7042   5.1365   5.2703   5.4233   6.0279   6.9223

     occupation numbers 
     1.0000   1.0000   1.0000   1.0000   1.0000   1.0000   1.0000   1.0000
     0.0000   0.0000   0.0000   0.0000   0.0000   0.0000

          k = 0.2000-0.1925 0.0000 ( 11880 PWs)   bands (ev):

   -19.2979 -19.1968  -8.0738  -8.0374  -7.4860  -6.7372  -6.2457  -6.2177
     3.8562   4.3331   5.1489   6.0614   6.1641   6.4902

     occupation numbers 
     1.0000   1.0000   1.0000   1.0000   1.0000   1.0000   1.0000   1.0000
     0.0000   0.0000   0.0000   0.0000   0.0000   0.0000

          k = 0.2000-0.1155 0.0000 ( 11848 PWs)   bands (ev):

   -19.7154 -19.6116  -7.9845  -7.2200  -7.1905  -7.1559  -5.5824  -5.5558
     3.2892   3.7654   4.5631   5.4927   5.6259   6.8692

     occupation numbers 
     1.0000   1.0000   1.0000   1.0000   1.0000   1.0000   1.0000   1.0000
     0.0000   0.0000   0.0000   0.0000   0.0000   0.0000

          k = 0.2000-0.0385 0.0000 ( 11832 PWs)   bands (ev):

   -19.9251 -19.8199  -8.2357  -7.4627  -6.4824  -6.4536  -5.4821  -5.4571
     3.0060   3.4810   4.2703   5.2048   5.3533   6.6208

     occupation numbers 
     1.0000   1.0000   1.0000   1.0000   1.0000   1.0000   1.0000   1.0000
     0.0000   0.0000   0.0000   0.0000   0.0000   0.0000

          k = 0.2000 0.0385 0.0000 ( 11832 PWs)   bands (ev):

   -19.9251 -19.8199  -8.2357  -7.4627  -6.4827  -6.4533  -5.4818  -5.4575
     3.0060   3.4810   4.2703   5.2048   5.3533   6.6209

     occupation numbers 
     1.0000   1.0000   1.0000   1.0000   1.0000   1.0000   1.0000   1.0000
     0.0000   0.0000   0.0000   0.0000   0.0000   0.0000

          k = 0.2667 0.1540 0.0000 ( 11876 PWs)   bands (ev):

   -18.9860 -18.8870  -8.9341  -8.8912  -7.1185  -6.3836  -6.2751  -6.2484
     4.2782   4.7411   5.5798   5.6888   5.9063   6.5103

     occupation numbers 
     1.0000   1.0000   1.0000   1.0000   1.0000   1.0000   1.0000   1.0000
     0.0000   0.0000   0.0000   0.0000   0.0000   0.0000

          k = 0.2667 0.2309 0.0000 ( 11910 PWs)   bands (ev):

   -18.4698 -18.3742  -9.8035  -9.7575  -6.9118  -6.8831  -6.5138  -5.8035
     4.5990   4.9077   4.9937   5.5083   6.3205   7.1673

     occupation numbers 
     1.0000   1.0000   1.0000   1.0000   1.0000   1.0000   1.0000   1.0000
     0.0000   0.0000   0.0000   0.0000   0.0000   0.0000

          k = 0.2667 0.3079 0.0000 ( 11925 PWs)   bands (ev):

   -17.7556 -17.6648 -10.5902 -10.5434  -8.0433  -8.0105  -5.6861  -5.0131
     3.4881   3.7733   5.9701   6.4586   7.3421   8.1107

     occupation numbers 
     1.0000   1.0000   1.0000   1.0000   1.0000   1.0000   1.0000   1.0000
     0.0000   0.0000   0.0000   0.0000   0.0000   0.0000

          k = 0.2667 0.3849 0.0000 ( 11949 PWs)   bands (ev):

   -16.8546 -16.7699 -11.2944 -11.2513  -9.3706  -9.3361  -4.6606  -4.0417
     2.2939   2.5447   7.2194   7.6689   8.6416   9.1314

     occupation numbers 
     1.0000   1.0000   1.0000   1.0000   1.0000   1.0000   1.0000   1.0000
     0.0000   0.0000   0.0000   0.0000   0.0000   0.0000

          k = 0.2667 0.4619 0.0000 ( 11961 PWs)   bands (ev):

   -15.7895 -15.7125 -12.0711 -12.0352 -10.5021 -10.4717  -3.4874  -2.9476
     1.0424   1.2877   8.7004   8.9718   9.6218  10.2928

     occupation numbers 
     1.0000   1.0000   1.0000   1.0000   1.0000   1.0000   1.0000   1.0000
     0.0000   0.0000   0.0000   0.0000   0.0000   0.0000

          k = 0.2667 0.5389 0.0000 ( 11948 PWs)   bands (ev):

   -14.6378 -14.5742 -13.1285 -13.0838 -11.0498 -11.0114  -2.3266  -1.9413
    -0.0794   0.1334   9.5493   9.6176  10.3808  11.3753

     occupation numbers 
     1.0000   1.0000   1.0000   1.0000   1.0000   1.0000   1.0000   1.0000
     0.0000   0.0000   0.0000   0.0000   0.0000   0.0000

          k = 0.2667 0.6158 0.0000 ( 11948 PWs)   bands (ev):

   -14.6378 -14.5742 -13.1285 -13.0839 -11.0499 -11.0113  -2.3266  -1.9413
    -0.0793   0.1334   9.5493   9.6177  10.3808  11.3753

     occupation numbers 
     1.0000   1.0000   1.0000   1.0000   1.0000   1.0000   1.0000   1.0000
     0.0000   0.0000   0.0000   0.0000   0.0000   0.0000

          k = 0.2667 0.6928 0.0000 ( 11961 PWs)   bands (ev):

   -15.7895 -15.7125 -12.0709 -12.0355 -10.5024 -10.4714  -3.4874  -2.9475
     1.0424   1.2876   8.7004   8.9718   9.6219  10.2928

     occupation numbers 
     1.0000   1.0000   1.0000   1.0000   1.0000   1.0000   1.0000   1.0000
     0.0000   0.0000   0.0000   0.0000   0.0000   0.0000

          k = 0.2667-0.3849 0.0000 ( 11949 PWs)   bands (ev):

   -16.8546 -16.7699 -11.2942 -11.2516  -9.3709  -9.3358  -4.6606  -4.0416
     2.2940   2.5447   7.2194   7.6689   8.6416   9.1312

     occupation numbers 
     1.0000   1.0000   1.0000   1.0000   1.0000   1.0000   1.0000   1.0000
     0.0000   0.0000   0.0000   0.0000   0.0000   0.0000

          k = 0.2667-0.3079 0.0000 ( 11925 PWs)   bands (ev):

   -17.7556 -17.6648 -10.5901 -10.5436  -8.0436  -8.0102  -5.6861  -5.0131
     3.4881   3.7732   5.9701   6.4586   7.3421   8.1108

     occupation numbers 
     1.0000   1.0000   1.0000   1.0000   1.0000   1.0000   1.0000   1.0000
     0.0000   0.0000   0.0000   0.0000   0.0000   0.0000

          k = 0.2667-0.2309 0.0000 ( 11910 PWs)   bands (ev):

   -18.4698 -18.3742  -9.8033  -9.7577  -6.9121  -6.8827  -6.5138  -5.8035
     4.5990   4.9076   4.9938   5.5083   6.3206   7.1645

     occupation numbers 
     1.0000   1.0000   1.0000   1.0000   1.0000   1.0000   1.0000   1.0000
     0.0000   0.0000   0.0000   0.0000   0.0000   0.0000

          k = 0.2667-0.1540 0.0000 ( 11876 PWs)   bands (ev):

   -18.9860 -18.8870  -8.9339  -8.8914  -7.1185  -6.3836  -6.2755  -6.2479
     4.2782   4.7411   5.5798   5.6888   5.9063   6.5104

     occupation numbers 
     1.0000   1.0000   1.0000   1.0000   1.0000   1.0000   1.0000   1.0000
     0.0000   0.0000   0.0000   0.0000   0.0000   0.0000

          k = 0.2667-0.0770 0.0000 ( 11880 PWs)   bands (ev):

   -19.2978 -19.1968  -8.0738  -8.0370  -7.4860  -6.7372  -6.2457  -6.2181
     3.8562   4.3331   5.1489   6.0614   6.1641   6.4902

     occupation numbers 
     1.0000   1.0000   1.0000   1.0000   1.0000   1.0000   1.0000   1.0000
     0.0000   0.0000   0.0000   0.0000   0.0000   0.0000

          k = 0.2667 0.0000 0.0000 ( 11879 PWs)   bands (ev):

   -19.4021 -19.3004  -7.6098  -7.5841  -7.5567  -6.8560  -6.4503  -6.4261
     3.7155   4.1937   5.0029   5.9270   6.0471   6.8060

     occupation numbers 
     1.0000   1.0000   1.0000   1.0000   1.0000   1.0000   1.0000   1.0000
     0.0000   0.0000   0.0000   0.0000   0.0000   0.0000

          k = 0.2667 0.0770 0.0000 ( 11880 PWs)   bands (ev):

   -19.2978 -19.1968  -8.0740  -8.0368  -7.4860  -6.7372  -6.2454  -6.2184
     3.8562   4.3331   5.1489   6.0614   6.1641   6.4903

     occupation numbers 
     1.0000   1.0000   1.0000   1.0000   1.0000   1.0000   1.0000   1.0000
     0.0000   0.0000   0.0000   0.0000   0.0000   0.0000

          k = 0.3333 0.1925 0.0000 ( 11914 PWs)   bands (ev):

   -18.0595 -17.9666 -10.7108 -10.6594  -6.8519  -6.8244  -6.0475  -5.3620
     3.7283   4.0930   5.5446   6.0606   6.7571   6.8570

     occupation numbers 
     1.0000   1.0000   1.0000   1.0000   1.0000   1.0000   1.0000   1.0000
     0.0000   0.0000   0.0000   0.0000   0.0000   0.0000

          k = 0.3333 0.2694 0.0000 ( 11938 PWs)   bands (ev):

   -17.4514 -17.3626 -11.5333 -11.4785  -7.4187  -7.3890  -5.3644  -4.7194
     2.7679   3.1450   6.3792   6.8761   7.1312   7.2566

     occupation numbers 
     1.0000   1.0000   1.0000   1.0000   1.0000   1.0000   1.0000   1.0000
     0.0000   0.0000   0.0000   0.0000   0.0000   0.0000

          k = 0.3333 0.3464 0.0000 ( 11927 PWs)   bands (ev):

   -16.6571 -16.5739 -12.2140 -12.1576  -8.4916  -8.4566  -4.4878  -3.9034
     1.8167   2.1585   7.4915   7.9626   8.2739   8.4290

     occupation numbers 
     1.0000   1.0000   1.0000   1.0000   1.0000   1.0000   1.0000   1.0000
     0.0000   0.0000   0.0000   0.0000   0.0000   0.0000

          k = 0.3333 0.4234 0.0000 ( 11953 PWs)   bands (ev):

   -15.6998 -15.6241 -12.7340 -12.6792  -9.8012  -9.7611  -3.4556  -2.9572
     0.8856   1.1544   8.8397   9.1570   9.8205   9.8904

     occupation numbers 
     1.0000   1.0000   1.0000   1.0000   1.0000   1.0000   1.0000   1.0000
     0.0000   0.0000   0.0000   0.0000   0.0000   0.0000

          k = 0.3333 0.5004 0.0000 ( 11948 PWs)   bands (ev):

   -14.6379 -14.5743 -13.1285 -13.0833 -11.0499 -11.0118  -2.3267  -1.9415
    -0.0791   0.1337   9.5493   9.6176  10.3808  11.3751

     occupation numbers 
     1.0000   1.0000   1.0000   1.0000   1.0000   1.0000   1.0000   1.0000
     0.0000   0.0000   0.0000   0.0000   0.0000   0.0000

          k = 0.3333 0.5774 0.0000 ( 11919 PWs)   bands (ev):

   -13.6820 -13.6572 -13.6341 -13.6125 -11.6697 -11.6464  -1.2960  -1.0495
    -1.0228  -0.7636   9.3819   9.4222  11.4325  11.7639

     occupation numbers 
     1.0000   1.0000   1.0000   1.0000   1.0000   1.0000   0.9966   0.5557
     0.4454   0.0023   0.0000   0.0000   0.0000   0.0000

          k = 0.3333 0.6543 0.0000 ( 11948 PWs)   bands (ev):

   -14.6379 -14.5743 -13.1283 -13.0836 -11.0501 -11.0116  -2.3267  -1.9415
    -0.0791   0.1336   9.5492   9.6176  10.3808  11.3759

     occupation numbers 
     1.0000   1.0000   1.0000   1.0000   1.0000   1.0000   1.0000   1.0000
     0.0000   0.0000   0.0000   0.0000   0.0000   0.0000

          k = 0.3333 0.7313 0.0000 ( 11953 PWs)   bands (ev):

   -15.6998 -15.6241 -12.7339 -12.6793  -9.8014  -9.7608  -3.4556  -2.9572
     0.8856   1.1544   8.8397   9.1570   9.8201   9.8899

     occupation numbers 
     1.0000   1.0000   1.0000   1.0000   1.0000   1.0000   1.0000   1.0000
     0.0000   0.0000   0.0000   0.0000   0.0000   0.0000

          k = 0.3333-0.3464 0.0000 ( 11927 PWs)   bands (ev):

   -16.6571 -16.5739 -12.2139 -12.1578  -8.4918  -8.4563  -4.4878  -3.9034
     1.8167   2.1585   7.4915   7.9626   8.2738   8.4291

     occupation numbers 
     1.0000   1.0000   1.0000   1.0000   1.0000   1.0000   1.0000   1.0000
     0.0000   0.0000   0.0000   0.0000   0.0000   0.0000

          k = 0.3333-0.2694 0.0000 ( 11938 PWs)   bands (ev):

   -17.4514 -17.3626 -11.5332 -11.4786  -7.4190  -7.3887  -5.3644  -4.7193
     2.7679   3.1449   6.3792   6.8762   7.1312   7.2567

     occupation numbers 
     1.0000   1.0000   1.0000   1.0000   1.0000   1.0000   1.0000   1.0000
     0.0000   0.0000   0.0000   0.0000   0.0000   0.0000

          k = 0.3333-0.1925 0.0000 ( 11914 PWs)   bands (ev):

   -18.0595 -17.9667 -10.7107 -10.6595  -6.8522  -6.8240  -6.0475  -5.3620
     3.7283   4.0929   5.5446   6.0606   6.7571   6.8571

     occupation numbers 
     1.0000   1.0000   1.0000   1.0000   1.0000   1.0000   1.0000   1.0000
     0.0000   0.0000   0.0000   0.0000   0.0000   0.0000

          k = 0.3333-0.1155 0.0000 ( 11910 PWs)   bands (ev):

   -18.4698 -18.3742  -9.8033  -9.7576  -6.9121  -6.8829  -6.5139  -5.8035
     4.5991   4.9078   4.9937   5.5083   6.3206   7.1644

     occupation numbers 
     1.0000   1.0000   1.0000   1.0000   1.0000   1.0000   1.0000   1.0000
     0.0000   0.0000   0.0000   0.0000   0.0000   0.0000

          k = 0.3333-0.0385 0.0000 ( 11929 PWs)   bands (ev):

   -18.6763 -18.5793  -8.9872  -8.9518  -7.3638  -7.3352  -6.7500  -6.0279
     4.7042   5.1366   5.2703   5.4236   6.0279   6.9223

     occupation numbers 
     1.0000   1.0000   1.0000   1.0000   1.0000   1.0000   1.0000   1.0000
     0.0000   0.0000   0.0000   0.0000   0.0000   0.0000

          k = 0.3333 0.0385 0.0000 ( 11929 PWs)   bands (ev):

   -18.6763 -18.5793  -8.9873  -8.9517  -7.3636  -7.3354  -6.7500  -6.0279
     4.7042   5.1366   5.2703   5.4236   6.0279   6.9223

     occupation numbers 
     1.0000   1.0000   1.0000   1.0000   1.0000   1.0000   1.0000   1.0000
     0.0000   0.0000   0.0000   0.0000   0.0000   0.0000

          k = 0.3333 0.1155 0.0000 ( 11910 PWs)   bands (ev):

   -18.4698 -18.3742  -9.8034  -9.7574  -6.9119  -6.8832  -6.5139  -5.8035
     4.5991   4.9078   4.9937   5.5083   6.3205   7.1642

     occupation numbers 
     1.0000   1.0000   1.0000   1.0000   1.0000   1.0000   1.0000   1.0000
     0.0000   0.0000   0.0000   0.0000   0.0000   0.0000

          k = 0.4000 0.2309 0.0000 ( 11910 PWs)   bands (ev):

   -16.9516 -16.8663 -12.4216 -12.3620  -7.2588  -7.2309  -4.8473  -4.2546
     1.9405   2.3537   6.5339   6.6624   7.1276   7.6255

     occupation numbers 
     1.0000   1.0000   1.0000   1.0000   1.0000   1.0000   1.0000   1.0000
     0.0000   0.0000   0.0000   0.0000   0.0000   0.0000

          k = 0.4000 0.3079 0.0000 ( 11920 PWs)   bands (ev):

   -16.2713 -16.1916 -13.1622 -13.1004  -7.7334  -7.7031  -4.1705  -3.6641
     1.1861   1.5702   6.9360   7.0847   8.0733   8.5836

     occupation numbers 
     1.0000   1.0000   1.0000   1.0000   1.0000   1.0000   1.0000   1.0000
     0.0000   0.0000   0.0000   0.0000   0.0000   0.0000

          k = 0.4000 0.3849 0.0000 ( 11935 PWs)   bands (ev):

   -15.4551 -15.3861 -13.6897 -13.6316  -8.7154  -8.6796  -3.4035  -3.0243
     0.6055   0.8804   8.1305   8.3161   9.2744   9.7034

     occupation numbers 
     1.0000   1.0000   1.0000   1.0000   1.0000   1.0000   1.0000   1.0000
     0.0000   0.0000   0.0000   0.0000   0.0000   0.0000

          k = 0.4000 0.4619 0.0000 ( 11949 PWs)   bands (ev):

   -14.7429 -14.6995 -13.7749 -13.7408  -9.9351  -9.8935  -2.7006  -2.4229
     0.2406   0.3307   9.6967   9.9325  10.1451  10.2805

     occupation numbers 
     1.0000   1.0000   1.0000   1.0000   1.0000   1.0000   1.0000   1.0000
     0.0000   0.0000   0.0000   0.0000   0.0000   0.0000

          k = 0.4000 0.5389 0.0000 ( 11948 PWs)   bands (ev):

   -14.6379 -14.5743 -13.1283 -13.0832 -11.0500 -11.0119  -2.3269  -1.9417
    -0.0789   0.1340   9.5492   9.6174  10.3808  11.3752

     occupation numbers 
     1.0000   1.0000   1.0000   1.0000   1.0000   1.0000   1.0000   1.0000
     0.0000   0.0000   0.0000   0.0000   0.0000   0.0000

          k = 0.4000 0.6158 0.0000 ( 11948 PWs)   bands (ev):

   -14.6379 -14.5743 -13.1282 -13.0833 -11.0501 -11.0118  -2.3269  -1.9417
    -0.0789   0.1339   9.5492   9.6174  10.3808  11.3753

     occupation numbers 
     1.0000   1.0000   1.0000   1.0000   1.0000   1.0000   1.0000   1.0000
     0.0000   0.0000   0.0000   0.0000   0.0000   0.0000

          k = 0.4000 0.6928 0.0000 ( 11949 PWs)   bands (ev):

   -14.7430 -14.6994 -13.7746 -13.7412  -9.9352  -9.8933  -2.7006  -2.4228
     0.2407   0.3305   9.6967   9.9325  10.1451  10.2805

     occupation numbers 
     1.0000   1.0000   1.0000   1.0000   1.0000   1.0000   1.0000   1.0000
     0.0000   0.0000   0.0000   0.0000   0.0000   0.0000

          k = 0.4000 0.7698 0.0000 ( 11935 PWs)   bands (ev):

   -15.4551 -15.3861 -13.6896 -13.6318  -8.7156  -8.6793  -3.4035  -3.0243
     0.6055   0.8803   8.1305   8.3162   9.2744   9.7034

     occupation numbers 
     1.0000   1.0000   1.0000   1.0000   1.0000   1.0000   1.0000   1.0000
     0.0000   0.0000   0.0000   0.0000   0.0000   0.0000

          k = 0.4000-0.3079 0.0000 ( 11920 PWs)   bands (ev):

   -16.2713 -16.1916 -13.1621 -13.1006  -7.7336  -7.7028  -4.1705  -3.6640
     1.1861   1.5701   6.9360   7.0848   8.0733   8.5836

     occupation numbers 
     1.0000   1.0000   1.0000   1.0000   1.0000   1.0000   1.0000   1.0000
     0.0000   0.0000   0.0000   0.0000   0.0000   0.0000

          k = 0.4000-0.2309 0.0000 ( 11910 PWs)   bands (ev):

   -16.9516 -16.8663 -12.4215 -12.3622  -7.2591  -7.2305  -4.8473  -4.2546
     1.9405   2.3537   6.5339   6.6624   7.1276   7.6255

     occupation numbers 
     1.0000   1.0000   1.0000   1.0000   1.0000   1.0000   1.0000   1.0000
     0.0000   0.0000   0.0000   0.0000   0.0000   0.0000

          k = 0.4000-0.1540 0.0000 ( 11938 PWs)   bands (ev):

   -17.4514 -17.3626 -11.5332 -11.4786  -7.4190  -7.3887  -5.3644  -4.7194
     2.7680   3.1450   6.3792   6.8761   7.1311   7.2566

     occupation numbers 
     1.0000   1.0000   1.0000   1.0000   1.0000   1.0000   1.0000   1.0000
     0.0000   0.0000   0.0000   0.0000   0.0000   0.0000

          k = 0.4000-0.0770 0.0000 ( 11925 PWs)   bands (ev):

   -17.7556 -17.6647 -10.5900 -10.5434  -8.0436  -8.0105  -5.6862  -5.0132
     3.4883   3.7734   5.9701   6.4586   7.3421   8.1106

     occupation numbers 
     1.0000   1.0000   1.0000   1.0000   1.0000   1.0000   1.0000   1.0000
     0.0000   0.0000   0.0000   0.0000   0.0000   0.0000

          k = 0.4000 0.0000 0.0000 ( 11953 PWs)   bands (ev):

   -17.8576 -17.7661 -10.0001  -9.9684  -8.5436  -8.5163  -5.7952  -5.1134
     3.8028   4.0136   5.8303   6.3052   7.1959   7.9855

     occupation numbers 
     1.0000   1.0000   1.0000   1.0000   1.0000   1.0000   1.0000   1.0000
     0.0000   0.0000   0.0000   0.0000   0.0000   0.0000

          k = 0.4000 0.0770 0.0000 ( 11925 PWs)   bands (ev):

   -17.7556 -17.6647 -10.5901 -10.5432  -8.0434  -8.0107  -5.6862  -5.0132
     3.4883   3.7735   5.9701   6.4586   7.3421   8.1105

     occupation numbers 
     1.0000   1.0000   1.0000   1.0000   1.0000   1.0000   1.0000   1.0000
     0.0000   0.0000   0.0000   0.0000   0.0000   0.0000

          k = 0.4000 0.1540 0.0000 ( 11938 PWs)   bands (ev):

   -17.4514 -17.3626 -11.5333 -11.4784  -7.4187  -7.3890  -5.3644  -4.7194
     2.7680   3.1450   6.3792   6.8761   7.1312   7.2566

     occupation numbers 
     1.0000   1.0000   1.0000   1.0000   1.0000   1.0000   1.0000   1.0000
     0.0000   0.0000   0.0000   0.0000   0.0000   0.0000

          k = 0.4667 0.2694 0.0000 ( 11924 PWs)   bands (ev):

   -15.7338 -15.6629 -13.9438 -13.8833  -7.4682  -7.4400  -3.7809  -3.4018
     0.6880   1.0370   6.4333   6.5807   8.8898   9.4256

     occupation numbers 
     1.0000   1.0000   1.0000   1.0000   1.0000   1.0000   1.0000   1.0000
     0.0000   0.0000   0.0000   0.0000   0.0000   0.0000

          k = 0.4667 0.3464 0.0000 ( 11913 PWs)   bands (ev):

   -15.2832 -15.2379 -14.2748 -14.2366  -7.8399  -7.8095  -3.4725  -3.1885
     0.4930   0.7745   6.8826   7.0385   9.9035   9.9961

     occupation numbers 
     1.0000   1.0000   1.0000   1.0000   1.0000   1.0000   1.0000   1.0000
     0.0000   0.0000   0.0000   0.0000   0.0000   0.0000

          k = 0.4667 0.4234 0.0000 ( 11935 PWs)   bands (ev):

   -15.4551 -15.3861 -13.6897 -13.6316  -8.7155  -8.6796  -3.4035  -3.0244
     0.6055   0.8805   8.1304   8.3161   9.2744   9.7034

     occupation numbers 
     1.0000   1.0000   1.0000   1.0000   1.0000   1.0000   1.0000   1.0000
     0.0000   0.0000   0.0000   0.0000   0.0000   0.0000

          k = 0.4667 0.5004 0.0000 ( 11953 PWs)   bands (ev):

   -15.6998 -15.6241 -12.7339 -12.6791  -9.8013  -9.7612  -3.4557  -2.9573
     0.8857   1.1547   8.8397   9.1570   9.8201   9.8896

     occupation numbers 
     1.0000   1.0000   1.0000   1.0000   1.0000   1.0000   1.0000   1.0000
     0.0000   0.0000   0.0000   0.0000   0.0000   0.0000

          k = 0.4667 0.5774 0.0000 ( 11961 PWs)   bands (ev):

   -15.7895 -15.7125 -12.0709 -12.0348 -10.5024 -10.4722  -3.4876  -2.9478
     1.0427   1.2880   8.7004   8.9718   9.6216  10.2928

     occupation numbers 
     1.0000   1.0000   1.0000   1.0000   1.0000   1.0000   1.0000   1.0000
     0.0000   0.0000   0.0000   0.0000   0.0000   0.0000

          k = 0.4667 0.6543 0.0000 ( 11953 PWs)   bands (ev):

   -15.6998 -15.6241 -12.7338 -12.6792  -9.8014  -9.7610  -3.4557  -2.9573
     0.8857   1.1546   8.8397   9.1569   9.8204   9.8893

     occupation numbers 
     1.0000   1.0000   1.0000   1.0000   1.0000   1.0000   1.0000   1.0000
     0.0000   0.0000   0.0000   0.0000   0.0000   0.0000

          k = 0.4667 0.7313 0.0000 ( 11935 PWs)   bands (ev):

   -15.4551 -15.3861 -13.6896 -13.6318  -8.7156  -8.6794  -3.4035  -3.0243
     0.6055   0.8804   8.1304   8.3161   9.2744   9.7034

     occupation numbers 
     1.0000   1.0000   1.0000   1.0000   1.0000   1.0000   1.0000   1.0000
     0.0000   0.0000   0.0000   0.0000   0.0000   0.0000

          k = 0.4667 0.8083 0.0000 ( 11913 PWs)   bands (ev):

   -15.2833 -15.2378 -14.2745 -14.2369  -7.8401  -7.8092  -3.4725  -3.1884
     0.4930   0.7744   6.8826   7.0386   9.9035   9.9961

     occupation numbers 
     1.0000   1.0000   1.0000   1.0000   1.0000   1.0000   1.0000   1.0000
     0.0000   0.0000   0.0000   0.0000   0.0000   0.0000

          k = 0.4667-0.2694 0.0000 ( 11924 PWs)   bands (ev):

   -15.7338 -15.6628 -13.9437 -13.8834  -7.4685  -7.4397  -3.7809  -3.4017
     0.6880   1.0369   6.4333   6.5808   8.8898   9.4256

     occupation numbers 
     1.0000   1.0000   1.0000   1.0000   1.0000   1.0000   1.0000   1.0000
     0.0000   0.0000   0.0000   0.0000   0.0000   0.0000

          k = 0.4667-0.1925 0.0000 ( 11920 PWs)   bands (ev):

   -16.2713 -16.1915 -13.1621 -13.1005  -7.7336  -7.7029  -4.1705  -3.6641
     1.1861   1.5702   6.9360   7.0847   8.0733   8.5836

     occupation numbers 
     1.0000   1.0000   1.0000   1.0000   1.0000   1.0000   1.0000   1.0000
     0.0000   0.0000   0.0000   0.0000   0.0000   0.0000

          k = 0.4667-0.1155 0.0000 ( 11927 PWs)   bands (ev):

   -16.6571 -16.5738 -12.2139 -12.1577  -8.4918  -8.4565  -4.4878  -3.9034
     1.8168   2.1586   7.4915   7.9626   8.2738   8.4291

     occupation numbers 
     1.0000   1.0000   1.0000   1.0000   1.0000   1.0000   1.0000   1.0000
     0.0000   0.0000   0.0000   0.0000   0.0000   0.0000

          k = 0.4667-0.0385 0.0000 ( 11949 PWs)   bands (ev):

   -16.8546 -16.7699 -11.2942 -11.2512  -9.3709  -9.3363  -4.6607  -4.0418
     2.2942   2.5450   7.2194   7.6688   8.6416   9.1314

     occupation numbers 
     1.0000   1.0000   1.0000   1.0000   1.0000   1.0000   1.0000   1.0000
     0.0000   0.0000   0.0000   0.0000   0.0000   0.0000

          k = 0.4667 0.0385 0.0000 ( 11949 PWs)   bands (ev):

   -16.8546 -16.7699 -11.2943 -11.2511  -9.3708  -9.3364  -4.6607  -4.0418
     2.2942   2.5450   7.2194   7.6688   8.6416   9.1313

     occupation numbers 
     1.0000   1.0000   1.0000   1.0000   1.0000   1.0000   1.0000   1.0000
     0.0000   0.0000   0.0000   0.0000   0.0000   0.0000

          k = 0.4667 0.1155 0.0000 ( 11927 PWs)   bands (ev):

   -16.6571 -16.5738 -12.2140 -12.1576  -8.4916  -8.4567  -4.4878  -3.9035
     1.8169   2.1587   7.4915   7.9626   8.2738   8.4289

     occupation numbers 
     1.0000   1.0000   1.0000   1.0000   1.0000   1.0000   1.0000   1.0000
     0.0000   0.0000   0.0000   0.0000   0.0000   0.0000

          k = 0.4667 0.1925 0.0000 ( 11920 PWs)   bands (ev):

   -16.2713 -16.1916 -13.1622 -13.1004  -7.7334  -7.7032  -4.1705  -3.6641
     1.1861   1.5703   6.9360   7.0847   8.0733   8.5836

     occupation numbers 
     1.0000   1.0000   1.0000   1.0000   1.0000   1.0000   1.0000   1.0000
     0.0000   0.0000   0.0000   0.0000   0.0000   0.0000

     the Fermi energy is    -1.0360 ev

!    total energy              =     -48.16490706 Ry
     estimated scf accuracy    <          6.6E-10 Ry
     smearing contrib. (-TS)   =      -0.00010155 Ry
     internal energy E=F+TS    =     -48.16480551 Ry

     The total energy is F=E-TS. E is the sum of the following terms:
     one-electron contribution =    -689.62482785 Ry
     hartree contribution      =     348.18897996 Ry
     xc contribution           =     -17.13884223 Ry
     ewald contribution        =     310.48048480 Ry
     electric field correction =      -0.07060020 Ry

     convergence has been achieved in  10 iterations


     -----------------------------------------------
     Non-local corr. energy    =       0.19629187 Ry
     -----------------------------------------------


     Forces acting on atoms (cartesian axes, Ry/au):

     atom    1 type  1   force =    -0.00006017    0.00000724    0.00148944
     atom    2 type  1   force =     0.00006028   -0.00000732    0.00054259
     atom    3 type  1   force =     0.00007085    0.00014905   -0.00056595
     atom    4 type  1   force =    -0.00007096   -0.00014897   -0.00146607
     The non-local contrib.  to forces
     atom    1 type  1   force =    -0.00004055    0.00000473    0.00106591
     atom    2 type  1   force =     0.00004062   -0.00000553   -0.00114696
     atom    3 type  1   force =     0.00004815    0.00010084   -0.00046248
     atom    4 type  1   force =    -0.00004831   -0.00010128   -0.00256764
     The ionic contribution  to forces
     atom    1 type  1   force =    -0.00020110    0.00002756  -15.03446629
     atom    2 type  1   force =     0.00020107   -0.00002740  -15.00810831
     atom    3 type  1   force =     0.00023594    0.00049966   15.00877783
     atom    4 type  1   force =    -0.00023591   -0.00049982   15.03379678
     The local contribution  to forces
     atom    1 type  1   force =     0.00017763   -0.00002489   15.02702476
     atom    2 type  1   force =    -0.00017771    0.00002484   15.00195258
     atom    3 type  1   force =    -0.00020887   -0.00044228  -15.01701494
     atom    4 type  1   force =     0.00020882    0.00044251  -15.04080984
     The core correction contribution to forces
     atom    1 type  1   force =     0.00000375   -0.00000049   -0.00010114
     atom    2 type  1   force =    -0.00000376    0.00000051   -0.00012063
     atom    3 type  1   force =    -0.00000445   -0.00000935    0.00014910
     atom    4 type  1   force =     0.00000444    0.00000937    0.00012982
     The Hubbard contrib.    to forces
     atom    1 type  1   force =     0.00000000    0.00000000    0.00000000
     atom    2 type  1   force =     0.00000000    0.00000000    0.00000000
     atom    3 type  1   force =     0.00000000    0.00000000    0.00000000
     atom    4 type  1   force =     0.00000000    0.00000000    0.00000000
     The SCF correction term to forces
     atom    1 type  1   force =     0.00000004    0.00000003   -0.00003404
     atom    2 type  1   force =    -0.00000000   -0.00000005   -0.00003432
     atom    3 type  1   force =     0.00000002   -0.00000013   -0.00001569
     atom    4 type  1   force =    -0.00000006   -0.00000006   -0.00001541

     Total force =     0.002246     Total SCF correction =     0.000053

     Writing all to output data dir /home/ubuntu/projects/Graphene-Band-Structure-Quantum-Espresso/outputs/field_0.001/vdw-df2-c09/coupled/data/coupled.save/ :
     XML data file, charge density, pseudopotentials, collected wavefunctions

     init_run     :     10.98s CPU     11.35s WALL (       1 calls)
     electrons    :     59.84s CPU     61.35s WALL (       1 calls)
     forces       :      1.26s CPU      1.43s WALL (       1 calls)

     Called by init_run:
     wfcinit      :      1.00s CPU      1.02s WALL (       1 calls)
     wfcinit:atom :      0.01s CPU      0.01s WALL (       8 calls)
     wfcinit:wfcr :      0.90s CPU      0.91s WALL (       8 calls)
     potinit      :      9.27s CPU      9.59s WALL (       1 calls)
     hinit0       :      0.63s CPU      0.65s WALL (       1 calls)

     Called by electrons:
     c_bands      :     45.61s CPU     45.81s WALL (      10 calls)
     sum_band     :      3.28s CPU      3.31s WALL (      10 calls)
     v_of_rho     :     15.99s CPU     17.54s WALL (      11 calls)
     v_h          :      0.05s CPU      0.05s WALL (      11 calls)
     v_xc         :     16.57s CPU     18.28s WALL (      12 calls)
     mix_rho      :      0.13s CPU      0.14s WALL (      10 calls)
     vdW_kernel   :      8.17s CPU      8.18s WALL (       1 calls)

     Called by c_bands:
     init_us_2    :      0.50s CPU      0.52s WALL (     176 calls)
     cegterg      :     23.93s CPU     24.09s WALL (      80 calls)

     Called by sum_band:
     sum_band:wei :      0.01s CPU      0.01s WALL (      10 calls)
     sum_band:loo :      2.03s CPU      2.04s WALL (      10 calls)
     sum_band:buf :      0.03s CPU      0.03s WALL (      80 calls)
     sum_band:ini :      0.21s CPU      0.21s WALL (      80 calls)

     Called by *egterg:
     cdiaghg      :      0.12s CPU      0.12s WALL (     506 calls)
     cegterg:over :      2.42s CPU      2.43s WALL (     426 calls)
     cegterg:upda :      1.60s CPU      1.62s WALL (     426 calls)
     cegterg:last :      2.79s CPU      2.79s WALL (     201 calls)
     h_psi        :     16.84s CPU     16.95s WALL (     514 calls)
     g_psi        :      0.12s CPU      0.12s WALL (     426 calls)

     Called by h_psi:
     h_psi:calbec :      2.48s CPU      2.48s WALL (     514 calls)
     vloc_psi     :     11.73s CPU     11.81s WALL (     514 calls)
     add_vuspsi   :      2.55s CPU      2.55s WALL (     514 calls)

     General routines
     calbec       :      2.76s CPU      2.77s WALL (     546 calls)
     fft          :      2.50s CPU      2.51s WALL (     720 calls)
     ffts         :      0.03s CPU      0.03s WALL (      10 calls)
     fftw         :     11.54s CPU     11.58s WALL (    7998 calls)

     Parallel routines

     PWSCF        :   1m12.69s CPU   1m14.81s WALL


   This run was terminated on:  20:14:24   4Oct2026            

=------------------------------------------------------------------------------=
   JOB DONE.
=------------------------------------------------------------------------------=
Note: The following floating-point exceptions are signalling: IEEE_UNDERFLOW_FLAG IEEE_DENORMAL
Note: The following floating-point exceptions are signalling: IEEE_UNDERFLOW_FLAG IEEE_DENORMAL
Note: The following floating-point exceptions are signalling: IEEE_UNDERFLOW_FLAG IEEE_DENORMAL
Note: The following floating-point exceptions are signalling: IEEE_UNDERFLOW_FLAG IEEE_DENORMAL
Note: The following floating-point exceptions are signalling: IEEE_UNDERFLOW_FLAG IEEE_DENORMAL
Note: The following floating-point exceptions are signalling: IEEE_UNDERFLOW_FLAG IEEE_DENORMAL
Note: The following floating-point exceptions are signalling: IEEE_UNDERFLOW_FLAG IEEE_DENORMAL
Note: The following floating-point exceptions are signalling: IEEE_UNDERFLOW_FLAG IEEE_DENORMAL
Note: The following floating-point exceptions are signalling: IEEE_UNDERFLOW_FLAG IEEE_DENORMAL
Note: The following floating-point exceptions are signalling: IEEE_UNDERFLOW_FLAG IEEE_DENORMAL
Note: The following floating-point exceptions are signalling: IEEE_UNDERFLOW_FLAG IEEE_DENORMAL
Note: The following floating-point exceptions are signalling: IEEE_UNDERFLOW_FLAG IEEE_DENORMAL
Note: The following floating-point exceptions are signalling: IEEE_UNDERFLOW_FLAG IEEE_DENORMAL
Note: The following floating-point exceptions are signalling: IEEE_UNDERFLOW_FLAG IEEE_DENORMAL
Note: The following floating-point exceptions are signalling: IEEE_UNDERFLOW_FLAG IEEE_DENORMAL
Note: The following floating-point exceptions are signalling: IEEE_UNDERFLOW_FLAG IEEE_DENORMAL
