
     Program PWSCF v.7.6 starts on 25Sep2026 at  2:16:46 

     This program is part of the open-source Quantum ESPRESSO suite
     for quantum simulation of materials; please cite
         "P. Giannozzi et al., J. Phys.:Condens. Matter 21 395502 (2009);
         "P. Giannozzi et al., J. Phys.:Condens. Matter 29 465901 (2017);
         "P. Giannozzi et al., J. Chem. Phys. 152 154105 (2020);
          URL http://www.quantum-espresso.org", 
     in publications or presentations arising from this work. More details at
     http://www.quantum-espresso.org/quote

     Parallel version (MPI), running on     4 processors

     MPI processes distributed on     1 nodes
     5362 MiB available memory on the printing compute node when the environment starts

     Waiting for input...
     Reading input from standard input
Warning: card &IONS ignored
Warning: card &CELL ignored
Warning: card &FCP ignored
Warning: card &RISM ignored

     Current dimensions of program PWSCF are:
     Max number of different atomic species (ntypx) = 10
     Max number of k-points (npk) =  40000
     Max angular momentum in pseudopotentials (lmaxx) =  4

     Atomic positions and unit cell read from directory:
     /home/ubuntu/projects/Graphene-Band-Structure-Quantum-Espresso/outputs/field_0/grimme/coupled/data/coupled.save/

     Message from routine setup:
     using ibrav=0 with symmetry is DISCOURAGED, use correct ibrav instead

     K-points division:     npool     =       4
     Subspace diagonalization in iterative solution of the eigenvalue problem:
     a serial algorithm will be used


     G-vector sticks info
     --------------------
     sticks:   dense  smooth     PW     G-vecs:    dense   smooth      PW
     Sum         595     475    151               111671    79745   13381

     Using Slab Decomposition



     bravais-lattice index     =            0
     lattice parameter (alat)  =       4.6487  a.u.
     unit-cell volume          =     825.8174 (a.u.)^3
     number of atoms/cell      =            4
     number of atomic types    =            1
     number of electrons       =        16.00
     number of Kohn-Sham states=           24
     kinetic-energy cutoff     =      80.0000  Ry
     charge density cutoff     =     400.0000  Ry
     Exchange-correlation= PBE
                           (   1   4   3   4   0   0   0)

     celldm(1)=   4.648726  celldm(2)=   0.000000  celldm(3)=   0.000000
     celldm(4)=   0.000000  celldm(5)=   0.000000  celldm(6)=   0.000000

     crystal axes: (cart. coord. in units of alat)
               a(1) = (   1.000000   0.000000   0.000000 )  
               a(2) = (  -0.500000   0.866025   0.000000 )  
               a(3) = (   0.000000   0.000000   9.491870 )  

     reciprocal axes: (cart. coord. in units 2 pi/alat)
               b(1) = (  1.000000  0.577351 -0.000000 )  
               b(2) = (  0.000000  1.154701  0.000000 )  
               b(3) = (  0.000000 -0.000000  0.105353 )  


     PseudoPot. # 1 for C  read from file:
     /home/ubuntu/projects/Graphene-Band-Structure-Quantum-Espresso/pseudo/C.upf
     MD5 check sum: 34a24e64c0a39f27c6c36b90a16ac686
     Pseudo is Norm-conserving + core correction, Zval =  4.0
     Generated using ONCVPSP code by D. R. Hamann
     Using radial grid of 1248 points,  4 beta functions with: 
                l(1) =   0
                l(2) =   0
                l(3) =   1
                l(4) =   1

     atomic species   valence    mass     pseudopotential
     C                 4.00    12.01100     C ( 1.00)

     12 Sym. Ops., with inversion, found ( 6 have fractional translation)


                                    s                        frac. trans.

      isym =  1     identity                                     

 cryst.   s( 1) = (     1          0          0      )
                  (     0          1          0      )
                  (     0          0          1      )

 cart.    s( 1) = (  1.0000000  0.0000000  0.0000000 )
                  (  0.0000000  1.0000000  0.0000000 )
                  (  0.0000000  0.0000000  1.0000000 )


      isym =  2     180 deg rotation - cart. axis [1,0,0]        

 cryst.   s( 2) = (     1          0          0      )    f =( -0.3333335 )
                  (    -1         -1          0      )       (  0.3333330 )
                  (     0          0         -1      )       ( -0.0000001 )

 cart.    s( 2) = (  1.0000000  0.0000000  0.0000000 )    f =( -0.5000000 )
                  (  0.0000000 -1.0000000  0.0000000 )       (  0.2886747 )
                  (  0.0000000  0.0000000 -1.0000000 )       ( -0.0000005 )


      isym =  3     120 deg rotation - cryst. axis [0,0,1]       

 cryst.   s( 3) = (     0          1          0      )
                  (    -1         -1          0      )
                  (     0          0          1      )

 cart.    s( 3) = ( -0.5000000 -0.8660258  0.0000000 )
                  (  0.8660250 -0.5000000  0.0000000 )
                  (  0.0000000  0.0000000  1.0000000 )


      isym =  4     120 deg rotation - cryst. axis [0,0,-1]      

 cryst.   s( 4) = (    -1         -1          0      )
                  (     1          0          0      )
                  (     0          0          1      )

 cart.    s( 4) = ( -0.5000000  0.8660258  0.0000000 )
                  ( -0.8660250 -0.5000000  0.0000000 )
                  (  0.0000000  0.0000000  1.0000000 )


      isym =  5     180 deg rotation - cryst. axis [0,1,0]       

 cryst.   s( 5) = (    -1         -1          0      )    f =( -0.3333335 )
                  (     0          1          0      )       (  0.3333335 )
                  (     0          0         -1      )       ( -0.0000001 )

 cart.    s( 5) = ( -0.5000000 -0.8660258  0.0000000 )    f =( -0.5000003 )
                  ( -0.8660250  0.5000000  0.0000000 )       (  0.2886752 )
                  (  0.0000000  0.0000000 -1.0000000 )       ( -0.0000005 )


      isym =  6     180 deg rotation - cryst. axis [1,1,0]       

 cryst.   s( 6) = (     0          1          0      )    f =( -0.3333330 )
                  (     1          0          0      )       (  0.3333335 )
                  (     0          0         -1      )       ( -0.0000001 )

 cart.    s( 6) = ( -0.5000000  0.8660258  0.0000000 )    f =( -0.4999997 )
                  (  0.8660250  0.5000000  0.0000000 )       (  0.2886752 )
                  (  0.0000000  0.0000000 -1.0000000 )       ( -0.0000005 )


      isym =  7     inversion                                    

 cryst.   s( 7) = (    -1          0          0      )    f =( -0.3333335 )
                  (     0         -1          0      )       (  0.3333330 )
                  (     0          0         -1      )       ( -0.0000001 )

 cart.    s( 7) = ( -1.0000000  0.0000000  0.0000000 )    f =( -0.5000000 )
                  (  0.0000000 -1.0000000  0.0000000 )       (  0.2886747 )
                  (  0.0000000  0.0000000 -1.0000000 )       ( -0.0000005 )


      isym =  8     inv. 180 deg rotation - cart. axis [1,0,0]   

 cryst.   s( 8) = (    -1          0          0      )
                  (     1          1          0      )
                  (     0          0          1      )

 cart.    s( 8) = ( -1.0000000  0.0000000  0.0000000 )
                  (  0.0000000  1.0000000  0.0000000 )
                  (  0.0000000  0.0000000  1.0000000 )


      isym =  9     inv. 120 deg rotation - cryst. axis [0,0,1]  

 cryst.   s( 9) = (     0         -1          0      )    f =( -0.3333330 )
                  (     1          1          0      )       (  0.3333335 )
                  (     0          0         -1      )       ( -0.0000001 )

 cart.    s( 9) = (  0.5000000  0.8660258  0.0000000 )    f =( -0.4999997 )
                  ( -0.8660250  0.5000000  0.0000000 )       (  0.2886752 )
                  (  0.0000000  0.0000000 -1.0000000 )       ( -0.0000005 )


      isym = 10     inv. 120 deg rotation - cryst. axis [0,0,-1] 

 cryst.   s(10) = (     1          1          0      )    f =( -0.3333335 )
                  (    -1          0          0      )       (  0.3333335 )
                  (     0          0         -1      )       ( -0.0000001 )

 cart.    s(10) = (  0.5000000 -0.8660258  0.0000000 )    f =( -0.5000003 )
                  (  0.8660250  0.5000000  0.0000000 )       (  0.2886752 )
                  (  0.0000000  0.0000000 -1.0000000 )       ( -0.0000005 )


      isym = 11     inv. 180 deg rotation - cryst. axis [0,1,0]  

 cryst.   s(11) = (     1          1          0      )
                  (     0         -1          0      )
                  (     0          0          1      )

 cart.    s(11) = (  0.5000000  0.8660258  0.0000000 )
                  (  0.8660250 -0.5000000  0.0000000 )
                  (  0.0000000  0.0000000  1.0000000 )


      isym = 12     inv. 180 deg rotation - cryst. axis [1,1,0]  

 cryst.   s(12) = (     0         -1          0      )
                  (    -1          0          0      )
                  (     0          0          1      )

 cart.    s(12) = (  0.5000000 -0.8660258  0.0000000 )
                  ( -0.8660250 -0.5000000  0.0000000 )
                  (  0.0000000  0.0000000  1.0000000 )


   Cartesian axes

     site n.     atom                  positions (alat units)
         1        C      tau(   1) = (   0.0000000   0.0000000   4.0322439  )
         2        C      tau(   2) = (   0.5000000   0.2886752   4.0328737  )
         3        C      tau(   3) = (   0.5000000   0.2886752   5.4589968  )
         4        C      tau(   4) = (   0.0000000   0.5773503   5.4596266  )

     --------------------------------------------
     DFT-D3 Dispersion Correction (3-body terms):
     --------------------------------------------
       Reference C6 values for interpolation: 

         atom   Coordination number   C6
         C          0.000            98.23
         C          0.987            86.49
         C          1.998            58.72
         C          2.999            51.56
         C          3.984            36.41

       Values used:

         atom   Coordination number  R0_AB[au]  C6      C8
         C          3.321            2.750     48.15   1392.48
         C          3.321            2.750     48.14   1392.42
         C          3.321            2.750     48.14   1392.42
         C          3.321            2.750     48.15   1392.48

         Molecular C6 ( Ry / a.u.^6 ) =       770.33


   Crystallographic axes

     site n.     atom                  positions (cryst. coord.)
         1        C      tau(   1) = (  0.0000000  0.0000000  0.4248103  )
         2        C      tau(   2) = (  0.6666668  0.3333335  0.4248766  )
         3        C      tau(   3) = (  0.6666668  0.3333335  0.5751234  )
         4        C      tau(   4) = (  0.3333335  0.6666670  0.5751898  )

     number of k points=    91  Gaussian smearing, width (Ry)=  0.0100
                       cart. coord. in units 2pi/alat
        k(    1) = (   0.0000000   0.0000000   0.0000000), wk =   0.0022222
        k(    2) = (   0.0000000   0.0384900   0.0000000), wk =   0.0133333
        k(    3) = (   0.0000000   0.0769801   0.0000000), wk =   0.0133333
        k(    4) = (   0.0000000   0.1154701   0.0000000), wk =   0.0133333
        k(    5) = (   0.0000000   0.1539601   0.0000000), wk =   0.0133333
        k(    6) = (   0.0000000   0.1924502   0.0000000), wk =   0.0133333
        k(    7) = (   0.0000000   0.2309402   0.0000000), wk =   0.0133333
        k(    8) = (   0.0000000   0.2694303   0.0000000), wk =   0.0133333
        k(    9) = (   0.0000000   0.3079203   0.0000000), wk =   0.0133333
        k(   10) = (   0.0000000   0.3464103   0.0000000), wk =   0.0133333
        k(   11) = (   0.0000000   0.3849004   0.0000000), wk =   0.0133333
        k(   12) = (   0.0000000   0.4233904   0.0000000), wk =   0.0133333
        k(   13) = (   0.0000000   0.4618804   0.0000000), wk =   0.0133333
        k(   14) = (   0.0000000   0.5003705   0.0000000), wk =   0.0133333
        k(   15) = (   0.0000000   0.5388605   0.0000000), wk =   0.0133333
        k(   16) = (   0.0000000  -0.5773505   0.0000000), wk =   0.0066667
        k(   17) = (   0.0333333   0.0577351   0.0000000), wk =   0.0133333
        k(   18) = (   0.0333333   0.0962251   0.0000000), wk =   0.0266667
        k(   19) = (   0.0333333   0.1347151   0.0000000), wk =   0.0266667
        k(   20) = (   0.0333333   0.1732052   0.0000000), wk =   0.0266667
        k(   21) = (   0.0333333   0.2116952   0.0000000), wk =   0.0266667
        k(   22) = (   0.0333333   0.2501852   0.0000000), wk =   0.0266667
        k(   23) = (   0.0333333   0.2886753   0.0000000), wk =   0.0266667
        k(   24) = (   0.0333333   0.3271653   0.0000000), wk =   0.0266667
        k(   25) = (   0.0333333   0.3656553   0.0000000), wk =   0.0266667
        k(   26) = (   0.0333333   0.4041454   0.0000000), wk =   0.0266667
        k(   27) = (   0.0333333   0.4426354   0.0000000), wk =   0.0266667
        k(   28) = (   0.0333333   0.4811254   0.0000000), wk =   0.0266667
        k(   29) = (   0.0333333   0.5196155   0.0000000), wk =   0.0266667
        k(   30) = (   0.0333333   0.5581055   0.0000000), wk =   0.0266667
        k(   31) = (   0.0666667   0.1154701   0.0000000), wk =   0.0133333
        k(   32) = (   0.0666667   0.1539601   0.0000000), wk =   0.0266667
        k(   33) = (   0.0666667   0.1924502   0.0000000), wk =   0.0266667
        k(   34) = (   0.0666667   0.2309402   0.0000000), wk =   0.0266667
        k(   35) = (   0.0666667   0.2694303   0.0000000), wk =   0.0266667
        k(   36) = (   0.0666667   0.3079203   0.0000000), wk =   0.0266667
        k(   37) = (   0.0666667   0.3464103   0.0000000), wk =   0.0266667
        k(   38) = (   0.0666667   0.3849004   0.0000000), wk =   0.0266667
        k(   39) = (   0.0666667   0.4233904   0.0000000), wk =   0.0266667
        k(   40) = (   0.0666667   0.4618804   0.0000000), wk =   0.0266667
        k(   41) = (   0.0666667   0.5003705   0.0000000), wk =   0.0266667
        k(   42) = (   0.0666667   0.5388605   0.0000000), wk =   0.0266667
        k(   43) = (   0.0666667   0.5773505   0.0000000), wk =   0.0133333
        k(   44) = (   0.1000000   0.1732052   0.0000000), wk =   0.0133333
        k(   45) = (   0.1000000   0.2116952   0.0000000), wk =   0.0266667
        k(   46) = (   0.1000000   0.2501852   0.0000000), wk =   0.0266667
        k(   47) = (   0.1000000   0.2886753   0.0000000), wk =   0.0266667
        k(   48) = (   0.1000000   0.3271653   0.0000000), wk =   0.0266667
        k(   49) = (   0.1000000   0.3656553   0.0000000), wk =   0.0266667
        k(   50) = (   0.1000000   0.4041454   0.0000000), wk =   0.0266667
        k(   51) = (   0.1000000   0.4426354   0.0000000), wk =   0.0266667
        k(   52) = (   0.1000000   0.4811254   0.0000000), wk =   0.0266667
        k(   53) = (   0.1000000   0.5196155   0.0000000), wk =   0.0266667
        k(   54) = (   0.1000000   0.5581055   0.0000000), wk =   0.0266667
        k(   55) = (   0.1333333   0.2309402   0.0000000), wk =   0.0133333
        k(   56) = (   0.1333333   0.2694303   0.0000000), wk =   0.0266667
        k(   57) = (   0.1333333   0.3079203   0.0000000), wk =   0.0266667
        k(   58) = (   0.1333333   0.3464103   0.0000000), wk =   0.0266667
        k(   59) = (   0.1333333   0.3849004   0.0000000), wk =   0.0266667
        k(   60) = (   0.1333333   0.4233904   0.0000000), wk =   0.0266667
        k(   61) = (   0.1333333   0.4618804   0.0000000), wk =   0.0266667
        k(   62) = (   0.1333333   0.5003705   0.0000000), wk =   0.0266667
        k(   63) = (   0.1333333   0.5388605   0.0000000), wk =   0.0266667
        k(   64) = (   0.1333333   0.5773505   0.0000000), wk =   0.0133333
        k(   65) = (   0.1666667   0.2886753   0.0000000), wk =   0.0133333
        k(   66) = (   0.1666667   0.3271653   0.0000000), wk =   0.0266667
        k(   67) = (   0.1666667   0.3656553   0.0000000), wk =   0.0266667
        k(   68) = (   0.1666667   0.4041454   0.0000000), wk =   0.0266667
        k(   69) = (   0.1666667   0.4426354   0.0000000), wk =   0.0266667
        k(   70) = (   0.1666667   0.4811254   0.0000000), wk =   0.0266667
        k(   71) = (   0.1666667   0.5196155   0.0000000), wk =   0.0266667
        k(   72) = (   0.1666667   0.5581055   0.0000000), wk =   0.0266667
        k(   73) = (   0.2000000   0.3464103   0.0000000), wk =   0.0133333
        k(   74) = (   0.2000000   0.3849004   0.0000000), wk =   0.0266667
        k(   75) = (   0.2000000   0.4233904   0.0000000), wk =   0.0266667
        k(   76) = (   0.2000000   0.4618804   0.0000000), wk =   0.0266667
        k(   77) = (   0.2000000   0.5003705   0.0000000), wk =   0.0266667
        k(   78) = (   0.2000000   0.5388605   0.0000000), wk =   0.0266667
        k(   79) = (   0.2000000   0.5773505   0.0000000), wk =   0.0133333
        k(   80) = (   0.2333333   0.4041454   0.0000000), wk =   0.0133333
        k(   81) = (   0.2333333   0.4426354   0.0000000), wk =   0.0266667
        k(   82) = (   0.2333333   0.4811254   0.0000000), wk =   0.0266667
        k(   83) = (   0.2333333   0.5196155   0.0000000), wk =   0.0266667
        k(   84) = (   0.2333333   0.5581055   0.0000000), wk =   0.0266667
        k(   85) = (   0.2666667   0.4618804   0.0000000), wk =   0.0133333
        k(   86) = (   0.2666667   0.5003705   0.0000000), wk =   0.0266667
        k(   87) = (   0.2666667   0.5388605   0.0000000), wk =   0.0266667
        k(   88) = (   0.2666667   0.5773505   0.0000000), wk =   0.0133333
        k(   89) = (   0.3000000   0.5196155   0.0000000), wk =   0.0133333
        k(   90) = (   0.3000000   0.5581055   0.0000000), wk =   0.0266667
        k(   91) = (   0.3333333   0.5773505   0.0000000), wk =   0.0044444

                       cryst. coord.
        k(    1) = (   0.0000000   0.0000000   0.0000000), wk =   0.0022222
        k(    2) = (   0.0000000   0.0333333   0.0000000), wk =   0.0133333
        k(    3) = (   0.0000000   0.0666667   0.0000000), wk =   0.0133333
        k(    4) = (   0.0000000   0.1000000   0.0000000), wk =   0.0133333
        k(    5) = (   0.0000000   0.1333333   0.0000000), wk =   0.0133333
        k(    6) = (   0.0000000   0.1666667   0.0000000), wk =   0.0133333
        k(    7) = (   0.0000000   0.2000000   0.0000000), wk =   0.0133333
        k(    8) = (   0.0000000   0.2333333   0.0000000), wk =   0.0133333
        k(    9) = (   0.0000000   0.2666667   0.0000000), wk =   0.0133333
        k(   10) = (   0.0000000   0.3000000   0.0000000), wk =   0.0133333
        k(   11) = (   0.0000000   0.3333333   0.0000000), wk =   0.0133333
        k(   12) = (   0.0000000   0.3666667   0.0000000), wk =   0.0133333
        k(   13) = (   0.0000000   0.4000000   0.0000000), wk =   0.0133333
        k(   14) = (   0.0000000   0.4333333   0.0000000), wk =   0.0133333
        k(   15) = (   0.0000000   0.4666667   0.0000000), wk =   0.0133333
        k(   16) = (   0.0000000  -0.5000000   0.0000000), wk =   0.0066667
        k(   17) = (   0.0333333   0.0333333   0.0000000), wk =   0.0133333
        k(   18) = (   0.0333333   0.0666667   0.0000000), wk =   0.0266667
        k(   19) = (   0.0333333   0.1000000   0.0000000), wk =   0.0266667
        k(   20) = (   0.0333333   0.1333333   0.0000000), wk =   0.0266667
        k(   21) = (   0.0333333   0.1666667   0.0000000), wk =   0.0266667
        k(   22) = (   0.0333333   0.2000000   0.0000000), wk =   0.0266667
        k(   23) = (   0.0333333   0.2333333   0.0000000), wk =   0.0266667
        k(   24) = (   0.0333333   0.2666667   0.0000000), wk =   0.0266667
        k(   25) = (   0.0333333   0.3000000   0.0000000), wk =   0.0266667
        k(   26) = (   0.0333333   0.3333333   0.0000000), wk =   0.0266667
        k(   27) = (   0.0333333   0.3666667   0.0000000), wk =   0.0266667
        k(   28) = (   0.0333333   0.4000000   0.0000000), wk =   0.0266667
        k(   29) = (   0.0333333   0.4333333   0.0000000), wk =   0.0266667
        k(   30) = (   0.0333333   0.4666667   0.0000000), wk =   0.0266667
        k(   31) = (   0.0666667   0.0666667   0.0000000), wk =   0.0133333
        k(   32) = (   0.0666667   0.1000000   0.0000000), wk =   0.0266667
        k(   33) = (   0.0666667   0.1333333   0.0000000), wk =   0.0266667
        k(   34) = (   0.0666667   0.1666667   0.0000000), wk =   0.0266667
        k(   35) = (   0.0666667   0.2000000   0.0000000), wk =   0.0266667
        k(   36) = (   0.0666667   0.2333333   0.0000000), wk =   0.0266667
        k(   37) = (   0.0666667   0.2666667   0.0000000), wk =   0.0266667
        k(   38) = (   0.0666667   0.3000000   0.0000000), wk =   0.0266667
        k(   39) = (   0.0666667   0.3333333   0.0000000), wk =   0.0266667
        k(   40) = (   0.0666667   0.3666667   0.0000000), wk =   0.0266667
        k(   41) = (   0.0666667   0.4000000   0.0000000), wk =   0.0266667
        k(   42) = (   0.0666667   0.4333333   0.0000000), wk =   0.0266667
        k(   43) = (   0.0666667   0.4666667   0.0000000), wk =   0.0133333
        k(   44) = (   0.1000000   0.1000000   0.0000000), wk =   0.0133333
        k(   45) = (   0.1000000   0.1333333   0.0000000), wk =   0.0266667
        k(   46) = (   0.1000000   0.1666667   0.0000000), wk =   0.0266667
        k(   47) = (   0.1000000   0.2000000   0.0000000), wk =   0.0266667
        k(   48) = (   0.1000000   0.2333333   0.0000000), wk =   0.0266667
        k(   49) = (   0.1000000   0.2666667   0.0000000), wk =   0.0266667
        k(   50) = (   0.1000000   0.3000000   0.0000000), wk =   0.0266667
        k(   51) = (   0.1000000   0.3333333   0.0000000), wk =   0.0266667
        k(   52) = (   0.1000000   0.3666667   0.0000000), wk =   0.0266667
        k(   53) = (   0.1000000   0.4000000   0.0000000), wk =   0.0266667
        k(   54) = (   0.1000000   0.4333333   0.0000000), wk =   0.0266667
        k(   55) = (   0.1333333   0.1333333   0.0000000), wk =   0.0133333
        k(   56) = (   0.1333333   0.1666667   0.0000000), wk =   0.0266667
        k(   57) = (   0.1333333   0.2000000   0.0000000), wk =   0.0266667
        k(   58) = (   0.1333333   0.2333333   0.0000000), wk =   0.0266667
        k(   59) = (   0.1333333   0.2666667   0.0000000), wk =   0.0266667
        k(   60) = (   0.1333333   0.3000000   0.0000000), wk =   0.0266667
        k(   61) = (   0.1333333   0.3333333   0.0000000), wk =   0.0266667
        k(   62) = (   0.1333333   0.3666667   0.0000000), wk =   0.0266667
        k(   63) = (   0.1333333   0.4000000   0.0000000), wk =   0.0266667
        k(   64) = (   0.1333333   0.4333333   0.0000000), wk =   0.0133333
        k(   65) = (   0.1666667   0.1666667   0.0000000), wk =   0.0133333
        k(   66) = (   0.1666667   0.2000000   0.0000000), wk =   0.0266667
        k(   67) = (   0.1666667   0.2333333   0.0000000), wk =   0.0266667
        k(   68) = (   0.1666667   0.2666667   0.0000000), wk =   0.0266667
        k(   69) = (   0.1666667   0.3000000   0.0000000), wk =   0.0266667
        k(   70) = (   0.1666667   0.3333333   0.0000000), wk =   0.0266667
        k(   71) = (   0.1666667   0.3666667   0.0000000), wk =   0.0266667
        k(   72) = (   0.1666667   0.4000000   0.0000000), wk =   0.0266667
        k(   73) = (   0.2000000   0.2000000   0.0000000), wk =   0.0133333
        k(   74) = (   0.2000000   0.2333333   0.0000000), wk =   0.0266667
        k(   75) = (   0.2000000   0.2666667   0.0000000), wk =   0.0266667
        k(   76) = (   0.2000000   0.3000000   0.0000000), wk =   0.0266667
        k(   77) = (   0.2000000   0.3333333   0.0000000), wk =   0.0266667
        k(   78) = (   0.2000000   0.3666667   0.0000000), wk =   0.0266667
        k(   79) = (   0.2000000   0.4000000   0.0000000), wk =   0.0133333
        k(   80) = (   0.2333333   0.2333333   0.0000000), wk =   0.0133333
        k(   81) = (   0.2333333   0.2666667   0.0000000), wk =   0.0266667
        k(   82) = (   0.2333333   0.3000000   0.0000000), wk =   0.0266667
        k(   83) = (   0.2333333   0.3333333   0.0000000), wk =   0.0266667
        k(   84) = (   0.2333333   0.3666667   0.0000000), wk =   0.0266667
        k(   85) = (   0.2666667   0.2666667   0.0000000), wk =   0.0133333
        k(   86) = (   0.2666667   0.3000000   0.0000000), wk =   0.0266667
        k(   87) = (   0.2666667   0.3333333   0.0000000), wk =   0.0266667
        k(   88) = (   0.2666667   0.3666667   0.0000000), wk =   0.0133333
        k(   89) = (   0.3000000   0.3000000   0.0000000), wk =   0.0133333
        k(   90) = (   0.3000000   0.3333333   0.0000000), wk =   0.0266667
        k(   91) = (   0.3333333   0.3333333   0.0000000), wk =   0.0044444

     Dense  grid:   111671 G-vectors     FFT dimensions: (  30,  30, 288)

     Smooth grid:    79745 G-vectors     FFT dimensions: (  27,  27, 256)

     Dynamical RAM for                 wfc:       3.65 MB

     Dynamical RAM for     wfc (w. buffer):      87.71 MB

     Dynamical RAM for           str. fact:       1.70 MB

     Dynamical RAM for           local pot:       0.00 MB

     Dynamical RAM for          nlocal pot:       4.87 MB

     Dynamical RAM for                qrad:       0.46 MB

     Dynamical RAM for          rho,v,vnew:      11.04 MB

     Dynamical RAM for           G-vectors:       7.00 MB

     Dynamical RAM for          h,s,v(r/c):       0.11 MB

     Dynamical RAM for          <psi|beta>:       0.01 MB

     Dynamical RAM for                 psi:       7.31 MB

     Dynamical RAM for                hpsi:       7.31 MB

     Dynamical RAM for      wfcinit/wfcrot:       7.32 MB

     Estimated static dynamical RAM per process >     126.08 MB

     Estimated max dynamical RAM per process >     140.81 MB

     Estimated total dynamical RAM >     563.26 MB

     The potential is recalculated from file :
     /home/ubuntu/projects/Graphene-Band-Structure-Quantum-Espresso/outputs/field_0/grimme/coupled/data/coupled.save/charge-density

     Starting wfcs are   16 randomized atomic wfcs +    8 random wfcs

     Band Structure Calculation
     Davidson diagonalization with overlap

     Computing kpt #:     1  of    23 on this pool
     total cpu time spent up to now is       11.2 secs

     Computing kpt #:     2  of    23 on this pool
     total cpu time spent up to now is       20.4 secs

     Computing kpt #:     3  of    23 on this pool
     total cpu time spent up to now is       28.9 secs

     Computing kpt #:     4  of    23 on this pool
     total cpu time spent up to now is       37.4 secs

     Computing kpt #:     5  of    23 on this pool
     total cpu time spent up to now is       46.3 secs

     Computing kpt #:     6  of    23 on this pool
     total cpu time spent up to now is       55.3 secs

     Computing kpt #:     7  of    23 on this pool
     total cpu time spent up to now is       63.6 secs

     Computing kpt #:     8  of    23 on this pool
     total cpu time spent up to now is       74.1 secs

     Computing kpt #:     9  of    23 on this pool
     total cpu time spent up to now is       85.4 secs

     Computing kpt #:    10  of    23 on this pool
     total cpu time spent up to now is       94.2 secs

     Computing kpt #:    11  of    23 on this pool
     c_bands:  1 eigenvalues not converged
     total cpu time spent up to now is      105.5 secs

     Computing kpt #:    12  of    23 on this pool
     total cpu time spent up to now is      117.0 secs

     Computing kpt #:    13  of    23 on this pool
     total cpu time spent up to now is      127.6 secs

     Computing kpt #:    14  of    23 on this pool
     total cpu time spent up to now is      137.7 secs

     Computing kpt #:    15  of    23 on this pool
     total cpu time spent up to now is      148.4 secs

     Computing kpt #:    16  of    23 on this pool
     total cpu time spent up to now is      159.4 secs

     Computing kpt #:    17  of    23 on this pool
     total cpu time spent up to now is      171.7 secs

     Computing kpt #:    18  of    23 on this pool
     total cpu time spent up to now is      182.8 secs

     Computing kpt #:    19  of    23 on this pool
     total cpu time spent up to now is      193.9 secs

     Computing kpt #:    20  of    23 on this pool
     total cpu time spent up to now is      207.8 secs

     Computing kpt #:    21  of    23 on this pool
     total cpu time spent up to now is      219.0 secs

     Computing kpt #:    22  of    23 on this pool
     total cpu time spent up to now is      230.2 secs

     Computing kpt #:    23  of    23 on this pool
     total cpu time spent up to now is      238.5 secs

     ethr =  6.25E-11,  avg # of iterations = 58.9

     total cpu time spent up to now is      241.0 secs

     End of band structure calculation

          k = 0.0000 0.0000 0.0000 ( 10049 PWs)   bands (ev):

   -20.6286 -20.5241  -9.0350  -8.2664  -4.0342  -4.0342  -4.0285  -4.0285
     2.3936   2.7769   3.4243   4.1746   4.5306   5.8846   6.1752   7.4531
     7.4531   7.4705   7.4705   7.9951   8.9744  10.4734  10.5469  11.1030

     occupation numbers 
     1.0000   1.0000   1.0000   1.0000   1.0000   1.0000   1.0000   1.0000
     0.0000   0.0000   0.0000   0.0000   0.0000   0.0000   0.0000   0.0000
     0.0000   0.0000   0.0000   0.0000   0.0000   0.0000   0.0000   0.0000

          k = 0.0000 0.0385 0.0000 ( 10077 PWs)   bands (ev):

   -20.6022 -20.4978  -9.0030  -8.2353  -4.1439  -4.1374  -4.0927  -4.0863
     2.4291   2.8128   3.4609   4.2110   4.5656   5.9184   6.2109   7.4682
     7.4885   7.5688   7.5862   8.0298   9.0108  10.3798  10.4556  11.1375

     occupation numbers 
     1.0000   1.0000   1.0000   1.0000   1.0000   1.0000   1.0000   1.0000
     0.0000   0.0000   0.0000   0.0000   0.0000   0.0000   0.0000   0.0000
     0.0000   0.0000   0.0000   0.0000   0.0000   0.0000   0.0000   0.0000

          k = 0.0000 0.0770 0.0000 ( 10077 PWs)   bands (ev):

   -20.5229 -20.4191  -8.9071  -8.1418  -4.4619  -4.4529  -4.2599  -4.2519
     2.5354   2.9207   3.5706   4.3201   4.6708   6.0198   6.3179   7.5014
     7.5300   7.9077   7.9249   8.1338   9.1198  10.1048  10.1876  11.2408

     occupation numbers 
     1.0000   1.0000   1.0000   1.0000   1.0000   1.0000   1.0000   1.0000
     0.0000   0.0000   0.0000   0.0000   0.0000   0.0000   0.0000   0.0000
     0.0000   0.0000   0.0000   0.0000   0.0000   0.0000   0.0000   0.0000

          k = 0.0000 0.1155 0.0000 ( 10079 PWs)   bands (ev):

   -20.3910 -20.2880  -8.7476  -7.9866  -4.9590  -4.9467  -4.5149  -4.5052
     2.7127   3.1004   3.7535   4.5019   4.8460   6.1886   6.4960   7.5249
     7.5667   8.3064   8.4475   8.4645   9.3001   9.6632   9.7585  11.4125

     occupation numbers 
     1.0000   1.0000   1.0000   1.0000   1.0000   1.0000   1.0000   1.0000
     0.0000   0.0000   0.0000   0.0000   0.0000   0.0000   0.0000   0.0000
     0.0000   0.0000   0.0000   0.0000   0.0000   0.0000   0.0000   0.0000

          k = 0.0000 0.1540 0.0000 ( 10059 PWs)   bands (ev):

   -20.2066 -20.1049  -8.5252  -7.7702  -5.5980  -5.5816  -4.8308  -4.8195
     2.9609   3.3517   4.0094   4.7564   5.0910   6.4236   6.7440   7.5150
     7.5720   8.5447   9.0748   9.1589   9.1755   9.1935   9.5523  11.6520

     occupation numbers 
     1.0000   1.0000   1.0000   1.0000   1.0000   1.0000   1.0000   1.0000
     0.0000   0.0000   0.0000   0.0000   0.0000   0.0000   0.0000   0.0000
     0.0000   0.0000   0.0000   0.0000   0.0000   0.0000   0.0000   0.0000

          k = 0.0000 0.1925 0.0000 ( 10013 PWs)   bands (ev):

   -19.9700 -19.8699  -8.2408  -7.4940  -6.3413  -6.3205  -5.1814  -5.1687
     3.2798   3.6744   4.3385   5.0833   5.4049   6.7208   7.0550   7.4678
     7.5358   8.3643   8.4963   8.8756   9.8729  10.0113  10.0274  11.9582

     occupation numbers 
     1.0000   1.0000   1.0000   1.0000   1.0000   1.0000   1.0000   1.0000
     0.0000   0.0000   0.0000   0.0000   0.0000   0.0000   0.0000   0.0000
     0.0000   0.0000   0.0000   0.0000   0.0000   0.0000   0.0000   0.0000

          k = 0.0000 0.2309 0.0000 ( 10009 PWs)   bands (ev):

   -19.6818 -19.5836  -7.8958  -7.1615  -7.1556  -7.1297  -5.5440  -5.5302
     3.6691   4.0676   4.7406   5.4820   5.7852   7.0534   7.2972   7.4228
     7.5140   7.6119   7.7621   9.2451  10.2631  10.9760  10.9916  12.3296

     occupation numbers 
     1.0000   1.0000   1.0000   1.0000   1.0000   1.0000   1.0000   1.0000
     0.0000   0.0000   0.0000   0.0000   0.0000   0.0000   0.0000   0.0000
     0.0000   0.0000   0.0000   0.0000   0.0000   0.0000   0.0000   0.0000

          k = 0.0000 0.2694 0.0000 ( 10009 PWs)   bands (ev):

   -19.3425 -19.2466  -8.0166  -7.9865  -7.4923  -6.7688  -5.9008  -5.8861
     4.1282   4.5292   5.2155   5.9482   6.2164   6.6624   6.8541   7.2208
     7.3016   7.6459   7.9597   9.6893  10.7225  12.0263  12.0414  12.7640

     occupation numbers 
     1.0000   1.0000   1.0000   1.0000   1.0000   1.0000   1.0000   1.0000
     0.0000   0.0000   0.0000   0.0000   0.0000   0.0000   0.0000   0.0000
     0.0000   0.0000   0.0000   0.0000   0.0000   0.0000   0.0000   0.0000

          k = 0.0000 0.3079 0.0000 (  9969 PWs)   bands (ev):

   -18.9528 -18.8595  -8.9007  -8.8657  -7.0330  -6.3260  -6.2379  -6.2224
     4.6561   5.0401   5.7355   5.7615   5.9567   6.5065   6.7512   7.0933
     7.2342   8.1029   8.4896  10.1996  11.2504  13.1361  13.1508  13.2573

     occupation numbers 
     1.0000   1.0000   1.0000   1.0000   1.0000   1.0000   1.0000   1.0000
     0.0000   0.0000   0.0000   0.0000   0.0000   0.0000   0.0000   0.0000
     0.0000   0.0000   0.0000   0.0000   0.0000   0.0000   0.0000   0.0000

          k = 0.0000 0.3464 0.0000 (  9972 PWs)   bands (ev):

   -18.5138 -18.4234  -9.7922  -9.7523  -6.5451  -6.5291  -6.5223  -5.8361
     4.7289   5.0427   5.2554   5.7157   6.3818   6.9185   7.0105   7.1508
     7.4460   8.6630   9.0950  10.7735  11.8453  13.8012  14.2777  14.2917

     occupation numbers 
     1.0000   1.0000   1.0000   1.0000   1.0000   1.0000   1.0000   1.0000
     0.0000   0.0000   0.0000   0.0000   0.0000   0.0000   0.0000   0.0000
     0.0000   0.0000   0.0000   0.0000   0.0000   0.0000   0.0000   0.0000

          k = 0.0000 0.3849 0.0000 (  9978 PWs)   bands (ev):

   -18.0270 -17.9397 -10.6778 -10.6333  -6.8151  -6.7986  -5.9667  -5.3076
     3.7909   4.1386   5.9120   6.3633   6.8166   6.9145   7.1036   7.8189
     8.0604   9.2921   9.7714  11.4073  12.5040  14.3460  14.5254  15.4182

     occupation numbers 
     1.0000   1.0000   1.0000   1.0000   1.0000   1.0000   1.0000   1.0000
     0.0000   0.0000   0.0000   0.0000   0.0000   0.0000   0.0000   0.0000
     0.0000   0.0000   0.0000   0.0000   0.0000   0.0000   0.0000   0.0000

          k = 0.0000 0.4234 0.0000 (  9942 PWs)   bands (ev):

   -17.4944 -17.4106 -11.5467 -11.4976  -7.0421  -7.0252  -5.3773  -4.7549
     2.8693   3.2476   6.5645   6.6992   6.8881   7.1394   7.8521   8.5771
     8.7681   9.9830  10.5162  12.0947  13.2149  13.9999  14.7645  15.0964

     occupation numbers 
     1.0000   1.0000   1.0000   1.0000   1.0000   1.0000   1.0000   1.0000
     0.0000   0.0000   0.0000   0.0000   0.0000   0.0000   0.0000   0.0000
     0.0000   0.0000   0.0000   0.0000   0.0000   0.0000   0.0000   0.0000

          k = 0.0000 0.4619 0.0000 (  9950 PWs)   bands (ev):

   -16.9199 -16.8402 -12.3883 -12.3351  -7.2222  -7.2051  -4.7736  -4.2045
     2.0120   2.4058   6.5854   6.7116   7.4917   7.9390   8.6881   9.4075
     9.5375  10.7301  11.3259  12.8110  13.1977  13.8895  14.0443  14.6878

     occupation numbers 
     1.0000   1.0000   1.0000   1.0000   1.0000   1.0000   1.0000   1.0000
     0.0000   0.0000   0.0000   0.0000   0.0000   0.0000   0.0000   0.0000
     0.0000   0.0000   0.0000   0.0000   0.0000   0.0000   0.0000   0.0000

          k = 0.0000 0.5004 0.0000 (  9918 PWs)   bands (ev):

   -16.3124 -16.2379 -13.1885 -13.1323  -7.3527  -7.3354  -4.1939  -3.7073
     1.2790   1.6607   6.5224   6.6590   8.3402   8.8130   9.5954  10.3077
    10.3550  11.5209  12.1613  12.2712  12.8671  13.5175  13.8402  14.1553

     occupation numbers 
     1.0000   1.0000   1.0000   1.0000   1.0000   1.0000   1.0000   1.0000
     0.0000   0.0000   0.0000   0.0000   0.0000   0.0000   0.0000   0.0000
     0.0000   0.0000   0.0000   0.0000   0.0000   0.0000   0.0000   0.0000

          k = 0.0000 0.5389 0.0000 (  9930 PWs)   bands (ev):

   -15.7042 -15.6391 -13.9083 -13.8543  -7.4317  -7.4143  -3.7182  -3.3545
     0.7676   1.0984   6.4820   6.6229   9.2550   9.7470  10.5688  11.1829
    11.2152  11.2900  11.7964  12.3838  12.6879  12.9935  13.2801  13.4345

     occupation numbers 
     1.0000   1.0000   1.0000   1.0000   1.0000   1.0000   1.0000   1.0000
     0.0000   0.0000   0.0000   0.0000   0.0000   0.0000   0.0000   0.0000
     0.0000   0.0000   0.0000   0.0000   0.0000   0.0000   0.0000   0.0000

          k = 0.0000-0.5774 0.0000 (  9910 PWs)   bands (ev):

   -15.3230 -15.2847 -14.3031 -14.2739  -7.4581  -7.4407  -3.5106  -3.2367
     0.5856   0.8725   6.4683   6.6105  10.1758  10.2624  10.7134  10.7562
    11.5870  11.6181  11.9848  12.1783  12.3584  12.3719  13.2310  13.4805

     occupation numbers 
     1.0000   1.0000   1.0000   1.0000   1.0000   1.0000   1.0000   1.0000
     0.0000   0.0000   0.0000   0.0000   0.0000   0.0000   0.0000   0.0000
     0.0000   0.0000   0.0000   0.0000   0.0000   0.0000   0.0000   0.0000

          k = 0.0333 0.0577 0.0000 ( 10081 PWs)   bands (ev):

   -20.5493 -20.4453  -8.9390  -8.1730  -4.3530  -4.3464  -4.2087  -4.2028
     2.5000   2.8848   3.5340   4.2838   4.6357   5.9860   6.2822   7.5036
     7.5290   7.7846   7.8018   8.0991   9.0835  10.1957  10.2760  11.2063

     occupation numbers 
     1.0000   1.0000   1.0000   1.0000   1.0000   1.0000   1.0000   1.0000
     0.0000   0.0000   0.0000   0.0000   0.0000   0.0000   0.0000   0.0000
     0.0000   0.0000   0.0000   0.0000   0.0000   0.0000   0.0000   0.0000

          k = 0.0333 0.0962 0.0000 ( 10077 PWs)   bands (ev):

   -20.4437 -20.3404  -8.8113  -8.0486  -4.7506  -4.7416  -4.4295  -4.4221
     2.6418   3.0285   3.6803   4.4292   4.7760   6.1213   6.4249   7.5582
     7.5935   8.1933   8.2108   8.2375   9.2284   9.8382   9.9275  11.3438

     occupation numbers 
     1.0000   1.0000   1.0000   1.0000   1.0000   1.0000   1.0000   1.0000
     0.0000   0.0000   0.0000   0.0000   0.0000   0.0000   0.0000   0.0000
     0.0000   0.0000   0.0000   0.0000   0.0000   0.0000   0.0000   0.0000

          k = 0.0333 0.1347 0.0000 ( 10065 PWs)   bands (ev):

   -20.2856 -20.1833  -8.6204  -7.8628  -5.3076  -5.2946  -4.7266  -4.7169
     2.8546   3.2441   3.8997   4.6474   4.9862   6.3235   6.6384   7.5915
     7.6408   8.4439   8.7792   8.7974   9.3247   9.4286   9.4472  11.5492

     occupation numbers 
     1.0000   1.0000   1.0000   1.0000   1.0000   1.0000   1.0000   1.0000
     0.0000   0.0000   0.0000   0.0000   0.0000   0.0000   0.0000   0.0000
     0.0000   0.0000   0.0000   0.0000   0.0000   0.0000   0.0000   0.0000

          k = 0.0333 0.1732 0.0000 ( 10049 PWs)   bands (ev):

   -20.0751 -19.9743  -8.3669  -7.6164  -5.9887  -5.9711  -5.0707  -5.0590
     3.1382   3.5311   4.1923   4.9381   5.2659   6.5910   6.9207   7.5805
     7.6445   8.6681   8.7070   8.8327   9.5170   9.5373   9.7316  11.8217

     occupation numbers 
     1.0000   1.0000   1.0000   1.0000   1.0000   1.0000   1.0000   1.0000
     0.0000   0.0000   0.0000   0.0000   0.0000   0.0000   0.0000   0.0000
     0.0000   0.0000   0.0000   0.0000   0.0000   0.0000   0.0000   0.0000

          k = 0.0333 0.2117 0.0000 ( 10021 PWs)   bands (ev):

   -19.8127 -19.7137  -8.0522  -7.3110  -6.7596  -6.7372  -5.4361  -5.4228
     3.4923   3.8892   4.5579   5.3011   5.6138   6.9158   7.2541   7.5348
     7.5984   7.9344   8.0855   9.0719  10.0846  10.3813  10.4020  12.1599

     occupation numbers 
     1.0000   1.0000   1.0000   1.0000   1.0000   1.0000   1.0000   1.0000
     0.0000   0.0000   0.0000   0.0000   0.0000   0.0000   0.0000   0.0000
     0.0000   0.0000   0.0000   0.0000   0.0000   0.0000   0.0000   0.0000

          k = 0.0333 0.2502 0.0000 ( 10003 PWs)   bands (ev):

   -19.4989 -19.4020  -7.6780  -7.5908  -7.5637  -6.9481  -5.8025  -5.7880
     3.9167   4.3172   4.9965   5.7350   6.0250   7.0578   7.1515   7.3752
     7.3977   7.5928   7.7610   9.4816  10.5098  11.3348  11.3621  12.5621

     occupation numbers 
     1.0000   1.0000   1.0000   1.0000   1.0000   1.0000   1.0000   1.0000
     0.0000   0.0000   0.0000   0.0000   0.0000   0.0000   0.0000   0.0000
     0.0000   0.0000   0.0000   0.0000   0.0000   0.0000   0.0000   0.0000

          k = 0.0333 0.2887 0.0000 (  9984 PWs)   bands (ev):

   -19.1344 -19.0399  -8.4583  -8.4262  -7.2462  -6.5312  -6.1544  -6.1389
     4.4105   4.8096   5.5075   6.1269   6.2675   6.3382   6.5780   7.2675
     7.3755   7.8787   8.2415   9.9585  11.0032  12.3421  12.3867  13.0249

     occupation numbers 
     1.0000   1.0000   1.0000   1.0000   1.0000   1.0000   1.0000   1.0000
     0.0000   0.0000   0.0000   0.0000   0.0000   0.0000   0.0000   0.0000
     0.0000   0.0000   0.0000   0.0000   0.0000   0.0000   0.0000   0.0000

          k = 0.0333 0.3272 0.0000 (  9983 PWs)   bands (ev):

   -18.7201 -18.6283  -9.3427  -9.3056  -6.7607  -6.4802  -6.4638  -6.0642
     4.9693   5.1341   5.4200   5.5388   6.0927   6.8215   7.0019   7.1545
     7.3370   8.3944   8.8095  10.4996  11.5643  13.3315  13.4371  13.5451

     occupation numbers 
     1.0000   1.0000   1.0000   1.0000   1.0000   1.0000   1.0000   1.0000
     0.0000   0.0000   0.0000   0.0000   0.0000   0.0000   0.0000   0.0000
     0.0000   0.0000   0.0000   0.0000   0.0000   0.0000   0.0000   0.0000

          k = 0.0333 0.3657 0.0000 (  9974 PWs)   bands (ev):

   -18.2571 -18.1683 -10.2288 -10.1869  -6.7712  -6.7543  -6.2267  -5.5539
     4.2474   4.5720   5.6034   6.0536   6.7409   6.9888   7.0996   7.4969
     7.7639   8.9888   9.4502  11.1018  12.1904  14.0431  14.1493  14.4383

     occupation numbers 
     1.0000   1.0000   1.0000   1.0000   1.0000   1.0000   1.0000   1.0000
     0.0000   0.0000   0.0000   0.0000   0.0000   0.0000   0.0000   0.0000
     0.0000   0.0000   0.0000   0.0000   0.0000   0.0000   0.0000   0.0000

          k = 0.0333 0.4041 0.0000 (  9958 PWs)   bands (ev):

   -17.7473 -17.6619 -11.1044 -11.0578  -7.0214  -7.0040  -5.6526  -5.0111
     3.3143   3.6737   6.2880   6.7188   6.9112   7.0036   7.4912   8.2153
     8.4291   9.6474  10.1604  11.7602  12.8752  14.1407  14.6599  15.0360

     occupation numbers 
     1.0000   1.0000   1.0000   1.0000   1.0000   1.0000   1.0000   1.0000
     0.0000   0.0000   0.0000   0.0000   0.0000   0.0000   0.0000   0.0000
     0.0000   0.0000   0.0000   0.0000   0.0000   0.0000   0.0000   0.0000

          k = 0.0333 0.4426 0.0000 (  9934 PWs)   bands (ev):

   -17.1934 -17.1117 -11.9588 -11.9078  -7.2261  -7.2084  -5.0528  -4.4550
     2.4223   2.8064   6.7327   6.8395   7.1518   7.5528   8.2882   9.0095
     9.1668  10.3641  10.9371  12.4627  13.5090  13.6940  14.3977  14.9450

     occupation numbers 
     1.0000   1.0000   1.0000   1.0000   1.0000   1.0000   1.0000   1.0000
     0.0000   0.0000   0.0000   0.0000   0.0000   0.0000   0.0000   0.0000
     0.0000   0.0000   0.0000   0.0000   0.0000   0.0000   0.0000   0.0000

          k = 0.0333 0.4811 0.0000 (  9940 PWs)   bands (ev):

   -16.6010 -16.5238 -12.7804 -12.7257  -7.3822  -7.3642  -4.4543  -3.9221
     1.6199   2.0079   6.6702   6.8039   7.9322   8.3911   9.1599   9.8746
     9.9584  11.1311  11.7729  12.7302  13.1194  13.5164  14.0701  14.5561

     occupation numbers 
     1.0000   1.0000   1.0000   1.0000   1.0000   1.0000   1.0000   1.0000
     0.0000   0.0000   0.0000   0.0000   0.0000   0.0000   0.0000   0.0000
     0.0000   0.0000   0.0000   0.0000   0.0000   0.0000   0.0000   0.0000

          k = 0.0333 0.5196 0.0000 (  9948 PWs)   bands (ev):

   -15.9860 -15.9152 -13.5481 -13.4919  -7.4874  -7.4693  -3.9120  -3.4824
     0.9841   1.3407   6.6178   6.7584   8.8152   9.2945  10.1006  10.7843
    10.8068  11.7488  11.9033  12.3964  12.6569  13.2210  13.5845  13.9596

     occupation numbers 
     1.0000   1.0000   1.0000   1.0000   1.0000   1.0000   1.0000   1.0000
     0.0000   0.0000   0.0000   0.0000   0.0000   0.0000   0.0000   0.0000
     0.0000   0.0000   0.0000   0.0000   0.0000   0.0000   0.0000   0.0000

          k = 0.0333 0.5581 0.0000 (  9932 PWs)   bands (ev):

   -15.4280 -15.3751 -14.1693 -14.1251  -7.5403  -7.5221  -3.5426  -3.2410
     0.6279   0.9234   6.5905   6.7339   9.7547  10.2473  10.7511  11.0804
    11.2436  11.6910  11.8016  12.1663  12.5500  12.8173  13.0195  13.6132

     occupation numbers 
     1.0000   1.0000   1.0000   1.0000   1.0000   1.0000   1.0000   1.0000
     0.0000   0.0000   0.0000   0.0000   0.0000   0.0000   0.0000   0.0000
     0.0000   0.0000   0.0000   0.0000   0.0000   0.0000   0.0000   0.0000

          k = 0.0667 0.1155 0.0000 ( 10077 PWs)   bands (ev):

   -20.3119 -20.2095  -8.6521  -7.8937  -5.1893  -5.1804  -4.7085  -4.7017
     2.8192   3.2082   3.8632   4.6111   4.9513   6.2903   6.6033   7.6720
     7.7165   8.4101   8.5896   8.6083   9.4086   9.4120   9.5111  11.5147

     occupation numbers 
     1.0000   1.0000   1.0000   1.0000   1.0000   1.0000   1.0000   1.0000
     0.0000   0.0000   0.0000   0.0000   0.0000   0.0000   0.0000   0.0000
     0.0000   0.0000   0.0000   0.0000   0.0000   0.0000   0.0000   0.0000

          k = 0.0667 0.1540 0.0000 ( 10049 PWs)   bands (ev):

   -20.1277 -20.0265  -8.4301  -7.6778  -5.7622  -5.7502  -5.0591  -5.0505
     3.0674   3.4595   4.1192   4.8655   5.1965   6.5262   6.8524   7.7712
     7.8277   8.6491   8.8470   8.9607   9.1103   9.1324   9.6599  11.7526

     occupation numbers 
     1.0000   1.0000   1.0000   1.0000   1.0000   1.0000   1.0000   1.0000
     0.0000   0.0000   0.0000   0.0000   0.0000   0.0000   0.0000   0.0000
     0.0000   0.0000   0.0000   0.0000   0.0000   0.0000   0.0000   0.0000

          k = 0.0667 0.1925 0.0000 ( 10034 PWs)   bands (ev):

   -19.8914 -19.7918  -8.1463  -7.4022  -6.4469  -6.4298  -5.4428  -5.4314
     3.3864   3.7822   4.4484   5.1925   5.5110   6.8263   7.1695   7.8030
     7.8686   8.1719   8.2998   8.9629   9.7645   9.7960   9.9828  12.0563

     occupation numbers 
     1.0000   1.0000   1.0000   1.0000   1.0000   1.0000   1.0000   1.0000
     0.0000   0.0000   0.0000   0.0000   0.0000   0.0000   0.0000   0.0000
     0.0000   0.0000   0.0000   0.0000   0.0000   0.0000   0.0000   0.0000

          k = 0.0667 0.2309 0.0000 ( 10004 PWs)   bands (ev):

   -19.6034 -19.5058  -7.8020  -7.2154  -7.1930  -7.0679  -5.8317  -5.8178
     3.7758   4.1755   4.8505   5.5914   5.8926   7.1670   7.3658   7.5361
     7.5651   7.8063   7.8745   9.3384  10.3619  10.5513  10.5865  12.4239

     occupation numbers 
     1.0000   1.0000   1.0000   1.0000   1.0000   1.0000   1.0000   1.0000
     0.0000   0.0000   0.0000   0.0000   0.0000   0.0000   0.0000   0.0000
     0.0000   0.0000   0.0000   0.0000   0.0000   0.0000   0.0000   0.0000

          k = 0.0667 0.2694 0.0000 (  9986 PWs)   bands (ev):

   -19.2645 -19.1691  -8.0403  -8.0122  -7.3991  -6.6786  -6.2077  -6.1919
     4.2352   4.6373   5.3255   6.0574   6.3232   6.5316   6.7252   7.5932
     7.6439   7.8456   8.0754   9.7803  10.8235  11.4086  11.4704  12.8520

     occupation numbers 
     1.0000   1.0000   1.0000   1.0000   1.0000   1.0000   1.0000   1.0000
     0.0000   0.0000   0.0000   0.0000   0.0000   0.0000   0.0000   0.0000
     0.0000   0.0000   0.0000   0.0000   0.0000   0.0000   0.0000   0.0000

          k = 0.0667 0.3079 0.0000 (  9972 PWs)   bands (ev):

   -18.8753 -18.7825  -8.8983  -8.8648  -6.9407  -6.5583  -6.5411  -6.2366
     4.7632   5.1444   5.6412   5.8314   5.8844   6.6126   6.8669   7.5341
     7.6548   8.1934   8.5961  10.2861  11.3497  12.2997  12.4107  13.3352

     occupation numbers 
     1.0000   1.0000   1.0000   1.0000   1.0000   1.0000   1.0000   1.0000
     0.0000   0.0000   0.0000   0.0000   0.0000   0.0000   0.0000   0.0000
     0.0000   0.0000   0.0000   0.0000   0.0000   0.0000   0.0000   0.0000

          k = 0.0667 0.3464 0.0000 (  9960 PWs)   bands (ev):

   -18.4370 -18.3470  -9.7706  -9.7320  -6.8749  -6.8566  -6.4308  -5.7476
     4.6618   4.9539   5.3623   5.8073   6.4934   7.2095   7.3370   7.4424
     7.6507   8.7442   9.1989  10.8528  11.9409  13.1321  13.3582  13.8637

     occupation numbers 
     1.0000   1.0000   1.0000   1.0000   1.0000   1.0000   1.0000   1.0000
     0.0000   0.0000   0.0000   0.0000   0.0000   0.0000   0.0000   0.0000
     0.0000   0.0000   0.0000   0.0000   0.0000   0.0000   0.0000   0.0000

          k = 0.0667 0.3849 0.0000 (  9955 PWs)   bands (ev):

   -17.9509 -17.8641 -10.6421 -10.5985  -7.1510  -7.1320  -5.8760  -5.2198
     3.7380   4.0658   6.0235   6.4686   7.1692   7.2784   7.4011   7.9269
     8.1616   9.3657   9.8726  11.4754  12.5911  13.7079  14.2032  14.4230

     occupation numbers 
     1.0000   1.0000   1.0000   1.0000   1.0000   1.0000   1.0000   1.0000
     0.0000   0.0000   0.0000   0.0000   0.0000   0.0000   0.0000   0.0000
     0.0000   0.0000   0.0000   0.0000   0.0000   0.0000   0.0000   0.0000

          k = 0.0667 0.4234 0.0000 (  9952 PWs)   bands (ev):

   -17.4193 -17.3361 -11.5005 -11.4522  -7.3821  -7.3625  -5.2870  -4.6672
     2.8320   3.1915   6.7353   7.1031   7.2671   7.3168   7.9626   8.6823
     8.8566  10.0458  10.6135  12.1442  13.2702  13.7398  14.4892  14.9168

     occupation numbers 
     1.0000   1.0000   1.0000   1.0000   1.0000   1.0000   1.0000   1.0000
     0.0000   0.0000   0.0000   0.0000   0.0000   0.0000   0.0000   0.0000
     0.0000   0.0000   0.0000   0.0000   0.0000   0.0000   0.0000   0.0000

          k = 0.0667 0.4619 0.0000 (  9951 PWs)   bands (ev):

   -16.8461 -16.7670 -12.3342 -12.2817  -7.5649  -7.5449  -4.6831  -4.1159
     1.9862   2.3626   7.0447   7.1695   7.6095   8.0349   8.7963   9.5106
     9.6131  10.7766  11.4154  12.8205  13.1472  13.8071  14.0770  14.5809

     occupation numbers 
     1.0000   1.0000   1.0000   1.0000   1.0000   1.0000   1.0000   1.0000
     0.0000   0.0000   0.0000   0.0000   0.0000   0.0000   0.0000   0.0000
     0.0000   0.0000   0.0000   0.0000   0.0000   0.0000   0.0000   0.0000

          k = 0.0667 0.5004 0.0000 (  9948 PWs)   bands (ev):

   -16.2404 -16.1663 -13.1284 -13.0729  -7.6970  -7.6767  -4.1021  -3.6162
     1.2599   1.6251   6.9861   7.1284   8.4418   8.9018   9.7014  10.4065
    10.4083  11.5401  12.2055  12.3330  12.8904  13.4350  13.8674  14.1915

     occupation numbers 
     1.0000   1.0000   1.0000   1.0000   1.0000   1.0000   1.0000   1.0000
     0.0000   0.0000   0.0000   0.0000   0.0000   0.0000   0.0000   0.0000
     0.0000   0.0000   0.0000   0.0000   0.0000   0.0000   0.0000   0.0000

          k = 0.0667 0.5389 0.0000 (  9944 PWs)   bands (ev):

   -15.6344 -15.5698 -13.8436 -13.7902  -7.7768  -7.7564  -3.6235  -3.2598
     0.7514   1.0642   6.9461   7.0935   9.3512   9.8245  10.6672  11.1805
    11.2879  11.3808  11.8566  12.3807  12.7315  13.0176  13.3707  13.5275

     occupation numbers 
     1.0000   1.0000   1.0000   1.0000   1.0000   1.0000   1.0000   1.0000
     0.0000   0.0000   0.0000   0.0000   0.0000   0.0000   0.0000   0.0000
     0.0000   0.0000   0.0000   0.0000   0.0000   0.0000   0.0000   0.0000

          k = 0.0667 0.5774 0.0000 (  9926 PWs)   bands (ev):

   -15.2553 -15.2173 -14.2356 -14.2069  -7.8035  -7.7830  -3.4137  -3.1405
     0.5710   0.8365   6.9324   7.0812  10.2607  10.3518  10.7488  10.8261
    11.6410  11.7183  11.9689  12.2068  12.4641  12.4753  13.2448  13.4823

     occupation numbers 
     1.0000   1.0000   1.0000   1.0000   1.0000   1.0000   1.0000   1.0000
     0.0000   0.0000   0.0000   0.0000   0.0000   0.0000   0.0000   0.0000
     0.0000   0.0000   0.0000   0.0000   0.0000   0.0000   0.0000   0.0000

          k = 0.1000 0.1732 0.0000 ( 10027 PWs)   bands (ev):

   -19.9176 -19.8179  -8.1777  -7.4326  -6.3147  -6.3029  -5.4702  -5.4619
     3.3512   3.7464   4.4118   5.1563   5.4767   6.7957   7.1375   7.9872
     8.0424   8.2612   8.3764   8.9243   9.4659   9.4924   9.9453  12.0215

     occupation numbers 
     1.0000   1.0000   1.0000   1.0000   1.0000   1.0000   1.0000   1.0000
     0.0000   0.0000   0.0000   0.0000   0.0000   0.0000   0.0000   0.0000
     0.0000   0.0000   0.0000   0.0000   0.0000   0.0000   0.0000   0.0000

          k = 0.1000 0.2117 0.0000 ( 10002 PWs)   bands (ev):

   -19.6557 -19.5577  -7.8642  -7.1287  -6.9642  -6.9486  -5.9085  -5.8979
     3.7055   4.1045   4.7775   5.5195   5.8257   7.1283   7.4863   7.5421
     7.6828   8.1535   8.2305   9.2643   9.9351   9.9747  10.3011  12.3535

     occupation numbers 
     1.0000   1.0000   1.0000   1.0000   1.0000   1.0000   1.0000   1.0000
     0.0000   0.0000   0.0000   0.0000   0.0000   0.0000   0.0000   0.0000
     0.0000   0.0000   0.0000   0.0000   0.0000   0.0000   0.0000   0.0000

          k = 0.1000 0.2502 0.0000 (  9984 PWs)   bands (ev):

   -19.3426 -19.2467  -7.6986  -7.6771  -7.4912  -6.7674  -6.3350  -6.3210
     4.1300   4.5327   5.2162   5.9540   6.2397   6.7603   6.9219   7.5365
     7.8976   8.2031   8.2825   9.6699  10.5542  10.6265  10.7339  12.7452

     occupation numbers 
     1.0000   1.0000   1.0000   1.0000   1.0000   1.0000   1.0000   1.0000
     0.0000   0.0000   0.0000   0.0000   0.0000   0.0000   0.0000   0.0000
     0.0000   0.0000   0.0000   0.0000   0.0000   0.0000   0.0000   0.0000

          k = 0.1000 0.2887 0.0000 (  9985 PWs)   bands (ev):

   -18.9790 -18.8855  -8.4945  -8.4666  -7.0612  -6.7302  -6.7131  -6.3522
     4.6240   5.0259   5.7273   5.9185   6.1036   6.4671   6.7355   7.9689
     8.0796   8.2695   8.4711  10.1387  11.1843  11.3383  11.4184  13.1905

     occupation numbers 
     1.0000   1.0000   1.0000   1.0000   1.0000   1.0000   1.0000   1.0000
     0.0000   0.0000   0.0000   0.0000   0.0000   0.0000   0.0000   0.0000
     0.0000   0.0000   0.0000   0.0000   0.0000   0.0000   0.0000   0.0000

          k = 0.1000 0.3272 0.0000 (  9972 PWs)   bands (ev):

   -18.5658 -18.4750  -9.3275  -9.2936  -7.0852  -7.0660  -6.5775  -5.8871
     5.0035   5.1895   5.2601   5.6274   6.3123   7.0434   7.2729   7.9943
     8.1224   8.5737   9.0212  10.6673  11.7511  12.1233  12.2827  13.6776

     occupation numbers 
     1.0000   1.0000   1.0000   1.0000   1.0000   1.0000   1.0000   1.0000
     0.0000   0.0000   0.0000   0.0000   0.0000   0.0000   0.0000   0.0000
     0.0000   0.0000   0.0000   0.0000   0.0000   0.0000   0.0000   0.0000

          k = 0.1000 0.3657 0.0000 (  9976 PWs)   bands (ev):

   -18.1043 -18.0165 -10.1767 -10.1373  -7.3957  -7.3748  -6.0452  -5.3784
     4.1135   4.3982   5.8187   6.2522   6.9678   7.6784   7.7956   7.9132
     8.1131   9.1455   9.6555  11.2501  12.3645  12.8627  13.1596  14.1821

     occupation numbers 
     1.0000   1.0000   1.0000   1.0000   1.0000   1.0000   1.0000   1.0000
     0.0000   0.0000   0.0000   0.0000   0.0000   0.0000   0.0000   0.0000
     0.0000   0.0000   0.0000   0.0000   0.0000   0.0000   0.0000   0.0000

          k = 0.1000 0.4041 0.0000 (  9961 PWs)   bands (ev):

   -17.5962 -17.5118 -11.0257 -10.9810  -7.6585  -7.6365  -5.4725  -4.8366
     3.2159   3.5369   6.5137   6.9532   7.6769   7.7640   7.8964   8.4288
     8.6202   9.7836  10.3584  11.8771  12.9978  13.3742  13.9094  14.6489

     occupation numbers 
     1.0000   1.0000   1.0000   1.0000   1.0000   1.0000   1.0000   1.0000
     0.0000   0.0000   0.0000   0.0000   0.0000   0.0000   0.0000   0.0000
     0.0000   0.0000   0.0000   0.0000   0.0000   0.0000   0.0000   0.0000

          k = 0.1000 0.4426 0.0000 (  9961 PWs)   bands (ev):

   -17.0446 -16.9640 -11.8605 -11.8112  -7.8714  -7.8486  -4.8732  -4.2800
     2.3525   2.7005   7.2579   7.6047   7.7748   7.8219   8.5069   9.2176
     9.3281  10.4712  11.1218  12.5231  13.2414  13.6851  14.0989  14.5787

     occupation numbers 
     1.0000   1.0000   1.0000   1.0000   1.0000   1.0000   1.0000   1.0000
     0.0000   0.0000   0.0000   0.0000   0.0000   0.0000   0.0000   0.0000
     0.0000   0.0000   0.0000   0.0000   0.0000   0.0000   0.0000   0.0000

          k = 0.1000 0.4811 0.0000 (  9974 PWs)   bands (ev):

   -16.4553 -16.3791 -12.6677 -12.6144  -8.0326  -8.0092  -4.2733  -3.7438
     1.5690   1.9234   7.5526   7.6928   8.1513   8.5747   9.3738  10.0755
    10.0793  11.1945  11.9209  12.7157  13.0736  13.3980  13.9360  14.7434

     occupation numbers 
     1.0000   1.0000   1.0000   1.0000   1.0000   1.0000   1.0000   1.0000
     0.0000   0.0000   0.0000   0.0000   0.0000   0.0000   0.0000   0.0000
     0.0000   0.0000   0.0000   0.0000   0.0000   0.0000   0.0000   0.0000

          k = 0.1000 0.5196 0.0000 (  9966 PWs)   bands (ev):

   -15.8442 -15.7744 -13.4244 -13.3695  -8.1407  -8.1170  -3.7264  -3.2972
     0.9425   1.2657   7.5048   7.6600   9.0131   9.4574  10.3034  10.8219
    10.9945  11.8379  11.9194  12.4353  12.7574  13.2405  13.6946  14.0088

     occupation numbers 
     1.0000   1.0000   1.0000   1.0000   1.0000   1.0000   1.0000   1.0000
     0.0000   0.0000   0.0000   0.0000   0.0000   0.0000   0.0000   0.0000
     0.0000   0.0000   0.0000   0.0000   0.0000   0.0000   0.0000   0.0000

          k = 0.1000 0.5581 0.0000 (  9938 PWs)   bands (ev):

   -15.2911 -15.2390 -14.0374 -13.9944  -8.1949  -8.1711  -3.3504  -3.0495
     0.5910   0.8457   7.4778   7.6369   9.9385  10.3653  10.9155  11.1034
    11.3861  11.7267  11.9617  12.3071  12.5939  12.8866  13.2000  13.6902

     occupation numbers 
     1.0000   1.0000   1.0000   1.0000   1.0000   1.0000   1.0000   1.0000
     0.0000   0.0000   0.0000   0.0000   0.0000   0.0000   0.0000   0.0000
     0.0000   0.0000   0.0000   0.0000   0.0000   0.0000   0.0000   0.0000

          k = 0.1333 0.2309 0.0000 (  9979 PWs)   bands (ev):

   -19.3687 -19.2726  -7.5500  -7.5349  -7.5216  -6.7970  -6.4103  -6.3999
     4.0949   4.4977   5.1798   5.9188   6.2088   6.8432   6.9969   7.4967
     7.8815   8.4925   8.5749   9.6323  10.1537  10.1965  10.6883  12.7091

     occupation numbers 
     1.0000   1.0000   1.0000   1.0000   1.0000   1.0000   1.0000   1.0000
     0.0000   0.0000   0.0000   0.0000   0.0000   0.0000   0.0000   0.0000
     0.0000   0.0000   0.0000   0.0000   0.0000   0.0000   0.0000   0.0000

          k = 0.1333 0.2694 0.0000 (  9979 PWs)   bands (ev):

   -19.0310 -18.9371  -8.2154  -8.1964  -7.1216  -6.8936  -6.8803  -6.4102
     4.5542   4.9604   5.6549   6.0791   6.2482   6.3912   6.6607   7.9249
     8.3295   8.7022   8.7893  10.0628  10.5560  10.6297  11.1445  13.1161

     occupation numbers 
     1.0000   1.0000   1.0000   1.0000   1.0000   1.0000   1.0000   1.0000
     0.0000   0.0000   0.0000   0.0000   0.0000   0.0000   0.0000   0.0000
     0.0000   0.0000   0.0000   0.0000   0.0000   0.0000   0.0000   0.0000

          k = 0.1333 0.3079 0.0000 (  9973 PWs)   bands (ev):

   -18.6433 -18.5520  -8.9546  -8.9285  -7.3252  -7.3077  -6.6659  -5.9713
     5.0804   5.2490   5.4581   5.5104   6.2031   6.9338   7.1744   8.4044
     8.6467   8.8416   8.9499  10.5518  11.1613  11.2968  11.6685  13.5610

     occupation numbers 
     1.0000   1.0000   1.0000   1.0000   1.0000   1.0000   1.0000   1.0000
     0.0000   0.0000   0.0000   0.0000   0.0000   0.0000   0.0000   0.0000
     0.0000   0.0000   0.0000   0.0000   0.0000   0.0000   0.0000   0.0000

          k = 0.1333 0.3464 0.0000 (  9972 PWs)   bands (ev):

   -18.2068 -18.1184  -9.7439  -9.7107  -7.6957  -7.6746  -6.1588  -5.4852
     4.4053   4.6411   5.6806   6.1018   6.8232   7.5475   7.7459   8.6100
     8.7407   9.0172   9.5146  11.0925  11.8635  12.0959  12.2580  14.0156

     occupation numbers 
     1.0000   1.0000   1.0000   1.0000   1.0000   1.0000   1.0000   1.0000
     0.0000   0.0000   0.0000   0.0000   0.0000   0.0000   0.0000   0.0000
     0.0000   0.0000   0.0000   0.0000   0.0000   0.0000   0.0000   0.0000

          k = 0.1333 0.3849 0.0000 (  9950 PWs)   bands (ev):

   -17.7232 -17.6380 -10.5580 -10.5185  -8.0061  -7.9826  -5.6066  -4.9597
     3.5408   3.8129   6.3441   6.7701   7.5147   8.2230   8.3341   8.5331
     8.7235   9.5879  10.1750  11.6734  12.5174  12.8875  12.9299  14.4230

     occupation numbers 
     1.0000   1.0000   1.0000   1.0000   1.0000   1.0000   1.0000   1.0000
     0.0000   0.0000   0.0000   0.0000   0.0000   0.0000   0.0000   0.0000
     0.0000   0.0000   0.0000   0.0000   0.0000   0.0000   0.0000   0.0000

          k = 0.1333 0.4234 0.0000 (  9971 PWs)   bands (ev):

   -17.1948 -17.1131 -11.3763 -11.3312  -8.2588  -8.2336  -5.0194  -4.4080
     2.6870   2.9922   7.0714   7.5009   8.2661   8.4046   8.5504   8.9996
     9.1235  10.2258  10.8965  12.2710  12.9266  13.4147  13.6428  14.3427

     occupation numbers 
     1.0000   1.0000   1.0000   1.0000   1.0000   1.0000   1.0000   1.0000
     0.0000   0.0000   0.0000   0.0000   0.0000   0.0000   0.0000   0.0000
     0.0000   0.0000   0.0000   0.0000   0.0000   0.0000   0.0000   0.0000

          k = 0.1333 0.4619 0.0000 (  9968 PWs)   bands (ev):

   -16.6256 -16.5480 -12.1814 -12.1315  -8.4550  -8.4286  -4.4152  -3.8541
     1.8791   2.2046   7.8505   8.2232   8.3881   8.4839   9.1209   9.8071
     9.8169  10.8992  11.6493  12.7729  12.9384  13.3364  14.0030  14.6257

     occupation numbers 
     1.0000   1.0000   1.0000   1.0000   1.0000   1.0000   1.0000   1.0000
     0.0000   0.0000   0.0000   0.0000   0.0000   0.0000   0.0000   0.0000
     0.0000   0.0000   0.0000   0.0000   0.0000   0.0000   0.0000   0.0000

          k = 0.1333 0.5004 0.0000 (  9957 PWs)   bands (ev):

   -16.0250 -15.9524 -12.9549 -12.9016  -8.5950  -8.5679  -3.8297  -3.3462
     1.1747   1.4918   8.2196   8.3801   8.7612   9.1557  10.0085  10.4873
    10.6936  11.5902  12.1878  12.4566  12.9466  13.2139  13.9307  14.4247

     occupation numbers 
     1.0000   1.0000   1.0000   1.0000   1.0000   1.0000   1.0000   1.0000
     0.0000   0.0000   0.0000   0.0000   0.0000   0.0000   0.0000   0.0000
     0.0000   0.0000   0.0000   0.0000   0.0000   0.0000   0.0000   0.0000

          k = 0.1333 0.5389 0.0000 (  9964 PWs)   bands (ev):

   -15.4256 -15.3625 -13.6549 -13.6035  -8.6791  -8.6516  -3.3413  -2.9775
     0.6756   0.9349   8.1849   8.3615   9.6374  10.0165  10.8297  11.1432
    11.4717  11.6080  12.0403  12.3044  12.7996  13.2450  13.6569  13.8013

     occupation numbers 
     1.0000   1.0000   1.0000   1.0000   1.0000   1.0000   1.0000   1.0000
     0.0000   0.0000   0.0000   0.0000   0.0000   0.0000   0.0000   0.0000
     0.0000   0.0000   0.0000   0.0000   0.0000   0.0000   0.0000   0.0000

          k = 0.1333 0.5774 0.0000 (  9932 PWs)   bands (ev):

   -15.0524 -15.0152 -14.0387 -14.0115  -8.7071  -8.6795  -3.1235  -2.8526
     0.5014   0.6993   8.1715   8.3505  10.4948  10.6007  10.7504  10.9024
    11.6125  11.9903  12.1471  12.2773  12.7799  12.7848  13.3741  13.4793

     occupation numbers 
     1.0000   1.0000   1.0000   1.0000   1.0000   1.0000   1.0000   1.0000
     0.0000   0.0000   0.0000   0.0000   0.0000   0.0000   0.0000   0.0000
     0.0000   0.0000   0.0000   0.0000   0.0000   0.0000   0.0000   0.0000

          k = 0.1667 0.2887 0.0000 (  9987 PWs)   bands (ev):

   -18.6691 -18.5777  -8.7873  -8.7695  -7.4453  -7.4323  -6.6954  -5.9994
     5.0470   5.3477   5.4562   5.5280   6.1665   6.8968   7.1389   8.3777
     8.8186   9.1730   9.2561  10.5109  10.6776  10.7427  11.6266  13.5211

     occupation numbers 
     1.0000   1.0000   1.0000   1.0000   1.0000   1.0000   1.0000   1.0000
     0.0000   0.0000   0.0000   0.0000   0.0000   0.0000   0.0000   0.0000
     0.0000   0.0000   0.0000   0.0000   0.0000   0.0000   0.0000   0.0000

          k = 0.1667 0.3272 0.0000 (  9974 PWs)   bands (ev):

   -18.2582 -18.1695  -9.4356  -9.4130  -7.9368  -7.9205  -6.2159  -5.5388
     4.5703   4.7679   5.6112   6.0239   6.7505   7.4744   7.6794   8.8823
     9.2676   9.4887   9.5302  10.9974  11.0668  11.1876  12.1667  13.9283

     occupation numbers 
     1.0000   1.0000   1.0000   1.0000   1.0000   1.0000   1.0000   1.0000
     0.0000   0.0000   0.0000   0.0000   0.0000   0.0000   0.0000   0.0000
     0.0000   0.0000   0.0000   0.0000   0.0000   0.0000   0.0000   0.0000

          k = 0.1667 0.3657 0.0000 (  9975 PWs)   bands (ev):

   -17.7996 -17.7139 -10.1545 -10.1238  -8.3432  -8.3218  -5.6878  -5.0344
     3.7657   3.9898   6.2408   6.6560   7.4063   8.1218   8.2714   9.3339
     9.4010   9.5827  10.0729  11.5314  11.6684  11.9072  12.7371  14.2784

     occupation numbers 
     1.0000   1.0000   1.0000   1.0000   1.0000   1.0000   1.0000   1.0000
     0.0000   0.0000   0.0000   0.0000   0.0000   0.0000   0.0000   0.0000
     0.0000   0.0000   0.0000   0.0000   0.0000   0.0000   0.0000   0.0000

          k = 0.1667 0.4041 0.0000 (  9989 PWs)   bands (ev):

   -17.2954 -17.2130 -10.9167 -10.8784  -8.6661  -8.6406  -5.1186  -4.4955
     2.9508   3.2062   6.9360   7.3510   8.1323   8.8325   8.8885   9.2740
     9.4810  10.0558  10.7446  12.0727  12.2873  12.6966  13.1881  14.0961

     occupation numbers 
     1.0000   1.0000   1.0000   1.0000   1.0000   1.0000   1.0000   1.0000
     0.0000   0.0000   0.0000   0.0000   0.0000   0.0000   0.0000   0.0000
     0.0000   0.0000   0.0000   0.0000   0.0000   0.0000   0.0000   0.0000

          k = 0.1667 0.4426 0.0000 (  9993 PWs)   bands (ev):

   -16.7486 -16.6700 -11.6938 -11.6491  -8.9149  -8.8868  -4.5209  -3.9385
     2.1520   2.4351   7.6931   8.1010   8.9190   9.1619   9.3102   9.6343
     9.6500  10.6725  11.4420  12.5317  12.7064  13.0697  13.5343  14.4887

     occupation numbers 
     1.0000   1.0000   1.0000   1.0000   1.0000   1.0000   1.0000   1.0000
     0.0000   0.0000   0.0000   0.0000   0.0000   0.0000   0.0000   0.0000
     0.0000   0.0000   0.0000   0.0000   0.0000   0.0000   0.0000   0.0000

          k = 0.1667 0.4811 0.0000 (  9951 PWs)   bands (ev):

   -16.1654 -16.0913 -12.4615 -12.4119  -9.0972  -9.0674  -3.9183  -3.3953
     1.4111   1.7045   8.5022   8.8656   9.1217   9.2742   9.7902  10.2108
    10.4626  11.3268  11.9663  12.6286  12.9199  13.1377  13.9015  14.9868

     occupation numbers 
     1.0000   1.0000   1.0000   1.0000   1.0000   1.0000   1.0000   1.0000
     0.0000   0.0000   0.0000   0.0000   0.0000   0.0000   0.0000   0.0000
     0.0000   0.0000   0.0000   0.0000   0.0000   0.0000   0.0000   0.0000

          k = 0.1667 0.5196 0.0000 (  9951 PWs)   bands (ev):

   -15.5622 -15.4944 -13.1909 -13.1391  -9.2170  -9.1863  -3.3611  -2.9326
     0.8042   1.0672   8.9949   9.1820   9.4359   9.7298  10.5026  10.8615
    11.2837  11.9503  12.0399  12.2149  13.0379  13.4981  14.0485  14.0842

     occupation numbers 
     1.0000   1.0000   1.0000   1.0000   1.0000   1.0000   1.0000   1.0000
     0.0000   0.0000   0.0000   0.0000   0.0000   0.0000   0.0000   0.0000
     0.0000   0.0000   0.0000   0.0000   0.0000   0.0000   0.0000   0.0000

          k = 0.1667 0.5581 0.0000 (  9953 PWs)   bands (ev):

   -15.0182 -14.9678 -13.7862 -13.7457  -9.2766  -9.2454  -2.9685  -2.6687
     0.4638   0.6366   8.9764   9.1881  10.2882  10.4194  10.7457  11.2293
    11.6815  11.8124  12.2621  12.6070  12.9286  13.0479  13.5905  13.8903

     occupation numbers 
     1.0000   1.0000   1.0000   1.0000   1.0000   1.0000   1.0000   1.0000
     0.0000   0.0000   0.0000   0.0000   0.0000   0.0000   0.0000   0.0000
     0.0000   0.0000   0.0000   0.0000   0.0000   0.0000   0.0000   0.0000

          k = 0.2000 0.3464 0.0000 (  9967 PWs)   bands (ev):

   -17.8251 -17.7392  -9.9681  -9.9473  -8.5031  -8.4876  -5.7150  -5.0595
     3.8478   4.0499   6.2062   6.6172   7.3699   8.0852   8.2371   9.3986
     9.8386  10.0894  10.1107  11.1130  11.2195  11.5113  12.6913  14.2283

     occupation numbers 
     1.0000   1.0000   1.0000   1.0000   1.0000   1.0000   1.0000   1.0000
     0.0000   0.0000   0.0000   0.0000   0.0000   0.0000   0.0000   0.0000
     0.0000   0.0000   0.0000   0.0000   0.0000   0.0000   0.0000   0.0000

          k = 0.2000 0.3849 0.0000 ( 10011 PWs)   bands (ev):

   -17.3458 -17.2631 -10.5802 -10.5539  -8.9737  -8.9541  -5.1687  -4.5400
     3.1003   3.3177   6.8673   7.2734   8.0599   8.7632   8.8288   9.9422
    10.1062  10.3525  10.6880  11.4755  11.7283  12.0210  13.0398  13.9776

     occupation numbers 
     1.0000   1.0000   1.0000   1.0000   1.0000   1.0000   1.0000   1.0000
     0.0000   0.0000   0.0000   0.0000   0.0000   0.0000   0.0000   0.0000
     0.0000   0.0000   0.0000   0.0000   0.0000   0.0000   0.0000   0.0000

          k = 0.2000 0.4234 0.0000 (  9999 PWs)   bands (ev):

   -16.8229 -16.7437 -11.2633 -11.2281  -9.3318  -9.3063  -4.5860  -3.9914
     2.3446   2.5846   7.5917   7.9838   8.8158   9.4145   9.5000  10.0842
    10.3389  10.5406  11.3108  12.0196  12.4179  12.5641  12.9419  14.3817

     occupation numbers 
     1.0000   1.0000   1.0000   1.0000   1.0000   1.0000   1.0000   1.0000
     0.0000   0.0000   0.0000   0.0000   0.0000   0.0000   0.0000   0.0000
     0.0000   0.0000   0.0000   0.0000   0.0000   0.0000   0.0000   0.0000

          k = 0.2000 0.4619 0.0000 (  9981 PWs)   bands (ev):

   -16.2608 -16.1858 -11.9828 -11.9400  -9.5895  -9.5597  -3.9823  -3.4341
     1.6085   1.8680   8.3742   8.7296   9.6017   9.9307   9.9788  10.3156
    10.3271  11.1419  11.7454  12.4501  12.7495  13.0053  13.3829  14.9068

     occupation numbers 
     1.0000   1.0000   1.0000   1.0000   1.0000   1.0000   1.0000   1.0000
     0.0000   0.0000   0.0000   0.0000   0.0000   0.0000   0.0000   0.0000
     0.0000   0.0000   0.0000   0.0000   0.0000   0.0000   0.0000   0.0000

          k = 0.2000 0.5004 0.0000 (  9955 PWs)   bands (ev):

   -15.6692 -15.5993 -12.7018 -12.6537  -9.7635  -9.7311  -3.3890  -2.9107
     0.9436   1.1995   9.2025   9.4495   9.9404  10.0369  10.3523  10.6573
    11.0692  11.8256  11.8912  12.4286  13.2245  13.4105  13.9192  14.8514

     occupation numbers 
     1.0000   1.0000   1.0000   1.0000   1.0000   1.0000   1.0000   1.0000
     0.0000   0.0000   0.0000   0.0000   0.0000   0.0000   0.0000   0.0000
     0.0000   0.0000   0.0000   0.0000   0.0000   0.0000   0.0000   0.0000

          k = 0.2000 0.5389 0.0000 (  9944 PWs)   bands (ev):

   -15.0806 -15.0199 -13.3676 -13.3202  -9.8645  -9.8307  -2.8796  -2.5144
     0.4565   0.6473   9.7798   9.9729  10.1244  10.2258  10.4738  11.5401
    11.5949  11.8358  12.3889  12.5661  13.0981  13.7368  14.1302  14.2384

     occupation numbers 
     1.0000   1.0000   1.0000   1.0000   1.0000   1.0000   1.0000   1.0000
     0.0000   0.0000   0.0000   0.0000   0.0000   0.0000   0.0000   0.0000
     0.0000   0.0000   0.0000   0.0000   0.0000   0.0000   0.0000   0.0000

          k = 0.2000 0.5774 0.0000 (  9948 PWs)   bands (ev):

   -14.7147 -14.6788 -13.7373 -13.7140  -9.8976  -9.8635  -2.6428  -2.3756
     0.3023   0.3808   9.7928  10.0375  10.3829  10.4851  10.9414  11.0779
    11.8838  12.3188  12.6553  12.6568  13.2935  13.2965  13.6771  13.7313

     occupation numbers 
     1.0000   1.0000   1.0000   1.0000   1.0000   1.0000   1.0000   1.0000
     0.0000   0.0000   0.0000   0.0000   0.0000   0.0000   0.0000   0.0000
     0.0000   0.0000   0.0000   0.0000   0.0000   0.0000   0.0000   0.0000

          k = 0.2333 0.4041 0.0000 (  9999 PWs)   bands (ev):

   -16.8477 -16.7684 -11.0590 -11.0352  -9.5254  -9.5075  -4.6079  -4.0094
     2.4152   2.6356   7.5575   7.9436   8.7793   9.3746   9.4652  10.4699
    10.7634  11.0052  11.3163  11.5437  11.6715  12.4658  12.8136  14.3452

     occupation numbers 
     1.0000   1.0000   1.0000   1.0000   1.0000   1.0000   1.0000   1.0000
     0.0000   0.0000   0.0000   0.0000   0.0000   0.0000   0.0000   0.0000
     0.0000   0.0000   0.0000   0.0000   0.0000   0.0000   0.0000   0.0000

          k = 0.2333 0.4426 0.0000 (  9981 PWs)   bands (ev):

   -16.3090 -16.2335 -11.6233 -11.5934  -9.9506  -9.9282  -4.0157  -3.4554
     1.7231   1.9555   8.3067   8.6448   9.5258   9.8523  10.2038  10.8792
    11.0505  11.2618  11.5867  11.9580  12.3133  12.7920  12.9308  14.8876

     occupation numbers 
     1.0000   1.0000   1.0000   1.0000   1.0000   1.0000   1.0000   1.0000
     0.0000   0.0000   0.0000   0.0000   0.0000   0.0000   0.0000   0.0000
     0.0000   0.0000   0.0000   0.0000   0.0000   0.0000   0.0000   0.0000

          k = 0.2333 0.4811 0.0000 (  9971 PWs)   bands (ev):

   -15.7361 -15.6650 -12.2570 -12.2181 -10.2408 -10.2120  -3.4109  -2.9026
     1.0522   1.2946   9.1061   9.3174   9.9516  10.5276  10.7465  10.9923
    11.2166  11.6982  11.7674  12.3047  13.0309  13.3364  13.5074  15.2554

     occupation numbers 
     1.0000   1.0000   1.0000   1.0000   1.0000   1.0000   1.0000   1.0000
     0.0000   0.0000   0.0000   0.0000   0.0000   0.0000   0.0000   0.0000
     0.0000   0.0000   0.0000   0.0000   0.0000   0.0000   0.0000   0.0000

          k = 0.2333 0.5196 0.0000 (  9957 PWs)   bands (ev):

   -15.1453 -15.0806 -12.9081 -12.8636 -10.4172 -10.3841  -2.8351  -2.4081
     0.4683   0.6894   9.8064   9.9079  10.0890  10.7816  11.1403  11.4293
    11.4563  12.1637  12.3025  12.5197  13.3612  14.0338  14.2203  14.6181

     occupation numbers 
     1.0000   1.0000   1.0000   1.0000   1.0000   1.0000   1.0000   1.0000
     0.0000   0.0000   0.0000   0.0000   0.0000   0.0000   0.0000   0.0000
     0.0000   0.0000   0.0000   0.0000   0.0000   0.0000   0.0000   0.0000

          k = 0.2333 0.5581 0.0000 (  9941 PWs)   bands (ev):

   -14.6122 -14.5638 -13.4649 -13.4296 -10.5004 -10.4655  -2.4045  -2.1046
     0.1294   0.2337   9.9886  10.0588  10.7051  10.8803  11.1377  11.6370
    11.9629  12.4401  12.7660  13.1871  13.4511  13.5398  14.1364  14.2944

     occupation numbers 
     1.0000   1.0000   1.0000   1.0000   1.0000   1.0000   1.0000   1.0000
     0.0000   0.0000   0.0000   0.0000   0.0000   0.0000   0.0000   0.0000
     0.0000   0.0000   0.0000   0.0000   0.0000   0.0000   0.0000   0.0000

          k = 0.2667 0.4619 0.0000 (  9977 PWs)   bands (ev):

   -15.7587 -15.6874 -12.0408 -12.0141 -10.4599 -10.4405  -3.4191  -2.9008
     1.0935   1.3289   9.0727   9.2668   9.8836  10.4904  10.8323  11.5194
    11.5547  11.7960  11.8072  12.2361  12.2963  13.2662  13.4202  15.3598

     occupation numbers 
     1.0000   1.0000   1.0000   1.0000   1.0000   1.0000   1.0000   1.0000
     0.0000   0.0000   0.0000   0.0000   0.0000   0.0000   0.0000   0.0000
     0.0000   0.0000   0.0000   0.0000   0.0000   0.0000   0.0000   0.0000

          k = 0.2667 0.5004 0.0000 (  9963 PWs)   bands (ev):

   -15.1820 -15.1159 -12.5473 -12.5147 -10.8131 -10.7894  -2.8173  -2.3553
     0.4821   0.7216   9.6841   9.8231   9.9601  11.2424  11.3660  11.5948
    12.0709  12.1100  12.3053  12.4673  13.0250  14.0100  14.0457  15.3699

     occupation numbers 
     1.0000   1.0000   1.0000   1.0000   1.0000   1.0000   1.0000   1.0000
     0.0000   0.0000   0.0000   0.0000   0.0000   0.0000   0.0000   0.0000
     0.0000   0.0000   0.0000   0.0000   0.0000   0.0000   0.0000   0.0000

          k = 0.2667 0.5389 0.0000 (  9955 PWs)   bands (ev):

   -14.6087 -14.5511 -13.0975 -13.0602 -11.0085 -10.9789  -2.2664  -1.8966
    -0.0257   0.1780   9.8060   9.8535  10.7007  11.5006  11.8047  12.0446
    12.1671  12.3477  13.0432  13.1879  13.4237  14.3922  14.5729  14.7989

     occupation numbers 
     1.0000   1.0000   1.0000   1.0000   1.0000   1.0000   1.0000   1.0000
     0.0000   0.0000   0.0000   0.0000   0.0000   0.0000   0.0000   0.0000
     0.0000   0.0000   0.0000   0.0000   0.0000   0.0000   0.0000   0.0000

          k = 0.2667 0.5774 0.0000 (  9962 PWs)   bands (ev):

   -14.2429 -14.2087 -13.4355 -13.4253 -11.0696 -11.0380  -1.9771  -1.7159
    -0.2084  -0.1231   9.8124   9.8375  11.2952  11.5513  11.5864  12.0401
    12.5289  12.8520  13.3530  13.3922  13.9599  13.9724  14.1254  14.2489

     occupation numbers 
     1.0000   1.0000   1.0000   1.0000   1.0000   1.0000   1.0000   1.0000
     0.0000   0.0000   0.0000   0.0000   0.0000   0.0000   0.0000   0.0000
     0.0000   0.0000   0.0000   0.0000   0.0000   0.0000   0.0000   0.0000

          k = 0.3000 0.5196 0.0000 (  9963 PWs)   bands (ev):

   -14.6144 -14.5546 -12.9026 -12.8731 -11.2344 -11.2168  -2.2216  -1.8162
    -0.0859   0.1621   9.7356   9.7750  10.6692  11.8124  11.8850  12.1189
    12.3121  12.7575  13.0995  13.1339  13.2246  14.6321  14.7871  15.1201

     occupation numbers 
     1.0000   1.0000   1.0000   1.0000   1.0000   1.0000   1.0000   1.0000
     0.0000   0.0000   0.0000   0.0000   0.0000   0.0000   0.0000   0.0000
     0.0000   0.0000   0.0000   0.0000   0.0000   0.0000   0.0000   0.0000

          k = 0.3000 0.5581 0.0000 (  9970 PWs)   bands (ev):

   -14.0886 -14.0419 -13.3145 -13.2869 -11.4514 -11.4329  -1.6965  -1.3875
    -0.5442  -0.3267   9.6890   9.6990  11.3626  11.8570  12.0469  12.4580
    12.9483  13.2688  13.3213  13.9533  14.0071  14.2996  14.5785  14.8028

     occupation numbers 
     1.0000   1.0000   1.0000   1.0000   1.0000   1.0000   1.0000   1.0000
     0.0000   0.0000   0.0000   0.0000   0.0000   0.0000   0.0000   0.0000
     0.0000   0.0000   0.0000   0.0000   0.0000   0.0000   0.0000   0.0000

          k = 0.3333 0.5774 0.0000 (  9978 PWs)   bands (ev):

   -13.6544 -13.6209 -13.6209 -13.5906 -11.6172 -11.6172  -1.2376  -0.9864
    -0.9864  -0.7241   9.6384   9.6384  11.6602  12.0068  12.0068  12.7412
    13.3936  13.3936  14.1233  14.2692  14.2692  14.3776  14.5995  14.5995

     occupation numbers 
     1.0000   1.0000   1.0000   1.0000   1.0000   1.0000   0.9955   0.5007
     0.5007   0.0032   0.0000   0.0000   0.0000   0.0000   0.0000   0.0000
     0.0000   0.0000   0.0000   0.0000   0.0000   0.0000   0.0000   0.0000

     the Fermi energy is    -0.9862 ev
     (compare with:    -0.9867 eV, computed in scf)

     Writing all to output data dir /home/ubuntu/projects/Graphene-Band-Structure-Quantum-Espresso/outputs/field_0/grimme/coupled/data/coupled.save/ :
     XML data file, pseudopotentials, collected wavefunctions

     init_run     :      1.48s CPU      1.63s WALL (       1 calls)
     electrons    :    237.10s CPU    239.22s WALL (       1 calls)

     Called by init_run:
     wfcinit      :      0.00s CPU      0.00s WALL (       1 calls)
     wfcinit:atom :      0.04s CPU      0.09s WALL (      23 calls)
     wfcinit:wfcr :      4.33s CPU      4.41s WALL (      23 calls)
     potinit      :      0.52s CPU      0.59s WALL (       1 calls)
     hinit0       :      0.85s CPU      0.89s WALL (       1 calls)

     Called by electrons:
     c_bands      :    237.10s CPU    239.19s WALL (       1 calls)
     v_of_rho     :      0.12s CPU      0.18s WALL (       1 calls)
     v_h          :      0.01s CPU      0.01s WALL (       1 calls)
     v_xc         :      0.11s CPU      0.17s WALL (       1 calls)

     Called by c_bands:
     init_us_2    :      0.08s CPU      0.08s WALL (      23 calls)
     cegterg      :    163.75s CPU    165.42s WALL (      73 calls)

     Called by sum_band:

     Called by *egterg:
     cdiaghg      :      1.31s CPU      1.31s WALL (    1255 calls)
     cegterg:over :     25.43s CPU     25.51s WALL (    1232 calls)
     cegterg:upda :     16.41s CPU     16.61s WALL (    1232 calls)
     cegterg:last :     33.26s CPU     33.37s WALL (     709 calls)
     h_psi        :     87.46s CPU     88.48s WALL (    1328 calls)
     g_psi        :      0.73s CPU      0.73s WALL (    1232 calls)

     Called by h_psi:
     h_psi:calbec :     11.52s CPU     11.58s WALL (    1328 calls)
     vloc_psi     :     63.98s CPU     64.24s WALL (    1328 calls)
     add_vuspsi   :     11.55s CPU     11.58s WALL (    1328 calls)

     General routines
     calbec       :     11.51s CPU     11.57s WALL (    1328 calls)
     fft          :      0.74s CPU      0.75s WALL (      12 calls)
     ffts         :      0.37s CPU      0.37s WALL (       1 calls)
     fftw         :     57.00s CPU     57.23s WALL (   32150 calls)
     interpolate  :      0.38s CPU      0.38s WALL (       1 calls)

     Parallel routines

     PWSCF        :   3m58.92s CPU   4m 1.80s WALL


   This run was terminated on:   2:20:48  25Sep2026            

=------------------------------------------------------------------------------=
   JOB DONE.
=------------------------------------------------------------------------------=
