
     Program PWSCF v.7.6 starts on 25Sep2026 at  2:16:13 

     This program is part of the open-source Quantum ESPRESSO suite
     for quantum simulation of materials; please cite
         "P. Giannozzi et al., J. Phys.:Condens. Matter 21 395502 (2009);
         "P. Giannozzi et al., J. Phys.:Condens. Matter 29 465901 (2017);
         "P. Giannozzi et al., J. Chem. Phys. 152 154105 (2020);
          URL http://www.quantum-espresso.org", 
     in publications or presentations arising from this work. More details at
     http://www.quantum-espresso.org/quote

     Parallel version (MPI), running on     4 processors

     MPI processes distributed on     1 nodes
     5459 MiB available memory on the printing compute node when the environment starts

     Waiting for input...
     Reading input from standard input
Warning: card &CELL ignored
Warning: card &FCP ignored
Warning: card &RISM ignored

     Current dimensions of program PWSCF are:
     Max number of different atomic species (ntypx) = 10
     Max number of k-points (npk) =  40000
     Max angular momentum in pseudopotentials (lmaxx) =  4
     Message from routine setup:
     using ibrav=0 with symmetry is DISCOURAGED, use correct ibrav instead

     K-points division:     npool     =       4
     Subspace diagonalization in iterative solution of the eigenvalue problem:
     a serial algorithm will be used


     G-vector sticks info
     --------------------
     sticks:   dense  smooth     PW     G-vecs:    dense   smooth      PW
     Sum         595     475    151               111671    79745   13381

     Using Slab Decomposition



     bravais-lattice index     =            0
     lattice parameter (alat)  =       4.6487  a.u.
     unit-cell volume          =     825.8174 (a.u.)^3
     number of atoms/cell      =            4
     number of atomic types    =            1
     number of electrons       =        16.00
     number of Kohn-Sham states=           14
     kinetic-energy cutoff     =      80.0000  Ry
     charge density cutoff     =     400.0000  Ry
     scf convergence threshold =      1.0E-08
     mixing beta               =       0.7000
     number of iterations used =            8  plain     mixing
     Exchange-correlation= PBE
                           (   1   4   3   4   0   0   0)

     celldm(1)=   4.648726  celldm(2)=   0.000000  celldm(3)=   0.000000
     celldm(4)=   0.000000  celldm(5)=   0.000000  celldm(6)=   0.000000

     crystal axes: (cart. coord. in units of alat)
               a(1) = (   1.000000   0.000000   0.000000 )  
               a(2) = (  -0.500000   0.866025   0.000000 )  
               a(3) = (   0.000000   0.000000   9.491870 )  

     reciprocal axes: (cart. coord. in units 2 pi/alat)
               b(1) = (  1.000000  0.577351 -0.000000 )  
               b(2) = (  0.000000  1.154701  0.000000 )  
               b(3) = (  0.000000 -0.000000  0.105353 )  


     PseudoPot. # 1 for C  read from file:
     /home/ubuntu/projects/Graphene-Band-Structure-Quantum-Espresso/pseudo/C.upf
     MD5 check sum: 34a24e64c0a39f27c6c36b90a16ac686
     Pseudo is Norm-conserving + core correction, Zval =  4.0
     Generated using ONCVPSP code by D. R. Hamann
     Using radial grid of 1248 points,  4 beta functions with: 
                l(1) =   0
                l(2) =   0
                l(3) =   1
                l(4) =   1

     atomic species   valence    mass     pseudopotential
     C                 4.00    12.01100     C ( 1.00)

     12 Sym. Ops., with inversion, found ( 6 have fractional translation)


                                    s                        frac. trans.

      isym =  1     identity                                     

 cryst.   s( 1) = (     1          0          0      )
                  (     0          1          0      )
                  (     0          0          1      )

 cart.    s( 1) = (  1.0000000  0.0000000  0.0000000 )
                  (  0.0000000  1.0000000  0.0000000 )
                  (  0.0000000  0.0000000  1.0000000 )


      isym =  2     180 deg rotation - cart. axis [1,0,0]        

 cryst.   s( 2) = (     1          0          0      )    f =( -0.3333335 )
                  (    -1         -1          0      )       (  0.3333330 )
                  (     0          0         -1      )       ( -0.0000001 )

 cart.    s( 2) = (  1.0000000  0.0000000  0.0000000 )    f =( -0.5000000 )
                  (  0.0000000 -1.0000000  0.0000000 )       (  0.2886747 )
                  (  0.0000000  0.0000000 -1.0000000 )       ( -0.0000005 )


      isym =  3     120 deg rotation - cryst. axis [0,0,1]       

 cryst.   s( 3) = (     0          1          0      )
                  (    -1         -1          0      )
                  (     0          0          1      )

 cart.    s( 3) = ( -0.5000000 -0.8660258  0.0000000 )
                  (  0.8660250 -0.5000000  0.0000000 )
                  (  0.0000000  0.0000000  1.0000000 )


      isym =  4     120 deg rotation - cryst. axis [0,0,-1]      

 cryst.   s( 4) = (    -1         -1          0      )
                  (     1          0          0      )
                  (     0          0          1      )

 cart.    s( 4) = ( -0.5000000  0.8660258  0.0000000 )
                  ( -0.8660250 -0.5000000  0.0000000 )
                  (  0.0000000  0.0000000  1.0000000 )


      isym =  5     180 deg rotation - cryst. axis [0,1,0]       

 cryst.   s( 5) = (    -1         -1          0      )    f =( -0.3333335 )
                  (     0          1          0      )       (  0.3333335 )
                  (     0          0         -1      )       ( -0.0000001 )

 cart.    s( 5) = ( -0.5000000 -0.8660258  0.0000000 )    f =( -0.5000003 )
                  ( -0.8660250  0.5000000  0.0000000 )       (  0.2886752 )
                  (  0.0000000  0.0000000 -1.0000000 )       ( -0.0000005 )


      isym =  6     180 deg rotation - cryst. axis [1,1,0]       

 cryst.   s( 6) = (     0          1          0      )    f =( -0.3333330 )
                  (     1          0          0      )       (  0.3333335 )
                  (     0          0         -1      )       ( -0.0000001 )

 cart.    s( 6) = ( -0.5000000  0.8660258  0.0000000 )    f =( -0.4999997 )
                  (  0.8660250  0.5000000  0.0000000 )       (  0.2886752 )
                  (  0.0000000  0.0000000 -1.0000000 )       ( -0.0000005 )


      isym =  7     inversion                                    

 cryst.   s( 7) = (    -1          0          0      )    f =( -0.3333335 )
                  (     0         -1          0      )       (  0.3333330 )
                  (     0          0         -1      )       ( -0.0000001 )

 cart.    s( 7) = ( -1.0000000  0.0000000  0.0000000 )    f =( -0.5000000 )
                  (  0.0000000 -1.0000000  0.0000000 )       (  0.2886747 )
                  (  0.0000000  0.0000000 -1.0000000 )       ( -0.0000005 )


      isym =  8     inv. 180 deg rotation - cart. axis [1,0,0]   

 cryst.   s( 8) = (    -1          0          0      )
                  (     1          1          0      )
                  (     0          0          1      )

 cart.    s( 8) = ( -1.0000000  0.0000000  0.0000000 )
                  (  0.0000000  1.0000000  0.0000000 )
                  (  0.0000000  0.0000000  1.0000000 )


      isym =  9     inv. 120 deg rotation - cryst. axis [0,0,1]  

 cryst.   s( 9) = (     0         -1          0      )    f =( -0.3333330 )
                  (     1          1          0      )       (  0.3333335 )
                  (     0          0         -1      )       ( -0.0000001 )

 cart.    s( 9) = (  0.5000000  0.8660258  0.0000000 )    f =( -0.4999997 )
                  ( -0.8660250  0.5000000  0.0000000 )       (  0.2886752 )
                  (  0.0000000  0.0000000 -1.0000000 )       ( -0.0000005 )


      isym = 10     inv. 120 deg rotation - cryst. axis [0,0,-1] 

 cryst.   s(10) = (     1          1          0      )    f =( -0.3333335 )
                  (    -1          0          0      )       (  0.3333335 )
                  (     0          0         -1      )       ( -0.0000001 )

 cart.    s(10) = (  0.5000000 -0.8660258  0.0000000 )    f =( -0.5000003 )
                  (  0.8660250  0.5000000  0.0000000 )       (  0.2886752 )
                  (  0.0000000  0.0000000 -1.0000000 )       ( -0.0000005 )


      isym = 11     inv. 180 deg rotation - cryst. axis [0,1,0]  

 cryst.   s(11) = (     1          1          0      )
                  (     0         -1          0      )
                  (     0          0          1      )

 cart.    s(11) = (  0.5000000  0.8660258  0.0000000 )
                  (  0.8660250 -0.5000000  0.0000000 )
                  (  0.0000000  0.0000000  1.0000000 )


      isym = 12     inv. 180 deg rotation - cryst. axis [1,1,0]  

 cryst.   s(12) = (     0         -1          0      )
                  (    -1          0          0      )
                  (     0          0          1      )

 cart.    s(12) = (  0.5000000 -0.8660258  0.0000000 )
                  ( -0.8660250 -0.5000000  0.0000000 )
                  (  0.0000000  0.0000000  1.0000000 )


   Cartesian axes

     site n.     atom                  positions (alat units)
         1        C      tau(   1) = (   0.0000000   0.0000000   4.0322439  )
         2        C      tau(   2) = (   0.5000000   0.2886752   4.0328737  )
         3        C      tau(   3) = (   0.5000000   0.2886752   5.4589968  )
         4        C      tau(   4) = (   0.0000000   0.5773503   5.4596266  )

     --------------------------------------------
     DFT-D3 Dispersion Correction (3-body terms):
     --------------------------------------------
       Reference C6 values for interpolation: 

         atom   Coordination number   C6
         C          0.000            98.23
         C          0.987            86.49
         C          1.998            58.72
         C          2.999            51.56
         C          3.984            36.41

       Values used:

         atom   Coordination number  R0_AB[au]  C6      C8
         C          3.321            2.750     48.15   1392.48
         C          3.321            2.750     48.14   1392.42
         C          3.321            2.750     48.14   1392.42
         C          3.321            2.750     48.15   1392.48

         Molecular C6 ( Ry / a.u.^6 ) =       770.33


   Crystallographic axes

     site n.     atom                  positions (cryst. coord.)
         1        C      tau(   1) = (  0.0000000  0.0000000  0.4248103  )
         2        C      tau(   2) = (  0.6666668  0.3333335  0.4248766  )
         3        C      tau(   3) = (  0.6666668  0.3333335  0.5751234  )
         4        C      tau(   4) = (  0.3333335  0.6666670  0.5751898  )

     number of k points=    27  Gaussian smearing, width (Ry)=  0.0100
                       cart. coord. in units 2pi/alat
        k(    1) = (   0.0000000   0.0000000   0.0000000), wk =   0.0088889
        k(    2) = (   0.0000000   0.0769801   0.0000000), wk =   0.0533333
        k(    3) = (   0.0000000   0.1539601   0.0000000), wk =   0.0533333
        k(    4) = (   0.0000000   0.2309402   0.0000000), wk =   0.0533333
        k(    5) = (   0.0000000   0.3079203   0.0000000), wk =   0.0533333
        k(    6) = (   0.0000000   0.3849004   0.0000000), wk =   0.0533333
        k(    7) = (   0.0000000   0.4618804   0.0000000), wk =   0.0533333
        k(    8) = (   0.0000000   0.5388605   0.0000000), wk =   0.0533333
        k(    9) = (   0.0666667   0.1154701   0.0000000), wk =   0.0533333
        k(   10) = (   0.0666667   0.1924502   0.0000000), wk =   0.1066667
        k(   11) = (   0.0666667   0.2694303   0.0000000), wk =   0.1066667
        k(   12) = (   0.0666667   0.3464103   0.0000000), wk =   0.1066667
        k(   13) = (   0.0666667   0.4233904   0.0000000), wk =   0.1066667
        k(   14) = (   0.0666667   0.5003705   0.0000000), wk =   0.1066667
        k(   15) = (   0.0666667   0.5773505   0.0000000), wk =   0.0533333
        k(   16) = (   0.1333333   0.2309402   0.0000000), wk =   0.0533333
        k(   17) = (   0.1333333   0.3079203   0.0000000), wk =   0.1066667
        k(   18) = (   0.1333333   0.3849004   0.0000000), wk =   0.1066667
        k(   19) = (   0.1333333   0.4618804   0.0000000), wk =   0.1066667
        k(   20) = (   0.1333333   0.5388605   0.0000000), wk =   0.1066667
        k(   21) = (   0.2000000   0.3464103   0.0000000), wk =   0.0533333
        k(   22) = (   0.2000000   0.4233904   0.0000000), wk =   0.1066667
        k(   23) = (   0.2000000   0.5003705   0.0000000), wk =   0.1066667
        k(   24) = (   0.2000000   0.5773505   0.0000000), wk =   0.0533333
        k(   25) = (   0.2666667   0.4618804   0.0000000), wk =   0.0533333
        k(   26) = (   0.2666667   0.5388605   0.0000000), wk =   0.1066667
        k(   27) = (   0.3333333   0.5773505   0.0000000), wk =   0.0177778

                       cryst. coord.
        k(    1) = (   0.0000000   0.0000000   0.0000000), wk =   0.0088889
        k(    2) = (   0.0000000   0.0666667   0.0000000), wk =   0.0533333
        k(    3) = (   0.0000000   0.1333333   0.0000000), wk =   0.0533333
        k(    4) = (   0.0000000   0.2000000   0.0000000), wk =   0.0533333
        k(    5) = (   0.0000000   0.2666667   0.0000000), wk =   0.0533333
        k(    6) = (   0.0000000   0.3333333   0.0000000), wk =   0.0533333
        k(    7) = (   0.0000000   0.4000000   0.0000000), wk =   0.0533333
        k(    8) = (   0.0000000   0.4666667   0.0000000), wk =   0.0533333
        k(    9) = (   0.0666667   0.0666667   0.0000000), wk =   0.0533333
        k(   10) = (   0.0666667   0.1333333   0.0000000), wk =   0.1066667
        k(   11) = (   0.0666667   0.2000000   0.0000000), wk =   0.1066667
        k(   12) = (   0.0666667   0.2666667   0.0000000), wk =   0.1066667
        k(   13) = (   0.0666667   0.3333333   0.0000000), wk =   0.1066667
        k(   14) = (   0.0666667   0.4000000   0.0000000), wk =   0.1066667
        k(   15) = (   0.0666667   0.4666667   0.0000000), wk =   0.0533333
        k(   16) = (   0.1333333   0.1333333   0.0000000), wk =   0.0533333
        k(   17) = (   0.1333333   0.2000000   0.0000000), wk =   0.1066667
        k(   18) = (   0.1333333   0.2666667   0.0000000), wk =   0.1066667
        k(   19) = (   0.1333333   0.3333333   0.0000000), wk =   0.1066667
        k(   20) = (   0.1333333   0.4000000   0.0000000), wk =   0.1066667
        k(   21) = (   0.2000000   0.2000000   0.0000000), wk =   0.0533333
        k(   22) = (   0.2000000   0.2666667   0.0000000), wk =   0.1066667
        k(   23) = (   0.2000000   0.3333333   0.0000000), wk =   0.1066667
        k(   24) = (   0.2000000   0.4000000   0.0000000), wk =   0.0533333
        k(   25) = (   0.2666667   0.2666667   0.0000000), wk =   0.0533333
        k(   26) = (   0.2666667   0.3333333   0.0000000), wk =   0.1066667
        k(   27) = (   0.3333333   0.3333333   0.0000000), wk =   0.0177778

     Dense  grid:   111671 G-vectors     FFT dimensions: (  30,  30, 288)

     Smooth grid:    79745 G-vectors     FFT dimensions: (  27,  27, 256)

     Dynamical RAM for                 wfc:       2.13 MB

     Dynamical RAM for     wfc (w. buffer):      17.05 MB

     Dynamical RAM for           str. fact:       1.70 MB

     Dynamical RAM for           local pot:       0.00 MB

     Dynamical RAM for          nlocal pot:       4.87 MB

     Dynamical RAM for                qrad:       0.46 MB

     Dynamical RAM for          rho,v,vnew:      11.04 MB

     Dynamical RAM for               rhoin:       3.68 MB

     Dynamical RAM for            rho*nmix:      27.26 MB

     Dynamical RAM for           G-vectors:       7.00 MB

     Dynamical RAM for          h,s,v(r/c):       0.04 MB

     Dynamical RAM for          <psi|beta>:       0.01 MB

     Dynamical RAM for                 psi:       4.26 MB

     Dynamical RAM for                hpsi:       4.26 MB

     Dynamical RAM for      wfcinit/wfcrot:       4.27 MB

     Estimated static dynamical RAM per process >      59.11 MB

     Estimated max dynamical RAM per process >      94.94 MB

     Estimated total dynamical RAM >     297.98 MB

     Initial potential from superposition of free atoms

     starting charge      15.9998, renormalised to      16.0000

     negative rho (up, down):  2.719E-06 0.000E+00
     Starting wfcs are   16 randomized atomic wfcs

     total cpu time spent up to now is        3.1 secs

     Self-consistent Calculation

     iteration #  1     ecut=    80.00 Ry     beta= 0.70
     Davidson diagonalization with overlap

---- Real-time Memory Report at c_bands before calling an iterative solver
           102 MiB given to the printing process from OS
             0 MiB allocation reported by mallinfo(arena+hblkhd)
          5235 MiB available memory on the node where the printing process lives
------------------
     ethr =  1.00E-02,  avg # of iterations =  6.1

     total cpu time spent up to now is        7.5 secs

     total energy              =     -48.16052865 Ry
     estimated scf accuracy    <       0.37153921 Ry

     iteration #  2     ecut=    80.00 Ry     beta= 0.70
     Davidson diagonalization with overlap

---- Real-time Memory Report at c_bands before calling an iterative solver
           135 MiB given to the printing process from OS
             0 MiB allocation reported by mallinfo(arena+hblkhd)
          5113 MiB available memory on the node where the printing process lives
------------------
     ethr =  2.32E-03,  avg # of iterations =  6.3

     total cpu time spent up to now is       11.3 secs

     total energy              =     -48.20618567 Ry
     estimated scf accuracy    <       0.00413840 Ry

     iteration #  3     ecut=    80.00 Ry     beta= 0.70
     Davidson diagonalization with overlap

---- Real-time Memory Report at c_bands before calling an iterative solver
           138 MiB given to the printing process from OS
             0 MiB allocation reported by mallinfo(arena+hblkhd)
          5113 MiB available memory on the node where the printing process lives
------------------
     c_bands:  1 eigenvalues not converged
     ethr =  2.59E-05,  avg # of iterations = 11.8

     total cpu time spent up to now is       16.6 secs

     total energy              =     -48.20703054 Ry
     estimated scf accuracy    <       0.00063335 Ry

     iteration #  4     ecut=    80.00 Ry     beta= 0.70
     Davidson diagonalization with overlap

---- Real-time Memory Report at c_bands before calling an iterative solver
           140 MiB given to the printing process from OS
             0 MiB allocation reported by mallinfo(arena+hblkhd)
          5145 MiB available memory on the node where the printing process lives
------------------
     ethr =  3.96E-06,  avg # of iterations =  6.8

     total cpu time spent up to now is       21.3 secs

     total energy              =     -48.20714235 Ry
     estimated scf accuracy    <       0.00051663 Ry

     iteration #  5     ecut=    80.00 Ry     beta= 0.70
     Davidson diagonalization with overlap

---- Real-time Memory Report at c_bands before calling an iterative solver
           142 MiB given to the printing process from OS
             0 MiB allocation reported by mallinfo(arena+hblkhd)
          5135 MiB available memory on the node where the printing process lives
------------------
     ethr =  3.23E-06,  avg # of iterations =  4.5

     total cpu time spent up to now is       24.7 secs

     total energy              =     -48.20724202 Ry
     estimated scf accuracy    <       0.00000379 Ry

     iteration #  6     ecut=    80.00 Ry     beta= 0.70
     Davidson diagonalization with overlap

---- Real-time Memory Report at c_bands before calling an iterative solver
           145 MiB given to the printing process from OS
             0 MiB allocation reported by mallinfo(arena+hblkhd)
          5132 MiB available memory on the node where the printing process lives
------------------
     ethr =  2.37E-08,  avg # of iterations =  3.0

     total cpu time spent up to now is       27.9 secs

     total energy              =     -48.20724353 Ry
     estimated scf accuracy    <       0.00000018 Ry

     iteration #  7     ecut=    80.00 Ry     beta= 0.70
     Davidson diagonalization with overlap

---- Real-time Memory Report at c_bands before calling an iterative solver
           147 MiB given to the printing process from OS
             0 MiB allocation reported by mallinfo(arena+hblkhd)
          5135 MiB available memory on the node where the printing process lives
------------------
     ethr =  1.12E-09,  avg # of iterations =  3.1

     total cpu time spent up to now is       31.2 secs

     End of self-consistent calculation

          k = 0.0000 0.0000 0.0000 ( 10049 PWs)   bands (ev):

   -20.6288 -20.5243  -9.0353  -8.2667  -4.0345  -4.0344  -4.0288  -4.0288
     2.3936   2.7769   3.4251   4.1751   4.5307   5.8850

     occupation numbers 
     1.0000   1.0000   1.0000   1.0000   1.0000   1.0000   1.0000   1.0000
     0.0000   0.0000   0.0000   0.0000   0.0000   0.0000

          k = 0.0000 0.0770 0.0000 ( 10077 PWs)   bands (ev):

   -20.5232 -20.4194  -8.9073  -8.1421  -4.4622  -4.4532  -4.2601  -4.2522
     2.5354   2.9207   3.5714   4.3206   4.6709   6.0200

     occupation numbers 
     1.0000   1.0000   1.0000   1.0000   1.0000   1.0000   1.0000   1.0000
     0.0000   0.0000   0.0000   0.0000   0.0000   0.0000

          k = 0.0000 0.1540 0.0000 ( 10059 PWs)   bands (ev):

   -20.2068 -20.1052  -8.5254  -7.7705  -5.5982  -5.5819  -4.8311  -4.8197
     2.9608   3.3518   4.0102   4.7569   5.0911   6.4238

     occupation numbers 
     1.0000   1.0000   1.0000   1.0000   1.0000   1.0000   1.0000   1.0000
     0.0000   0.0000   0.0000   0.0000   0.0000   0.0000

          k = 0.0000 0.2309 0.0000 ( 10009 PWs)   bands (ev):

   -19.6821 -19.5839  -7.8961  -7.1618  -7.1558  -7.1300  -5.5443  -5.5305
     3.6690   4.0678   4.7414   5.4827   5.7854   7.0541

     occupation numbers 
     1.0000   1.0000   1.0000   1.0000   1.0000   1.0000   1.0000   1.0000
     0.0000   0.0000   0.0000   0.0000   0.0000   0.0000

          k = 0.0000 0.3079 0.0000 (  9969 PWs)   bands (ev):

   -18.9531 -18.8597  -8.9010  -8.8659  -7.0333  -6.3262  -6.2381  -6.2227
     4.6561   5.0401   5.7354   5.7624   5.9566   6.5071

     occupation numbers 
     1.0000   1.0000   1.0000   1.0000   1.0000   1.0000   1.0000   1.0000
     0.0000   0.0000   0.0000   0.0000   0.0000   0.0000

          k = 0.0000 0.3849 0.0000 (  9978 PWs)   bands (ev):

   -18.0272 -17.9399 -10.6781 -10.6336  -6.8153  -6.7988  -5.9670  -5.3078
     3.7907   4.1383   5.9119   6.3633   6.8164   6.9157

     occupation numbers 
     1.0000   1.0000   1.0000   1.0000   1.0000   1.0000   1.0000   1.0000
     0.0000   0.0000   0.0000   0.0000   0.0000   0.0000

          k = 0.0000 0.4619 0.0000 (  9950 PWs)   bands (ev):

   -16.9201 -16.8405 -12.3886 -12.3354  -7.2224  -7.2054  -4.7738  -4.2048
     2.0117   2.4056   6.5851   6.7113   7.4916   7.9392

     occupation numbers 
     1.0000   1.0000   1.0000   1.0000   1.0000   1.0000   1.0000   1.0000
     0.0000   0.0000   0.0000   0.0000   0.0000   0.0000

          k = 0.0000 0.5389 0.0000 (  9930 PWs)   bands (ev):

   -15.7045 -15.6394 -13.9086 -13.8546  -7.4319  -7.4146  -3.7185  -3.3547
     0.7673   1.0981   6.4817   6.6226   9.2549   9.7471

     occupation numbers 
     1.0000   1.0000   1.0000   1.0000   1.0000   1.0000   1.0000   1.0000
     0.0000   0.0000   0.0000   0.0000   0.0000   0.0000

          k = 0.0667 0.1155 0.0000 ( 10077 PWs)   bands (ev):

   -20.3122 -20.2098  -8.6524  -7.8939  -5.1896  -5.1807  -4.7088  -4.7020
     2.8191   3.2082   3.8640   4.6116   4.9515   6.2907

     occupation numbers 
     1.0000   1.0000   1.0000   1.0000   1.0000   1.0000   1.0000   1.0000
     0.0000   0.0000   0.0000   0.0000   0.0000   0.0000

          k = 0.0667 0.1925 0.0000 ( 10034 PWs)   bands (ev):

   -19.8916 -19.7921  -8.1465  -7.4024  -6.4472  -6.4300  -5.4431  -5.4316
     3.3864   3.7822   4.4491   5.1930   5.5111   6.8266

     occupation numbers 
     1.0000   1.0000   1.0000   1.0000   1.0000   1.0000   1.0000   1.0000
     0.0000   0.0000   0.0000   0.0000   0.0000   0.0000

          k = 0.0667 0.2694 0.0000 (  9986 PWs)   bands (ev):

   -19.2648 -19.1693  -8.0406  -8.0124  -7.3994  -6.6788  -6.2079  -6.1921
     4.2351   4.6373   5.3263   6.0579   6.3237   6.5316

     occupation numbers 
     1.0000   1.0000   1.0000   1.0000   1.0000   1.0000   1.0000   1.0000
     0.0000   0.0000   0.0000   0.0000   0.0000   0.0000

          k = 0.0667 0.3464 0.0000 (  9960 PWs)   bands (ev):

   -18.4372 -18.3473  -9.7708  -9.7322  -6.8751  -6.8569  -6.4310  -5.7478
     4.6615   4.9536   5.3623   5.8073   6.4944   7.2101

     occupation numbers 
     1.0000   1.0000   1.0000   1.0000   1.0000   1.0000   1.0000   1.0000
     0.0000   0.0000   0.0000   0.0000   0.0000   0.0000

          k = 0.0667 0.4234 0.0000 (  9952 PWs)   bands (ev):

   -17.4196 -17.3364 -11.5007 -11.4525  -7.3824  -7.3628  -5.2873  -4.6675
     2.8318   3.1913   6.7352   7.1030   7.2670   7.3166

     occupation numbers 
     1.0000   1.0000   1.0000   1.0000   1.0000   1.0000   1.0000   1.0000
     0.0000   0.0000   0.0000   0.0000   0.0000   0.0000

          k = 0.0667 0.5004 0.0000 (  9948 PWs)   bands (ev):

   -16.2406 -16.1666 -13.1287 -13.0732  -7.6973  -7.6770  -4.1023  -3.6164
     1.2597   1.6248   6.9858   7.1281   8.4418   8.9019

     occupation numbers 
     1.0000   1.0000   1.0000   1.0000   1.0000   1.0000   1.0000   1.0000
     0.0000   0.0000   0.0000   0.0000   0.0000   0.0000

          k = 0.0667 0.5774 0.0000 (  9926 PWs)   bands (ev):

   -15.2556 -15.2176 -14.2359 -14.2072  -7.8038  -7.7833  -3.4139  -3.1407
     0.5708   0.8363   6.9321   7.0810  10.2607  10.3517

     occupation numbers 
     1.0000   1.0000   1.0000   1.0000   1.0000   1.0000   1.0000   1.0000
     0.0000   0.0000   0.0000   0.0000   0.0000   0.0000

          k = 0.1333 0.2309 0.0000 (  9979 PWs)   bands (ev):

   -19.3690 -19.2729  -7.5503  -7.5352  -7.5218  -6.7972  -6.4106  -6.4002
     4.0949   4.4978   5.1806   5.9193   6.2089   6.8429

     occupation numbers 
     1.0000   1.0000   1.0000   1.0000   1.0000   1.0000   1.0000   1.0000
     0.0000   0.0000   0.0000   0.0000   0.0000   0.0000

          k = 0.1333 0.3079 0.0000 (  9973 PWs)   bands (ev):

   -18.6435 -18.5522  -8.9549  -8.9288  -7.3254  -7.3079  -6.6661  -5.9715
     5.0804   5.2487   5.4579   5.5104   6.2041   6.9345

     occupation numbers 
     1.0000   1.0000   1.0000   1.0000   1.0000   1.0000   1.0000   1.0000
     0.0000   0.0000   0.0000   0.0000   0.0000   0.0000

          k = 0.1333 0.3849 0.0000 (  9950 PWs)   bands (ev):

   -17.7235 -17.6382 -10.5583 -10.5188  -8.0064  -7.9829  -5.6069  -4.9599
     3.5406   3.8127   6.3440   6.7701   7.5157   8.2237

     occupation numbers 
     1.0000   1.0000   1.0000   1.0000   1.0000   1.0000   1.0000   1.0000
     0.0000   0.0000   0.0000   0.0000   0.0000   0.0000

          k = 0.1333 0.4619 0.0000 (  9968 PWs)   bands (ev):

   -16.6259 -16.5482 -12.1816 -12.1318  -8.4552  -8.4289  -4.4154  -3.8543
     1.8789   2.2043   7.8505   8.2231   8.3880   8.4838

     occupation numbers 
     1.0000   1.0000   1.0000   1.0000   1.0000   1.0000   1.0000   1.0000
     0.0000   0.0000   0.0000   0.0000   0.0000   0.0000

          k = 0.1333 0.5389 0.0000 (  9964 PWs)   bands (ev):

   -15.4258 -15.3627 -13.6552 -13.6037  -8.6793  -8.6519  -3.3416  -2.9778
     0.6754   0.9347   8.1846   8.3612   9.6373  10.0167

     occupation numbers 
     1.0000   1.0000   1.0000   1.0000   1.0000   1.0000   1.0000   1.0000
     0.0000   0.0000   0.0000   0.0000   0.0000   0.0000

          k = 0.2000 0.3464 0.0000 (  9967 PWs)   bands (ev):

   -17.8254 -17.7395  -9.9684  -9.9475  -8.5034  -8.4878  -5.7152  -5.0597
     3.8476   4.0497   6.2062   6.6172   7.3710   8.0858

     occupation numbers 
     1.0000   1.0000   1.0000   1.0000   1.0000   1.0000   1.0000   1.0000
     0.0000   0.0000   0.0000   0.0000   0.0000   0.0000

          k = 0.2000 0.4234 0.0000 (  9999 PWs)   bands (ev):

   -16.8232 -16.7440 -11.2636 -11.2283  -9.3320  -9.3066  -4.5862  -3.9916
     2.3443   2.5844   7.5916   7.9839   8.8164   9.4166

     occupation numbers 
     1.0000   1.0000   1.0000   1.0000   1.0000   1.0000   1.0000   1.0000
     0.0000   0.0000   0.0000   0.0000   0.0000   0.0000

          k = 0.2000 0.5004 0.0000 (  9955 PWs)   bands (ev):

   -15.6695 -15.5995 -12.7021 -12.6540  -9.7637  -9.7314  -3.3892  -2.9109
     0.9433   1.1992   9.2025   9.4495   9.9403  10.0368

     occupation numbers 
     1.0000   1.0000   1.0000   1.0000   1.0000   1.0000   1.0000   1.0000
     0.0000   0.0000   0.0000   0.0000   0.0000   0.0000

          k = 0.2000 0.5774 0.0000 (  9948 PWs)   bands (ev):

   -14.7149 -14.6790 -13.7376 -13.7143  -9.8979  -9.8638  -2.6430  -2.3759
     0.3021   0.3805   9.7926  10.0373  10.3829  10.4847

     occupation numbers 
     1.0000   1.0000   1.0000   1.0000   1.0000   1.0000   1.0000   1.0000
     0.0000   0.0000   0.0000   0.0000   0.0000   0.0000

          k = 0.2667 0.4619 0.0000 (  9977 PWs)   bands (ev):

   -15.7590 -15.6876 -12.0411 -12.0144 -10.4601 -10.4408  -3.4193  -2.9010
     1.0932   1.3287   9.0726   9.2668   9.8834  10.4916

     occupation numbers 
     1.0000   1.0000   1.0000   1.0000   1.0000   1.0000   1.0000   1.0000
     0.0000   0.0000   0.0000   0.0000   0.0000   0.0000

          k = 0.2667 0.5389 0.0000 (  9955 PWs)   bands (ev):

   -14.6089 -14.5514 -13.0977 -13.0605 -11.0087 -10.9792  -2.2666  -1.8968
    -0.0259   0.1778   9.8057   9.8531  10.7007  11.5008

     occupation numbers 
     1.0000   1.0000   1.0000   1.0000   1.0000   1.0000   1.0000   1.0000
     0.0000   0.0000   0.0000   0.0000   0.0000   0.0000

          k = 0.3333 0.5774 0.0000 (  9978 PWs)   bands (ev):

   -13.6545 -13.6212 -13.6212 -13.5907 -11.6175 -11.6175  -1.2376  -0.9869
    -0.9868  -0.7242   9.6381   9.6381  11.6600  12.0072

     occupation numbers 
     1.0000   1.0000   1.0000   1.0000   1.0000   1.0000   0.9954   0.5007
     0.5007   0.0032   0.0000   0.0000   0.0000   0.0000

     the Fermi energy is    -0.9867 ev

!    total energy              =     -48.20724360 Ry
     estimated scf accuracy    <          4.3E-09 Ry
     smearing contrib. (-TS)   =      -0.00010318 Ry
     internal energy E=F+TS    =     -48.20714041 Ry

     The total energy is F=E-TS. E is the sum of the following terms:
     one-electron contribution =    -690.14351459 Ry
     hartree contribution      =     348.49791950 Ry
     xc contribution           =     -17.18417781 Ry
     ewald contribution        =     310.63962033 Ry
     DFT-D3 Dispersion         =      -0.01698784 Ry

     convergence has been achieved in   7 iterations

     Forces acting on atoms (cartesian axes, Ry/au):

     atom    1 type  1   force =    -0.00000000   -0.00000000    0.00074564
     atom    2 type  1   force =     0.00000000   -0.00000000   -0.00072599
     atom    3 type  1   force =     0.00000000    0.00000000    0.00072599
     atom    4 type  1   force =    -0.00000000   -0.00000000   -0.00074564
     The non-local contrib.  to forces
     atom    1 type  1   force =     0.00000000   -0.00000000    0.00056413
     atom    2 type  1   force =    -0.00000000    0.00000000   -0.00258634
     atom    3 type  1   force =     0.00000000    0.00000000    0.00258634
     atom    4 type  1   force =     0.00000000    0.00000000   -0.00056413
     The ionic contribution  to forces
     atom    1 type  1   force =     0.00000053    0.00000661  -15.04363537
     atom    2 type  1   force =    -0.00000053   -0.00000661  -15.00925105
     atom    3 type  1   force =    -0.00000053    0.00000661   15.00925105
     atom    4 type  1   force =     0.00000053   -0.00000661   15.04363537
     The local contribution  to forces
     atom    1 type  1   force =    -0.00000000   -0.00000181   15.04262851
     atom    2 type  1   force =    -0.00000042   -0.00000023   15.00990224
     atom    3 type  1   force =    -0.00000042   -0.00000386  -15.00990223
     atom    4 type  1   force =    -0.00000000   -0.00000229  -15.04262850
     The core correction contribution to forces
     atom    1 type  1   force =    -0.00000000   -0.00000001    0.00004693
     atom    2 type  1   force =     0.00000003    0.00000016    0.00005391
     atom    3 type  1   force =     0.00000003    0.00000015   -0.00005391
     atom    4 type  1   force =    -0.00000000    0.00000031   -0.00004693
     The Hubbard contrib.    to forces
     atom    1 type  1   force =     0.00000000    0.00000000    0.00000000
     atom    2 type  1   force =     0.00000000    0.00000000    0.00000000
     atom    3 type  1   force =     0.00000000    0.00000000    0.00000000
     atom    4 type  1   force =     0.00000000    0.00000000    0.00000000
     The SCF correction term to forces
     atom    1 type  1   force =     0.00000000   -0.00000000   -0.00003529
     atom    2 type  1   force =    -0.00000000   -0.00000000   -0.00003585
     atom    3 type  1   force =    -0.00000000   -0.00000000    0.00003585
     atom    4 type  1   force =     0.00000000    0.00000000    0.00003529

     DFT-D3 dispersion contribution to forces:
     atom    1 type  1   force =    -0.00000000   -0.00000000    0.00117673
     atom    2 type  1   force =     0.00000000    0.00000000    0.00119112
     atom    3 type  1   force =     0.00000000   -0.00000000   -0.00119112
     atom    4 type  1   force =    -0.00000000    0.00000000   -0.00117673

     Total force =     0.001472     Total SCF correction =     0.000071

     DFT-D3 dispersion Force =     0.002368

     Writing all to output data dir /home/ubuntu/projects/Graphene-Band-Structure-Quantum-Espresso/outputs/field_0/grimme/coupled/data/coupled.save/ :
     XML data file, charge density, pseudopotentials, collected wavefunctions

     init_run     :      2.24s CPU      2.48s WALL (       1 calls)
     electrons    :     27.93s CPU     28.18s WALL (       1 calls)
     forces       :      0.69s CPU      0.73s WALL (       1 calls)
     force_dftd3  :      0.13s CPU      0.13s WALL (       1 calls)

     Called by init_run:
     wfcinit      :      0.78s CPU      0.79s WALL (       1 calls)
     wfcinit:atom :      0.01s CPU      0.01s WALL (       7 calls)
     wfcinit:wfcr :      0.70s CPU      0.71s WALL (       7 calls)
     potinit      :      0.54s CPU      0.62s WALL (       1 calls)
     hinit0       :      0.84s CPU      0.92s WALL (       1 calls)

     Called by electrons:
     c_bands      :     24.57s CPU     24.63s WALL (       7 calls)
     sum_band     :      1.99s CPU      2.01s WALL (       7 calls)
     v_of_rho     :      0.64s CPU      0.83s WALL (       8 calls)
     v_h          :      0.04s CPU      0.04s WALL (       8 calls)
     v_xc         :      0.67s CPU      0.89s WALL (       9 calls)
     mix_rho      :      0.09s CPU      0.12s WALL (       7 calls)
     energy_dftd3 :      0.09s CPU      0.09s WALL (       1 calls)

     Called by c_bands:
     init_us_2    :      0.27s CPU      0.27s WALL (     112 calls)
     cegterg      :     14.34s CPU     14.39s WALL (      49 calls)

     Called by sum_band:
     sum_band:wei :      0.00s CPU      0.00s WALL (       7 calls)
     sum_band:loo :      1.20s CPU      1.21s WALL (       7 calls)
     sum_band:buf :      0.02s CPU      0.02s WALL (      49 calls)
     sum_band:ini :      0.11s CPU      0.11s WALL (      49 calls)

     Called by *egterg:
     cdiaghg      :      0.09s CPU      0.09s WALL (     335 calls)
     cegterg:over :      1.38s CPU      1.38s WALL (     286 calls)
     cegterg:upda :      0.91s CPU      0.92s WALL (     286 calls)
     cegterg:last :      1.61s CPU      1.62s WALL (     140 calls)
     h_psi        :     10.47s CPU     10.52s WALL (     342 calls)
     g_psi        :      0.06s CPU      0.07s WALL (     286 calls)

     Called by h_psi:
     h_psi:calbec :      1.42s CPU      1.42s WALL (     342 calls)
     vloc_psi     :      7.65s CPU      7.68s WALL (     342 calls)
     add_vuspsi   :      1.35s CPU      1.35s WALL (     342 calls)

     General routines
     calbec       :      1.63s CPU      1.63s WALL (     370 calls)
     fft          :      0.95s CPU      1.01s WALL (     104 calls)
     ffts         :      0.38s CPU      0.38s WALL (      15 calls)
     fftw         :      7.63s CPU      7.65s WALL (    5358 calls)
     interpolate  :      0.39s CPU      0.39s WALL (       8 calls)

     Parallel routines

     PWSCF        :     31.47s CPU     32.09s WALL


   This run was terminated on:   2:16:45  25Sep2026            

=------------------------------------------------------------------------------=
   JOB DONE.
=------------------------------------------------------------------------------=
