
     Program PWSCF v.7.6 starts on  4Oct2026 at 23:45:12 

     This program is part of the open-source Quantum ESPRESSO suite
     for quantum simulation of materials; please cite
         "P. Giannozzi et al., J. Phys.:Condens. Matter 21 395502 (2009);
         "P. Giannozzi et al., J. Phys.:Condens. Matter 29 465901 (2017);
         "P. Giannozzi et al., J. Chem. Phys. 152 154105 (2020);
          URL http://www.quantum-espresso.org", 
     in publications or presentations arising from this work. More details at
     http://www.quantum-espresso.org/quote

     Parallel version (MPI), running on    16 processors

     MPI processes distributed on     1 nodes
     30912 MiB available memory on the printing compute node when the environment starts

     Waiting for input...
     Reading input from standard input
Warning: card &CELL ignored
Warning: card &FCP ignored
Warning: card &RISM ignored

     Current dimensions of program PWSCF are:
     Max number of different atomic species (ntypx) = 10
     Max number of k-points (npk) =  40000
     Max angular momentum in pseudopotentials (lmaxx) =  4
     Presently no symmetry can be used with electric field


     IMPORTANT: XC functional enforced from input :
     Exchange-correlation= VDW-DF2-C09
                           (   1   4  16   0   2   0   0)
     Any further DFT definition will be discarded
     Please, verify this is what you really want


     K-points division:     npool     =      16
     Subspace diagonalization in iterative solution of the eigenvalue problem:
     a serial algorithm will be used


     G-vector sticks info
     --------------------
     sticks:   dense  smooth     PW     G-vecs:    dense   smooth      PW
     Sum         535     535    163                94953    94953   17173

     Using Slab Decomposition



     bravais-lattice index     =            0
     lattice parameter (alat)  =       4.6487  a.u.
     unit-cell volume          =     825.8174 (a.u.)^3
     number of atoms/cell      =            2
     number of atomic types    =            1
     number of electrons       =         8.00
     number of Kohn-Sham states=           10
     kinetic-energy cutoff     =      90.0000  Ry
     charge density cutoff     =     360.0000  Ry
     scf convergence threshold =      1.0E-08
     mixing beta               =       0.7000
     number of iterations used =            8  plain     mixing
     Exchange-correlation= VDW-DF2-C09
                           (   1   4  16   0   2   0   0)

     celldm(1)=   4.648726  celldm(2)=   0.000000  celldm(3)=   0.000000
     celldm(4)=   0.000000  celldm(5)=   0.000000  celldm(6)=   0.000000

     crystal axes: (cart. coord. in units of alat)
               a(1) = (   1.000000   0.000000   0.000000 )  
               a(2) = (  -0.500000   0.866025   0.000000 )  
               a(3) = (   0.000000   0.000000   9.491870 )  

     reciprocal axes: (cart. coord. in units 2 pi/alat)
               b(1) = (  1.000000  0.577351 -0.000000 )  
               b(2) = (  0.000000  1.154701  0.000000 )  
               b(3) = (  0.000000 -0.000000  0.105353 )  


     PseudoPot. # 1 for C  read from file:
     /home/ubuntu/projects/Graphene-Band-Structure-Quantum-Espresso/pseudo/C.upf
     MD5 check sum: 34a24e64c0a39f27c6c36b90a16ac686
     Pseudo is Norm-conserving + core correction, Zval =  4.0
     Generated using ONCVPSP code by D. R. Hamann
     Using radial grid of 1248 points,  4 beta functions with: 
                l(1) =   0
                l(2) =   0
                l(3) =   1
                l(4) =   1

     atomic species   valence    mass     pseudopotential
     C                 4.00    12.01100     C ( 1.00)

     No symmetry found


                                    s                        frac. trans.

      isym =  1     identity                                     

 cryst.   s( 1) = (     1          0          0      )
                  (     0          1          0      )
                  (     0          0          1      )

 cart.    s( 1) = (  1.0000000  0.0000000  0.0000000 )
                  (  0.0000000  1.0000000  0.0000000 )
                  (  0.0000000  0.0000000  1.0000000 )


   Cartesian axes

     site n.     atom                  positions (alat units)
         1        C      tau(   1) = (   0.4999876   0.2886584   5.4596454  )
         2        C      tau(   2) = (   0.0000014   0.5773623   5.4601174  )

   Crystallographic axes

     site n.     atom                  positions (cryst. coord.)
         1        C      tau(   1) = (  0.6666447  0.3333142  0.5751918  )
         2        C      tau(   2) = (  0.3333418  0.6666809  0.5752415  )

     number of k points=   113  Gaussian smearing, width (Ry)=  0.0100
                       cart. coord. in units 2pi/alat
        k(    1) = (   0.0000000   0.0000000   0.0000000), wk =   0.0088889
        k(    2) = (   0.0000000   0.0769801   0.0000000), wk =   0.0177778
        k(    3) = (   0.0000000   0.1539601   0.0000000), wk =   0.0177778
        k(    4) = (   0.0000000   0.2309402   0.0000000), wk =   0.0177778
        k(    5) = (   0.0000000   0.3079203   0.0000000), wk =   0.0177778
        k(    6) = (   0.0000000   0.3849004   0.0000000), wk =   0.0177778
        k(    7) = (   0.0000000   0.4618804   0.0000000), wk =   0.0177778
        k(    8) = (   0.0000000   0.5388605   0.0000000), wk =   0.0177778
        k(    9) = (   0.0666667   0.0384900   0.0000000), wk =   0.0177778
        k(   10) = (   0.0666667   0.1154701   0.0000000), wk =   0.0177778
        k(   11) = (   0.0666667   0.1924502   0.0000000), wk =   0.0177778
        k(   12) = (   0.0666667   0.2694303   0.0000000), wk =   0.0177778
        k(   13) = (   0.0666667   0.3464103   0.0000000), wk =   0.0177778
        k(   14) = (   0.0666667   0.4233904   0.0000000), wk =   0.0177778
        k(   15) = (   0.0666667   0.5003705   0.0000000), wk =   0.0177778
        k(   16) = (   0.0666667   0.5773505   0.0000000), wk =   0.0177778
        k(   17) = (   0.0666667  -0.5003705   0.0000000), wk =   0.0177778
        k(   18) = (   0.0666667  -0.4233904   0.0000000), wk =   0.0177778
        k(   19) = (   0.0666667  -0.3464103   0.0000000), wk =   0.0177778
        k(   20) = (   0.0666667  -0.2694303   0.0000000), wk =   0.0177778
        k(   21) = (   0.0666667  -0.1924502   0.0000000), wk =   0.0177778
        k(   22) = (   0.0666667  -0.1154701   0.0000000), wk =   0.0177778
        k(   23) = (   0.0666667  -0.0384900   0.0000000), wk =   0.0177778
        k(   24) = (   0.1333333   0.0769801   0.0000000), wk =   0.0177778
        k(   25) = (   0.1333333   0.1539601   0.0000000), wk =   0.0177778
        k(   26) = (   0.1333333   0.2309402   0.0000000), wk =   0.0177778
        k(   27) = (   0.1333333   0.3079203   0.0000000), wk =   0.0177778
        k(   28) = (   0.1333333   0.3849004   0.0000000), wk =   0.0177778
        k(   29) = (   0.1333333   0.4618804   0.0000000), wk =   0.0177778
        k(   30) = (   0.1333333   0.5388605   0.0000000), wk =   0.0177778
        k(   31) = (   0.1333333   0.6158406   0.0000000), wk =   0.0177778
        k(   32) = (   0.1333333  -0.4618804   0.0000000), wk =   0.0177778
        k(   33) = (   0.1333333  -0.3849004   0.0000000), wk =   0.0177778
        k(   34) = (   0.1333333  -0.3079203   0.0000000), wk =   0.0177778
        k(   35) = (   0.1333333  -0.2309402   0.0000000), wk =   0.0177778
        k(   36) = (   0.1333333  -0.1539601   0.0000000), wk =   0.0177778
        k(   37) = (   0.1333333  -0.0769801   0.0000000), wk =   0.0177778
        k(   38) = (   0.1333333   0.0000000   0.0000000), wk =   0.0177778
        k(   39) = (   0.2000000   0.1154701   0.0000000), wk =   0.0177778
        k(   40) = (   0.2000000   0.1924502   0.0000000), wk =   0.0177778
        k(   41) = (   0.2000000   0.2694303   0.0000000), wk =   0.0177778
        k(   42) = (   0.2000000   0.3464103   0.0000000), wk =   0.0177778
        k(   43) = (   0.2000000   0.4233904   0.0000000), wk =   0.0177778
        k(   44) = (   0.2000000   0.5003705   0.0000000), wk =   0.0177778
        k(   45) = (   0.2000000   0.5773505   0.0000000), wk =   0.0177778
        k(   46) = (   0.2000000   0.6543306   0.0000000), wk =   0.0177778
        k(   47) = (   0.2000000  -0.4233904   0.0000000), wk =   0.0177778
        k(   48) = (   0.2000000  -0.3464103   0.0000000), wk =   0.0177778
        k(   49) = (   0.2000000  -0.2694303   0.0000000), wk =   0.0177778
        k(   50) = (   0.2000000  -0.1924502   0.0000000), wk =   0.0177778
        k(   51) = (   0.2000000  -0.1154701   0.0000000), wk =   0.0177778
        k(   52) = (   0.2000000  -0.0384900   0.0000000), wk =   0.0177778
        k(   53) = (   0.2000000   0.0384900   0.0000000), wk =   0.0177778
        k(   54) = (   0.2666667   0.1539601   0.0000000), wk =   0.0177778
        k(   55) = (   0.2666667   0.2309402   0.0000000), wk =   0.0177778
        k(   56) = (   0.2666667   0.3079203   0.0000000), wk =   0.0177778
        k(   57) = (   0.2666667   0.3849004   0.0000000), wk =   0.0177778
        k(   58) = (   0.2666667   0.4618804   0.0000000), wk =   0.0177778
        k(   59) = (   0.2666667   0.5388605   0.0000000), wk =   0.0177778
        k(   60) = (   0.2666667   0.6158406   0.0000000), wk =   0.0177778
        k(   61) = (   0.2666667   0.6928206   0.0000000), wk =   0.0177778
        k(   62) = (   0.2666667  -0.3849004   0.0000000), wk =   0.0177778
        k(   63) = (   0.2666667  -0.3079203   0.0000000), wk =   0.0177778
        k(   64) = (   0.2666667  -0.2309402   0.0000000), wk =   0.0177778
        k(   65) = (   0.2666667  -0.1539601   0.0000000), wk =   0.0177778
        k(   66) = (   0.2666667  -0.0769801   0.0000000), wk =   0.0177778
        k(   67) = (   0.2666667   0.0000000   0.0000000), wk =   0.0177778
        k(   68) = (   0.2666667   0.0769801   0.0000000), wk =   0.0177778
        k(   69) = (   0.3333333   0.1924502   0.0000000), wk =   0.0177778
        k(   70) = (   0.3333333   0.2694303   0.0000000), wk =   0.0177778
        k(   71) = (   0.3333333   0.3464103   0.0000000), wk =   0.0177778
        k(   72) = (   0.3333333   0.4233904   0.0000000), wk =   0.0177778
        k(   73) = (   0.3333333   0.5003705   0.0000000), wk =   0.0177778
        k(   74) = (   0.3333333   0.5773505   0.0000000), wk =   0.0177778
        k(   75) = (   0.3333333   0.6543306   0.0000000), wk =   0.0177778
        k(   76) = (   0.3333333   0.7313107   0.0000000), wk =   0.0177778
        k(   77) = (   0.3333333  -0.3464103   0.0000000), wk =   0.0177778
        k(   78) = (   0.3333333  -0.2694303   0.0000000), wk =   0.0177778
        k(   79) = (   0.3333333  -0.1924502   0.0000000), wk =   0.0177778
        k(   80) = (   0.3333333  -0.1154701   0.0000000), wk =   0.0177778
        k(   81) = (   0.3333333  -0.0384900   0.0000000), wk =   0.0177778
        k(   82) = (   0.3333333   0.0384900   0.0000000), wk =   0.0177778
        k(   83) = (   0.3333333   0.1154701   0.0000000), wk =   0.0177778
        k(   84) = (   0.4000000   0.2309402   0.0000000), wk =   0.0177778
        k(   85) = (   0.4000000   0.3079203   0.0000000), wk =   0.0177778
        k(   86) = (   0.4000000   0.3849004   0.0000000), wk =   0.0177778
        k(   87) = (   0.4000000   0.4618804   0.0000000), wk =   0.0177778
        k(   88) = (   0.4000000   0.5388605   0.0000000), wk =   0.0177778
        k(   89) = (   0.4000000   0.6158406   0.0000000), wk =   0.0177778
        k(   90) = (   0.4000000   0.6928206   0.0000000), wk =   0.0177778
        k(   91) = (   0.4000000   0.7698007   0.0000000), wk =   0.0177778
        k(   92) = (   0.4000000  -0.3079203   0.0000000), wk =   0.0177778
        k(   93) = (   0.4000000  -0.2309402   0.0000000), wk =   0.0177778
        k(   94) = (   0.4000000  -0.1539601   0.0000000), wk =   0.0177778
        k(   95) = (   0.4000000  -0.0769801   0.0000000), wk =   0.0177778
        k(   96) = (   0.4000000   0.0000000   0.0000000), wk =   0.0177778
        k(   97) = (   0.4000000   0.0769801   0.0000000), wk =   0.0177778
        k(   98) = (   0.4000000   0.1539601   0.0000000), wk =   0.0177778
        k(   99) = (   0.4666667   0.2694303   0.0000000), wk =   0.0177778
        k(  100) = (   0.4666667   0.3464103   0.0000000), wk =   0.0177778
        k(  101) = (   0.4666667   0.4233904   0.0000000), wk =   0.0177778
        k(  102) = (   0.4666667   0.5003705   0.0000000), wk =   0.0177778
        k(  103) = (   0.4666667   0.5773505   0.0000000), wk =   0.0177778
        k(  104) = (   0.4666667   0.6543306   0.0000000), wk =   0.0177778
        k(  105) = (   0.4666667   0.7313107   0.0000000), wk =   0.0177778
        k(  106) = (   0.4666667   0.8082908   0.0000000), wk =   0.0177778
        k(  107) = (   0.4666667  -0.2694303   0.0000000), wk =   0.0177778
        k(  108) = (   0.4666667  -0.1924502   0.0000000), wk =   0.0177778
        k(  109) = (   0.4666667  -0.1154701   0.0000000), wk =   0.0177778
        k(  110) = (   0.4666667  -0.0384900   0.0000000), wk =   0.0177778
        k(  111) = (   0.4666667   0.0384900   0.0000000), wk =   0.0177778
        k(  112) = (   0.4666667   0.1154701   0.0000000), wk =   0.0177778
        k(  113) = (   0.4666667   0.1924502   0.0000000), wk =   0.0177778

                       cryst. coord.
        k(    1) = (   0.0000000   0.0000000   0.0000000), wk =   0.0088889
        k(    2) = (   0.0000000   0.0666667   0.0000000), wk =   0.0177778
        k(    3) = (   0.0000000   0.1333333   0.0000000), wk =   0.0177778
        k(    4) = (   0.0000000   0.2000000   0.0000000), wk =   0.0177778
        k(    5) = (   0.0000000   0.2666667   0.0000000), wk =   0.0177778
        k(    6) = (   0.0000000   0.3333333   0.0000000), wk =   0.0177778
        k(    7) = (   0.0000000   0.4000000   0.0000000), wk =   0.0177778
        k(    8) = (   0.0000000   0.4666667   0.0000000), wk =   0.0177778
        k(    9) = (   0.0666667   0.0000000   0.0000000), wk =   0.0177778
        k(   10) = (   0.0666667   0.0666667   0.0000000), wk =   0.0177778
        k(   11) = (   0.0666667   0.1333333   0.0000000), wk =   0.0177778
        k(   12) = (   0.0666667   0.2000000   0.0000000), wk =   0.0177778
        k(   13) = (   0.0666667   0.2666667   0.0000000), wk =   0.0177778
        k(   14) = (   0.0666667   0.3333333   0.0000000), wk =   0.0177778
        k(   15) = (   0.0666667   0.4000000   0.0000000), wk =   0.0177778
        k(   16) = (   0.0666667   0.4666667   0.0000000), wk =   0.0177778
        k(   17) = (   0.0666667  -0.4666667   0.0000000), wk =   0.0177778
        k(   18) = (   0.0666667  -0.4000000   0.0000000), wk =   0.0177778
        k(   19) = (   0.0666667  -0.3333333   0.0000000), wk =   0.0177778
        k(   20) = (   0.0666667  -0.2666667   0.0000000), wk =   0.0177778
        k(   21) = (   0.0666667  -0.2000000   0.0000000), wk =   0.0177778
        k(   22) = (   0.0666667  -0.1333333   0.0000000), wk =   0.0177778
        k(   23) = (   0.0666667  -0.0666667   0.0000000), wk =   0.0177778
        k(   24) = (   0.1333333   0.0000000   0.0000000), wk =   0.0177778
        k(   25) = (   0.1333333   0.0666667   0.0000000), wk =   0.0177778
        k(   26) = (   0.1333333   0.1333333   0.0000000), wk =   0.0177778
        k(   27) = (   0.1333333   0.2000000   0.0000000), wk =   0.0177778
        k(   28) = (   0.1333333   0.2666667   0.0000000), wk =   0.0177778
        k(   29) = (   0.1333333   0.3333333   0.0000000), wk =   0.0177778
        k(   30) = (   0.1333333   0.4000000   0.0000000), wk =   0.0177778
        k(   31) = (   0.1333333   0.4666667   0.0000000), wk =   0.0177778
        k(   32) = (   0.1333333  -0.4666667   0.0000000), wk =   0.0177778
        k(   33) = (   0.1333333  -0.4000000   0.0000000), wk =   0.0177778
        k(   34) = (   0.1333333  -0.3333333   0.0000000), wk =   0.0177778
        k(   35) = (   0.1333333  -0.2666667   0.0000000), wk =   0.0177778
        k(   36) = (   0.1333333  -0.2000000   0.0000000), wk =   0.0177778
        k(   37) = (   0.1333333  -0.1333333   0.0000000), wk =   0.0177778
        k(   38) = (   0.1333333  -0.0666667   0.0000000), wk =   0.0177778
        k(   39) = (   0.2000000   0.0000000   0.0000000), wk =   0.0177778
        k(   40) = (   0.2000000   0.0666667   0.0000000), wk =   0.0177778
        k(   41) = (   0.2000000   0.1333333   0.0000000), wk =   0.0177778
        k(   42) = (   0.2000000   0.2000000   0.0000000), wk =   0.0177778
        k(   43) = (   0.2000000   0.2666667   0.0000000), wk =   0.0177778
        k(   44) = (   0.2000000   0.3333333   0.0000000), wk =   0.0177778
        k(   45) = (   0.2000000   0.4000000   0.0000000), wk =   0.0177778
        k(   46) = (   0.2000000   0.4666667   0.0000000), wk =   0.0177778
        k(   47) = (   0.2000000  -0.4666667   0.0000000), wk =   0.0177778
        k(   48) = (   0.2000000  -0.4000000   0.0000000), wk =   0.0177778
        k(   49) = (   0.2000000  -0.3333333   0.0000000), wk =   0.0177778
        k(   50) = (   0.2000000  -0.2666667   0.0000000), wk =   0.0177778
        k(   51) = (   0.2000000  -0.2000000   0.0000000), wk =   0.0177778
        k(   52) = (   0.2000000  -0.1333333   0.0000000), wk =   0.0177778
        k(   53) = (   0.2000000  -0.0666667   0.0000000), wk =   0.0177778
        k(   54) = (   0.2666667   0.0000000   0.0000000), wk =   0.0177778
        k(   55) = (   0.2666667   0.0666667   0.0000000), wk =   0.0177778
        k(   56) = (   0.2666667   0.1333333   0.0000000), wk =   0.0177778
        k(   57) = (   0.2666667   0.2000000   0.0000000), wk =   0.0177778
        k(   58) = (   0.2666667   0.2666667   0.0000000), wk =   0.0177778
        k(   59) = (   0.2666667   0.3333333   0.0000000), wk =   0.0177778
        k(   60) = (   0.2666667   0.4000000   0.0000000), wk =   0.0177778
        k(   61) = (   0.2666667   0.4666667   0.0000000), wk =   0.0177778
        k(   62) = (   0.2666667  -0.4666667   0.0000000), wk =   0.0177778
        k(   63) = (   0.2666667  -0.4000000   0.0000000), wk =   0.0177778
        k(   64) = (   0.2666667  -0.3333333   0.0000000), wk =   0.0177778
        k(   65) = (   0.2666667  -0.2666667   0.0000000), wk =   0.0177778
        k(   66) = (   0.2666667  -0.2000000   0.0000000), wk =   0.0177778
        k(   67) = (   0.2666667  -0.1333333   0.0000000), wk =   0.0177778
        k(   68) = (   0.2666667  -0.0666667   0.0000000), wk =   0.0177778
        k(   69) = (   0.3333333   0.0000000   0.0000000), wk =   0.0177778
        k(   70) = (   0.3333333   0.0666667   0.0000000), wk =   0.0177778
        k(   71) = (   0.3333333   0.1333333   0.0000000), wk =   0.0177778
        k(   72) = (   0.3333333   0.2000000   0.0000000), wk =   0.0177778
        k(   73) = (   0.3333333   0.2666667   0.0000000), wk =   0.0177778
        k(   74) = (   0.3333333   0.3333333   0.0000000), wk =   0.0177778
        k(   75) = (   0.3333333   0.4000000   0.0000000), wk =   0.0177778
        k(   76) = (   0.3333333   0.4666667   0.0000000), wk =   0.0177778
        k(   77) = (   0.3333333  -0.4666667   0.0000000), wk =   0.0177778
        k(   78) = (   0.3333333  -0.4000000   0.0000000), wk =   0.0177778
        k(   79) = (   0.3333333  -0.3333333   0.0000000), wk =   0.0177778
        k(   80) = (   0.3333333  -0.2666667   0.0000000), wk =   0.0177778
        k(   81) = (   0.3333333  -0.2000000   0.0000000), wk =   0.0177778
        k(   82) = (   0.3333333  -0.1333333   0.0000000), wk =   0.0177778
        k(   83) = (   0.3333333  -0.0666667   0.0000000), wk =   0.0177778
        k(   84) = (   0.4000000   0.0000000   0.0000000), wk =   0.0177778
        k(   85) = (   0.4000000   0.0666667   0.0000000), wk =   0.0177778
        k(   86) = (   0.4000000   0.1333333   0.0000000), wk =   0.0177778
        k(   87) = (   0.4000000   0.2000000   0.0000000), wk =   0.0177778
        k(   88) = (   0.4000000   0.2666667   0.0000000), wk =   0.0177778
        k(   89) = (   0.4000000   0.3333333   0.0000000), wk =   0.0177778
        k(   90) = (   0.4000000   0.4000000   0.0000000), wk =   0.0177778
        k(   91) = (   0.4000000   0.4666667   0.0000000), wk =   0.0177778
        k(   92) = (   0.4000000  -0.4666667   0.0000000), wk =   0.0177778
        k(   93) = (   0.4000000  -0.4000000   0.0000000), wk =   0.0177778
        k(   94) = (   0.4000000  -0.3333333   0.0000000), wk =   0.0177778
        k(   95) = (   0.4000000  -0.2666667   0.0000000), wk =   0.0177778
        k(   96) = (   0.4000000  -0.2000000   0.0000000), wk =   0.0177778
        k(   97) = (   0.4000000  -0.1333333   0.0000000), wk =   0.0177778
        k(   98) = (   0.4000000  -0.0666667   0.0000000), wk =   0.0177778
        k(   99) = (   0.4666667   0.0000000   0.0000000), wk =   0.0177778
        k(  100) = (   0.4666667   0.0666667   0.0000000), wk =   0.0177778
        k(  101) = (   0.4666667   0.1333333   0.0000000), wk =   0.0177778
        k(  102) = (   0.4666667   0.2000000   0.0000000), wk =   0.0177778
        k(  103) = (   0.4666667   0.2666667   0.0000000), wk =   0.0177778
        k(  104) = (   0.4666667   0.3333333   0.0000000), wk =   0.0177778
        k(  105) = (   0.4666667   0.4000000   0.0000000), wk =   0.0177778
        k(  106) = (   0.4666667   0.4666667   0.0000000), wk =   0.0177778
        k(  107) = (   0.4666667  -0.4666667   0.0000000), wk =   0.0177778
        k(  108) = (   0.4666667  -0.4000000   0.0000000), wk =   0.0177778
        k(  109) = (   0.4666667  -0.3333333   0.0000000), wk =   0.0177778
        k(  110) = (   0.4666667  -0.2666667   0.0000000), wk =   0.0177778
        k(  111) = (   0.4666667  -0.2000000   0.0000000), wk =   0.0177778
        k(  112) = (   0.4666667  -0.1333333   0.0000000), wk =   0.0177778
        k(  113) = (   0.4666667  -0.0666667   0.0000000), wk =   0.0177778

     Dense  grid:    94953 G-vectors     FFT dimensions: (  30,  30, 270)

     Dynamical RAM for                 wfc:       1.82 MB

     Dynamical RAM for     wfc (w. buffer):      16.35 MB

     Dynamical RAM for           str. fact:       1.45 MB

     Dynamical RAM for           local pot:       0.00 MB

     Dynamical RAM for          nlocal pot:       2.91 MB

     Dynamical RAM for                qrad:       0.44 MB

     Dynamical RAM for          rho,v,vnew:       9.91 MB

     Dynamical RAM for               rhoin:       3.30 MB

     Dynamical RAM for            rho*nmix:      23.18 MB

     Dynamical RAM for           G-vectors:       6.16 MB

     Dynamical RAM for          h,s,v(r/c):       0.02 MB

     Dynamical RAM for          <psi|beta>:       0.00 MB

     Dynamical RAM for                 psi:       3.63 MB

     Dynamical RAM for                hpsi:       3.63 MB

     Dynamical RAM for      wfcinit/wfcrot:       3.64 MB

     Estimated static dynamical RAM per process >      52.68 MB

     Estimated max dynamical RAM per process >      83.15 MB

     Estimated total dynamical RAM >     982.66 MB

     Adding external electric field
        E field amplitude [Ha a.u.]:  1.0000E-03
        Potential amp.        0.0794 Ry
        Total length         39.7126 bohr


     Initial potential from superposition of free atoms

     starting charge       7.9999, renormalised to       8.0000

     negative rho (up, down):  7.685E-06 0.000E+00


     %%%%%%%%%%%%%%%%%%%%%%%%%%%%%%%%%%%%%%%%%%%%%%%%%%%%%%%%%%%%%%%%%%%%%%%%
     %                                                                      %
     % You are using vdW-DF, which was implemented by the Thonhauser group. %
     % Please cite the following two papers that made this development      %
     % possible and the two reviews that describe the various versions:     %
     %                                                                      %
     %   T. Thonhauser et al., PRL 115, 136402 (2015).                      %
     %   T. Thonhauser et al., PRB 76,  125112 (2007).                      %
     %   K. Berland et al., Rep. Prog. Phys. 78, 066501 (2015).             %
     %   D.C. Langreth et al., J. Phys.: Condens. Matter 21, 084203 (2009). %
     %                                                                      %
     % If you are calculating stress with vdW-DF, please also cite:         %
     %                                                                      %
     %   R. Sabatini et al., J. Phys.: Condens. Matter 24, 424209 (2012).   %
     %                                                                      %
     %   And for spin-polarized stress cases also:                          %
     %   C.M. Frostenson et al., Electr. Struct. 4, 014001 (2022).          %
     %                                                                      %
     %%%%%%%%%%%%%%%%%%%%%%%%%%%%%%%%%%%%%%%%%%%%%%%%%%%%%%%%%%%%%%%%%%%%%%%%

     %%%%%%%%%%%%%%%%%%%%%%%%%%%%%%%%%%%%%%%%%%%%%%%%%%%%%%%%%%%%%%%%%%%%%%%%
     %                                                                      %
     %  vdW-DF NEWS:                                                        %
     %                                                                      %
     %  * vdW-DF3-mc is now available. DOI: 10.1103/hp9d-4kpf               %
     %    use with input_dft = 'vdW-DF3-mc'                                 %
     %  * vdW-DF3 is now available. DOI: 10.1021/acs.jctc.0c00471           %
     %    use with input_dft = 'vdW-DF3-opt1' or 'vdW-DF3-opt2'             %
     %                                                                      %
     %  * Unscreened and range-separated hybrid vdW-DF-cx functionals       %
     %    DOI: 10.1063/1.4986522 and 10.1088/1361-648X/ac2ad2               %
     %    use with input_dft = 'vdW-DF-cx0' and 'vdW-DF-ahcx'               %
     %  * Unscreened and range-separated hybrid vdW-DF2-b86r functionals    %
     %    DOI: 10.1063/1.4986522 and DOI: 10.1103/PhysRevX.12.041003        %
     %    use with input_dft = 'vdW-DF2-br0' and 'vdW-DF2-ahbr'             %
     %                                                                      %
     %%%%%%%%%%%%%%%%%%%%%%%%%%%%%%%%%%%%%%%%%%%%%%%%%%%%%%%%%%%%%%%%%%%%%%%%


     Carrying out vdW-DF run using the following parameters:
     Nqs    =  20  Npoints =  1024  r_max =  100.000
     q_mesh =  0.00001000  0.04494208  0.09755937  0.15916263
               0.23128650  0.31572767  0.41458969  0.53033537
               0.66584808  0.82450364  1.01025438  1.22772762
               1.48234092  1.78043706  2.12944203  2.53805004
               3.01644009  3.57652955  4.23227104  5.00000000


     -----------------------------------------------
     Non-local corr. energy    =       0.09375960 Ry
     -----------------------------------------------

     Starting wfcs are    8 randomized atomic wfcs +    2 random wfcs

     total cpu time spent up to now is       11.2 secs

     Self-consistent Calculation

     iteration #  1     ecut=    90.00 Ry     beta= 0.70
     Davidson diagonalization with overlap

---- Real-time Memory Report at c_bands before calling an iterative solver
           225 MiB given to the printing process from OS
             0 MiB allocation reported by mallinfo(arena+hblkhd)
         27781 MiB available memory on the node where the printing process lives
------------------
     ethr =  1.00E-02,  avg # of iterations = 10.7

     negative rho (up, down):  8.930E-07 0.000E+00


     -----------------------------------------------
     Non-local corr. energy    =       0.10417054 Ry
     -----------------------------------------------


     total cpu time spent up to now is       16.6 secs

     total energy              =     -24.04656842 Ry
     estimated scf accuracy    <       0.19934578 Ry

     iteration #  2     ecut=    90.00 Ry     beta= 0.70
     Davidson diagonalization with overlap

---- Real-time Memory Report at c_bands before calling an iterative solver
           270 MiB given to the printing process from OS
             0 MiB allocation reported by mallinfo(arena+hblkhd)
         27343 MiB available memory on the node where the printing process lives
------------------
     ethr =  2.49E-03,  avg # of iterations =  3.1

     negative rho (up, down):  1.878E-08 0.000E+00


     -----------------------------------------------
     Non-local corr. energy    =       0.10374684 Ry
     -----------------------------------------------


     total cpu time spent up to now is       20.5 secs

     total energy              =     -24.07843913 Ry
     estimated scf accuracy    <       0.00255576 Ry

     iteration #  3     ecut=    90.00 Ry     beta= 0.70
     Davidson diagonalization with overlap

---- Real-time Memory Report at c_bands before calling an iterative solver
           273 MiB given to the printing process from OS
             0 MiB allocation reported by mallinfo(arena+hblkhd)
         27539 MiB available memory on the node where the printing process lives
------------------
     ethr =  3.19E-05,  avg # of iterations = 12.9


     -----------------------------------------------
     Non-local corr. energy    =       0.10380663 Ry
     -----------------------------------------------


     total cpu time spent up to now is       27.1 secs

     total energy              =     -24.07883908 Ry
     estimated scf accuracy    <       0.00019044 Ry

     iteration #  4     ecut=    90.00 Ry     beta= 0.70
     Davidson diagonalization with overlap

---- Real-time Memory Report at c_bands before calling an iterative solver
           276 MiB given to the printing process from OS
             0 MiB allocation reported by mallinfo(arena+hblkhd)
         27542 MiB available memory on the node where the printing process lives
------------------
     ethr =  2.38E-06,  avg # of iterations =  6.5


     -----------------------------------------------
     Non-local corr. energy    =       0.10382965 Ry
     -----------------------------------------------


     total cpu time spent up to now is       31.4 secs

     total energy              =     -24.07884703 Ry
     estimated scf accuracy    <       0.00003840 Ry

     iteration #  5     ecut=    90.00 Ry     beta= 0.70
     Davidson diagonalization with overlap

---- Real-time Memory Report at c_bands before calling an iterative solver
           279 MiB given to the printing process from OS
             0 MiB allocation reported by mallinfo(arena+hblkhd)
         27461 MiB available memory on the node where the printing process lives
------------------
     ethr =  4.80E-07,  avg # of iterations =  3.0


     -----------------------------------------------
     Non-local corr. energy    =       0.10385158 Ry
     -----------------------------------------------


     total cpu time spent up to now is       35.2 secs

     total energy              =     -24.07885643 Ry
     estimated scf accuracy    <       0.00000068 Ry

     iteration #  6     ecut=    90.00 Ry     beta= 0.70
     Davidson diagonalization with overlap

---- Real-time Memory Report at c_bands before calling an iterative solver
           282 MiB given to the printing process from OS
             0 MiB allocation reported by mallinfo(arena+hblkhd)
         27539 MiB available memory on the node where the printing process lives
------------------
     ethr =  8.53E-09,  avg # of iterations =  3.6


     -----------------------------------------------
     Non-local corr. energy    =       0.10385240 Ry
     -----------------------------------------------


     total cpu time spent up to now is       39.0 secs

     total energy              =     -24.07885670 Ry
     estimated scf accuracy    <       0.00000001 Ry

     iteration #  7     ecut=    90.00 Ry     beta= 0.70
     Davidson diagonalization with overlap

---- Real-time Memory Report at c_bands before calling an iterative solver
           285 MiB given to the printing process from OS
             0 MiB allocation reported by mallinfo(arena+hblkhd)
         27327 MiB available memory on the node where the printing process lives
------------------
     ethr =  1.36E-10,  avg # of iterations =  3.2


     -----------------------------------------------
     Non-local corr. energy    =       0.10385263 Ry
     -----------------------------------------------


     total cpu time spent up to now is       42.6 secs

     End of self-consistent calculation

          k = 0.0000 0.0000 0.0000 ( 11659 PWs)   bands (ev):

   -22.1369 -10.2522  -5.5989  -5.5966   0.3990   1.2710   1.4996   2.2231
     2.7320   3.7812

     occupation numbers 
     1.0000   1.0000   1.0000   1.0000   0.0000   0.0000   0.0000   0.0000
     0.0000   0.0000

          k = 0.0000 0.0770 0.0000 ( 11791 PWs)   bands (ev):

   -22.0316 -10.1255  -6.0241  -5.8211   0.5423   1.4157   1.6467   2.3696
     2.8781   3.9267

     occupation numbers 
     1.0000   1.0000   1.0000   1.0000   0.0000   0.0000   0.0000   0.0000
     0.0000   0.0000

          k = 0.0000 0.1540 0.0000 ( 11788 PWs)   bands (ev):

   -21.7163  -9.7475  -7.1550  -6.3900   0.9723   1.8493   2.0880   2.8089
     3.3165   4.3626

     occupation numbers 
     1.0000   1.0000   1.0000   1.0000   0.0000   0.0000   0.0000   0.0000
     0.0000   0.0000

          k = 0.0000 0.2309 0.0000 ( 11848 PWs)   bands (ev):

   -21.1932  -9.1252  -8.7075  -7.1017   1.6884   2.5692   2.8233   3.5402
     4.0467   5.0846

     occupation numbers 
     1.0000   1.0000   1.0000   1.0000   0.0000   0.0000   0.0000   0.0000
     0.0000   0.0000

          k = 0.0000 0.3079 0.0000 ( 11876 PWs)   bands (ev):

   -20.4664 -10.4460  -8.2738  -7.7944   2.6889   3.5428   3.8509   4.3056
     4.5915   5.0625

     occupation numbers 
     1.0000   1.0000   1.0000   1.0000   0.0000   0.0000   0.0000   0.0000
     0.0000   0.0000

          k = 0.0000 0.3849 0.0000 ( 11914 PWs)   bands (ev):

   -19.5434 -12.2178  -8.3709  -7.2266   2.3881   3.9690   4.8970   5.1761
     5.3043   5.8867

     occupation numbers 
     1.0000   1.0000   1.0000   1.0000   0.0000   0.0000   0.0000   0.0000
     0.0000   0.0000

          k = 0.0000 0.4619 0.0000 ( 11910 PWs)   bands (ev):

   -18.4397 -13.9238  -8.7776  -6.0703   0.6255   5.0681   5.5668   6.4613
     6.7954   7.4917

     occupation numbers 
     1.0000   1.0000   1.0000   1.0000   0.0000   0.0000   0.0000   0.0000
     0.0000   0.0000

          k = 0.0000 0.5389 0.0000 ( 11924 PWs)   bands (ev):

   -17.2297 -15.4449  -8.9869  -5.1017  -0.6670   4.9821   7.3717   8.2868
     8.7065   9.3808

     occupation numbers 
     1.0000   1.0000   1.0000   1.0000   0.0000   0.0000   0.0000   0.0000
     0.0000   0.0000

          k = 0.0667 0.0385 0.0000 ( 11791 PWs)   bands (ev):

   -22.0316 -10.1255  -6.0222  -5.8230   0.5423   1.4157   1.6467   2.3696
     2.8781   3.9266

     occupation numbers 
     1.0000   1.0000   1.0000   1.0000   0.0000   0.0000   0.0000   0.0000
     0.0000   0.0000

          k = 0.0667 0.1155 0.0000 ( 11813 PWs)   bands (ev):

   -21.8213  -9.8732  -6.7496  -6.2710   0.8290   1.7049   1.9409   2.6625
     3.1704   4.2175

     occupation numbers 
     1.0000   1.0000   1.0000   1.0000   0.0000   0.0000   0.0000   0.0000
     0.0000   0.0000

          k = 0.0667 0.1925 0.0000 ( 11832 PWs)   bands (ev):

   -21.4021  -9.3727  -8.0022  -7.0021   1.4024   2.2821   2.5292   3.2481
     3.7550   4.7979

     occupation numbers 
     1.0000   1.0000   1.0000   1.0000   0.0000   0.0000   0.0000   0.0000
     0.0000   0.0000

          k = 0.0667 0.2694 0.0000 ( 11880 PWs)   bands (ev):

   -20.7771  -9.5891  -8.6347  -7.7643   2.2612   3.1413   3.4114   4.1233
     4.6310   5.0668

     occupation numbers 
     1.0000   1.0000   1.0000   1.0000   0.0000   0.0000   0.0000   0.0000
     0.0000   0.0000

          k = 0.0667 0.3464 0.0000 ( 11910 PWs)   bands (ev):

   -19.9522 -11.3135  -8.4300  -7.6810   3.2288   3.4054   4.3271   4.5893
     5.2998   5.7644

     occupation numbers 
     1.0000   1.0000   1.0000   1.0000   0.0000   0.0000   0.0000   0.0000
     0.0000   0.0000

          k = 0.0667 0.4234 0.0000 ( 11938 PWs)   bands (ev):

   -18.9376 -13.0383  -8.9364  -6.5628   1.4357   4.8175   5.6582   5.7450
     6.0602   6.7596

     occupation numbers 
     1.0000   1.0000   1.0000   1.0000   0.0000   0.0000   0.0000   0.0000
     0.0000   0.0000

          k = 0.0667 0.5004 0.0000 ( 11920 PWs)   bands (ev):

   -17.7625 -14.6630  -9.2508  -5.4334  -0.1458   5.4851   6.5359   7.4288
     7.8240   8.5051

     occupation numbers 
     1.0000   1.0000   1.0000   1.0000   0.0000   0.0000   0.0000   0.0000
     0.0000   0.0000

          k = 0.0667 0.5774 0.0000 ( 11913 PWs)   bands (ev):

   -16.7918 -15.7873  -9.3572  -4.8368  -0.8995   5.4363   8.3986   8.5512
     9.1965   9.4934

     occupation numbers 
     1.0000   1.0000   1.0000   1.0000   0.0000   0.0000   0.0000   0.0000
     0.0000   0.0000

          k = 0.0667-0.5004 0.0000 ( 11920 PWs)   bands (ev):

   -17.7626 -14.6630  -9.2508  -5.4334  -0.1458   5.4851   6.5359   7.4288
     7.8240   8.5051

     occupation numbers 
     1.0000   1.0000   1.0000   1.0000   0.0000   0.0000   0.0000   0.0000
     0.0000   0.0000

          k = 0.0667-0.4234 0.0000 ( 11938 PWs)   bands (ev):

   -18.9376 -13.0383  -8.9363  -6.5628   1.4356   4.8175   5.6583   5.7450
     6.0602   6.7596

     occupation numbers 
     1.0000   1.0000   1.0000   1.0000   0.0000   0.0000   0.0000   0.0000
     0.0000   0.0000

          k = 0.0667-0.3464 0.0000 ( 11910 PWs)   bands (ev):

   -19.9522 -11.3136  -8.4299  -7.6810   3.2287   3.4054   4.3271   4.5893
     5.2998   5.7627

     occupation numbers 
     1.0000   1.0000   1.0000   1.0000   0.0000   0.0000   0.0000   0.0000
     0.0000   0.0000

          k = 0.0667-0.2694 0.0000 ( 11880 PWs)   bands (ev):

   -20.7772  -9.5893  -8.6347  -7.7642   2.2612   3.1413   3.4114   4.1233
     4.6310   5.0667

     occupation numbers 
     1.0000   1.0000   1.0000   1.0000   0.0000   0.0000   0.0000   0.0000
     0.0000   0.0000

          k = 0.0667-0.1925 0.0000 ( 11832 PWs)   bands (ev):

   -21.4021  -9.3727  -8.0026  -7.0017   1.4024   2.2821   2.5292   3.2481
     3.7551   4.7978

     occupation numbers 
     1.0000   1.0000   1.0000   1.0000   0.0000   0.0000   0.0000   0.0000
     0.0000   0.0000

          k = 0.0667-0.1155 0.0000 ( 11813 PWs)   bands (ev):

   -21.8213  -9.8731  -6.7504  -6.2702   0.8290   1.7049   1.9409   2.6625
     3.1705   4.2174

     occupation numbers 
     1.0000   1.0000   1.0000   1.0000   0.0000   0.0000   0.0000   0.0000
     0.0000   0.0000

          k = 0.0667-0.0385 0.0000 ( 11791 PWs)   bands (ev):

   -22.0316 -10.1255  -6.0231  -5.8222   0.5423   1.4157   1.6467   2.3696
     2.8781   3.9267

     occupation numbers 
     1.0000   1.0000   1.0000   1.0000   0.0000   0.0000   0.0000   0.0000
     0.0000   0.0000

          k = 0.1333 0.0770 0.0000 ( 11788 PWs)   bands (ev):

   -21.7163  -9.7475  -7.1535  -6.3917   0.9723   1.8493   2.0879   2.8089
     3.3166   4.3627

     occupation numbers 
     1.0000   1.0000   1.0000   1.0000   0.0000   0.0000   0.0000   0.0000
     0.0000   0.0000

          k = 0.1333 0.1540 0.0000 ( 11832 PWs)   bands (ev):

   -21.4020  -9.3728  -8.0014  -7.0030   1.4024   2.2821   2.5292   3.2481
     3.7551   4.7979

     occupation numbers 
     1.0000   1.0000   1.0000   1.0000   0.0000   0.0000   0.0000   0.0000
     0.0000   0.0000

          k = 0.1333 0.2309 0.0000 ( 11879 PWs)   bands (ev):

   -20.8811  -9.1044  -8.7558  -7.9707   2.1188   3.0013   3.2646   3.9794
     4.4860   5.3650

     occupation numbers 
     1.0000   1.0000   1.0000   1.0000   0.0000   0.0000   0.0000   0.0000
     0.0000   0.0000

          k = 0.1333 0.3079 0.0000 ( 11929 PWs)   bands (ev):

   -20.1579 -10.5031  -8.8814  -7.9116   3.1193   3.7807   4.0245   4.2944
     5.0027   5.5084

     occupation numbers 
     1.0000   1.0000   1.0000   1.0000   0.0000   0.0000   0.0000   0.0000
     0.0000   0.0000

          k = 0.1333 0.3849 0.0000 ( 11925 PWs)   bands (ev):

   -19.2406 -12.0997  -9.5589  -6.8714   2.1108   4.4005   5.2868   5.6175
     6.3150   6.8033

     occupation numbers 
     1.0000   1.0000   1.0000   1.0000   0.0000   0.0000   0.0000   0.0000
     0.0000   0.0000

          k = 0.1333 0.4619 0.0000 ( 11927 PWs)   bands (ev):

   -18.1464 -13.7181 -10.0060  -5.7152   0.4672   5.9498   6.8044   6.8412
     7.2351   7.9108

     occupation numbers 
     1.0000   1.0000   1.0000   1.0000   0.0000   0.0000   0.0000   0.0000
     0.0000   0.0000

          k = 0.1333 0.5389 0.0000 ( 11935 PWs)   bands (ev):

   -16.9521 -15.1923 -10.2294  -4.7244  -0.7859   6.7022   7.7758   8.5091
     9.1438   9.7335

     occupation numbers 
     1.0000   1.0000   1.0000   1.0000   0.0000   0.0000   0.0000   0.0000
     0.0000   0.0000

          k = 0.1333 0.6158 0.0000 ( 11935 PWs)   bands (ev):

   -16.9521 -15.1923 -10.2294  -4.7244  -0.7859   6.7022   7.7758   8.5092
     9.1438   9.7339

     occupation numbers 
     1.0000   1.0000   1.0000   1.0000   0.0000   0.0000   0.0000   0.0000
     0.0000   0.0000

          k = 0.1333-0.4619 0.0000 ( 11927 PWs)   bands (ev):

   -18.1464 -13.7181 -10.0060  -5.7151   0.4670   5.9498   6.8045   6.8413
     7.2351   7.9108

     occupation numbers 
     1.0000   1.0000   1.0000   1.0000   0.0000   0.0000   0.0000   0.0000
     0.0000   0.0000

          k = 0.1333-0.3849 0.0000 ( 11925 PWs)   bands (ev):

   -19.2406 -12.0998  -9.5588  -6.8714   2.1106   4.4005   5.2868   5.6175
     6.3147   6.8034

     occupation numbers 
     1.0000   1.0000   1.0000   1.0000   0.0000   0.0000   0.0000   0.0000
     0.0000   0.0000

          k = 0.1333-0.3079 0.0000 ( 11929 PWs)   bands (ev):

   -20.1579 -10.5035  -8.8811  -7.9116   3.1193   3.7805   4.0245   4.2944
     5.0027   5.5085

     occupation numbers 
     1.0000   1.0000   1.0000   1.0000   0.0000   0.0000   0.0000   0.0000
     0.0000   0.0000

          k = 0.1333-0.2309 0.0000 ( 11879 PWs)   bands (ev):

   -20.8811  -9.1050  -8.7558  -7.9700   2.1188   3.0013   3.2646   3.9793
     4.4861   5.3648

     occupation numbers 
     1.0000   1.0000   1.0000   1.0000   0.0000   0.0000   0.0000   0.0000
     0.0000   0.0000

          k = 0.1333-0.1540 0.0000 ( 11832 PWs)   bands (ev):

   -21.4021  -9.3727  -8.0022  -7.0022   1.4024   2.2821   2.5292   3.2480
     3.7551   4.7979

     occupation numbers 
     1.0000   1.0000   1.0000   1.0000   0.0000   0.0000   0.0000   0.0000
     0.0000   0.0000

          k = 0.1333-0.0770 0.0000 ( 11788 PWs)   bands (ev):

   -21.7163  -9.7475  -7.1541  -6.3910   0.9723   1.8493   2.0880   2.8089
     3.3165   4.3627

     occupation numbers 
     1.0000   1.0000   1.0000   1.0000   0.0000   0.0000   0.0000   0.0000
     0.0000   0.0000

          k = 0.1333 0.0000 0.0000 ( 11813 PWs)   bands (ev):

   -21.8213  -9.8732  -6.7486  -6.2720   0.8290   1.7049   1.9409   2.6625
     3.1704   4.2174

     occupation numbers 
     1.0000   1.0000   1.0000   1.0000   0.0000   0.0000   0.0000   0.0000
     0.0000   0.0000

          k = 0.2000 0.1155 0.0000 ( 11848 PWs)   bands (ev):

   -21.1932  -9.1253  -8.7063  -7.1031   1.6884   2.5692   2.8233   3.5402
     4.0467   5.0846

     occupation numbers 
     1.0000   1.0000   1.0000   1.0000   0.0000   0.0000   0.0000   0.0000
     0.0000   0.0000

          k = 0.2000 0.1925 0.0000 ( 11880 PWs)   bands (ev):

   -20.7771  -9.5882  -8.6348  -7.7654   2.2612   3.1413   3.4114   4.1233
     4.6310   5.0671

     occupation numbers 
     1.0000   1.0000   1.0000   1.0000   0.0000   0.0000   0.0000   0.0000
     0.0000   0.0000

          k = 0.2000 0.2694 0.0000 ( 11929 PWs)   bands (ev):

   -20.1579 -10.5026  -8.8820  -7.9117   3.1193   3.7808   4.0246   4.2944
     5.0027   5.5084

     occupation numbers 
     1.0000   1.0000   1.0000   1.0000   0.0000   0.0000   0.0000   0.0000
     0.0000   0.0000

          k = 0.2000 0.3464 0.0000 ( 11953 PWs)   bands (ev):

   -19.3422 -11.5176 -10.0614  -6.9763   2.3891   4.2592   5.1277   5.4700
     6.1651   6.6763

     occupation numbers 
     1.0000   1.0000   1.0000   1.0000   0.0000   0.0000   0.0000   0.0000
     0.0000   0.0000

          k = 0.2000 0.4234 0.0000 ( 11949 PWs)   bands (ev):

   -18.3431 -12.8058 -10.8847  -5.8722   0.9009   5.6728   6.4909   6.9394
     7.6071   8.1270

     occupation numbers 
     1.0000   1.0000   1.0000   1.0000   0.0000   0.0000   0.0000   0.0000
     0.0000   0.0000

          k = 0.2000 0.5004 0.0000 ( 11953 PWs)   bands (ev):

   -17.1933 -14.2389 -11.3123  -4.7236  -0.5015   7.3393   7.9343   8.4757
     8.7016   9.2661

     occupation numbers 
     1.0000   1.0000   1.0000   1.0000   0.0000   0.0000   0.0000   0.0000
     0.0000   0.0000

          k = 0.2000 0.5774 0.0000 ( 11949 PWs)   bands (ev):

   -16.2526 -15.2901 -11.4453  -4.0666  -1.2479   8.3980   8.6484   9.1233
     9.3466  10.3604

     occupation numbers 
     1.0000   1.0000   1.0000   1.0000   0.0000   0.0000   0.0000   0.0000
     0.0000   0.0000

          k = 0.2000 0.6543 0.0000 ( 11953 PWs)   bands (ev):

   -17.1933 -14.2389 -11.3122  -4.7235  -0.5017   7.3393   7.9344   8.4758
     8.7016   9.2660

     occupation numbers 
     1.0000   1.0000   1.0000   1.0000   0.0000   0.0000   0.0000   0.0000
     0.0000   0.0000

          k = 0.2000-0.4234 0.0000 ( 11949 PWs)   bands (ev):

   -18.3431 -12.8060 -10.8844  -5.8721   0.9006   5.6728   6.4909   6.9394
     7.6071   8.1272

     occupation numbers 
     1.0000   1.0000   1.0000   1.0000   0.0000   0.0000   0.0000   0.0000
     0.0000   0.0000

          k = 0.2000-0.3464 0.0000 ( 11953 PWs)   bands (ev):

   -19.3423 -11.5181 -10.0609  -6.9762   2.3888   4.2592   5.1278   5.4700
     6.1651   6.6763

     occupation numbers 
     1.0000   1.0000   1.0000   1.0000   0.0000   0.0000   0.0000   0.0000
     0.0000   0.0000

          k = 0.2000-0.2694 0.0000 ( 11929 PWs)   bands (ev):

   -20.1579 -10.5032  -8.8814  -7.9116   3.1193   3.7805   4.0246   4.2944
     5.0027   5.5084

     occupation numbers 
     1.0000   1.0000   1.0000   1.0000   0.0000   0.0000   0.0000   0.0000
     0.0000   0.0000

          k = 0.2000-0.1925 0.0000 ( 11880 PWs)   bands (ev):

   -20.7771  -9.5888  -8.6347  -7.7647   2.2612   3.1413   3.4114   4.1233
     4.6311   5.0669

     occupation numbers 
     1.0000   1.0000   1.0000   1.0000   0.0000   0.0000   0.0000   0.0000
     0.0000   0.0000

          k = 0.2000-0.1155 0.0000 ( 11848 PWs)   bands (ev):

   -21.1932  -9.1253  -8.7069  -7.1025   1.6884   2.5692   2.8233   3.5403
     4.0467   5.0846

     occupation numbers 
     1.0000   1.0000   1.0000   1.0000   0.0000   0.0000   0.0000   0.0000
     0.0000   0.0000

          k = 0.2000-0.0385 0.0000 ( 11832 PWs)   bands (ev):

   -21.4020  -9.3728  -8.0013  -7.0032   1.4024   2.2821   2.5292   3.2480
     3.7551   4.7979

     occupation numbers 
     1.0000   1.0000   1.0000   1.0000   0.0000   0.0000   0.0000   0.0000
     0.0000   0.0000

          k = 0.2000 0.0385 0.0000 ( 11832 PWs)   bands (ev):

   -21.4020  -9.3728  -8.0009  -7.0036   1.4024   2.2821   2.5292   3.2480
     3.7551   4.7979

     occupation numbers 
     1.0000   1.0000   1.0000   1.0000   0.0000   0.0000   0.0000   0.0000
     0.0000   0.0000

          k = 0.2667 0.1540 0.0000 ( 11876 PWs)   bands (ev):

   -20.4664 -10.4450  -8.2740  -7.7956   2.6888   3.5427   3.8508   4.3062
     4.5916   5.0624

     occupation numbers 
     1.0000   1.0000   1.0000   1.0000   0.0000   0.0000   0.0000   0.0000
     0.0000   0.0000

          k = 0.2667 0.2309 0.0000 ( 11910 PWs)   bands (ev):

   -19.9521 -11.3127  -8.4310  -7.6812   3.2292   3.4055   4.3272   4.5893
     5.2998   5.7628

     occupation numbers 
     1.0000   1.0000   1.0000   1.0000   0.0000   0.0000   0.0000   0.0000
     0.0000   0.0000

          k = 0.2667 0.3079 0.0000 ( 11925 PWs)   bands (ev):

   -19.2406 -12.0991  -9.5597  -6.8716   2.1112   4.4005   5.2868   5.6175
     6.3147   6.8032

     occupation numbers 
     1.0000   1.0000   1.0000   1.0000   0.0000   0.0000   0.0000   0.0000
     0.0000   0.0000

          k = 0.2667 0.3849 0.0000 ( 11949 PWs)   bands (ev):

   -18.3431 -12.8053 -10.8851  -5.8723   0.9012   5.6728   6.4909   6.9394
     7.6071   8.1270

     occupation numbers 
     1.0000   1.0000   1.0000   1.0000   0.0000   0.0000   0.0000   0.0000
     0.0000   0.0000

          k = 0.2667 0.4619 0.0000 ( 11961 PWs)   bands (ev):

   -17.2823 -13.5858 -12.0177  -4.7373  -0.3532   7.2000   7.7081   8.5526
     9.0956   9.7124

     occupation numbers 
     1.0000   1.0000   1.0000   1.0000   0.0000   0.0000   0.0000   0.0000
     0.0000   0.0000

          k = 0.2667 0.5389 0.0000 ( 11948 PWs)   bands (ev):

   -16.1380 -14.6385 -12.5609  -3.6457  -1.4986   8.1520   8.9305  10.0902
    10.4284  10.5707

     occupation numbers 
     1.0000   1.0000   1.0000   1.0000   0.0000   0.0000   0.0000   0.0000
     0.0000   0.0000

          k = 0.2667 0.6158 0.0000 ( 11948 PWs)   bands (ev):

   -16.1379 -14.6387 -12.5608  -3.6455  -1.4989   8.1521   8.9305  10.0899
    10.4273  10.5476

     occupation numbers 
     1.0000   1.0000   1.0000   1.0000   0.0000   0.0000   0.0000   0.0000
     0.0000   0.0000

          k = 0.2667 0.6928 0.0000 ( 11961 PWs)   bands (ev):

   -17.2823 -13.5862 -12.0173  -4.7371  -0.3535   7.2000   7.7082   8.5526
     9.0958   9.7126

     occupation numbers 
     1.0000   1.0000   1.0000   1.0000   0.0000   0.0000   0.0000   0.0000
     0.0000   0.0000

          k = 0.2667-0.3849 0.0000 ( 11949 PWs)   bands (ev):

   -18.3431 -12.8058 -10.8847  -5.8721   0.9008   5.6728   6.4909   6.9394
     7.6071   8.1271

     occupation numbers 
     1.0000   1.0000   1.0000   1.0000   0.0000   0.0000   0.0000   0.0000
     0.0000   0.0000

          k = 0.2667-0.3079 0.0000 ( 11925 PWs)   bands (ev):

   -19.2406 -12.0995  -9.5592  -6.8714   2.1108   4.4005   5.2868   5.6175
     6.3149   6.8037

     occupation numbers 
     1.0000   1.0000   1.0000   1.0000   0.0000   0.0000   0.0000   0.0000
     0.0000   0.0000

          k = 0.2667-0.2309 0.0000 ( 11910 PWs)   bands (ev):

   -19.9522 -11.3131  -8.4305  -7.6811   3.2289   3.4054   4.3271   4.5893
     5.2999   5.7629

     occupation numbers 
     1.0000   1.0000   1.0000   1.0000   0.0000   0.0000   0.0000   0.0000
     0.0000   0.0000

          k = 0.2667-0.1540 0.0000 ( 11876 PWs)   bands (ev):

   -20.4664 -10.4454  -8.2739  -7.7951   2.6888   3.5427   3.8508   4.3059
     4.5916   5.0624

     occupation numbers 
     1.0000   1.0000   1.0000   1.0000   0.0000   0.0000   0.0000   0.0000
     0.0000   0.0000

          k = 0.2667-0.0770 0.0000 ( 11880 PWs)   bands (ev):

   -20.7771  -9.5884  -8.6348  -7.7652   2.2612   3.1413   3.4114   4.1233
     4.6310   5.0671

     occupation numbers 
     1.0000   1.0000   1.0000   1.0000   0.0000   0.0000   0.0000   0.0000
     0.0000   0.0000

          k = 0.2667 0.0000 0.0000 ( 11879 PWs)   bands (ev):

   -20.8810  -9.1036  -8.7559  -7.9715   2.1188   3.0013   3.2646   3.9793
     4.4861   5.3653

     occupation numbers 
     1.0000   1.0000   1.0000   1.0000   0.0000   0.0000   0.0000   0.0000
     0.0000   0.0000

          k = 0.2667 0.0770 0.0000 ( 11880 PWs)   bands (ev):

   -20.7771  -9.5880  -8.6348  -7.7656   2.2612   3.1413   3.4114   4.1233
     4.6310   5.0673

     occupation numbers 
     1.0000   1.0000   1.0000   1.0000   0.0000   0.0000   0.0000   0.0000
     0.0000   0.0000

          k = 0.3333 0.1925 0.0000 ( 11914 PWs)   bands (ev):

   -19.5434 -12.2170  -8.3719  -7.2268   2.3888   3.9690   4.8970   5.1760
     5.3038   5.8868

     occupation numbers 
     1.0000   1.0000   1.0000   1.0000   0.0000   0.0000   0.0000   0.0000
     0.0000   0.0000

          k = 0.3333 0.2694 0.0000 ( 11938 PWs)   bands (ev):

   -18.9376 -13.0376  -8.9373  -6.5631   1.4365   4.8175   5.6578   5.7450
     6.0602   6.7596

     occupation numbers 
     1.0000   1.0000   1.0000   1.0000   0.0000   0.0000   0.0000   0.0000
     0.0000   0.0000

          k = 0.3333 0.3464 0.0000 ( 11927 PWs)   bands (ev):

   -18.1464 -13.7175 -10.0068  -5.7155   0.4679   5.9498   6.8042   6.8410
     7.2351   7.9106

     occupation numbers 
     1.0000   1.0000   1.0000   1.0000   0.0000   0.0000   0.0000   0.0000
     0.0000   0.0000

          k = 0.3333 0.4234 0.0000 ( 11953 PWs)   bands (ev):

   -17.1934 -14.2382 -11.3129  -4.7240  -0.5008   7.3393   7.9343   8.4753
     8.7016   9.2661

     occupation numbers 
     1.0000   1.0000   1.0000   1.0000   0.0000   0.0000   0.0000   0.0000
     0.0000   0.0000

          k = 0.3333 0.5004 0.0000 ( 11948 PWs)   bands (ev):

   -16.1381 -14.6379 -12.5614  -3.6462  -1.4980   8.1518   8.9305  10.0898
    10.4269  10.5486

     occupation numbers 
     1.0000   1.0000   1.0000   1.0000   0.0000   0.0000   0.0000   0.0000
     0.0000   0.0000

          k = 0.3333 0.5774 0.0000 ( 11919 PWs)   bands (ev):

   -15.1794 -15.1786 -13.1874  -2.5520  -2.5509   7.9810  10.2273  10.2280
    10.7607  12.0815

     occupation numbers 
     1.0000   1.0000   1.0000   0.5022   0.4978   0.0000   0.0000   0.0000
     0.0000   0.0000

          k = 0.3333 0.6543 0.0000 ( 11948 PWs)   bands (ev):

   -16.1380 -14.6383 -12.5610  -3.6458  -1.4985   8.1520   8.9305  10.0897
    10.4276  10.5709

     occupation numbers 
     1.0000   1.0000   1.0000   1.0000   0.0000   0.0000   0.0000   0.0000
     0.0000   0.0000

          k = 0.3333 0.7313 0.0000 ( 11953 PWs)   bands (ev):

   -17.1934 -14.2386 -11.3126  -4.7237  -0.5013   7.3393   7.9344   8.4755
     8.7016   9.2659

     occupation numbers 
     1.0000   1.0000   1.0000   1.0000   0.0000   0.0000   0.0000   0.0000
     0.0000   0.0000

          k = 0.3333-0.3464 0.0000 ( 11927 PWs)   bands (ev):

   -18.1464 -13.7178 -10.0064  -5.7153   0.4675   5.9498   6.8044   6.8411
     7.2351   7.9107

     occupation numbers 
     1.0000   1.0000   1.0000   1.0000   0.0000   0.0000   0.0000   0.0000
     0.0000   0.0000

          k = 0.3333-0.2694 0.0000 ( 11938 PWs)   bands (ev):

   -18.9376 -13.0379  -8.9369  -6.5630   1.4361   4.8175   5.6581   5.7450
     6.0602   6.7596

     occupation numbers 
     1.0000   1.0000   1.0000   1.0000   0.0000   0.0000   0.0000   0.0000
     0.0000   0.0000

          k = 0.3333-0.1925 0.0000 ( 11914 PWs)   bands (ev):

   -19.5434 -12.2173  -8.3715  -7.2267   2.3885   3.9690   4.8970   5.1760
     5.3040   5.8868

     occupation numbers 
     1.0000   1.0000   1.0000   1.0000   0.0000   0.0000   0.0000   0.0000
     0.0000   0.0000

          k = 0.3333-0.1155 0.0000 ( 11910 PWs)   bands (ev):

   -19.9521 -11.3130  -8.4307  -7.6811   3.2292   3.4054   4.3271   4.5893
     5.2999   5.7624

     occupation numbers 
     1.0000   1.0000   1.0000   1.0000   0.0000   0.0000   0.0000   0.0000
     0.0000   0.0000

          k = 0.3333-0.0385 0.0000 ( 11929 PWs)   bands (ev):

   -20.1578 -10.5024  -8.8823  -7.9117   3.1193   3.7810   4.0246   4.2944
     5.0027   5.5083

     occupation numbers 
     1.0000   1.0000   1.0000   1.0000   0.0000   0.0000   0.0000   0.0000
     0.0000   0.0000

          k = 0.3333 0.0385 0.0000 ( 11929 PWs)   bands (ev):

   -20.1578 -10.5022  -8.8825  -7.9117   3.1193   3.7810   4.0246   4.2944
     5.0027   5.5083

     occupation numbers 
     1.0000   1.0000   1.0000   1.0000   0.0000   0.0000   0.0000   0.0000
     0.0000   0.0000

          k = 0.3333 0.1155 0.0000 ( 11910 PWs)   bands (ev):

   -19.9521 -11.3126  -8.4311  -7.6812   3.2294   3.4054   4.3272   4.5893
     5.2998   5.7626

     occupation numbers 
     1.0000   1.0000   1.0000   1.0000   0.0000   0.0000   0.0000   0.0000
     0.0000   0.0000

          k = 0.4000 0.2309 0.0000 ( 11910 PWs)   bands (ev):

   -18.4397 -13.9232  -8.7786  -6.0707   0.6265   5.0677   5.5668   6.4614
     6.7954   7.4916

     occupation numbers 
     1.0000   1.0000   1.0000   1.0000   0.0000   0.0000   0.0000   0.0000
     0.0000   0.0000

          k = 0.4000 0.3079 0.0000 ( 11920 PWs)   bands (ev):

   -17.7626 -14.6624  -9.2517  -5.4340  -0.1446   5.4847   6.5359   7.4288
     7.8240   8.5053

     occupation numbers 
     1.0000   1.0000   1.0000   1.0000   0.0000   0.0000   0.0000   0.0000
     0.0000   0.0000

          k = 0.4000 0.3849 0.0000 ( 11935 PWs)   bands (ev):

   -16.9523 -15.1915 -10.2302  -4.7252  -0.7846   6.7018   7.7758   8.5091
     9.1438   9.7337

     occupation numbers 
     1.0000   1.0000   1.0000   1.0000   0.0000   0.0000   0.0000   0.0000
     0.0000   0.0000

          k = 0.4000 0.4619 0.0000 ( 11949 PWs)   bands (ev):

   -16.2531 -15.2889 -11.4461  -4.0676  -1.2465   8.3976   8.6481   9.1231
     9.3468  10.3608

     occupation numbers 
     1.0000   1.0000   1.0000   1.0000   0.0000   0.0000   0.0000   0.0000
     0.0000   0.0000

          k = 0.4000 0.5389 0.0000 ( 11948 PWs)   bands (ev):

   -16.1382 -14.6377 -12.5616  -3.6464  -1.4977   8.1517   8.9305  10.0901
    10.4269  10.5500

     occupation numbers 
     1.0000   1.0000   1.0000   1.0000   0.0000   0.0000   0.0000   0.0000
     0.0000   0.0000

          k = 0.4000 0.6158 0.0000 ( 11948 PWs)   bands (ev):

   -16.1381 -14.6380 -12.5613  -3.6462  -1.4980   8.1518   8.9305  10.0902
    10.4275  10.5472

     occupation numbers 
     1.0000   1.0000   1.0000   1.0000   0.0000   0.0000   0.0000   0.0000
     0.0000   0.0000

          k = 0.4000 0.6928 0.0000 ( 11949 PWs)   bands (ev):

   -16.2529 -15.2895 -11.4458  -4.0671  -1.2471   8.3978   8.6483   9.1232
     9.3468  10.3605

     occupation numbers 
     1.0000   1.0000   1.0000   1.0000   0.0000   0.0000   0.0000   0.0000
     0.0000   0.0000

          k = 0.4000 0.7698 0.0000 ( 11935 PWs)   bands (ev):

   -16.9522 -15.1918 -10.2299  -4.7248  -0.7852   6.7020   7.7757   8.5092
     9.1438   9.7331

     occupation numbers 
     1.0000   1.0000   1.0000   1.0000   0.0000   0.0000   0.0000   0.0000
     0.0000   0.0000

          k = 0.4000-0.3079 0.0000 ( 11920 PWs)   bands (ev):

   -17.7626 -14.6627  -9.2513  -5.4337  -0.1452   5.4849   6.5359   7.4288
     7.8240   8.5051

     occupation numbers 
     1.0000   1.0000   1.0000   1.0000   0.0000   0.0000   0.0000   0.0000
     0.0000   0.0000

          k = 0.4000-0.2309 0.0000 ( 11910 PWs)   bands (ev):

   -18.4397 -13.9235  -8.7782  -6.0705   0.6261   5.0679   5.5668   6.4614
     6.7954   7.4919

     occupation numbers 
     1.0000   1.0000   1.0000   1.0000   0.0000   0.0000   0.0000   0.0000
     0.0000   0.0000

          k = 0.4000-0.1540 0.0000 ( 11938 PWs)   bands (ev):

   -18.9376 -13.0379  -8.9370  -6.5630   1.4363   4.8175   5.6579   5.7450
     6.0602   6.7596

     occupation numbers 
     1.0000   1.0000   1.0000   1.0000   0.0000   0.0000   0.0000   0.0000
     0.0000   0.0000

          k = 0.4000-0.0770 0.0000 ( 11925 PWs)   bands (ev):

   -19.2406 -12.0992  -9.5596  -6.8716   2.1113   4.4005   5.2867   5.6175
     6.3146   6.8031

     occupation numbers 
     1.0000   1.0000   1.0000   1.0000   0.0000   0.0000   0.0000   0.0000
     0.0000   0.0000

          k = 0.4000 0.0000 0.0000 ( 11953 PWs)   bands (ev):

   -19.3422 -11.5170 -10.0621  -6.9764   2.3895   4.2592   5.1277   5.4700
     6.1651   6.6763

     occupation numbers 
     1.0000   1.0000   1.0000   1.0000   0.0000   0.0000   0.0000   0.0000
     0.0000   0.0000

          k = 0.4000 0.0770 0.0000 ( 11925 PWs)   bands (ev):

   -19.2406 -12.0989  -9.5599  -6.8716   2.1114   4.4005   5.2868   5.6175
     6.3146   6.8033

     occupation numbers 
     1.0000   1.0000   1.0000   1.0000   0.0000   0.0000   0.0000   0.0000
     0.0000   0.0000

          k = 0.4000 0.1540 0.0000 ( 11938 PWs)   bands (ev):

   -18.9376 -13.0376  -8.9374  -6.5632   1.4366   4.8175   5.6577   5.7450
     6.0602   6.7596

     occupation numbers 
     1.0000   1.0000   1.0000   1.0000   0.0000   0.0000   0.0000   0.0000
     0.0000   0.0000

          k = 0.4667 0.2694 0.0000 ( 11924 PWs)   bands (ev):

   -17.2299 -15.4441  -8.9878  -5.1026  -0.6655   4.9817   7.3717   8.2868
     8.7065   9.4360

     occupation numbers 
     1.0000   1.0000   1.0000   1.0000   0.0000   0.0000   0.0000   0.0000
     0.0000   0.0000

          k = 0.4667 0.3464 0.0000 ( 11913 PWs)   bands (ev):

   -16.7923 -15.7861  -9.3581  -4.8378  -0.8980   5.4359   8.3985   8.5514
     9.1964   9.4933

     occupation numbers 
     1.0000   1.0000   1.0000   1.0000   0.0000   0.0000   0.0000   0.0000
     0.0000   0.0000

          k = 0.4667 0.4234 0.0000 ( 11935 PWs)   bands (ev):

   -16.9523 -15.1914 -10.2303  -4.7253  -0.7845   6.7017   7.7758   8.5090
     9.1438   9.7343

     occupation numbers 
     1.0000   1.0000   1.0000   1.0000   0.0000   0.0000   0.0000   0.0000
     0.0000   0.0000

          k = 0.4667 0.5004 0.0000 ( 11953 PWs)   bands (ev):

   -17.1934 -14.2381 -11.3131  -4.7241  -0.5005   7.3393   7.9341   8.4752
     8.7017   9.2661

     occupation numbers 
     1.0000   1.0000   1.0000   1.0000   0.0000   0.0000   0.0000   0.0000
     0.0000   0.0000

          k = 0.4667 0.5774 0.0000 ( 11961 PWs)   bands (ev):

   -17.2823 -13.5853 -12.0182  -4.7376  -0.3527   7.2000   7.7079   8.5526
     9.0955   9.7124

     occupation numbers 
     1.0000   1.0000   1.0000   1.0000   0.0000   0.0000   0.0000   0.0000
     0.0000   0.0000

          k = 0.4667 0.6543 0.0000 ( 11953 PWs)   bands (ev):

   -17.1933 -14.2384 -11.3128  -4.7240  -0.5008   7.3393   7.9342   8.4753
     8.7016   9.2660

     occupation numbers 
     1.0000   1.0000   1.0000   1.0000   0.0000   0.0000   0.0000   0.0000
     0.0000   0.0000

          k = 0.4667 0.7313 0.0000 ( 11935 PWs)   bands (ev):

   -16.9522 -15.1918 -10.2299  -4.7249  -0.7850   6.7019   7.7758   8.5091
     9.1438   9.7336

     occupation numbers 
     1.0000   1.0000   1.0000   1.0000   0.0000   0.0000   0.0000   0.0000
     0.0000   0.0000

          k = 0.4667 0.8083 0.0000 ( 11913 PWs)   bands (ev):

   -16.7921 -15.7866  -9.3577  -4.8374  -0.8986   5.4361   8.3985   8.5513
     9.1965   9.4937

     occupation numbers 
     1.0000   1.0000   1.0000   1.0000   0.0000   0.0000   0.0000   0.0000
     0.0000   0.0000

          k = 0.4667-0.2694 0.0000 ( 11924 PWs)   bands (ev):

   -17.2298 -15.4444  -8.9874  -5.1022  -0.6661   4.9819   7.3717   8.2868
     8.7065   9.3810

     occupation numbers 
     1.0000   1.0000   1.0000   1.0000   0.0000   0.0000   0.0000   0.0000
     0.0000   0.0000

          k = 0.4667-0.1925 0.0000 ( 11920 PWs)   bands (ev):

   -17.7626 -14.6626  -9.2513  -5.4338  -0.1450   5.4848   6.5359   7.4288
     7.8240   8.5052

     occupation numbers 
     1.0000   1.0000   1.0000   1.0000   0.0000   0.0000   0.0000   0.0000
     0.0000   0.0000

          k = 0.4667-0.1155 0.0000 ( 11927 PWs)   bands (ev):

   -18.1464 -13.7177 -10.0066  -5.7155   0.4678   5.9498   6.8042   6.8410
     7.2351   7.9109

     occupation numbers 
     1.0000   1.0000   1.0000   1.0000   0.0000   0.0000   0.0000   0.0000
     0.0000   0.0000

          k = 0.4667-0.0385 0.0000 ( 11949 PWs)   bands (ev):

   -18.3431 -12.8052 -10.8853  -5.8724   0.9014   5.6728   6.4908   6.9394
     7.6071   8.1271

     occupation numbers 
     1.0000   1.0000   1.0000   1.0000   0.0000   0.0000   0.0000   0.0000
     0.0000   0.0000

          k = 0.4667 0.0385 0.0000 ( 11949 PWs)   bands (ev):

   -18.3431 -12.8050 -10.8855  -5.8724   0.9015   5.6728   6.4908   6.9394
     7.6071   8.1270

     occupation numbers 
     1.0000   1.0000   1.0000   1.0000   0.0000   0.0000   0.0000   0.0000
     0.0000   0.0000

          k = 0.4667 0.1155 0.0000 ( 11927 PWs)   bands (ev):

   -18.1464 -13.7174 -10.0069  -5.7156   0.4681   5.9498   6.8042   6.8409
     7.2351   7.9107

     occupation numbers 
     1.0000   1.0000   1.0000   1.0000   0.0000   0.0000   0.0000   0.0000
     0.0000   0.0000

          k = 0.4667 0.1925 0.0000 ( 11920 PWs)   bands (ev):

   -17.7626 -14.6624  -9.2517  -5.4341  -0.1445   5.4847   6.5359   7.4288
     7.8240   8.5051

     occupation numbers 
     1.0000   1.0000   1.0000   1.0000   0.0000   0.0000   0.0000   0.0000
     0.0000   0.0000

     the Fermi energy is    -2.5515 ev

!    total energy              =     -24.07885671 Ry
     estimated scf accuracy    <          7.9E-10 Ry
     smearing contrib. (-TS)   =      -0.00010030 Ry
     internal energy E=F+TS    =     -24.07875641 Ry

     The total energy is F=E-TS. E is the sum of the following terms:
     one-electron contribution =    -270.11263570 Ry
     hartree contribution      =     136.29306023 Ry
     xc contribution           =      -8.56533180 Ry
     ewald contribution        =     118.39455400 Ry
     electric field correction =      -0.08840314 Ry

     convergence has been achieved in   7 iterations


     -----------------------------------------------
     Non-local corr. energy    =       0.10385263 Ry
     -----------------------------------------------


     Forces acting on atoms (cartesian axes, Ry/au):

     atom    1 type  1   force =     0.00006509    0.00013804    0.00074568
     atom    2 type  1   force =    -0.00006509   -0.00013804   -0.00074568
     The non-local contrib.  to forces
     atom    1 type  1   force =     0.00004571    0.00009778    0.00035934
     atom    2 type  1   force =    -0.00004552   -0.00009775   -0.00254050
     The ionic contribution  to forces
     atom    1 type  1   force =     0.00023594    0.00049975   -0.01511167
     atom    2 type  1   force =    -0.00023594   -0.00049975    0.01511167
     The local contribution  to forces
     atom    1 type  1   force =    -0.00021214   -0.00045021    0.00753885
     atom    2 type  1   force =     0.00021242    0.00045030   -0.02129458
     The core correction contribution to forces
     atom    1 type  1   force =    -0.00000442   -0.00000939    0.00001163
     atom    2 type  1   force =     0.00000442    0.00000939    0.00002981
     The Hubbard contrib.    to forces
     atom    1 type  1   force =     0.00000000    0.00000000    0.00000000
     atom    2 type  1   force =     0.00000000    0.00000000    0.00000000
     The SCF correction term to forces
     atom    1 type  1   force =     0.00000016    0.00000017   -0.00004965
     atom    2 type  1   force =    -0.00000032   -0.00000018   -0.00004925

     Total force =     0.001076     Total SCF correction =     0.000070

     Writing all to output data dir /home/ubuntu/projects/Graphene-Band-Structure-Quantum-Espresso/outputs/field_0.001/vdw-df2-c09/top/data/top.save/ :
     XML data file, charge density, pseudopotentials, collected wavefunctions

     init_run     :     10.07s CPU     10.33s WALL (       1 calls)
     electrons    :     30.46s CPU     31.57s WALL (       1 calls)
     forces       :      1.13s CPU      1.37s WALL (       1 calls)

     Called by init_run:
     wfcinit      :      0.56s CPU      0.56s WALL (       1 calls)
     wfcinit:atom :      0.01s CPU      0.01s WALL (       8 calls)
     wfcinit:wfcr :      0.52s CPU      0.53s WALL (       8 calls)
     potinit      :      8.82s CPU      9.04s WALL (       1 calls)
     hinit0       :      0.61s CPU      0.64s WALL (       1 calls)

     Called by electrons:
     c_bands      :     20.91s CPU     21.03s WALL (       7 calls)
     sum_band     :      1.76s CPU      1.79s WALL (       7 calls)
     v_of_rho     :     13.83s CPU     14.93s WALL (       8 calls)
     v_h          :      0.03s CPU      0.04s WALL (       8 calls)
     v_xc         :     14.62s CPU     15.95s WALL (       9 calls)
     mix_rho      :      0.07s CPU      0.08s WALL (       7 calls)
     vdW_kernel   :      7.89s CPU      7.90s WALL (       1 calls)

     Called by c_bands:
     init_us_2    :      0.30s CPU      0.31s WALL (     128 calls)
     cegterg      :     12.25s CPU     12.34s WALL (      56 calls)

     Called by sum_band:
     sum_band:wei :      0.00s CPU      0.00s WALL (       7 calls)
     sum_band:loo :      1.24s CPU      1.25s WALL (       7 calls)
     sum_band:buf :      0.02s CPU      0.02s WALL (      56 calls)
     sum_band:ini :      0.12s CPU      0.13s WALL (      56 calls)

     Called by *egterg:
     cdiaghg      :      0.06s CPU      0.06s WALL (     396 calls)
     cegterg:over :      1.10s CPU      1.11s WALL (     340 calls)
     cegterg:upda :      0.77s CPU      0.78s WALL (     340 calls)
     cegterg:last :      1.30s CPU      1.31s WALL (     161 calls)
     h_psi        :      9.04s CPU      9.11s WALL (     404 calls)
     g_psi        :      0.08s CPU      0.08s WALL (     340 calls)

     Called by h_psi:
     h_psi:calbec :      0.76s CPU      0.76s WALL (     404 calls)
     vloc_psi     :      7.46s CPU      7.51s WALL (     404 calls)
     add_vuspsi   :      0.78s CPU      0.78s WALL (     404 calls)

     General routines
     calbec       :      0.97s CPU      0.97s WALL (     436 calls)
     fft          :      2.15s CPU      2.16s WALL (     540 calls)
     ffts         :      0.02s CPU      0.02s WALL (       7 calls)
     fftw         :      7.34s CPU      7.37s WALL (    4408 calls)

     Parallel routines

     PWSCF        :     42.61s CPU     44.26s WALL


   This run was terminated on:  23:45:57   4Oct2026            

=------------------------------------------------------------------------------=
   JOB DONE.
=------------------------------------------------------------------------------=
Note: The following floating-point exceptions are signalling: IEEE_UNDERFLOW_FLAG IEEE_DENORMAL
Note: The following floating-point exceptions are signalling: IEEE_UNDERFLOW_FLAG IEEE_DENORMAL
Note: The following floating-point exceptions are signalling: IEEE_UNDERFLOW_FLAG IEEE_DENORMAL
Note: The following floating-point exceptions are signalling: IEEE_UNDERFLOW_FLAG IEEE_DENORMAL
Note: The following floating-point exceptions are signalling: IEEE_UNDERFLOW_FLAG IEEE_DENORMAL
Note: The following floating-point exceptions are signalling: IEEE_UNDERFLOW_FLAG IEEE_DENORMAL
Note: The following floating-point exceptions are signalling: IEEE_UNDERFLOW_FLAG IEEE_DENORMAL
Note: The following floating-point exceptions are signalling: IEEE_UNDERFLOW_FLAG IEEE_DENORMAL
Note: The following floating-point exceptions are signalling: IEEE_UNDERFLOW_FLAG IEEE_DENORMAL
Note: The following floating-point exceptions are signalling: IEEE_UNDERFLOW_FLAG IEEE_DENORMAL
Note: The following floating-point exceptions are signalling: IEEE_UNDERFLOW_FLAG IEEE_DENORMAL
Note: The following floating-point exceptions are signalling: IEEE_UNDERFLOW_FLAG IEEE_DENORMAL
Note: The following floating-point exceptions are signalling: IEEE_UNDERFLOW_FLAG IEEE_DENORMAL
Note: The following floating-point exceptions are signalling: IEEE_UNDERFLOW_FLAG IEEE_DENORMAL
Note: The following floating-point exceptions are signalling: IEEE_UNDERFLOW_FLAG IEEE_DENORMAL
Note: The following floating-point exceptions are signalling: IEEE_UNDERFLOW_FLAG IEEE_DENORMAL
