
     Program PWSCF v.7.6 starts on  5Oct2026 at  2:23:41 

     This program is part of the open-source Quantum ESPRESSO suite
     for quantum simulation of materials; please cite
         "P. Giannozzi et al., J. Phys.:Condens. Matter 21 395502 (2009);
         "P. Giannozzi et al., J. Phys.:Condens. Matter 29 465901 (2017);
         "P. Giannozzi et al., J. Chem. Phys. 152 154105 (2020);
          URL http://www.quantum-espresso.org", 
     in publications or presentations arising from this work. More details at
     http://www.quantum-espresso.org/quote

     Parallel version (MPI), running on    16 processors

     MPI processes distributed on     1 nodes
     30945 MiB available memory on the printing compute node when the environment starts

     Waiting for input...
     Reading input from standard input
Warning: card &CELL ignored
Warning: card &FCP ignored
Warning: card &RISM ignored

     Current dimensions of program PWSCF are:
     Max number of different atomic species (ntypx) = 10
     Max number of k-points (npk) =  40000
     Max angular momentum in pseudopotentials (lmaxx) =  4
     Presently no symmetry can be used with electric field


     K-points division:     npool     =      16
     Subspace diagonalization in iterative solution of the eigenvalue problem:
     a serial algorithm will be used


     G-vector sticks info
     --------------------
     sticks:   dense  smooth     PW     G-vecs:    dense   smooth      PW
     Sum         535     535    163                94953    94953   17173

     Using Slab Decomposition



     bravais-lattice index     =            0
     lattice parameter (alat)  =       4.6487  a.u.
     unit-cell volume          =     825.8180 (a.u.)^3
     number of atoms/cell      =            4
     number of atomic types    =            1
     number of electrons       =        16.00
     number of Kohn-Sham states=           14
     kinetic-energy cutoff     =      90.0000  Ry
     charge density cutoff     =     360.0000  Ry
     scf convergence threshold =      1.0E-08
     mixing beta               =       0.7000
     number of iterations used =            8  plain     mixing
     energy convergence thresh.=      1.0E-04
     force convergence thresh. =      1.0E-03
     Exchange-correlation= PBE
                           (   1   4   3   4   0   0   0)
     nstep                     =           50


     celldm(1)=   4.648726  celldm(2)=   0.000000  celldm(3)=   0.000000
     celldm(4)=   0.000000  celldm(5)=   0.000000  celldm(6)=   0.000000

     crystal axes: (cart. coord. in units of alat)
               a(1) = (   1.000000   0.000000   0.000000 )  
               a(2) = (  -0.500000   0.866025   0.000000 )  
               a(3) = (   0.000000   0.000000   9.491870 )  

     reciprocal axes: (cart. coord. in units 2 pi/alat)
               b(1) = (  1.000000  0.577350 -0.000000 )  
               b(2) = (  0.000000  1.154701  0.000000 )  
               b(3) = (  0.000000 -0.000000  0.105353 )  


     PseudoPot. # 1 for C  read from file:
     /home/ubuntu/projects/Graphene-Band-Structure-Quantum-Espresso/pseudo/C.upf
     MD5 check sum: 34a24e64c0a39f27c6c36b90a16ac686
     Pseudo is Norm-conserving + core correction, Zval =  4.0
     Generated using ONCVPSP code by D. R. Hamann
     Using radial grid of 1248 points,  4 beta functions with: 
                l(1) =   0
                l(2) =   0
                l(3) =   1
                l(4) =   1

     atomic species   valence    mass     pseudopotential
     C                 4.00    12.01100     C ( 1.00)

     No symmetry found


                                    s                        frac. trans.

      isym =  1     identity                                     

 cryst.   s( 1) = (     1          0          0      )
                  (     0          1          0      )
                  (     0          0          1      )

 cart.    s( 1) = (  1.0000000  0.0000000  0.0000000 )
                  (  0.0000000  1.0000000  0.0000000 )
                  (  0.0000000  0.0000000  1.0000000 )


   Cartesian axes

     site n.     atom                  positions (alat units)
         1        C      tau(   1) = (   0.0000000   0.0000000   4.0650407  )
         2        C      tau(   2) = (   0.5000000   0.2886751   4.0650407  )
         3        C      tau(   3) = (   0.5000000   0.2886751   5.4268293  )
         4        C      tau(   4) = (   0.0000000   0.5773503   5.4268293  )

     --------------------------------------------
     DFT-D3 Dispersion Correction (3-body terms):
     --------------------------------------------
       Reference C6 values for interpolation: 

         atom   Coordination number   C6
         C          0.000            98.23
         C          0.987            86.49
         C          1.998            58.72
         C          2.999            51.56
         C          3.984            36.41

       Values used:

         atom   Coordination number  R0_AB[au]  C6      C8
         C          3.322            2.750     48.11   1391.50
         C          3.323            2.750     48.11   1391.37
         C          3.323            2.750     48.11   1391.37
         C          3.322            2.750     48.11   1391.50

         Molecular C6 ( Ry / a.u.^6 ) =       769.77


   Crystallographic axes

     site n.     atom                  positions (cryst. coord.)
         1        C      tau(   1) = (  0.0000000  0.0000000  0.4282655  )
         2        C      tau(   2) = (  0.6666667  0.3333333  0.4282655  )
         3        C      tau(   3) = (  0.6666667  0.3333333  0.5717345  )
         4        C      tau(   4) = (  0.3333333  0.6666667  0.5717345  )

     number of k points=   113  Gaussian smearing, width (Ry)=  0.0100
                       cart. coord. in units 2pi/alat
        k(    1) = (   0.0000000   0.0000000   0.0000000), wk =   0.0088889
        k(    2) = (   0.0000000   0.0769800   0.0000000), wk =   0.0177778
        k(    3) = (   0.0000000   0.1539601   0.0000000), wk =   0.0177778
        k(    4) = (   0.0000000   0.2309401   0.0000000), wk =   0.0177778
        k(    5) = (   0.0000000   0.3079201   0.0000000), wk =   0.0177778
        k(    6) = (   0.0000000   0.3849002   0.0000000), wk =   0.0177778
        k(    7) = (   0.0000000   0.4618802   0.0000000), wk =   0.0177778
        k(    8) = (   0.0000000   0.5388603   0.0000000), wk =   0.0177778
        k(    9) = (   0.0666667   0.0384900   0.0000000), wk =   0.0177778
        k(   10) = (   0.0666667   0.1154701   0.0000000), wk =   0.0177778
        k(   11) = (   0.0666667   0.1924501   0.0000000), wk =   0.0177778
        k(   12) = (   0.0666667   0.2694301   0.0000000), wk =   0.0177778
        k(   13) = (   0.0666667   0.3464102   0.0000000), wk =   0.0177778
        k(   14) = (   0.0666667   0.4233902   0.0000000), wk =   0.0177778
        k(   15) = (   0.0666667   0.5003702   0.0000000), wk =   0.0177778
        k(   16) = (   0.0666667   0.5773503   0.0000000), wk =   0.0177778
        k(   17) = (   0.0666667  -0.5003702   0.0000000), wk =   0.0177778
        k(   18) = (   0.0666667  -0.4233902   0.0000000), wk =   0.0177778
        k(   19) = (   0.0666667  -0.3464102   0.0000000), wk =   0.0177778
        k(   20) = (   0.0666667  -0.2694301   0.0000000), wk =   0.0177778
        k(   21) = (   0.0666667  -0.1924501   0.0000000), wk =   0.0177778
        k(   22) = (   0.0666667  -0.1154701   0.0000000), wk =   0.0177778
        k(   23) = (   0.0666667  -0.0384900   0.0000000), wk =   0.0177778
        k(   24) = (   0.1333333   0.0769800   0.0000000), wk =   0.0177778
        k(   25) = (   0.1333333   0.1539601   0.0000000), wk =   0.0177778
        k(   26) = (   0.1333333   0.2309401   0.0000000), wk =   0.0177778
        k(   27) = (   0.1333333   0.3079201   0.0000000), wk =   0.0177778
        k(   28) = (   0.1333333   0.3849002   0.0000000), wk =   0.0177778
        k(   29) = (   0.1333333   0.4618802   0.0000000), wk =   0.0177778
        k(   30) = (   0.1333333   0.5388603   0.0000000), wk =   0.0177778
        k(   31) = (   0.1333333   0.6158403   0.0000000), wk =   0.0177778
        k(   32) = (   0.1333333  -0.4618802   0.0000000), wk =   0.0177778
        k(   33) = (   0.1333333  -0.3849002   0.0000000), wk =   0.0177778
        k(   34) = (   0.1333333  -0.3079201   0.0000000), wk =   0.0177778
        k(   35) = (   0.1333333  -0.2309401   0.0000000), wk =   0.0177778
        k(   36) = (   0.1333333  -0.1539601   0.0000000), wk =   0.0177778
        k(   37) = (   0.1333333  -0.0769800   0.0000000), wk =   0.0177778
        k(   38) = (   0.1333333   0.0000000   0.0000000), wk =   0.0177778
        k(   39) = (   0.2000000   0.1154701   0.0000000), wk =   0.0177778
        k(   40) = (   0.2000000   0.1924501   0.0000000), wk =   0.0177778
        k(   41) = (   0.2000000   0.2694301   0.0000000), wk =   0.0177778
        k(   42) = (   0.2000000   0.3464102   0.0000000), wk =   0.0177778
        k(   43) = (   0.2000000   0.4233902   0.0000000), wk =   0.0177778
        k(   44) = (   0.2000000   0.5003702   0.0000000), wk =   0.0177778
        k(   45) = (   0.2000000   0.5773503   0.0000000), wk =   0.0177778
        k(   46) = (   0.2000000   0.6543303   0.0000000), wk =   0.0177778
        k(   47) = (   0.2000000  -0.4233902   0.0000000), wk =   0.0177778
        k(   48) = (   0.2000000  -0.3464102   0.0000000), wk =   0.0177778
        k(   49) = (   0.2000000  -0.2694301   0.0000000), wk =   0.0177778
        k(   50) = (   0.2000000  -0.1924501   0.0000000), wk =   0.0177778
        k(   51) = (   0.2000000  -0.1154701   0.0000000), wk =   0.0177778
        k(   52) = (   0.2000000  -0.0384900   0.0000000), wk =   0.0177778
        k(   53) = (   0.2000000   0.0384900   0.0000000), wk =   0.0177778
        k(   54) = (   0.2666667   0.1539601   0.0000000), wk =   0.0177778
        k(   55) = (   0.2666667   0.2309401   0.0000000), wk =   0.0177778
        k(   56) = (   0.2666667   0.3079201   0.0000000), wk =   0.0177778
        k(   57) = (   0.2666667   0.3849002   0.0000000), wk =   0.0177778
        k(   58) = (   0.2666667   0.4618802   0.0000000), wk =   0.0177778
        k(   59) = (   0.2666667   0.5388603   0.0000000), wk =   0.0177778
        k(   60) = (   0.2666667   0.6158403   0.0000000), wk =   0.0177778
        k(   61) = (   0.2666667   0.6928203   0.0000000), wk =   0.0177778
        k(   62) = (   0.2666667  -0.3849002   0.0000000), wk =   0.0177778
        k(   63) = (   0.2666667  -0.3079201   0.0000000), wk =   0.0177778
        k(   64) = (   0.2666667  -0.2309401   0.0000000), wk =   0.0177778
        k(   65) = (   0.2666667  -0.1539601   0.0000000), wk =   0.0177778
        k(   66) = (   0.2666667  -0.0769800   0.0000000), wk =   0.0177778
        k(   67) = (   0.2666667   0.0000000   0.0000000), wk =   0.0177778
        k(   68) = (   0.2666667   0.0769800   0.0000000), wk =   0.0177778
        k(   69) = (   0.3333333   0.1924501   0.0000000), wk =   0.0177778
        k(   70) = (   0.3333333   0.2694301   0.0000000), wk =   0.0177778
        k(   71) = (   0.3333333   0.3464102   0.0000000), wk =   0.0177778
        k(   72) = (   0.3333333   0.4233902   0.0000000), wk =   0.0177778
        k(   73) = (   0.3333333   0.5003702   0.0000000), wk =   0.0177778
        k(   74) = (   0.3333333   0.5773503   0.0000000), wk =   0.0177778
        k(   75) = (   0.3333333   0.6543303   0.0000000), wk =   0.0177778
        k(   76) = (   0.3333333   0.7313103   0.0000000), wk =   0.0177778
        k(   77) = (   0.3333333  -0.3464102   0.0000000), wk =   0.0177778
        k(   78) = (   0.3333333  -0.2694301   0.0000000), wk =   0.0177778
        k(   79) = (   0.3333333  -0.1924501   0.0000000), wk =   0.0177778
        k(   80) = (   0.3333333  -0.1154701   0.0000000), wk =   0.0177778
        k(   81) = (   0.3333333  -0.0384900   0.0000000), wk =   0.0177778
        k(   82) = (   0.3333333   0.0384900   0.0000000), wk =   0.0177778
        k(   83) = (   0.3333333   0.1154701   0.0000000), wk =   0.0177778
        k(   84) = (   0.4000000   0.2309401   0.0000000), wk =   0.0177778
        k(   85) = (   0.4000000   0.3079201   0.0000000), wk =   0.0177778
        k(   86) = (   0.4000000   0.3849002   0.0000000), wk =   0.0177778
        k(   87) = (   0.4000000   0.4618802   0.0000000), wk =   0.0177778
        k(   88) = (   0.4000000   0.5388603   0.0000000), wk =   0.0177778
        k(   89) = (   0.4000000   0.6158403   0.0000000), wk =   0.0177778
        k(   90) = (   0.4000000   0.6928203   0.0000000), wk =   0.0177778
        k(   91) = (   0.4000000   0.7698004   0.0000000), wk =   0.0177778
        k(   92) = (   0.4000000  -0.3079201   0.0000000), wk =   0.0177778
        k(   93) = (   0.4000000  -0.2309401   0.0000000), wk =   0.0177778
        k(   94) = (   0.4000000  -0.1539601   0.0000000), wk =   0.0177778
        k(   95) = (   0.4000000  -0.0769800   0.0000000), wk =   0.0177778
        k(   96) = (   0.4000000   0.0000000   0.0000000), wk =   0.0177778
        k(   97) = (   0.4000000   0.0769800   0.0000000), wk =   0.0177778
        k(   98) = (   0.4000000   0.1539601   0.0000000), wk =   0.0177778
        k(   99) = (   0.4666667   0.2694301   0.0000000), wk =   0.0177778
        k(  100) = (   0.4666667   0.3464102   0.0000000), wk =   0.0177778
        k(  101) = (   0.4666667   0.4233902   0.0000000), wk =   0.0177778
        k(  102) = (   0.4666667   0.5003702   0.0000000), wk =   0.0177778
        k(  103) = (   0.4666667   0.5773503   0.0000000), wk =   0.0177778
        k(  104) = (   0.4666667   0.6543303   0.0000000), wk =   0.0177778
        k(  105) = (   0.4666667   0.7313103   0.0000000), wk =   0.0177778
        k(  106) = (   0.4666667   0.8082904   0.0000000), wk =   0.0177778
        k(  107) = (   0.4666667  -0.2694301   0.0000000), wk =   0.0177778
        k(  108) = (   0.4666667  -0.1924501   0.0000000), wk =   0.0177778
        k(  109) = (   0.4666667  -0.1154701   0.0000000), wk =   0.0177778
        k(  110) = (   0.4666667  -0.0384900   0.0000000), wk =   0.0177778
        k(  111) = (   0.4666667   0.0384900   0.0000000), wk =   0.0177778
        k(  112) = (   0.4666667   0.1154701   0.0000000), wk =   0.0177778
        k(  113) = (   0.4666667   0.1924501   0.0000000), wk =   0.0177778

                       cryst. coord.
        k(    1) = (   0.0000000   0.0000000   0.0000000), wk =   0.0088889
        k(    2) = (   0.0000000   0.0666667   0.0000000), wk =   0.0177778
        k(    3) = (   0.0000000   0.1333333   0.0000000), wk =   0.0177778
        k(    4) = (   0.0000000   0.2000000   0.0000000), wk =   0.0177778
        k(    5) = (   0.0000000   0.2666667   0.0000000), wk =   0.0177778
        k(    6) = (   0.0000000   0.3333333   0.0000000), wk =   0.0177778
        k(    7) = (   0.0000000   0.4000000   0.0000000), wk =   0.0177778
        k(    8) = (   0.0000000   0.4666667   0.0000000), wk =   0.0177778
        k(    9) = (   0.0666667   0.0000000   0.0000000), wk =   0.0177778
        k(   10) = (   0.0666667   0.0666667   0.0000000), wk =   0.0177778
        k(   11) = (   0.0666667   0.1333333   0.0000000), wk =   0.0177778
        k(   12) = (   0.0666667   0.2000000   0.0000000), wk =   0.0177778
        k(   13) = (   0.0666667   0.2666667   0.0000000), wk =   0.0177778
        k(   14) = (   0.0666667   0.3333333   0.0000000), wk =   0.0177778
        k(   15) = (   0.0666667   0.4000000   0.0000000), wk =   0.0177778
        k(   16) = (   0.0666667   0.4666667   0.0000000), wk =   0.0177778
        k(   17) = (   0.0666667  -0.4666667   0.0000000), wk =   0.0177778
        k(   18) = (   0.0666667  -0.4000000   0.0000000), wk =   0.0177778
        k(   19) = (   0.0666667  -0.3333333   0.0000000), wk =   0.0177778
        k(   20) = (   0.0666667  -0.2666667   0.0000000), wk =   0.0177778
        k(   21) = (   0.0666667  -0.2000000   0.0000000), wk =   0.0177778
        k(   22) = (   0.0666667  -0.1333333   0.0000000), wk =   0.0177778
        k(   23) = (   0.0666667  -0.0666667   0.0000000), wk =   0.0177778
        k(   24) = (   0.1333333   0.0000000   0.0000000), wk =   0.0177778
        k(   25) = (   0.1333333   0.0666667   0.0000000), wk =   0.0177778
        k(   26) = (   0.1333333   0.1333333   0.0000000), wk =   0.0177778
        k(   27) = (   0.1333333   0.2000000   0.0000000), wk =   0.0177778
        k(   28) = (   0.1333333   0.2666667   0.0000000), wk =   0.0177778
        k(   29) = (   0.1333333   0.3333333   0.0000000), wk =   0.0177778
        k(   30) = (   0.1333333   0.4000000   0.0000000), wk =   0.0177778
        k(   31) = (   0.1333333   0.4666667   0.0000000), wk =   0.0177778
        k(   32) = (   0.1333333  -0.4666667   0.0000000), wk =   0.0177778
        k(   33) = (   0.1333333  -0.4000000   0.0000000), wk =   0.0177778
        k(   34) = (   0.1333333  -0.3333333   0.0000000), wk =   0.0177778
        k(   35) = (   0.1333333  -0.2666667   0.0000000), wk =   0.0177778
        k(   36) = (   0.1333333  -0.2000000   0.0000000), wk =   0.0177778
        k(   37) = (   0.1333333  -0.1333333   0.0000000), wk =   0.0177778
        k(   38) = (   0.1333333  -0.0666667   0.0000000), wk =   0.0177778
        k(   39) = (   0.2000000   0.0000000   0.0000000), wk =   0.0177778
        k(   40) = (   0.2000000   0.0666667   0.0000000), wk =   0.0177778
        k(   41) = (   0.2000000   0.1333333   0.0000000), wk =   0.0177778
        k(   42) = (   0.2000000   0.2000000   0.0000000), wk =   0.0177778
        k(   43) = (   0.2000000   0.2666667   0.0000000), wk =   0.0177778
        k(   44) = (   0.2000000   0.3333333   0.0000000), wk =   0.0177778
        k(   45) = (   0.2000000   0.4000000   0.0000000), wk =   0.0177778
        k(   46) = (   0.2000000   0.4666667   0.0000000), wk =   0.0177778
        k(   47) = (   0.2000000  -0.4666667   0.0000000), wk =   0.0177778
        k(   48) = (   0.2000000  -0.4000000   0.0000000), wk =   0.0177778
        k(   49) = (   0.2000000  -0.3333333   0.0000000), wk =   0.0177778
        k(   50) = (   0.2000000  -0.2666667   0.0000000), wk =   0.0177778
        k(   51) = (   0.2000000  -0.2000000   0.0000000), wk =   0.0177778
        k(   52) = (   0.2000000  -0.1333333   0.0000000), wk =   0.0177778
        k(   53) = (   0.2000000  -0.0666667   0.0000000), wk =   0.0177778
        k(   54) = (   0.2666667   0.0000000   0.0000000), wk =   0.0177778
        k(   55) = (   0.2666667   0.0666667   0.0000000), wk =   0.0177778
        k(   56) = (   0.2666667   0.1333333   0.0000000), wk =   0.0177778
        k(   57) = (   0.2666667   0.2000000   0.0000000), wk =   0.0177778
        k(   58) = (   0.2666667   0.2666667   0.0000000), wk =   0.0177778
        k(   59) = (   0.2666667   0.3333333   0.0000000), wk =   0.0177778
        k(   60) = (   0.2666667   0.4000000   0.0000000), wk =   0.0177778
        k(   61) = (   0.2666667   0.4666667   0.0000000), wk =   0.0177778
        k(   62) = (   0.2666667  -0.4666667   0.0000000), wk =   0.0177778
        k(   63) = (   0.2666667  -0.4000000   0.0000000), wk =   0.0177778
        k(   64) = (   0.2666667  -0.3333333   0.0000000), wk =   0.0177778
        k(   65) = (   0.2666667  -0.2666667   0.0000000), wk =   0.0177778
        k(   66) = (   0.2666667  -0.2000000   0.0000000), wk =   0.0177778
        k(   67) = (   0.2666667  -0.1333333   0.0000000), wk =   0.0177778
        k(   68) = (   0.2666667  -0.0666667   0.0000000), wk =   0.0177778
        k(   69) = (   0.3333333   0.0000000   0.0000000), wk =   0.0177778
        k(   70) = (   0.3333333   0.0666667   0.0000000), wk =   0.0177778
        k(   71) = (   0.3333333   0.1333333   0.0000000), wk =   0.0177778
        k(   72) = (   0.3333333   0.2000000   0.0000000), wk =   0.0177778
        k(   73) = (   0.3333333   0.2666667   0.0000000), wk =   0.0177778
        k(   74) = (   0.3333333   0.3333333   0.0000000), wk =   0.0177778
        k(   75) = (   0.3333333   0.4000000   0.0000000), wk =   0.0177778
        k(   76) = (   0.3333333   0.4666667   0.0000000), wk =   0.0177778
        k(   77) = (   0.3333333  -0.4666667   0.0000000), wk =   0.0177778
        k(   78) = (   0.3333333  -0.4000000   0.0000000), wk =   0.0177778
        k(   79) = (   0.3333333  -0.3333333   0.0000000), wk =   0.0177778
        k(   80) = (   0.3333333  -0.2666667   0.0000000), wk =   0.0177778
        k(   81) = (   0.3333333  -0.2000000   0.0000000), wk =   0.0177778
        k(   82) = (   0.3333333  -0.1333333   0.0000000), wk =   0.0177778
        k(   83) = (   0.3333333  -0.0666667   0.0000000), wk =   0.0177778
        k(   84) = (   0.4000000   0.0000000   0.0000000), wk =   0.0177778
        k(   85) = (   0.4000000   0.0666667   0.0000000), wk =   0.0177778
        k(   86) = (   0.4000000   0.1333333   0.0000000), wk =   0.0177778
        k(   87) = (   0.4000000   0.2000000   0.0000000), wk =   0.0177778
        k(   88) = (   0.4000000   0.2666667   0.0000000), wk =   0.0177778
        k(   89) = (   0.4000000   0.3333333   0.0000000), wk =   0.0177778
        k(   90) = (   0.4000000   0.4000000   0.0000000), wk =   0.0177778
        k(   91) = (   0.4000000   0.4666667   0.0000000), wk =   0.0177778
        k(   92) = (   0.4000000  -0.4666667   0.0000000), wk =   0.0177778
        k(   93) = (   0.4000000  -0.4000000   0.0000000), wk =   0.0177778
        k(   94) = (   0.4000000  -0.3333333   0.0000000), wk =   0.0177778
        k(   95) = (   0.4000000  -0.2666667   0.0000000), wk =   0.0177778
        k(   96) = (   0.4000000  -0.2000000   0.0000000), wk =   0.0177778
        k(   97) = (   0.4000000  -0.1333333   0.0000000), wk =   0.0177778
        k(   98) = (   0.4000000  -0.0666667   0.0000000), wk =   0.0177778
        k(   99) = (   0.4666667   0.0000000   0.0000000), wk =   0.0177778
        k(  100) = (   0.4666667   0.0666667   0.0000000), wk =   0.0177778
        k(  101) = (   0.4666667   0.1333333   0.0000000), wk =   0.0177778
        k(  102) = (   0.4666667   0.2000000   0.0000000), wk =   0.0177778
        k(  103) = (   0.4666667   0.2666667   0.0000000), wk =   0.0177778
        k(  104) = (   0.4666667   0.3333333   0.0000000), wk =   0.0177778
        k(  105) = (   0.4666667   0.4000000   0.0000000), wk =   0.0177778
        k(  106) = (   0.4666667   0.4666667   0.0000000), wk =   0.0177778
        k(  107) = (   0.4666667  -0.4666667   0.0000000), wk =   0.0177778
        k(  108) = (   0.4666667  -0.4000000   0.0000000), wk =   0.0177778
        k(  109) = (   0.4666667  -0.3333333   0.0000000), wk =   0.0177778
        k(  110) = (   0.4666667  -0.2666667   0.0000000), wk =   0.0177778
        k(  111) = (   0.4666667  -0.2000000   0.0000000), wk =   0.0177778
        k(  112) = (   0.4666667  -0.1333333   0.0000000), wk =   0.0177778
        k(  113) = (   0.4666667  -0.0666667   0.0000000), wk =   0.0177778

     Dense  grid:    94953 G-vectors     FFT dimensions: (  30,  30, 270)

     Dynamical RAM for                 wfc:       2.54 MB

     Dynamical RAM for     wfc (w. buffer):      22.89 MB

     Dynamical RAM for           str. fact:       1.45 MB

     Dynamical RAM for           local pot:       0.00 MB

     Dynamical RAM for          nlocal pot:       5.81 MB

     Dynamical RAM for                qrad:       0.44 MB

     Dynamical RAM for          rho,v,vnew:       9.91 MB

     Dynamical RAM for               rhoin:       3.30 MB

     Dynamical RAM for            rho*nmix:      23.18 MB

     Dynamical RAM for           G-vectors:       6.16 MB

     Dynamical RAM for          h,s,v(r/c):       0.04 MB

     Dynamical RAM for          <psi|beta>:       0.01 MB

     Dynamical RAM for                 psi:       5.09 MB

     Dynamical RAM for                hpsi:       5.09 MB

     Dynamical RAM for      wfcinit/wfcrot:       5.09 MB

     Estimated static dynamical RAM per process >      62.13 MB

     Estimated max dynamical RAM per process >      95.53 MB

     Estimated total dynamical RAM >       1.15 GB

     Adding external electric field
        E field amplitude [Ha a.u.]:  5.0000E-03
        Potential amp.        0.3971 Ry
        Total length         39.7126 bohr


     Initial potential from superposition of free atoms

     starting charge      15.9998, renormalised to      16.0000

     negative rho (up, down):  7.039E-06 0.000E+00
     Starting wfcs are   16 randomized atomic wfcs

     total cpu time spent up to now is        2.5 secs

     Self-consistent Calculation

     iteration #  1     ecut=    90.00 Ry     beta= 0.70
     Davidson diagonalization with overlap

---- Real-time Memory Report at c_bands before calling an iterative solver
            95 MiB given to the printing process from OS
             0 MiB allocation reported by mallinfo(arena+hblkhd)
         29831 MiB available memory on the node where the printing process lives
------------------
     ethr =  1.00E-02,  avg # of iterations =  6.6

     total cpu time spent up to now is        8.1 secs

     total energy              =     -48.15976376 Ry
     estimated scf accuracy    <       0.37286390 Ry

     iteration #  2     ecut=    90.00 Ry     beta= 0.70
     Davidson diagonalization with overlap

---- Real-time Memory Report at c_bands before calling an iterative solver
           131 MiB given to the printing process from OS
             0 MiB allocation reported by mallinfo(arena+hblkhd)
         29292 MiB available memory on the node where the printing process lives
------------------
     ethr =  2.33E-03,  avg # of iterations =  5.8

     total cpu time spent up to now is       12.9 secs

     total energy              =     -48.20193118 Ry
     estimated scf accuracy    <       0.01192924 Ry

     iteration #  3     ecut=    90.00 Ry     beta= 0.70
     Davidson diagonalization with overlap

---- Real-time Memory Report at c_bands before calling an iterative solver
           134 MiB given to the printing process from OS
             0 MiB allocation reported by mallinfo(arena+hblkhd)
         29320 MiB available memory on the node where the printing process lives
------------------
     ethr =  7.46E-05,  avg # of iterations = 12.1

     total cpu time spent up to now is       19.9 secs

     total energy              =     -48.20268611 Ry
     estimated scf accuracy    <       0.02320270 Ry

     iteration #  4     ecut=    90.00 Ry     beta= 0.70
     Davidson diagonalization with overlap

---- Real-time Memory Report at c_bands before calling an iterative solver
           137 MiB given to the printing process from OS
             0 MiB allocation reported by mallinfo(arena+hblkhd)
         29307 MiB available memory on the node where the printing process lives
------------------
     ethr =  7.46E-05,  avg # of iterations =  8.0

     total cpu time spent up to now is       24.4 secs

     total energy              =     -48.20768380 Ry
     estimated scf accuracy    <       0.00020182 Ry

     iteration #  5     ecut=    90.00 Ry     beta= 0.70
     Davidson diagonalization with overlap

---- Real-time Memory Report at c_bands before calling an iterative solver
           139 MiB given to the printing process from OS
             0 MiB allocation reported by mallinfo(arena+hblkhd)
         29345 MiB available memory on the node where the printing process lives
------------------
     ethr =  1.26E-06,  avg # of iterations = 10.8

     total cpu time spent up to now is       30.1 secs

     total energy              =     -48.20771184 Ry
     estimated scf accuracy    <       0.00004275 Ry

     iteration #  6     ecut=    90.00 Ry     beta= 0.70
     Davidson diagonalization with overlap

---- Real-time Memory Report at c_bands before calling an iterative solver
           142 MiB given to the printing process from OS
             0 MiB allocation reported by mallinfo(arena+hblkhd)
         29292 MiB available memory on the node where the printing process lives
------------------
     ethr =  2.67E-07,  avg # of iterations =  2.5

     total cpu time spent up to now is       32.9 secs

     total energy              =     -48.20772091 Ry
     estimated scf accuracy    <       0.00000351 Ry

     iteration #  7     ecut=    90.00 Ry     beta= 0.70
     Davidson diagonalization with overlap

---- Real-time Memory Report at c_bands before calling an iterative solver
           145 MiB given to the printing process from OS
             0 MiB allocation reported by mallinfo(arena+hblkhd)
         29289 MiB available memory on the node where the printing process lives
------------------
     ethr =  2.19E-08,  avg # of iterations =  2.1

     total cpu time spent up to now is       36.1 secs

     total energy              =     -48.20772186 Ry
     estimated scf accuracy    <       0.00000043 Ry

     iteration #  8     ecut=    90.00 Ry     beta= 0.70
     Davidson diagonalization with overlap

---- Real-time Memory Report at c_bands before calling an iterative solver
           148 MiB given to the printing process from OS
             0 MiB allocation reported by mallinfo(arena+hblkhd)
         29296 MiB available memory on the node where the printing process lives
------------------
     ethr =  2.68E-09,  avg # of iterations =  2.2

     total cpu time spent up to now is       39.8 secs

     total energy              =     -48.20772196 Ry
     estimated scf accuracy    <       0.00000002 Ry

     iteration #  9     ecut=    90.00 Ry     beta= 0.70
     Davidson diagonalization with overlap

---- Real-time Memory Report at c_bands before calling an iterative solver
           151 MiB given to the printing process from OS
             0 MiB allocation reported by mallinfo(arena+hblkhd)
         29299 MiB available memory on the node where the printing process lives
------------------
     ethr =  9.95E-11,  avg # of iterations =  3.6

     total cpu time spent up to now is       44.2 secs

     End of self-consistent calculation

          k = 0.0000 0.0000 0.0000 ( 11659 PWs)   bands (ev):

   -20.3847 -20.1861  -8.8496  -7.8603  -3.7987  -3.7987  -3.6784  -3.6784
     1.6919   2.3049   3.3534   3.7378   5.0370   6.1740

     occupation numbers 
     1.0000   1.0000   1.0000   1.0000   1.0000   1.0000   1.0000   1.0000
     0.0000   0.0000   0.0000   0.0000   0.0000   0.0000

          k = 0.0000 0.0770 0.0000 ( 11791 PWs)   bands (ev):

   -20.2789 -20.0812  -8.7214  -7.7361  -4.2252  -4.1040  -4.0235  -3.9027
     1.8390   2.4493   3.4957   3.8816   5.1789   6.3129

     occupation numbers 
     1.0000   1.0000   1.0000   1.0000   1.0000   1.0000   1.0000   1.0000
     0.0000   0.0000   0.0000   0.0000   0.0000   0.0000

          k = 0.0000 0.1540 0.0000 ( 11788 PWs)   bands (ev):

   -19.9625 -19.7670  -8.3388  -7.3658  -5.3591  -5.2353  -4.5933  -4.4715
     2.2802   2.8822   3.9224   4.3127   5.6042   6.7256

     occupation numbers 
     1.0000   1.0000   1.0000   1.0000   1.0000   1.0000   1.0000   1.0000
     0.0000   0.0000   0.0000   0.0000   0.0000   0.0000

          k = 0.0000 0.2309 0.0000 ( 11848 PWs)   bands (ev):

   -19.4375 -19.2458  -7.7082  -6.9156  -6.7880  -6.7561  -5.3058  -5.1830
     3.0153   3.6028   4.6321   5.0290   6.3070   7.3631

     occupation numbers 
     1.0000   1.0000   1.0000   1.0000   1.0000   1.0000   1.0000   1.0000
     0.0000   0.0000   0.0000   0.0000   0.0000   0.0000

          k = 0.0000 0.3079 0.0000 ( 11876 PWs)   bands (ev):

   -18.7083 -18.5217  -8.6580  -8.5239  -6.8430  -5.9992  -5.9275  -5.8757
     4.0440   4.6053   5.6085   5.8698   6.1202   6.3152

     occupation numbers 
     1.0000   1.0000   1.0000   1.0000   1.0000   1.0000   1.0000   1.0000
     0.0000   0.0000   0.0000   0.0000   0.0000   0.0000

          k = 0.0000 0.3849 0.0000 ( 11914 PWs)   bands (ev):

   -17.7821 -17.6019 -10.4340 -10.2930  -6.5761  -6.4521  -5.7728  -4.9155
     4.0121   4.4946   5.3687   5.9082   6.8492   7.0476

     occupation numbers 
     1.0000   1.0000   1.0000   1.0000   1.0000   1.0000   1.0000   1.0000
     0.0000   0.0000   0.0000   0.0000   0.0000   0.0000

          k = 0.0000 0.4619 0.0000 ( 11910 PWs)   bands (ev):

   -16.6749 -16.5024 -12.1438 -11.9958  -6.9832  -6.8589  -4.5718  -3.8254
     2.2349   2.7662   6.8241   6.9841   7.0555   7.4981

     occupation numbers 
     1.0000   1.0000   1.0000   1.0000   1.0000   1.0000   1.0000   1.0000
     0.0000   0.0000   0.0000   0.0000   0.0000   0.0000

          k = 0.0000 0.5389 0.0000 ( 11924 PWs)   bands (ev):

   -15.4595 -15.3010 -13.6639 -13.5150  -7.1926  -7.0681  -3.4995  -3.0062
     1.0111   1.4524   6.7236   6.9627   8.8888   9.3234

     occupation numbers 
     1.0000   1.0000   1.0000   1.0000   1.0000   1.0000   1.0000   1.0000
     0.0000   0.0000   0.0000   0.0000   0.0000   0.0000

          k = 0.0667 0.0385 0.0000 ( 11791 PWs)   bands (ev):

   -20.2789 -20.0812  -8.7214  -7.7361  -4.2252  -4.1040  -4.0235  -3.9027
     1.8390   2.4493   3.4957   3.8816   5.1789   6.3126

     occupation numbers 
     1.0000   1.0000   1.0000   1.0000   1.0000   1.0000   1.0000   1.0000
     0.0000   0.0000   0.0000   0.0000   0.0000   0.0000

          k = 0.0667 0.1155 0.0000 ( 11813 PWs)   bands (ev):

   -20.0678 -19.8716  -8.4660  -7.4888  -4.9530  -4.8315  -4.4727  -4.3518
     2.1331   2.7380   3.7803   4.1691   5.4628   6.5895

     occupation numbers 
     1.0000   1.0000   1.0000   1.0000   1.0000   1.0000   1.0000   1.0000
     0.0000   0.0000   0.0000   0.0000   0.0000   0.0000

          k = 0.0667 0.1925 0.0000 ( 11832 PWs)   bands (ev):

   -19.6471 -19.4540  -7.9592  -6.9990  -6.2081  -6.0836  -5.2054  -5.0832
     2.7213   3.3150   4.3491   4.7435   6.0293   7.1361

     occupation numbers 
     1.0000   1.0000   1.0000   1.0000   1.0000   1.0000   1.0000   1.0000
     0.0000   0.0000   0.0000   0.0000   0.0000   0.0000

          k = 0.0667 0.2694 0.0000 ( 11880 PWs)   bands (ev):

   -19.0200 -18.8313  -7.7989  -7.6690  -7.2101  -6.2784  -5.9690  -5.8452
     3.6033   4.1783   5.1989   5.5982   6.7563   6.8543

     occupation numbers 
     1.0000   1.0000   1.0000   1.0000   1.0000   1.0000   1.0000   1.0000
     0.0000   0.0000   0.0000   0.0000   0.0000   0.0000

          k = 0.0667 0.3464 0.0000 ( 11910 PWs)   bands (ev):

   -18.1922 -18.0093  -9.5274  -9.3908  -6.6355  -6.5107  -6.2389  -5.3522
     4.7694   4.8918   5.2930   5.3599   6.3295   6.7588

     occupation numbers 
     1.0000   1.0000   1.0000   1.0000   1.0000   1.0000   1.0000   1.0000
     0.0000   0.0000   0.0000   0.0000   0.0000   0.0000

          k = 0.0667 0.4234 0.0000 ( 11938 PWs)   bands (ev):

   -17.1744 -16.9983 -11.2563 -11.1124  -7.1425  -7.0170  -5.0897  -4.2805
     3.0548   3.5476   6.2487   6.7572   7.3887   7.5536

     occupation numbers 
     1.0000   1.0000   1.0000   1.0000   1.0000   1.0000   1.0000   1.0000
     0.0000   0.0000   0.0000   0.0000   0.0000   0.0000

          k = 0.0667 0.5004 0.0000 ( 11920 PWs)   bands (ev):

   -15.9953 -15.8284 -12.8838 -12.7339  -7.4572  -7.3314  -3.8931  -3.2496
     1.4908   1.9819   7.2278   7.4679   8.0101   8.4773

     occupation numbers 
     1.0000   1.0000   1.0000   1.0000   1.0000   1.0000   1.0000   1.0000
     0.0000   0.0000   0.0000   0.0000   0.0000   0.0000

          k = 0.0667 0.5774 0.0000 ( 11913 PWs)   bands (ev):

   -15.0144 -14.8770 -13.9947 -13.8625  -7.5637  -7.4378  -3.1889  -2.8039
     0.8259   1.1837   7.1741   7.4204  10.0475  10.0590

     occupation numbers 
     1.0000   1.0000   1.0000   1.0000   1.0000   1.0000   1.0000   1.0000
     0.0000   0.0000   0.0000   0.0000   0.0000   0.0000

          k = 0.0667-0.5004 0.0000 ( 11920 PWs)   bands (ev):

   -15.9953 -15.8284 -12.8838 -12.7339  -7.4572  -7.3314  -3.8931  -3.2496
     1.4908   1.9819   7.2278   7.4679   8.0101   8.4773

     occupation numbers 
     1.0000   1.0000   1.0000   1.0000   1.0000   1.0000   1.0000   1.0000
     0.0000   0.0000   0.0000   0.0000   0.0000   0.0000

          k = 0.0667-0.4234 0.0000 ( 11938 PWs)   bands (ev):

   -17.1744 -16.9983 -11.2563 -11.1124  -7.1425  -7.0170  -5.0897  -4.2805
     3.0548   3.5476   6.2487   6.7572   7.3887   7.5540

     occupation numbers 
     1.0000   1.0000   1.0000   1.0000   1.0000   1.0000   1.0000   1.0000
     0.0000   0.0000   0.0000   0.0000   0.0000   0.0000

          k = 0.0667-0.3464 0.0000 ( 11910 PWs)   bands (ev):

   -18.1922 -18.0093  -9.5274  -9.3908  -6.6355  -6.5107  -6.2389  -5.3522
     4.7694   4.8918   5.2930   5.3599   6.3295   6.7589

     occupation numbers 
     1.0000   1.0000   1.0000   1.0000   1.0000   1.0000   1.0000   1.0000
     0.0000   0.0000   0.0000   0.0000   0.0000   0.0000

          k = 0.0667-0.2694 0.0000 ( 11880 PWs)   bands (ev):

   -19.0200 -18.8313  -7.7989  -7.6690  -7.2101  -6.2784  -5.9690  -5.8452
     3.6033   4.1783   5.1989   5.5982   6.7562   6.8535

     occupation numbers 
     1.0000   1.0000   1.0000   1.0000   1.0000   1.0000   1.0000   1.0000
     0.0000   0.0000   0.0000   0.0000   0.0000   0.0000

          k = 0.0667-0.1925 0.0000 ( 11832 PWs)   bands (ev):

   -19.6471 -19.4540  -7.9592  -6.9990  -6.2081  -6.0836  -5.2054  -5.0832
     2.7213   3.3150   4.3491   4.7435   6.0292   7.1362

     occupation numbers 
     1.0000   1.0000   1.0000   1.0000   1.0000   1.0000   1.0000   1.0000
     0.0000   0.0000   0.0000   0.0000   0.0000   0.0000

          k = 0.0667-0.1155 0.0000 ( 11813 PWs)   bands (ev):

   -20.0678 -19.8716  -8.4660  -7.4888  -4.9530  -4.8315  -4.4727  -4.3518
     2.1331   2.7380   3.7803   4.1691   5.4627   6.5894

     occupation numbers 
     1.0000   1.0000   1.0000   1.0000   1.0000   1.0000   1.0000   1.0000
     0.0000   0.0000   0.0000   0.0000   0.0000   0.0000

          k = 0.0667-0.0385 0.0000 ( 11791 PWs)   bands (ev):

   -20.2789 -20.0812  -8.7214  -7.7361  -4.2252  -4.1040  -4.0235  -3.9027
     1.8390   2.4493   3.4957   3.8817   5.1789   6.3127

     occupation numbers 
     1.0000   1.0000   1.0000   1.0000   1.0000   1.0000   1.0000   1.0000
     0.0000   0.0000   0.0000   0.0000   0.0000   0.0000

          k = 0.1333 0.0770 0.0000 ( 11788 PWs)   bands (ev):

   -19.9625 -19.7670  -8.3388  -7.3658  -5.3591  -5.2353  -4.5933  -4.4715
     2.2802   2.8822   3.9224   4.3127   5.6041   6.7254

     occupation numbers 
     1.0000   1.0000   1.0000   1.0000   1.0000   1.0000   1.0000   1.0000
     0.0000   0.0000   0.0000   0.0000   0.0000   0.0000

          k = 0.1333 0.1540 0.0000 ( 11832 PWs)   bands (ev):

   -19.6471 -19.4540  -7.9592  -6.9990  -6.2081  -6.0836  -5.2054  -5.0832
     2.7213   3.3150   4.3491   4.7435   6.0292   7.1362

     occupation numbers 
     1.0000   1.0000   1.0000   1.0000   1.0000   1.0000   1.0000   1.0000
     0.0000   0.0000   0.0000   0.0000   0.0000   0.0000

          k = 0.1333 0.2309 0.0000 ( 11879 PWs)   bands (ev):

   -19.1243 -18.9349  -7.3351  -7.3106  -7.1876  -6.3963  -6.1737  -6.0511
     3.4564   4.0354   5.0593   5.4602   6.7363   7.0799

     occupation numbers 
     1.0000   1.0000   1.0000   1.0000   1.0000   1.0000   1.0000   1.0000
     0.0000   0.0000   0.0000   0.0000   0.0000   0.0000

          k = 0.1333 0.3079 0.0000 ( 11929 PWs)   bands (ev):

   -18.3986 -18.2142  -8.7139  -8.5848  -7.0864  -6.9613  -6.4749  -5.5743
     4.4850   5.0380   5.4958   5.7955   6.0505   6.4639

     occupation numbers 
     1.0000   1.0000   1.0000   1.0000   1.0000   1.0000   1.0000   1.0000
     0.0000   0.0000   0.0000   0.0000   0.0000   0.0000

          k = 0.1333 0.3849 0.0000 ( 11925 PWs)   bands (ev):

   -17.4783 -17.3002 -10.3149 -10.1775  -7.7658  -7.6381  -5.4117  -4.5691
     3.7700   4.1574   5.8076   6.3306   7.3082   7.7401

     occupation numbers 
     1.0000   1.0000   1.0000   1.0000   1.0000   1.0000   1.0000   1.0000
     0.0000   0.0000   0.0000   0.0000   0.0000   0.0000

          k = 0.1333 0.4619 0.0000 ( 11927 PWs)   bands (ev):

   -16.3805 -16.2101 -11.9371 -11.7919  -8.2139  -8.0849  -4.2128  -3.4756
     2.1074   2.5552   7.4206   7.8859   8.5352   8.7137

     occupation numbers 
     1.0000   1.0000   1.0000   1.0000   1.0000   1.0000   1.0000   1.0000
     0.0000   0.0000   0.0000   0.0000   0.0000   0.0000

          k = 0.1333 0.5389 0.0000 ( 11935 PWs)   bands (ev):

   -15.1809 -15.0242 -13.4106 -13.2639  -8.4378  -8.3081  -3.1228  -2.6293
     0.9231   1.2807   8.4260   8.6988   9.3202   9.7098

     occupation numbers 
     1.0000   1.0000   1.0000   1.0000   1.0000   1.0000   1.0000   1.0000
     0.0000   0.0000   0.0000   0.0000   0.0000   0.0000

          k = 0.1333 0.6158 0.0000 ( 11935 PWs)   bands (ev):

   -15.1809 -15.0242 -13.4106 -13.2639  -8.4378  -8.3081  -3.1228  -2.6293
     0.9231   1.2807   8.4260   8.6988   9.3202   9.7097

     occupation numbers 
     1.0000   1.0000   1.0000   1.0000   1.0000   1.0000   1.0000   1.0000
     0.0000   0.0000   0.0000   0.0000   0.0000   0.0000

          k = 0.1333-0.4619 0.0000 ( 11927 PWs)   bands (ev):

   -16.3805 -16.2101 -11.9371 -11.7919  -8.2139  -8.0849  -4.2128  -3.4756
     2.1074   2.5552   7.4206   7.8859   8.5352   8.7141

     occupation numbers 
     1.0000   1.0000   1.0000   1.0000   1.0000   1.0000   1.0000   1.0000
     0.0000   0.0000   0.0000   0.0000   0.0000   0.0000

          k = 0.1333-0.3849 0.0000 ( 11925 PWs)   bands (ev):

   -17.4783 -17.3002 -10.3149 -10.1775  -7.7658  -7.6381  -5.4117  -4.5691
     3.7700   4.1574   5.8076   6.3306   7.3082   7.7398

     occupation numbers 
     1.0000   1.0000   1.0000   1.0000   1.0000   1.0000   1.0000   1.0000
     0.0000   0.0000   0.0000   0.0000   0.0000   0.0000

          k = 0.1333-0.3079 0.0000 ( 11929 PWs)   bands (ev):

   -18.3986 -18.2142  -8.7139  -8.5848  -7.0864  -6.9613  -6.4749  -5.5743
     4.4850   5.0380   5.4958   5.7955   6.0505   6.4639

     occupation numbers 
     1.0000   1.0000   1.0000   1.0000   1.0000   1.0000   1.0000   1.0000
     0.0000   0.0000   0.0000   0.0000   0.0000   0.0000

          k = 0.1333-0.2309 0.0000 ( 11879 PWs)   bands (ev):

   -19.1243 -18.9349  -7.3351  -7.3106  -7.1876  -6.3963  -6.1737  -6.0511
     3.4564   4.0354   5.0593   5.4602   6.7363   7.0799

     occupation numbers 
     1.0000   1.0000   1.0000   1.0000   1.0000   1.0000   1.0000   1.0000
     0.0000   0.0000   0.0000   0.0000   0.0000   0.0000

          k = 0.1333-0.1540 0.0000 ( 11832 PWs)   bands (ev):

   -19.6471 -19.4540  -7.9592  -6.9990  -6.2081  -6.0836  -5.2054  -5.0832
     2.7213   3.3150   4.3491   4.7435   6.0292   7.1362

     occupation numbers 
     1.0000   1.0000   1.0000   1.0000   1.0000   1.0000   1.0000   1.0000
     0.0000   0.0000   0.0000   0.0000   0.0000   0.0000

          k = 0.1333-0.0770 0.0000 ( 11788 PWs)   bands (ev):

   -19.9625 -19.7670  -8.3388  -7.3658  -5.3591  -5.2353  -4.5933  -4.4715
     2.2802   2.8822   3.9224   4.3127   5.6042   6.7255

     occupation numbers 
     1.0000   1.0000   1.0000   1.0000   1.0000   1.0000   1.0000   1.0000
     0.0000   0.0000   0.0000   0.0000   0.0000   0.0000

          k = 0.1333 0.0000 0.0000 ( 11813 PWs)   bands (ev):

   -20.0678 -19.8716  -8.4660  -7.4888  -4.9530  -4.8315  -4.4727  -4.3518
     2.1331   2.7380   3.7803   4.1691   5.4627   6.5895

     occupation numbers 
     1.0000   1.0000   1.0000   1.0000   1.0000   1.0000   1.0000   1.0000
     0.0000   0.0000   0.0000   0.0000   0.0000   0.0000

          k = 0.2000 0.1155 0.0000 ( 11848 PWs)   bands (ev):

   -19.4375 -19.2458  -7.7082  -6.9156  -6.7880  -6.7561  -5.3058  -5.1830
     3.0153   3.6028   4.6321   5.0290   6.3070   7.3629

     occupation numbers 
     1.0000   1.0000   1.0000   1.0000   1.0000   1.0000   1.0000   1.0000
     0.0000   0.0000   0.0000   0.0000   0.0000   0.0000

          k = 0.2000 0.1925 0.0000 ( 11880 PWs)   bands (ev):

   -19.0200 -18.8313  -7.7989  -7.6690  -7.2101  -6.2784  -5.9690  -5.8452
     3.6033   4.1783   5.1989   5.5982   6.7565   6.8545

     occupation numbers 
     1.0000   1.0000   1.0000   1.0000   1.0000   1.0000   1.0000   1.0000
     0.0000   0.0000   0.0000   0.0000   0.0000   0.0000

          k = 0.2000 0.2694 0.0000 ( 11929 PWs)   bands (ev):

   -18.3986 -18.2142  -8.7139  -8.5848  -7.0864  -6.9613  -6.4749  -5.5743
     4.4850   5.0380   5.4958   5.7955   6.0505   6.4639

     occupation numbers 
     1.0000   1.0000   1.0000   1.0000   1.0000   1.0000   1.0000   1.0000
     0.0000   0.0000   0.0000   0.0000   0.0000   0.0000

          k = 0.2000 0.3464 0.0000 ( 11953 PWs)   bands (ev):

   -17.5803 -17.4015  -9.7293  -9.6020  -8.2654  -8.1403  -5.5208  -4.6676
     4.0821   4.3864   5.6600   6.1842   7.1692   7.5910

     occupation numbers 
     1.0000   1.0000   1.0000   1.0000   1.0000   1.0000   1.0000   1.0000
     0.0000   0.0000   0.0000   0.0000   0.0000   0.0000

          k = 0.2000 0.4234 0.0000 ( 11949 PWs)   bands (ev):

   -16.5779 -16.4059 -11.0211 -10.8863  -9.0913  -8.9621  -4.3866  -3.6077
     2.5767   2.9249   7.1260   7.5982   8.5348   8.9773

     occupation numbers 
     1.0000   1.0000   1.0000   1.0000   1.0000   1.0000   1.0000   1.0000
     0.0000   0.0000   0.0000   0.0000   0.0000   0.0000

          k = 0.2000 0.5004 0.0000 ( 11953 PWs)   bands (ev):

   -15.4242 -15.2612 -12.4579 -12.3139  -9.5215  -9.3886  -3.1794  -2.5443
     1.1796   1.5428   8.8734   9.2483   9.9610  10.1528

     occupation numbers 
     1.0000   1.0000   1.0000   1.0000   1.0000   1.0000   1.0000   1.0000
     0.0000   0.0000   0.0000   0.0000   0.0000   0.0000

          k = 0.2000 0.5774 0.0000 ( 11949 PWs)   bands (ev):

   -14.4739 -14.3379 -13.4978 -13.3683  -9.6553  -9.5214  -2.4186  -2.0411
     0.5561   0.7236  10.0168  10.3297  10.5739  10.7788

     occupation numbers 
     1.0000   1.0000   1.0000   1.0000   1.0000   1.0000   1.0000   1.0000
     0.0000   0.0000   0.0000   0.0000   0.0000   0.0000

          k = 0.2000 0.6543 0.0000 ( 11953 PWs)   bands (ev):

   -15.4242 -15.2612 -12.4579 -12.3139  -9.5215  -9.3886  -3.1794  -2.5443
     1.1796   1.5428   8.8734   9.2484   9.9610  10.1526

     occupation numbers 
     1.0000   1.0000   1.0000   1.0000   1.0000   1.0000   1.0000   1.0000
     0.0000   0.0000   0.0000   0.0000   0.0000   0.0000

          k = 0.2000-0.4234 0.0000 ( 11949 PWs)   bands (ev):

   -16.5779 -16.4059 -11.0211 -10.8863  -9.0913  -8.9621  -4.3866  -3.6077
     2.5768   2.9249   7.1260   7.5983   8.5348   8.9772

     occupation numbers 
     1.0000   1.0000   1.0000   1.0000   1.0000   1.0000   1.0000   1.0000
     0.0000   0.0000   0.0000   0.0000   0.0000   0.0000

          k = 0.2000-0.3464 0.0000 ( 11953 PWs)   bands (ev):

   -17.5803 -17.4015  -9.7293  -9.6020  -8.2654  -8.1403  -5.5208  -4.6676
     4.0821   4.3864   5.6600   6.1842   7.1692   7.5910

     occupation numbers 
     1.0000   1.0000   1.0000   1.0000   1.0000   1.0000   1.0000   1.0000
     0.0000   0.0000   0.0000   0.0000   0.0000   0.0000

          k = 0.2000-0.2694 0.0000 ( 11929 PWs)   bands (ev):

   -18.3986 -18.2142  -8.7139  -8.5848  -7.0864  -6.9613  -6.4749  -5.5743
     4.4850   5.0380   5.4958   5.7955   6.0505   6.4639

     occupation numbers 
     1.0000   1.0000   1.0000   1.0000   1.0000   1.0000   1.0000   1.0000
     0.0000   0.0000   0.0000   0.0000   0.0000   0.0000

          k = 0.2000-0.1925 0.0000 ( 11880 PWs)   bands (ev):

   -19.0200 -18.8313  -7.7989  -7.6690  -7.2101  -6.2784  -5.9690  -5.8452
     3.6033   4.1783   5.1989   5.5982   6.7573   6.8544

     occupation numbers 
     1.0000   1.0000   1.0000   1.0000   1.0000   1.0000   1.0000   1.0000
     0.0000   0.0000   0.0000   0.0000   0.0000   0.0000

          k = 0.2000-0.1155 0.0000 ( 11848 PWs)   bands (ev):

   -19.4375 -19.2458  -7.7082  -6.9156  -6.7880  -6.7561  -5.3058  -5.1830
     3.0153   3.6028   4.6321   5.0290   6.3070   7.3626

     occupation numbers 
     1.0000   1.0000   1.0000   1.0000   1.0000   1.0000   1.0000   1.0000
     0.0000   0.0000   0.0000   0.0000   0.0000   0.0000

          k = 0.2000-0.0385 0.0000 ( 11832 PWs)   bands (ev):

   -19.6471 -19.4540  -7.9592  -6.9990  -6.2081  -6.0836  -5.2054  -5.0832
     2.7213   3.3150   4.3491   4.7435   6.0293   7.1361

     occupation numbers 
     1.0000   1.0000   1.0000   1.0000   1.0000   1.0000   1.0000   1.0000
     0.0000   0.0000   0.0000   0.0000   0.0000   0.0000

          k = 0.2000 0.0385 0.0000 ( 11832 PWs)   bands (ev):

   -19.6471 -19.4540  -7.9592  -6.9990  -6.2081  -6.0836  -5.2054  -5.0832
     2.7213   3.3150   4.3491   4.7435   6.0293   7.1362

     occupation numbers 
     1.0000   1.0000   1.0000   1.0000   1.0000   1.0000   1.0000   1.0000
     0.0000   0.0000   0.0000   0.0000   0.0000   0.0000

          k = 0.2667 0.1540 0.0000 ( 11876 PWs)   bands (ev):

   -18.7083 -18.5217  -8.6580  -8.5239  -6.8430  -5.9992  -5.9275  -5.8757
     4.0440   4.6053   5.6086   5.8698   6.1202   6.3152

     occupation numbers 
     1.0000   1.0000   1.0000   1.0000   1.0000   1.0000   1.0000   1.0000
     0.0000   0.0000   0.0000   0.0000   0.0000   0.0000

          k = 0.2667 0.2309 0.0000 ( 11910 PWs)   bands (ev):

   -18.1922 -18.0093  -9.5274  -9.3908  -6.6355  -6.5107  -6.2389  -5.3522
     4.7694   4.8918   5.2930   5.3599   6.3295   6.7586

     occupation numbers 
     1.0000   1.0000   1.0000   1.0000   1.0000   1.0000   1.0000   1.0000
     0.0000   0.0000   0.0000   0.0000   0.0000   0.0000

          k = 0.2667 0.3079 0.0000 ( 11925 PWs)   bands (ev):

   -17.4783 -17.3002 -10.3149 -10.1775  -7.7658  -7.6381  -5.4117  -4.5691
     3.7700   4.1574   5.8076   6.3306   7.3082   7.7400

     occupation numbers 
     1.0000   1.0000   1.0000   1.0000   1.0000   1.0000   1.0000   1.0000
     0.0000   0.0000   0.0000   0.0000   0.0000   0.0000

          k = 0.2667 0.3849 0.0000 ( 11949 PWs)   bands (ev):

   -16.5779 -16.4059 -11.0211 -10.8863  -9.0913  -8.9621  -4.3866  -3.6077
     2.5767   2.9249   7.1260   7.5983   8.5348   8.9773

     occupation numbers 
     1.0000   1.0000   1.0000   1.0000   1.0000   1.0000   1.0000   1.0000
     0.0000   0.0000   0.0000   0.0000   0.0000   0.0000

          k = 0.2667 0.4619 0.0000 ( 11961 PWs)   bands (ev):

   -15.5136 -15.3493 -11.8010 -11.6705 -10.2216 -10.0942  -3.2129  -2.5275
     1.3262   1.6695   8.7236   9.0939   9.8351  10.3048

     occupation numbers 
     1.0000   1.0000   1.0000   1.0000   1.0000   1.0000   1.0000   1.0000
     0.0000   0.0000   0.0000   0.0000   0.0000   0.0000

          k = 0.2667 0.5389 0.0000 ( 11948 PWs)   bands (ev):

   -14.3642 -14.2124 -12.8552 -12.7187 -10.7676 -10.6355  -2.0489  -1.5477
     0.2162   0.5210   9.9711  10.2456  10.6804  10.9949

     occupation numbers 
     1.0000   1.0000   1.0000   1.0000   1.0000   1.0000   1.0000   1.0000
     0.0000   0.0000   0.0000   0.0000   0.0000   0.0000

          k = 0.2667 0.6158 0.0000 ( 11948 PWs)   bands (ev):

   -14.3642 -14.2124 -12.8552 -12.7187 -10.7676 -10.6355  -2.0489  -1.5477
     0.2162   0.5210   9.9711  10.2456  10.6804  10.9950

     occupation numbers 
     1.0000   1.0000   1.0000   1.0000   1.0000   1.0000   1.0000   1.0000
     0.0000   0.0000   0.0000   0.0000   0.0000   0.0000

          k = 0.2667 0.6928 0.0000 ( 11961 PWs)   bands (ev):

   -15.5136 -15.3493 -11.8010 -11.6705 -10.2216 -10.0942  -3.2129  -2.5275
     1.3262   1.6695   8.7236   9.0939   9.8351  10.3048

     occupation numbers 
     1.0000   1.0000   1.0000   1.0000   1.0000   1.0000   1.0000   1.0000
     0.0000   0.0000   0.0000   0.0000   0.0000   0.0000

          k = 0.2667-0.3849 0.0000 ( 11949 PWs)   bands (ev):

   -16.5779 -16.4059 -11.0211 -10.8863  -9.0913  -8.9621  -4.3866  -3.6077
     2.5768   2.9249   7.1260   7.5982   8.5348   8.9772

     occupation numbers 
     1.0000   1.0000   1.0000   1.0000   1.0000   1.0000   1.0000   1.0000
     0.0000   0.0000   0.0000   0.0000   0.0000   0.0000

          k = 0.2667-0.3079 0.0000 ( 11925 PWs)   bands (ev):

   -17.4783 -17.3002 -10.3149 -10.1775  -7.7658  -7.6381  -5.4117  -4.5691
     3.7700   4.1574   5.8076   6.3306   7.3082   7.7399

     occupation numbers 
     1.0000   1.0000   1.0000   1.0000   1.0000   1.0000   1.0000   1.0000
     0.0000   0.0000   0.0000   0.0000   0.0000   0.0000

          k = 0.2667-0.2309 0.0000 ( 11910 PWs)   bands (ev):

   -18.1922 -18.0093  -9.5274  -9.3908  -6.6355  -6.5107  -6.2389  -5.3522
     4.7694   4.8918   5.2930   5.3599   6.3295   6.7589

     occupation numbers 
     1.0000   1.0000   1.0000   1.0000   1.0000   1.0000   1.0000   1.0000
     0.0000   0.0000   0.0000   0.0000   0.0000   0.0000

          k = 0.2667-0.1540 0.0000 ( 11876 PWs)   bands (ev):

   -18.7083 -18.5217  -8.6580  -8.5239  -6.8430  -5.9992  -5.9275  -5.8757
     4.0440   4.6053   5.6086   5.8698   6.1201   6.3152

     occupation numbers 
     1.0000   1.0000   1.0000   1.0000   1.0000   1.0000   1.0000   1.0000
     0.0000   0.0000   0.0000   0.0000   0.0000   0.0000

          k = 0.2667-0.0770 0.0000 ( 11880 PWs)   bands (ev):

   -19.0200 -18.8313  -7.7989  -7.6690  -7.2101  -6.2784  -5.9690  -5.8452
     3.6033   4.1783   5.1989   5.5982   6.7563   6.8536

     occupation numbers 
     1.0000   1.0000   1.0000   1.0000   1.0000   1.0000   1.0000   1.0000
     0.0000   0.0000   0.0000   0.0000   0.0000   0.0000

          k = 0.2667 0.0000 0.0000 ( 11879 PWs)   bands (ev):

   -19.1243 -18.9349  -7.3351  -7.3106  -7.1876  -6.3963  -6.1737  -6.0511
     3.4564   4.0354   5.0593   5.4602   6.7362   7.0800

     occupation numbers 
     1.0000   1.0000   1.0000   1.0000   1.0000   1.0000   1.0000   1.0000
     0.0000   0.0000   0.0000   0.0000   0.0000   0.0000

          k = 0.2667 0.0770 0.0000 ( 11880 PWs)   bands (ev):

   -19.0200 -18.8313  -7.7989  -7.6690  -7.2101  -6.2784  -5.9690  -5.8452
     3.6033   4.1783   5.1989   5.5982   6.7564   6.8545

     occupation numbers 
     1.0000   1.0000   1.0000   1.0000   1.0000   1.0000   1.0000   1.0000
     0.0000   0.0000   0.0000   0.0000   0.0000   0.0000

          k = 0.3333 0.1925 0.0000 ( 11914 PWs)   bands (ev):

   -17.7821 -17.6019 -10.4340 -10.2930  -6.5761  -6.4521  -5.7728  -4.9155
     4.0121   4.4946   5.3687   5.9082   6.8493   7.0475

     occupation numbers 
     1.0000   1.0000   1.0000   1.0000   1.0000   1.0000   1.0000   1.0000
     0.0000   0.0000   0.0000   0.0000   0.0000   0.0000

          k = 0.3333 0.2694 0.0000 ( 11938 PWs)   bands (ev):

   -17.1744 -16.9983 -11.2563 -11.1124  -7.1425  -7.0170  -5.0897  -4.2805
     3.0548   3.5476   6.2487   6.7572   7.3887   7.5535

     occupation numbers 
     1.0000   1.0000   1.0000   1.0000   1.0000   1.0000   1.0000   1.0000
     0.0000   0.0000   0.0000   0.0000   0.0000   0.0000

          k = 0.3333 0.3464 0.0000 ( 11927 PWs)   bands (ev):

   -16.3805 -16.2101 -11.9371 -11.7919  -8.2139  -8.0849  -4.2128  -3.4756
     2.1074   2.5552   7.4206   7.8859   8.5352   8.7137

     occupation numbers 
     1.0000   1.0000   1.0000   1.0000   1.0000   1.0000   1.0000   1.0000
     0.0000   0.0000   0.0000   0.0000   0.0000   0.0000

          k = 0.3333 0.4234 0.0000 ( 11953 PWs)   bands (ev):

   -15.4242 -15.2612 -12.4579 -12.3139  -9.5215  -9.3886  -3.1794  -2.5443
     1.1796   1.5428   8.8734   9.2484   9.9610  10.1528

     occupation numbers 
     1.0000   1.0000   1.0000   1.0000   1.0000   1.0000   1.0000   1.0000
     0.0000   0.0000   0.0000   0.0000   0.0000   0.0000

          k = 0.3333 0.5004 0.0000 ( 11948 PWs)   bands (ev):

   -14.3642 -14.2124 -12.8552 -12.7187 -10.7676 -10.6355  -2.0489  -1.5477
     0.2162   0.5210   9.9711  10.2456  10.6804  10.9950

     occupation numbers 
     1.0000   1.0000   1.0000   1.0000   1.0000   1.0000   1.0000   1.0000
     0.0000   0.0000   0.0000   0.0000   0.0000   0.0000

          k = 0.3333 0.5774 0.0000 ( 11919 PWs)   bands (ev):

   -13.4103 -13.3907 -13.2670 -13.2520 -11.3874 -11.2626  -1.0380  -0.7714
    -0.6312  -0.3443   9.8316  10.0379  11.9261  12.2681

     occupation numbers 
     1.0000   1.0000   1.0000   1.0000   1.0000   1.0000   0.9998   0.7671
     0.2331   0.0001   0.0000   0.0000   0.0000   0.0000

          k = 0.3333 0.6543 0.0000 ( 11948 PWs)   bands (ev):

   -14.3642 -14.2124 -12.8552 -12.7187 -10.7676 -10.6355  -2.0489  -1.5477
     0.2162   0.5210   9.9711  10.2456  10.6804  10.9949

     occupation numbers 
     1.0000   1.0000   1.0000   1.0000   1.0000   1.0000   1.0000   1.0000
     0.0000   0.0000   0.0000   0.0000   0.0000   0.0000

          k = 0.3333 0.7313 0.0000 ( 11953 PWs)   bands (ev):

   -15.4242 -15.2612 -12.4579 -12.3139  -9.5215  -9.3886  -3.1794  -2.5443
     1.1796   1.5428   8.8734   9.2484   9.9610  10.1527

     occupation numbers 
     1.0000   1.0000   1.0000   1.0000   1.0000   1.0000   1.0000   1.0000
     0.0000   0.0000   0.0000   0.0000   0.0000   0.0000

          k = 0.3333-0.3464 0.0000 ( 11927 PWs)   bands (ev):

   -16.3805 -16.2101 -11.9371 -11.7919  -8.2139  -8.0849  -4.2128  -3.4756
     2.1074   2.5552   7.4206   7.8859   8.5352   8.7141

     occupation numbers 
     1.0000   1.0000   1.0000   1.0000   1.0000   1.0000   1.0000   1.0000
     0.0000   0.0000   0.0000   0.0000   0.0000   0.0000

          k = 0.3333-0.2694 0.0000 ( 11938 PWs)   bands (ev):

   -17.1744 -16.9983 -11.2563 -11.1124  -7.1425  -7.0170  -5.0897  -4.2805
     3.0548   3.5476   6.2487   6.7572   7.3886   7.5530

     occupation numbers 
     1.0000   1.0000   1.0000   1.0000   1.0000   1.0000   1.0000   1.0000
     0.0000   0.0000   0.0000   0.0000   0.0000   0.0000

          k = 0.3333-0.1925 0.0000 ( 11914 PWs)   bands (ev):

   -17.7821 -17.6019 -10.4340 -10.2930  -6.5761  -6.4521  -5.7728  -4.9155
     4.0121   4.4946   5.3687   5.9082   6.8493   7.0477

     occupation numbers 
     1.0000   1.0000   1.0000   1.0000   1.0000   1.0000   1.0000   1.0000
     0.0000   0.0000   0.0000   0.0000   0.0000   0.0000

          k = 0.3333-0.1155 0.0000 ( 11910 PWs)   bands (ev):

   -18.1922 -18.0093  -9.5274  -9.3908  -6.6355  -6.5107  -6.2389  -5.3522
     4.7694   4.8918   5.2930   5.3599   6.3295   6.7587

     occupation numbers 
     1.0000   1.0000   1.0000   1.0000   1.0000   1.0000   1.0000   1.0000
     0.0000   0.0000   0.0000   0.0000   0.0000   0.0000

          k = 0.3333-0.0385 0.0000 ( 11929 PWs)   bands (ev):

   -18.3986 -18.2142  -8.7139  -8.5848  -7.0864  -6.9613  -6.4749  -5.5743
     4.4850   5.0380   5.4958   5.7955   6.0505   6.4638

     occupation numbers 
     1.0000   1.0000   1.0000   1.0000   1.0000   1.0000   1.0000   1.0000
     0.0000   0.0000   0.0000   0.0000   0.0000   0.0000

          k = 0.3333 0.0385 0.0000 ( 11929 PWs)   bands (ev):

   -18.3986 -18.2142  -8.7139  -8.5848  -7.0864  -6.9613  -6.4749  -5.5743
     4.4850   5.0380   5.4958   5.7955   6.0505   6.4639

     occupation numbers 
     1.0000   1.0000   1.0000   1.0000   1.0000   1.0000   1.0000   1.0000
     0.0000   0.0000   0.0000   0.0000   0.0000   0.0000

          k = 0.3333 0.1155 0.0000 ( 11910 PWs)   bands (ev):

   -18.1922 -18.0093  -9.5274  -9.3908  -6.6355  -6.5107  -6.2389  -5.3522
     4.7694   4.8918   5.2930   5.3599   6.3295   6.7588

     occupation numbers 
     1.0000   1.0000   1.0000   1.0000   1.0000   1.0000   1.0000   1.0000
     0.0000   0.0000   0.0000   0.0000   0.0000   0.0000

          k = 0.4000 0.2309 0.0000 ( 11910 PWs)   bands (ev):

   -16.6749 -16.5024 -12.1438 -11.9958  -6.9832  -6.8589  -4.5718  -3.8254
     2.2349   2.7662   6.8241   6.9841   7.0555   7.4982

     occupation numbers 
     1.0000   1.0000   1.0000   1.0000   1.0000   1.0000   1.0000   1.0000
     0.0000   0.0000   0.0000   0.0000   0.0000   0.0000

          k = 0.4000 0.3079 0.0000 ( 11920 PWs)   bands (ev):

   -15.9953 -15.8284 -12.8838 -12.7339  -7.4572  -7.3314  -3.8931  -3.2496
     1.4908   1.9819   7.2278   7.4679   8.0101   8.4773

     occupation numbers 
     1.0000   1.0000   1.0000   1.0000   1.0000   1.0000   1.0000   1.0000
     0.0000   0.0000   0.0000   0.0000   0.0000   0.0000

          k = 0.4000 0.3849 0.0000 ( 11935 PWs)   bands (ev):

   -15.1809 -15.0242 -13.4106 -13.2639  -8.4378  -8.3081  -3.1228  -2.6293
     0.9231   1.2807   8.4260   8.6988   9.3202   9.7097

     occupation numbers 
     1.0000   1.0000   1.0000   1.0000   1.0000   1.0000   1.0000   1.0000
     0.0000   0.0000   0.0000   0.0000   0.0000   0.0000

          k = 0.4000 0.4619 0.0000 ( 11949 PWs)   bands (ev):

   -14.4739 -14.3379 -13.4978 -13.3683  -9.6553  -9.5214  -2.4186  -2.0411
     0.5561   0.7236  10.0168  10.3297  10.5739  10.7787

     occupation numbers 
     1.0000   1.0000   1.0000   1.0000   1.0000   1.0000   1.0000   1.0000
     0.0000   0.0000   0.0000   0.0000   0.0000   0.0000

          k = 0.4000 0.5389 0.0000 ( 11948 PWs)   bands (ev):

   -14.3642 -14.2124 -12.8552 -12.7187 -10.7676 -10.6355  -2.0489  -1.5477
     0.2162   0.5210   9.9711  10.2456  10.6804  10.9950

     occupation numbers 
     1.0000   1.0000   1.0000   1.0000   1.0000   1.0000   1.0000   1.0000
     0.0000   0.0000   0.0000   0.0000   0.0000   0.0000

          k = 0.4000 0.6158 0.0000 ( 11948 PWs)   bands (ev):

   -14.3642 -14.2124 -12.8552 -12.7187 -10.7676 -10.6355  -2.0489  -1.5477
     0.2162   0.5210   9.9710  10.2456  10.6804  10.9950

     occupation numbers 
     1.0000   1.0000   1.0000   1.0000   1.0000   1.0000   1.0000   1.0000
     0.0000   0.0000   0.0000   0.0000   0.0000   0.0000

          k = 0.4000 0.6928 0.0000 ( 11949 PWs)   bands (ev):

   -14.4739 -14.3379 -13.4978 -13.3683  -9.6553  -9.5214  -2.4186  -2.0411
     0.5561   0.7236  10.0168  10.3297  10.5741  10.7788

     occupation numbers 
     1.0000   1.0000   1.0000   1.0000   1.0000   1.0000   1.0000   1.0000
     0.0000   0.0000   0.0000   0.0000   0.0000   0.0000

          k = 0.4000 0.7698 0.0000 ( 11935 PWs)   bands (ev):

   -15.1809 -15.0242 -13.4106 -13.2639  -8.4378  -8.3081  -3.1228  -2.6293
     0.9231   1.2807   8.4260   8.6988   9.3202   9.7097

     occupation numbers 
     1.0000   1.0000   1.0000   1.0000   1.0000   1.0000   1.0000   1.0000
     0.0000   0.0000   0.0000   0.0000   0.0000   0.0000

          k = 0.4000-0.3079 0.0000 ( 11920 PWs)   bands (ev):

   -15.9953 -15.8284 -12.8838 -12.7339  -7.4572  -7.3314  -3.8931  -3.2496
     1.4908   1.9819   7.2278   7.4679   8.0101   8.4773

     occupation numbers 
     1.0000   1.0000   1.0000   1.0000   1.0000   1.0000   1.0000   1.0000
     0.0000   0.0000   0.0000   0.0000   0.0000   0.0000

          k = 0.4000-0.2309 0.0000 ( 11910 PWs)   bands (ev):

   -16.6749 -16.5024 -12.1438 -11.9958  -6.9832  -6.8589  -4.5718  -3.8254
     2.2349   2.7662   6.8241   6.9841   7.0555   7.4981

     occupation numbers 
     1.0000   1.0000   1.0000   1.0000   1.0000   1.0000   1.0000   1.0000
     0.0000   0.0000   0.0000   0.0000   0.0000   0.0000

          k = 0.4000-0.1540 0.0000 ( 11938 PWs)   bands (ev):

   -17.1744 -16.9983 -11.2563 -11.1124  -7.1425  -7.0170  -5.0897  -4.2805
     3.0548   3.5476   6.2487   6.7572   7.3887   7.5536

     occupation numbers 
     1.0000   1.0000   1.0000   1.0000   1.0000   1.0000   1.0000   1.0000
     0.0000   0.0000   0.0000   0.0000   0.0000   0.0000

          k = 0.4000-0.0770 0.0000 ( 11925 PWs)   bands (ev):

   -17.4783 -17.3002 -10.3149 -10.1775  -7.7658  -7.6381  -5.4117  -4.5691
     3.7700   4.1574   5.8076   6.3306   7.3082   7.7398

     occupation numbers 
     1.0000   1.0000   1.0000   1.0000   1.0000   1.0000   1.0000   1.0000
     0.0000   0.0000   0.0000   0.0000   0.0000   0.0000

          k = 0.4000 0.0000 0.0000 ( 11953 PWs)   bands (ev):

   -17.5803 -17.4015  -9.7293  -9.6020  -8.2654  -8.1403  -5.5208  -4.6676
     4.0821   4.3864   5.6600   6.1842   7.1692   7.5911

     occupation numbers 
     1.0000   1.0000   1.0000   1.0000   1.0000   1.0000   1.0000   1.0000
     0.0000   0.0000   0.0000   0.0000   0.0000   0.0000

          k = 0.4000 0.0770 0.0000 ( 11925 PWs)   bands (ev):

   -17.4783 -17.3002 -10.3149 -10.1775  -7.7658  -7.6381  -5.4117  -4.5691
     3.7700   4.1574   5.8076   6.3306   7.3083   7.7401

     occupation numbers 
     1.0000   1.0000   1.0000   1.0000   1.0000   1.0000   1.0000   1.0000
     0.0000   0.0000   0.0000   0.0000   0.0000   0.0000

          k = 0.4000 0.1540 0.0000 ( 11938 PWs)   bands (ev):

   -17.1744 -16.9983 -11.2563 -11.1124  -7.1425  -7.0170  -5.0897  -4.2805
     3.0548   3.5476   6.2487   6.7572   7.3887   7.5538

     occupation numbers 
     1.0000   1.0000   1.0000   1.0000   1.0000   1.0000   1.0000   1.0000
     0.0000   0.0000   0.0000   0.0000   0.0000   0.0000

          k = 0.4667 0.2694 0.0000 ( 11924 PWs)   bands (ev):

   -15.4595 -15.3010 -13.6639 -13.5150  -7.1926  -7.0681  -3.4995  -3.0062
     1.0111   1.4523   6.7236   6.9627   8.8888   9.3233

     occupation numbers 
     1.0000   1.0000   1.0000   1.0000   1.0000   1.0000   1.0000   1.0000
     0.0000   0.0000   0.0000   0.0000   0.0000   0.0000

          k = 0.4667 0.3464 0.0000 ( 11913 PWs)   bands (ev):

   -15.0144 -14.8770 -13.9947 -13.8625  -7.5637  -7.4378  -3.1889  -2.8039
     0.8259   1.1837   7.1741   7.4204  10.0472  10.0595

     occupation numbers 
     1.0000   1.0000   1.0000   1.0000   1.0000   1.0000   1.0000   1.0000
     0.0000   0.0000   0.0000   0.0000   0.0000   0.0000

          k = 0.4667 0.4234 0.0000 ( 11935 PWs)   bands (ev):

   -15.1809 -15.0242 -13.4106 -13.2639  -8.4378  -8.3081  -3.1228  -2.6293
     0.9231   1.2807   8.4260   8.6988   9.3202   9.7097

     occupation numbers 
     1.0000   1.0000   1.0000   1.0000   1.0000   1.0000   1.0000   1.0000
     0.0000   0.0000   0.0000   0.0000   0.0000   0.0000

          k = 0.4667 0.5004 0.0000 ( 11953 PWs)   bands (ev):

   -15.4242 -15.2612 -12.4579 -12.3139  -9.5215  -9.3886  -3.1794  -2.5443
     1.1796   1.5428   8.8734   9.2484   9.9610  10.1526

     occupation numbers 
     1.0000   1.0000   1.0000   1.0000   1.0000   1.0000   1.0000   1.0000
     0.0000   0.0000   0.0000   0.0000   0.0000   0.0000

          k = 0.4667 0.5774 0.0000 ( 11961 PWs)   bands (ev):

   -15.5136 -15.3493 -11.8010 -11.6705 -10.2216 -10.0942  -3.2129  -2.5275
     1.3262   1.6695   8.7236   9.0939   9.8351  10.3047

     occupation numbers 
     1.0000   1.0000   1.0000   1.0000   1.0000   1.0000   1.0000   1.0000
     0.0000   0.0000   0.0000   0.0000   0.0000   0.0000

          k = 0.4667 0.6543 0.0000 ( 11953 PWs)   bands (ev):

   -15.4242 -15.2612 -12.4579 -12.3139  -9.5215  -9.3886  -3.1794  -2.5443
     1.1796   1.5428   8.8734   9.2484   9.9610  10.1528

     occupation numbers 
     1.0000   1.0000   1.0000   1.0000   1.0000   1.0000   1.0000   1.0000
     0.0000   0.0000   0.0000   0.0000   0.0000   0.0000

          k = 0.4667 0.7313 0.0000 ( 11935 PWs)   bands (ev):

   -15.1809 -15.0242 -13.4106 -13.2639  -8.4378  -8.3081  -3.1228  -2.6293
     0.9231   1.2807   8.4260   8.6988   9.3202   9.7097

     occupation numbers 
     1.0000   1.0000   1.0000   1.0000   1.0000   1.0000   1.0000   1.0000
     0.0000   0.0000   0.0000   0.0000   0.0000   0.0000

          k = 0.4667 0.8083 0.0000 ( 11913 PWs)   bands (ev):

   -15.0144 -14.8770 -13.9947 -13.8625  -7.5637  -7.4378  -3.1889  -2.8039
     0.8259   1.1837   7.1741   7.4204  10.0472  10.0592

     occupation numbers 
     1.0000   1.0000   1.0000   1.0000   1.0000   1.0000   1.0000   1.0000
     0.0000   0.0000   0.0000   0.0000   0.0000   0.0000

          k = 0.4667-0.2694 0.0000 ( 11924 PWs)   bands (ev):

   -15.4595 -15.3010 -13.6639 -13.5150  -7.1926  -7.0681  -3.4995  -3.0062
     1.0111   1.4524   6.7236   6.9627   8.8888   9.3233

     occupation numbers 
     1.0000   1.0000   1.0000   1.0000   1.0000   1.0000   1.0000   1.0000
     0.0000   0.0000   0.0000   0.0000   0.0000   0.0000

          k = 0.4667-0.1925 0.0000 ( 11920 PWs)   bands (ev):

   -15.9953 -15.8284 -12.8838 -12.7339  -7.4572  -7.3314  -3.8931  -3.2496
     1.4908   1.9819   7.2278   7.4679   8.0101   8.4772

     occupation numbers 
     1.0000   1.0000   1.0000   1.0000   1.0000   1.0000   1.0000   1.0000
     0.0000   0.0000   0.0000   0.0000   0.0000   0.0000

          k = 0.4667-0.1155 0.0000 ( 11927 PWs)   bands (ev):

   -16.3805 -16.2101 -11.9371 -11.7919  -8.2139  -8.0849  -4.2128  -3.4756
     2.1074   2.5552   7.4206   7.8859   8.5352   8.7141

     occupation numbers 
     1.0000   1.0000   1.0000   1.0000   1.0000   1.0000   1.0000   1.0000
     0.0000   0.0000   0.0000   0.0000   0.0000   0.0000

          k = 0.4667-0.0385 0.0000 ( 11949 PWs)   bands (ev):

   -16.5779 -16.4059 -11.0211 -10.8863  -9.0913  -8.9621  -4.3866  -3.6077
     2.5768   2.9249   7.1260   7.5983   8.5348   8.9773

     occupation numbers 
     1.0000   1.0000   1.0000   1.0000   1.0000   1.0000   1.0000   1.0000
     0.0000   0.0000   0.0000   0.0000   0.0000   0.0000

          k = 0.4667 0.0385 0.0000 ( 11949 PWs)   bands (ev):

   -16.5779 -16.4059 -11.0211 -10.8863  -9.0913  -8.9621  -4.3866  -3.6077
     2.5767   2.9249   7.1260   7.5983   8.5348   8.9772

     occupation numbers 
     1.0000   1.0000   1.0000   1.0000   1.0000   1.0000   1.0000   1.0000
     0.0000   0.0000   0.0000   0.0000   0.0000   0.0000

          k = 0.4667 0.1155 0.0000 ( 11927 PWs)   bands (ev):

   -16.3805 -16.2101 -11.9371 -11.7919  -8.2139  -8.0849  -4.2128  -3.4756
     2.1074   2.5552   7.4206   7.8859   8.5352   8.7144

     occupation numbers 
     1.0000   1.0000   1.0000   1.0000   1.0000   1.0000   1.0000   1.0000
     0.0000   0.0000   0.0000   0.0000   0.0000   0.0000

          k = 0.4667 0.1925 0.0000 ( 11920 PWs)   bands (ev):

   -15.9953 -15.8284 -12.8838 -12.7339  -7.4572  -7.3314  -3.8931  -3.2496
     1.4908   1.9819   7.2278   7.4679   8.0101   8.4773

     occupation numbers 
     1.0000   1.0000   1.0000   1.0000   1.0000   1.0000   1.0000   1.0000
     0.0000   0.0000   0.0000   0.0000   0.0000   0.0000

     the Fermi energy is    -0.7013 ev

!    total energy              =     -48.20772197 Ry
     estimated scf accuracy    <          1.3E-09 Ry
     smearing contrib. (-TS)   =      -0.00007706 Ry
     internal energy E=F+TS    =     -48.20764491 Ry

     The total energy is F=E-TS. E is the sum of the following terms:
     one-electron contribution =    -708.10750384 Ry
     hartree contribution      =     357.65331634 Ry
     xc contribution           =     -17.18695791 Ry
     ewald contribution        =     319.80421578 Ry
     DFT-D3 Dispersion         =      -0.01771444 Ry
     electric field correction =      -0.35300084 Ry

     convergence has been achieved in   9 iterations

     Forces acting on atoms (cartesian axes, Ry/au):

     atom    1 type  1   force =    -0.00000011   -0.00000001   -0.00138646
     atom    2 type  1   force =    -0.00000029   -0.00000026   -0.00057827
     atom    3 type  1   force =     0.00000042    0.00000002    0.00067105
     atom    4 type  1   force =    -0.00000003    0.00000025    0.00129368
     The non-local contrib.  to forces
     atom    1 type  1   force =     0.00000012   -0.00000002   -0.00643180
     atom    2 type  1   force =    -0.00000029   -0.00000031   -0.00508977
     atom    3 type  1   force =     0.00000053   -0.00000018   -0.00286869
     atom    4 type  1   force =    -0.00000007   -0.00000005   -0.00180498
     The ionic contribution  to forces
     atom    1 type  1   force =     0.00000000   -0.00000000  -15.31775822
     atom    2 type  1   force =    -0.00000000    0.00000000  -15.32270756
     atom    3 type  1   force =    -0.00000000   -0.00000000   15.32270756
     atom    4 type  1   force =     0.00000000    0.00000000   15.31775822
     The local contribution  to forces
     atom    1 type  1   force =    -0.00000006   -0.00000004   15.28135744
     atom    2 type  1   force =    -0.00000011   -0.00000013   15.28593027
     atom    3 type  1   force =     0.00000018    0.00000034  -15.35804671
     atom    4 type  1   force =     0.00000002    0.00000050  -15.35339105
     The core correction contribution to forces
     atom    1 type  1   force =    -0.00000001   -0.00000000    0.00021076
     atom    2 type  1   force =     0.00000000   -0.00000001    0.00015203
     atom    3 type  1   force =    -0.00000000    0.00000001    0.00002536
     atom    4 type  1   force =     0.00000001    0.00000001   -0.00002302
     The Hubbard contrib.    to forces
     atom    1 type  1   force =     0.00000000    0.00000000    0.00000000
     atom    2 type  1   force =     0.00000000    0.00000000    0.00000000
     atom    3 type  1   force =     0.00000000    0.00000000    0.00000000
     atom    4 type  1   force =     0.00000000    0.00000000    0.00000000
     The SCF correction term to forces
     atom    1 type  1   force =    -0.00000014   -0.00000007   -0.00002511
     atom    2 type  1   force =     0.00000013    0.00000006   -0.00002522
     atom    3 type  1   force =    -0.00000027   -0.00000028    0.00001229
     atom    4 type  1   force =     0.00000003   -0.00000034    0.00001177

     DFT-D3 dispersion contribution to forces:
     atom    1 type  1   force =     0.00000000    0.00000000    0.00125887
     atom    2 type  1   force =    -0.00000000   -0.00000000    0.00116036
     atom    3 type  1   force =     0.00000000    0.00000000   -0.00116036
     atom    4 type  1   force =    -0.00000000   -0.00000000   -0.00125887

     Total force =     0.002093     Total SCF correction =     0.000039

     DFT-D3 dispersion Force =     0.002421

     BFGS Geometry Optimization
     Energy error            =      4.4E-06 Ry
     Gradient error          =      1.4E-03 Ry/Bohr

     number of scf cycles    =   1
     number of bfgs steps    =   0

     energy             new  =     -48.2077219687 Ry

     new trust radius        =       0.0013864641 bohr
     new conv_thr            =       0.0000000100 Ry


ATOMIC_POSITIONS (angstrom)
C               -0.0000000561       -0.0000000034        9.9992663148
C                1.2299998490        0.7101406926        9.9996939906
C                1.2300002217        0.7101408397       13.3503551066
C               -0.0000000146        1.4202817956       13.3506845880



     Writing config-only to output data dir /home/ubuntu/projects/Graphene-Band-Structure-Quantum-Espresso/outputs/field_0.005/data/field_0.005.save/ :
     XML data file
     NEW-OLD atomic charge density approx. for the potential

     negative rho (up, down):  9.202E-08 0.000E+00

     Adding external electric field
        E field amplitude [Ha a.u.]:  5.0000E-03
        Potential amp.        0.3971 Ry
        Total length         39.7126 bohr


     total cpu time spent up to now is       45.4 secs

     Self-consistent Calculation

     iteration #  1     ecut=    90.00 Ry     beta= 0.70
     Davidson diagonalization with overlap

---- Real-time Memory Report at c_bands before calling an iterative solver
           153 MiB given to the printing process from OS
             0 MiB allocation reported by mallinfo(arena+hblkhd)
         29318 MiB available memory on the node where the printing process lives
------------------
     ethr =  1.00E-06,  avg # of iterations =  2.0

     Threshold (ethr) on eigenvalues was too large:
     Diagonalizing with lowered threshold

     Davidson diagonalization with overlap

---- Real-time Memory Report at c_bands before calling an iterative solver
           153 MiB given to the printing process from OS
             0 MiB allocation reported by mallinfo(arena+hblkhd)
         29584 MiB available memory on the node where the printing process lives
------------------
     ethr =  3.30E-09,  avg # of iterations =  3.4

     negative rho (up, down):  2.326E-08 0.000E+00

     total cpu time spent up to now is       52.6 secs

     total energy              =     -48.20772582 Ry
     estimated scf accuracy    <       0.00000088 Ry

     iteration #  2     ecut=    90.00 Ry     beta= 0.70
     Davidson diagonalization with overlap

---- Real-time Memory Report at c_bands before calling an iterative solver
           153 MiB given to the printing process from OS
             0 MiB allocation reported by mallinfo(arena+hblkhd)
         29264 MiB available memory on the node where the printing process lives
------------------
     ethr =  5.48E-09,  avg # of iterations =  2.0

     negative rho (up, down):  1.365E-08 0.000E+00

     total cpu time spent up to now is       55.5 secs

     total energy              =     -48.20772595 Ry
     estimated scf accuracy    <       0.00000082 Ry

     iteration #  3     ecut=    90.00 Ry     beta= 0.70
     Davidson diagonalization with overlap

---- Real-time Memory Report at c_bands before calling an iterative solver
           153 MiB given to the printing process from OS
             0 MiB allocation reported by mallinfo(arena+hblkhd)
         29300 MiB available memory on the node where the printing process lives
------------------
     ethr =  5.15E-09,  avg # of iterations =  2.0

     total cpu time spent up to now is       58.9 secs

     total energy              =     -48.20772613 Ry
     estimated scf accuracy    <       0.00000003 Ry

     iteration #  4     ecut=    90.00 Ry     beta= 0.70
     Davidson diagonalization with overlap

---- Real-time Memory Report at c_bands before calling an iterative solver
           153 MiB given to the printing process from OS
             0 MiB allocation reported by mallinfo(arena+hblkhd)
         29276 MiB available memory on the node where the printing process lives
------------------
     ethr =  2.18E-10,  avg # of iterations =  2.0

     total cpu time spent up to now is       62.1 secs

     total energy              =     -48.20772613 Ry
     estimated scf accuracy    <       0.00000009 Ry

     iteration #  5     ecut=    90.00 Ry     beta= 0.70
     Davidson diagonalization with overlap

---- Real-time Memory Report at c_bands before calling an iterative solver
           153 MiB given to the printing process from OS
             0 MiB allocation reported by mallinfo(arena+hblkhd)
         29282 MiB available memory on the node where the printing process lives
------------------
     ethr =  2.18E-10,  avg # of iterations =  2.0

     total cpu time spent up to now is       65.4 secs

     End of self-consistent calculation

          k = 0.0000 0.0000 0.0000 ( 11659 PWs)   bands (ev):

   -20.3846 -20.1862  -8.8488  -7.8610  -3.7989  -3.7989  -3.6783  -3.6783
     1.6917   2.3047   3.3532   3.7377   5.0364   6.1733

     occupation numbers 
     1.0000   1.0000   1.0000   1.0000   1.0000   1.0000   1.0000   1.0000
     0.0000   0.0000   0.0000   0.0000   0.0000   0.0000

          k = 0.0000 0.0770 0.0000 ( 11791 PWs)   bands (ev):

   -20.2789 -20.0812  -8.7207  -7.7368  -4.2254  -4.1039  -4.0237  -3.9026
     1.8388   2.4491   3.4954   3.8815   5.1783   6.3120

     occupation numbers 
     1.0000   1.0000   1.0000   1.0000   1.0000   1.0000   1.0000   1.0000
     0.0000   0.0000   0.0000   0.0000   0.0000   0.0000

          k = 0.0000 0.1540 0.0000 ( 11788 PWs)   bands (ev):

   -19.9624 -19.7671  -8.3381  -7.3665  -5.3592  -5.2351  -4.5934  -4.4714
     2.2800   2.8821   3.9221   4.3126   5.6035   6.7248

     occupation numbers 
     1.0000   1.0000   1.0000   1.0000   1.0000   1.0000   1.0000   1.0000
     0.0000   0.0000   0.0000   0.0000   0.0000   0.0000

          k = 0.0000 0.2309 0.0000 ( 11848 PWs)   bands (ev):

   -19.4374 -19.2459  -7.7075  -6.9157  -6.7881  -6.7567  -5.3059  -5.1829
     3.0151   3.6026   4.6318   5.0289   6.3063   7.3621

     occupation numbers 
     1.0000   1.0000   1.0000   1.0000   1.0000   1.0000   1.0000   1.0000
     0.0000   0.0000   0.0000   0.0000   0.0000   0.0000

          k = 0.0000 0.3079 0.0000 ( 11876 PWs)   bands (ev):

   -18.7082 -18.5217  -8.6581  -8.5238  -6.8423  -5.9993  -5.9282  -5.8756
     4.0438   4.6051   5.6081   5.8705   6.1195   6.3150

     occupation numbers 
     1.0000   1.0000   1.0000   1.0000   1.0000   1.0000   1.0000   1.0000
     0.0000   0.0000   0.0000   0.0000   0.0000   0.0000

          k = 0.0000 0.3849 0.0000 ( 11914 PWs)   bands (ev):

   -17.7821 -17.6019 -10.4341 -10.2929  -6.5763  -6.4520  -5.7721  -4.9161
     4.0127   4.4941   5.3685   5.9081   6.8487   7.0474

     occupation numbers 
     1.0000   1.0000   1.0000   1.0000   1.0000   1.0000   1.0000   1.0000
     0.0000   0.0000   0.0000   0.0000   0.0000   0.0000

          k = 0.0000 0.4619 0.0000 ( 11910 PWs)   bands (ev):

   -16.6749 -16.5024 -12.1438 -11.9958  -6.9833  -6.8587  -4.5713  -3.8258
     2.2354   2.7657   6.8242   6.9839   7.0554   7.4978

     occupation numbers 
     1.0000   1.0000   1.0000   1.0000   1.0000   1.0000   1.0000   1.0000
     0.0000   0.0000   0.0000   0.0000   0.0000   0.0000

          k = 0.0000 0.5389 0.0000 ( 11924 PWs)   bands (ev):

   -15.4595 -15.3010 -13.6639 -13.5150  -7.1927  -7.0680  -3.4991  -3.0064
     1.0116   1.4518   6.7237   6.9626   8.8885   9.3231

     occupation numbers 
     1.0000   1.0000   1.0000   1.0000   1.0000   1.0000   1.0000   1.0000
     0.0000   0.0000   0.0000   0.0000   0.0000   0.0000

          k = 0.0667 0.0385 0.0000 ( 11791 PWs)   bands (ev):

   -20.2789 -20.0812  -8.7207  -7.7368  -4.2254  -4.1039  -4.0237  -3.9026
     1.8388   2.4491   3.4954   3.8815   5.1783   6.3119

     occupation numbers 
     1.0000   1.0000   1.0000   1.0000   1.0000   1.0000   1.0000   1.0000
     0.0000   0.0000   0.0000   0.0000   0.0000   0.0000

          k = 0.0667 0.1155 0.0000 ( 11813 PWs)   bands (ev):

   -20.0678 -19.8717  -8.4653  -7.4895  -4.9532  -4.8314  -4.4728  -4.3517
     2.1329   2.7378   3.7800   4.1691   5.4621   6.5886

     occupation numbers 
     1.0000   1.0000   1.0000   1.0000   1.0000   1.0000   1.0000   1.0000
     0.0000   0.0000   0.0000   0.0000   0.0000   0.0000

          k = 0.0667 0.1925 0.0000 ( 11832 PWs)   bands (ev):

   -19.6471 -19.4540  -7.9584  -6.9997  -6.2082  -6.0835  -5.2056  -5.0831
     2.7211   3.3148   4.3488   4.7434   6.0286   7.1353

     occupation numbers 
     1.0000   1.0000   1.0000   1.0000   1.0000   1.0000   1.0000   1.0000
     0.0000   0.0000   0.0000   0.0000   0.0000   0.0000

          k = 0.0667 0.2694 0.0000 ( 11880 PWs)   bands (ev):

   -19.0200 -18.8313  -7.7990  -7.6689  -7.2094  -6.2791  -5.9691  -5.8451
     3.6031   4.1781   5.1986   5.5981   6.7571   6.8523

     occupation numbers 
     1.0000   1.0000   1.0000   1.0000   1.0000   1.0000   1.0000   1.0000
     0.0000   0.0000   0.0000   0.0000   0.0000   0.0000

          k = 0.0667 0.3464 0.0000 ( 11910 PWs)   bands (ev):

   -18.1922 -18.0093  -9.5275  -9.3907  -6.6357  -6.5106  -6.2382  -5.3529
     4.7693   4.8922   5.2926   5.3598   6.3292   6.7585

     occupation numbers 
     1.0000   1.0000   1.0000   1.0000   1.0000   1.0000   1.0000   1.0000
     0.0000   0.0000   0.0000   0.0000   0.0000   0.0000

          k = 0.0667 0.4234 0.0000 ( 11938 PWs)   bands (ev):

   -17.1743 -16.9983 -11.2563 -11.1123  -7.1426  -7.0169  -5.0891  -4.2811
     3.0553   3.5471   6.2485   6.7570   7.3887   7.5531

     occupation numbers 
     1.0000   1.0000   1.0000   1.0000   1.0000   1.0000   1.0000   1.0000
     0.0000   0.0000   0.0000   0.0000   0.0000   0.0000

          k = 0.0667 0.5004 0.0000 ( 11920 PWs)   bands (ev):

   -15.9953 -15.8284 -12.8839 -12.7338  -7.4573  -7.3313  -3.8926  -3.2500
     1.4914   1.9813   7.2280   7.4679   8.0099   8.4770

     occupation numbers 
     1.0000   1.0000   1.0000   1.0000   1.0000   1.0000   1.0000   1.0000
     0.0000   0.0000   0.0000   0.0000   0.0000   0.0000

          k = 0.0667 0.5774 0.0000 ( 11913 PWs)   bands (ev):

   -15.0145 -14.8769 -13.9948 -13.8624  -7.5638  -7.4377  -3.1887  -2.8039
     0.8263   1.1832   7.1742   7.4203  10.0470  10.0587

     occupation numbers 
     1.0000   1.0000   1.0000   1.0000   1.0000   1.0000   1.0000   1.0000
     0.0000   0.0000   0.0000   0.0000   0.0000   0.0000

          k = 0.0667-0.5004 0.0000 ( 11920 PWs)   bands (ev):

   -15.9953 -15.8284 -12.8839 -12.7338  -7.4573  -7.3313  -3.8926  -3.2500
     1.4914   1.9813   7.2280   7.4679   8.0099   8.4770

     occupation numbers 
     1.0000   1.0000   1.0000   1.0000   1.0000   1.0000   1.0000   1.0000
     0.0000   0.0000   0.0000   0.0000   0.0000   0.0000

          k = 0.0667-0.4234 0.0000 ( 11938 PWs)   bands (ev):

   -17.1743 -16.9983 -11.2563 -11.1123  -7.1426  -7.0169  -5.0891  -4.2811
     3.0553   3.5471   6.2485   6.7570   7.3887   7.5534

     occupation numbers 
     1.0000   1.0000   1.0000   1.0000   1.0000   1.0000   1.0000   1.0000
     0.0000   0.0000   0.0000   0.0000   0.0000   0.0000

          k = 0.0667-0.3464 0.0000 ( 11910 PWs)   bands (ev):

   -18.1922 -18.0093  -9.5275  -9.3907  -6.6357  -6.5106  -6.2382  -5.3529
     4.7693   4.8922   5.2927   5.3598   6.3292   6.7585

     occupation numbers 
     1.0000   1.0000   1.0000   1.0000   1.0000   1.0000   1.0000   1.0000
     0.0000   0.0000   0.0000   0.0000   0.0000   0.0000

          k = 0.0667-0.2694 0.0000 ( 11880 PWs)   bands (ev):

   -19.0200 -18.8313  -7.7990  -7.6689  -7.2094  -6.2791  -5.9691  -5.8451
     3.6031   4.1781   5.1986   5.5981   6.7571   6.8517

     occupation numbers 
     1.0000   1.0000   1.0000   1.0000   1.0000   1.0000   1.0000   1.0000
     0.0000   0.0000   0.0000   0.0000   0.0000   0.0000

          k = 0.0667-0.1925 0.0000 ( 11832 PWs)   bands (ev):

   -19.6471 -19.4540  -7.9584  -6.9997  -6.2082  -6.0835  -5.2056  -5.0831
     2.7211   3.3148   4.3488   4.7434   6.0286   7.1354

     occupation numbers 
     1.0000   1.0000   1.0000   1.0000   1.0000   1.0000   1.0000   1.0000
     0.0000   0.0000   0.0000   0.0000   0.0000   0.0000

          k = 0.0667-0.1155 0.0000 ( 11813 PWs)   bands (ev):

   -20.0678 -19.8717  -8.4653  -7.4895  -4.9532  -4.8313  -4.4728  -4.3517
     2.1329   2.7378   3.7800   4.1691   5.4621   6.5886

     occupation numbers 
     1.0000   1.0000   1.0000   1.0000   1.0000   1.0000   1.0000   1.0000
     0.0000   0.0000   0.0000   0.0000   0.0000   0.0000

          k = 0.0667-0.0385 0.0000 ( 11791 PWs)   bands (ev):

   -20.2789 -20.0812  -8.7207  -7.7368  -4.2254  -4.1039  -4.0237  -3.9026
     1.8388   2.4491   3.4954   3.8815   5.1783   6.3120

     occupation numbers 
     1.0000   1.0000   1.0000   1.0000   1.0000   1.0000   1.0000   1.0000
     0.0000   0.0000   0.0000   0.0000   0.0000   0.0000

          k = 0.1333 0.0770 0.0000 ( 11788 PWs)   bands (ev):

   -19.9624 -19.7671  -8.3381  -7.3665  -5.3592  -5.2352  -4.5934  -4.4714
     2.2800   2.8821   3.9221   4.3126   5.6035   6.7247

     occupation numbers 
     1.0000   1.0000   1.0000   1.0000   1.0000   1.0000   1.0000   1.0000
     0.0000   0.0000   0.0000   0.0000   0.0000   0.0000

          k = 0.1333 0.1540 0.0000 ( 11832 PWs)   bands (ev):

   -19.6471 -19.4540  -7.9584  -6.9997  -6.2082  -6.0835  -5.2056  -5.0831
     2.7211   3.3148   4.3488   4.7434   6.0286   7.1354

     occupation numbers 
     1.0000   1.0000   1.0000   1.0000   1.0000   1.0000   1.0000   1.0000
     0.0000   0.0000   0.0000   0.0000   0.0000   0.0000

          k = 0.1333 0.2309 0.0000 ( 11879 PWs)   bands (ev):

   -19.1242 -18.9349  -7.3342  -7.3109  -7.1875  -6.3969  -6.1739  -6.0510
     3.4562   4.0352   5.0590   5.4602   6.7355   7.0800

     occupation numbers 
     1.0000   1.0000   1.0000   1.0000   1.0000   1.0000   1.0000   1.0000
     0.0000   0.0000   0.0000   0.0000   0.0000   0.0000

          k = 0.1333 0.3079 0.0000 ( 11929 PWs)   bands (ev):

   -18.3986 -18.2142  -8.7140  -8.5847  -7.0865  -6.9612  -6.4743  -5.5750
     4.4848   5.0378   5.4960   5.7955   6.0502   6.4636

     occupation numbers 
     1.0000   1.0000   1.0000   1.0000   1.0000   1.0000   1.0000   1.0000
     0.0000   0.0000   0.0000   0.0000   0.0000   0.0000

          k = 0.1333 0.3849 0.0000 ( 11925 PWs)   bands (ev):

   -17.4783 -17.3002 -10.3149 -10.1774  -7.7659  -7.6380  -5.4111  -4.5697
     3.7704   4.1572   5.8073   6.3305   7.3079   7.7397

     occupation numbers 
     1.0000   1.0000   1.0000   1.0000   1.0000   1.0000   1.0000   1.0000
     0.0000   0.0000   0.0000   0.0000   0.0000   0.0000

          k = 0.1333 0.4619 0.0000 ( 11927 PWs)   bands (ev):

   -16.3805 -16.2101 -11.9372 -11.7918  -8.2140  -8.0848  -4.2122  -3.4761
     2.1078   2.5549   7.4204   7.8857   8.5354   8.7131

     occupation numbers 
     1.0000   1.0000   1.0000   1.0000   1.0000   1.0000   1.0000   1.0000
     0.0000   0.0000   0.0000   0.0000   0.0000   0.0000

          k = 0.1333 0.5389 0.0000 ( 11935 PWs)   bands (ev):

   -15.1809 -15.0242 -13.4107 -13.2638  -8.4379  -8.3080  -3.1224  -2.6295
     0.9235   1.2803   8.4262   8.6987   9.3200   9.7094

     occupation numbers 
     1.0000   1.0000   1.0000   1.0000   1.0000   1.0000   1.0000   1.0000
     0.0000   0.0000   0.0000   0.0000   0.0000   0.0000

          k = 0.1333 0.6158 0.0000 ( 11935 PWs)   bands (ev):

   -15.1809 -15.0242 -13.4107 -13.2638  -8.4379  -8.3080  -3.1224  -2.6295
     0.9235   1.2803   8.4262   8.6987   9.3200   9.7094

     occupation numbers 
     1.0000   1.0000   1.0000   1.0000   1.0000   1.0000   1.0000   1.0000
     0.0000   0.0000   0.0000   0.0000   0.0000   0.0000

          k = 0.1333-0.4619 0.0000 ( 11927 PWs)   bands (ev):

   -16.3805 -16.2101 -11.9372 -11.7918  -8.2140  -8.0848  -4.2122  -3.4761
     2.1078   2.5549   7.4204   7.8857   8.5354   8.7133

     occupation numbers 
     1.0000   1.0000   1.0000   1.0000   1.0000   1.0000   1.0000   1.0000
     0.0000   0.0000   0.0000   0.0000   0.0000   0.0000

          k = 0.1333-0.3849 0.0000 ( 11925 PWs)   bands (ev):

   -17.4783 -17.3002 -10.3149 -10.1774  -7.7659  -7.6380  -5.4111  -4.5697
     3.7704   4.1572   5.8073   6.3305   7.3079   7.7396

     occupation numbers 
     1.0000   1.0000   1.0000   1.0000   1.0000   1.0000   1.0000   1.0000
     0.0000   0.0000   0.0000   0.0000   0.0000   0.0000

          k = 0.1333-0.3079 0.0000 ( 11929 PWs)   bands (ev):

   -18.3986 -18.2142  -8.7140  -8.5847  -7.0865  -6.9612  -6.4743  -5.5750
     4.4848   5.0378   5.4960   5.7955   6.0502   6.4636

     occupation numbers 
     1.0000   1.0000   1.0000   1.0000   1.0000   1.0000   1.0000   1.0000
     0.0000   0.0000   0.0000   0.0000   0.0000   0.0000

          k = 0.1333-0.2309 0.0000 ( 11879 PWs)   bands (ev):

   -19.1242 -18.9349  -7.3342  -7.3109  -7.1875  -6.3969  -6.1739  -6.0510
     3.4562   4.0352   5.0590   5.4602   6.7355   7.0800

     occupation numbers 
     1.0000   1.0000   1.0000   1.0000   1.0000   1.0000   1.0000   1.0000
     0.0000   0.0000   0.0000   0.0000   0.0000   0.0000

          k = 0.1333-0.1540 0.0000 ( 11832 PWs)   bands (ev):

   -19.6471 -19.4540  -7.9584  -6.9997  -6.2082  -6.0835  -5.2056  -5.0831
     2.7211   3.3148   4.3488   4.7434   6.0286   7.1354

     occupation numbers 
     1.0000   1.0000   1.0000   1.0000   1.0000   1.0000   1.0000   1.0000
     0.0000   0.0000   0.0000   0.0000   0.0000   0.0000

          k = 0.1333-0.0770 0.0000 ( 11788 PWs)   bands (ev):

   -19.9624 -19.7671  -8.3381  -7.3665  -5.3592  -5.2351  -4.5934  -4.4714
     2.2800   2.8821   3.9221   4.3126   5.6035   6.7247

     occupation numbers 
     1.0000   1.0000   1.0000   1.0000   1.0000   1.0000   1.0000   1.0000
     0.0000   0.0000   0.0000   0.0000   0.0000   0.0000

          k = 0.1333 0.0000 0.0000 ( 11813 PWs)   bands (ev):

   -20.0678 -19.8717  -8.4653  -7.4895  -4.9532  -4.8313  -4.4728  -4.3517
     2.1329   2.7378   3.7800   4.1691   5.4621   6.5886

     occupation numbers 
     1.0000   1.0000   1.0000   1.0000   1.0000   1.0000   1.0000   1.0000
     0.0000   0.0000   0.0000   0.0000   0.0000   0.0000

          k = 0.2000 0.1155 0.0000 ( 11848 PWs)   bands (ev):

   -19.4374 -19.2459  -7.7075  -6.9157  -6.7881  -6.7567  -5.3059  -5.1829
     3.0151   3.6026   4.6318   5.0289   6.3063   7.3620

     occupation numbers 
     1.0000   1.0000   1.0000   1.0000   1.0000   1.0000   1.0000   1.0000
     0.0000   0.0000   0.0000   0.0000   0.0000   0.0000

          k = 0.2000 0.1925 0.0000 ( 11880 PWs)   bands (ev):

   -19.0200 -18.8313  -7.7990  -7.6689  -7.2094  -6.2791  -5.9691  -5.8451
     3.6031   4.1781   5.1986   5.5981   6.7573   6.8526

     occupation numbers 
     1.0000   1.0000   1.0000   1.0000   1.0000   1.0000   1.0000   1.0000
     0.0000   0.0000   0.0000   0.0000   0.0000   0.0000

          k = 0.2000 0.2694 0.0000 ( 11929 PWs)   bands (ev):

   -18.3986 -18.2142  -8.7140  -8.5847  -7.0865  -6.9612  -6.4743  -5.5750
     4.4848   5.0378   5.4960   5.7955   6.0502   6.4636

     occupation numbers 
     1.0000   1.0000   1.0000   1.0000   1.0000   1.0000   1.0000   1.0000
     0.0000   0.0000   0.0000   0.0000   0.0000   0.0000

          k = 0.2000 0.3464 0.0000 ( 11953 PWs)   bands (ev):

   -17.5802 -17.4015  -9.7294  -9.6019  -8.2656  -8.1402  -5.5202  -4.6682
     4.0822   4.3865   5.6598   6.1840   7.1689   7.5908

     occupation numbers 
     1.0000   1.0000   1.0000   1.0000   1.0000   1.0000   1.0000   1.0000
     0.0000   0.0000   0.0000   0.0000   0.0000   0.0000

          k = 0.2000 0.4234 0.0000 ( 11949 PWs)   bands (ev):

   -16.5778 -16.4059 -11.0212 -10.8862  -9.0914  -8.9620  -4.3860  -3.6082
     2.5770   2.9248   7.1258   7.5981   8.5345   8.9770

     occupation numbers 
     1.0000   1.0000   1.0000   1.0000   1.0000   1.0000   1.0000   1.0000
     0.0000   0.0000   0.0000   0.0000   0.0000   0.0000

          k = 0.2000 0.5004 0.0000 ( 11953 PWs)   bands (ev):

   -15.4242 -15.2611 -12.4579 -12.3138  -9.5216  -9.3885  -3.1790  -2.5446
     1.1799   1.5427   8.8732   9.2482   9.9609  10.1524

     occupation numbers 
     1.0000   1.0000   1.0000   1.0000   1.0000   1.0000   1.0000   1.0000
     0.0000   0.0000   0.0000   0.0000   0.0000   0.0000

          k = 0.2000 0.5774 0.0000 ( 11949 PWs)   bands (ev):

   -14.4740 -14.3378 -13.4979 -13.3681  -9.6554  -9.5213  -2.4184  -2.0411
     0.5561   0.7236  10.0172  10.3294  10.5740  10.7777

     occupation numbers 
     1.0000   1.0000   1.0000   1.0000   1.0000   1.0000   1.0000   1.0000
     0.0000   0.0000   0.0000   0.0000   0.0000   0.0000

          k = 0.2000 0.6543 0.0000 ( 11953 PWs)   bands (ev):

   -15.4242 -15.2611 -12.4579 -12.3138  -9.5216  -9.3885  -3.1790  -2.5446
     1.1799   1.5427   8.8732   9.2482   9.9609  10.1523

     occupation numbers 
     1.0000   1.0000   1.0000   1.0000   1.0000   1.0000   1.0000   1.0000
     0.0000   0.0000   0.0000   0.0000   0.0000   0.0000

          k = 0.2000-0.4234 0.0000 ( 11949 PWs)   bands (ev):

   -16.5778 -16.4059 -11.0212 -10.8862  -9.0914  -8.9620  -4.3860  -3.6082
     2.5770   2.9248   7.1258   7.5981   8.5345   8.9770

     occupation numbers 
     1.0000   1.0000   1.0000   1.0000   1.0000   1.0000   1.0000   1.0000
     0.0000   0.0000   0.0000   0.0000   0.0000   0.0000

          k = 0.2000-0.3464 0.0000 ( 11953 PWs)   bands (ev):

   -17.5802 -17.4015  -9.7294  -9.6019  -8.2656  -8.1402  -5.5202  -4.6682
     4.0822   4.3865   5.6598   6.1840   7.1689   7.5908

     occupation numbers 
     1.0000   1.0000   1.0000   1.0000   1.0000   1.0000   1.0000   1.0000
     0.0000   0.0000   0.0000   0.0000   0.0000   0.0000

          k = 0.2000-0.2694 0.0000 ( 11929 PWs)   bands (ev):

   -18.3986 -18.2142  -8.7140  -8.5847  -7.0865  -6.9612  -6.4743  -5.5750
     4.4848   5.0378   5.4960   5.7955   6.0502   6.4636

     occupation numbers 
     1.0000   1.0000   1.0000   1.0000   1.0000   1.0000   1.0000   1.0000
     0.0000   0.0000   0.0000   0.0000   0.0000   0.0000

          k = 0.2000-0.1925 0.0000 ( 11880 PWs)   bands (ev):

   -19.0200 -18.8313  -7.7990  -7.6689  -7.2094  -6.2791  -5.9691  -5.8451
     3.6031   4.1781   5.1986   5.5981   6.7578   6.8525

     occupation numbers 
     1.0000   1.0000   1.0000   1.0000   1.0000   1.0000   1.0000   1.0000
     0.0000   0.0000   0.0000   0.0000   0.0000   0.0000

          k = 0.2000-0.1155 0.0000 ( 11848 PWs)   bands (ev):

   -19.4374 -19.2459  -7.7075  -6.9157  -6.7881  -6.7567  -5.3059  -5.1829
     3.0151   3.6026   4.6318   5.0289   6.3063   7.3618

     occupation numbers 
     1.0000   1.0000   1.0000   1.0000   1.0000   1.0000   1.0000   1.0000
     0.0000   0.0000   0.0000   0.0000   0.0000   0.0000

          k = 0.2000-0.0385 0.0000 ( 11832 PWs)   bands (ev):

   -19.6471 -19.4540  -7.9584  -6.9997  -6.2082  -6.0835  -5.2056  -5.0831
     2.7211   3.3148   4.3488   4.7434   6.0286   7.1353

     occupation numbers 
     1.0000   1.0000   1.0000   1.0000   1.0000   1.0000   1.0000   1.0000
     0.0000   0.0000   0.0000   0.0000   0.0000   0.0000

          k = 0.2000 0.0385 0.0000 ( 11832 PWs)   bands (ev):

   -19.6471 -19.4540  -7.9584  -6.9997  -6.2082  -6.0835  -5.2056  -5.0831
     2.7211   3.3148   4.3488   4.7434   6.0286   7.1354

     occupation numbers 
     1.0000   1.0000   1.0000   1.0000   1.0000   1.0000   1.0000   1.0000
     0.0000   0.0000   0.0000   0.0000   0.0000   0.0000

          k = 0.2667 0.1540 0.0000 ( 11876 PWs)   bands (ev):

   -18.7082 -18.5217  -8.6581  -8.5238  -6.8423  -5.9993  -5.9282  -5.8756
     4.0438   4.6051   5.6082   5.8705   6.1195   6.3150

     occupation numbers 
     1.0000   1.0000   1.0000   1.0000   1.0000   1.0000   1.0000   1.0000
     0.0000   0.0000   0.0000   0.0000   0.0000   0.0000

          k = 0.2667 0.2309 0.0000 ( 11910 PWs)   bands (ev):

   -18.1922 -18.0093  -9.5275  -9.3907  -6.6357  -6.5106  -6.2382  -5.3529
     4.7693   4.8922   5.2926   5.3598   6.3292   6.7584

     occupation numbers 
     1.0000   1.0000   1.0000   1.0000   1.0000   1.0000   1.0000   1.0000
     0.0000   0.0000   0.0000   0.0000   0.0000   0.0000

          k = 0.2667 0.3079 0.0000 ( 11925 PWs)   bands (ev):

   -17.4783 -17.3002 -10.3149 -10.1774  -7.7659  -7.6380  -5.4111  -4.5697
     3.7704   4.1572   5.8073   6.3305   7.3079   7.7397

     occupation numbers 
     1.0000   1.0000   1.0000   1.0000   1.0000   1.0000   1.0000   1.0000
     0.0000   0.0000   0.0000   0.0000   0.0000   0.0000

          k = 0.2667 0.3849 0.0000 ( 11949 PWs)   bands (ev):

   -16.5778 -16.4059 -11.0212 -10.8862  -9.0914  -8.9620  -4.3860  -3.6082
     2.5770   2.9248   7.1258   7.5981   8.5345   8.9770

     occupation numbers 
     1.0000   1.0000   1.0000   1.0000   1.0000   1.0000   1.0000   1.0000
     0.0000   0.0000   0.0000   0.0000   0.0000   0.0000

          k = 0.2667 0.4619 0.0000 ( 11961 PWs)   bands (ev):

   -15.5136 -15.3493 -11.8011 -11.6704 -10.2217 -10.0941  -3.2124  -2.5280
     1.3263   1.6695   8.7234   9.0938   9.8347  10.3041

     occupation numbers 
     1.0000   1.0000   1.0000   1.0000   1.0000   1.0000   1.0000   1.0000
     0.0000   0.0000   0.0000   0.0000   0.0000   0.0000

          k = 0.2667 0.5389 0.0000 ( 11948 PWs)   bands (ev):

   -14.3643 -14.2124 -12.8553 -12.7186 -10.7677 -10.6354  -2.0486  -1.5478
     0.2163   0.5210   9.9710  10.2450  10.6802  10.9947

     occupation numbers 
     1.0000   1.0000   1.0000   1.0000   1.0000   1.0000   1.0000   1.0000
     0.0000   0.0000   0.0000   0.0000   0.0000   0.0000

          k = 0.2667 0.6158 0.0000 ( 11948 PWs)   bands (ev):

   -14.3643 -14.2124 -12.8553 -12.7186 -10.7677 -10.6354  -2.0486  -1.5478
     0.2163   0.5210   9.9710  10.2450  10.6802  10.9947

     occupation numbers 
     1.0000   1.0000   1.0000   1.0000   1.0000   1.0000   1.0000   1.0000
     0.0000   0.0000   0.0000   0.0000   0.0000   0.0000

          k = 0.2667 0.6928 0.0000 ( 11961 PWs)   bands (ev):

   -15.5136 -15.3493 -11.8011 -11.6704 -10.2217 -10.0941  -3.2124  -2.5280
     1.3263   1.6695   8.7234   9.0938   9.8347  10.3041

     occupation numbers 
     1.0000   1.0000   1.0000   1.0000   1.0000   1.0000   1.0000   1.0000
     0.0000   0.0000   0.0000   0.0000   0.0000   0.0000

          k = 0.2667-0.3849 0.0000 ( 11949 PWs)   bands (ev):

   -16.5778 -16.4059 -11.0212 -10.8862  -9.0914  -8.9620  -4.3860  -3.6082
     2.5770   2.9248   7.1258   7.5981   8.5345   8.9769

     occupation numbers 
     1.0000   1.0000   1.0000   1.0000   1.0000   1.0000   1.0000   1.0000
     0.0000   0.0000   0.0000   0.0000   0.0000   0.0000

          k = 0.2667-0.3079 0.0000 ( 11925 PWs)   bands (ev):

   -17.4783 -17.3002 -10.3149 -10.1774  -7.7659  -7.6380  -5.4111  -4.5697
     3.7704   4.1572   5.8073   6.3305   7.3079   7.7396

     occupation numbers 
     1.0000   1.0000   1.0000   1.0000   1.0000   1.0000   1.0000   1.0000
     0.0000   0.0000   0.0000   0.0000   0.0000   0.0000

          k = 0.2667-0.2309 0.0000 ( 11910 PWs)   bands (ev):

   -18.1922 -18.0093  -9.5275  -9.3907  -6.6357  -6.5106  -6.2382  -5.3529
     4.7693   4.8922   5.2927   5.3598   6.3292   6.7585

     occupation numbers 
     1.0000   1.0000   1.0000   1.0000   1.0000   1.0000   1.0000   1.0000
     0.0000   0.0000   0.0000   0.0000   0.0000   0.0000

          k = 0.2667-0.1540 0.0000 ( 11876 PWs)   bands (ev):

   -18.7082 -18.5217  -8.6581  -8.5238  -6.8423  -5.9993  -5.9282  -5.8756
     4.0438   4.6051   5.6082   5.8705   6.1195   6.3150

     occupation numbers 
     1.0000   1.0000   1.0000   1.0000   1.0000   1.0000   1.0000   1.0000
     0.0000   0.0000   0.0000   0.0000   0.0000   0.0000

          k = 0.2667-0.0770 0.0000 ( 11880 PWs)   bands (ev):

   -19.0200 -18.8313  -7.7990  -7.6689  -7.2094  -6.2791  -5.9691  -5.8451
     3.6031   4.1781   5.1986   5.5981   6.7571   6.8519

     occupation numbers 
     1.0000   1.0000   1.0000   1.0000   1.0000   1.0000   1.0000   1.0000
     0.0000   0.0000   0.0000   0.0000   0.0000   0.0000

          k = 0.2667 0.0000 0.0000 ( 11879 PWs)   bands (ev):

   -19.1242 -18.9349  -7.3342  -7.3109  -7.1875  -6.3969  -6.1739  -6.0510
     3.4562   4.0352   5.0590   5.4602   6.7355   7.0800

     occupation numbers 
     1.0000   1.0000   1.0000   1.0000   1.0000   1.0000   1.0000   1.0000
     0.0000   0.0000   0.0000   0.0000   0.0000   0.0000

          k = 0.2667 0.0770 0.0000 ( 11880 PWs)   bands (ev):

   -19.0200 -18.8313  -7.7990  -7.6689  -7.2094  -6.2791  -5.9691  -5.8451
     3.6031   4.1781   5.1986   5.5981   6.7572   6.8525

     occupation numbers 
     1.0000   1.0000   1.0000   1.0000   1.0000   1.0000   1.0000   1.0000
     0.0000   0.0000   0.0000   0.0000   0.0000   0.0000

          k = 0.3333 0.1925 0.0000 ( 11914 PWs)   bands (ev):

   -17.7821 -17.6019 -10.4341 -10.2929  -6.5763  -6.4520  -5.7721  -4.9161
     4.0127   4.4941   5.3685   5.9081   6.8487   7.0473

     occupation numbers 
     1.0000   1.0000   1.0000   1.0000   1.0000   1.0000   1.0000   1.0000
     0.0000   0.0000   0.0000   0.0000   0.0000   0.0000

          k = 0.3333 0.2694 0.0000 ( 11938 PWs)   bands (ev):

   -17.1743 -16.9983 -11.2563 -11.1123  -7.1426  -7.0169  -5.0891  -4.2811
     3.0553   3.5471   6.2485   6.7570   7.3887   7.5531

     occupation numbers 
     1.0000   1.0000   1.0000   1.0000   1.0000   1.0000   1.0000   1.0000
     0.0000   0.0000   0.0000   0.0000   0.0000   0.0000

          k = 0.3333 0.3464 0.0000 ( 11927 PWs)   bands (ev):

   -16.3805 -16.2101 -11.9372 -11.7918  -8.2140  -8.0848  -4.2122  -3.4761
     2.1078   2.5549   7.4204   7.8857   8.5354   8.7130

     occupation numbers 
     1.0000   1.0000   1.0000   1.0000   1.0000   1.0000   1.0000   1.0000
     0.0000   0.0000   0.0000   0.0000   0.0000   0.0000

          k = 0.3333 0.4234 0.0000 ( 11953 PWs)   bands (ev):

   -15.4242 -15.2611 -12.4579 -12.3138  -9.5216  -9.3885  -3.1790  -2.5446
     1.1799   1.5427   8.8732   9.2482   9.9609  10.1525

     occupation numbers 
     1.0000   1.0000   1.0000   1.0000   1.0000   1.0000   1.0000   1.0000
     0.0000   0.0000   0.0000   0.0000   0.0000   0.0000

          k = 0.3333 0.5004 0.0000 ( 11948 PWs)   bands (ev):

   -14.3643 -14.2124 -12.8553 -12.7186 -10.7677 -10.6354  -2.0486  -1.5478
     0.2163   0.5210   9.9710  10.2450  10.6802  10.9947

     occupation numbers 
     1.0000   1.0000   1.0000   1.0000   1.0000   1.0000   1.0000   1.0000
     0.0000   0.0000   0.0000   0.0000   0.0000   0.0000

          k = 0.3333 0.5774 0.0000 ( 11919 PWs)   bands (ev):

   -13.4104 -13.3907 -13.2669 -13.2520 -11.3875 -11.2625  -1.0377  -0.7714
    -0.6309  -0.3446   9.8314  10.0378  11.9261  12.2678

     occupation numbers 
     1.0000   1.0000   1.0000   1.0000   1.0000   1.0000   0.9998   0.7674
     0.2327   0.0001   0.0000   0.0000   0.0000   0.0000

          k = 0.3333 0.6543 0.0000 ( 11948 PWs)   bands (ev):

   -14.3643 -14.2124 -12.8553 -12.7186 -10.7677 -10.6354  -2.0486  -1.5478
     0.2163   0.5210   9.9710  10.2450  10.6802  10.9947

     occupation numbers 
     1.0000   1.0000   1.0000   1.0000   1.0000   1.0000   1.0000   1.0000
     0.0000   0.0000   0.0000   0.0000   0.0000   0.0000

          k = 0.3333 0.7313 0.0000 ( 11953 PWs)   bands (ev):

   -15.4242 -15.2611 -12.4579 -12.3138  -9.5216  -9.3885  -3.1790  -2.5446
     1.1799   1.5427   8.8732   9.2482   9.9609  10.1524

     occupation numbers 
     1.0000   1.0000   1.0000   1.0000   1.0000   1.0000   1.0000   1.0000
     0.0000   0.0000   0.0000   0.0000   0.0000   0.0000

          k = 0.3333-0.3464 0.0000 ( 11927 PWs)   bands (ev):

   -16.3805 -16.2101 -11.9372 -11.7918  -8.2140  -8.0848  -4.2122  -3.4761
     2.1078   2.5549   7.4204   7.8857   8.5354   8.7133

     occupation numbers 
     1.0000   1.0000   1.0000   1.0000   1.0000   1.0000   1.0000   1.0000
     0.0000   0.0000   0.0000   0.0000   0.0000   0.0000

          k = 0.3333-0.2694 0.0000 ( 11938 PWs)   bands (ev):

   -17.1743 -16.9983 -11.2563 -11.1123  -7.1426  -7.0169  -5.0891  -4.2811
     3.0553   3.5471   6.2485   6.7570   7.3887   7.5528

     occupation numbers 
     1.0000   1.0000   1.0000   1.0000   1.0000   1.0000   1.0000   1.0000
     0.0000   0.0000   0.0000   0.0000   0.0000   0.0000

          k = 0.3333-0.1925 0.0000 ( 11914 PWs)   bands (ev):

   -17.7821 -17.6019 -10.4341 -10.2929  -6.5763  -6.4520  -5.7721  -4.9161
     4.0127   4.4941   5.3685   5.9081   6.8487   7.0474

     occupation numbers 
     1.0000   1.0000   1.0000   1.0000   1.0000   1.0000   1.0000   1.0000
     0.0000   0.0000   0.0000   0.0000   0.0000   0.0000

          k = 0.3333-0.1155 0.0000 ( 11910 PWs)   bands (ev):

   -18.1922 -18.0093  -9.5275  -9.3907  -6.6357  -6.5106  -6.2382  -5.3529
     4.7693   4.8922   5.2927   5.3598   6.3292   6.7584

     occupation numbers 
     1.0000   1.0000   1.0000   1.0000   1.0000   1.0000   1.0000   1.0000
     0.0000   0.0000   0.0000   0.0000   0.0000   0.0000

          k = 0.3333-0.0385 0.0000 ( 11929 PWs)   bands (ev):

   -18.3986 -18.2142  -8.7140  -8.5847  -7.0865  -6.9612  -6.4743  -5.5750
     4.4848   5.0378   5.4960   5.7955   6.0502   6.4636

     occupation numbers 
     1.0000   1.0000   1.0000   1.0000   1.0000   1.0000   1.0000   1.0000
     0.0000   0.0000   0.0000   0.0000   0.0000   0.0000

          k = 0.3333 0.0385 0.0000 ( 11929 PWs)   bands (ev):

   -18.3986 -18.2142  -8.7140  -8.5847  -7.0865  -6.9612  -6.4743  -5.5750
     4.4848   5.0378   5.4960   5.7955   6.0502   6.4636

     occupation numbers 
     1.0000   1.0000   1.0000   1.0000   1.0000   1.0000   1.0000   1.0000
     0.0000   0.0000   0.0000   0.0000   0.0000   0.0000

          k = 0.3333 0.1155 0.0000 ( 11910 PWs)   bands (ev):

   -18.1922 -18.0093  -9.5275  -9.3907  -6.6357  -6.5106  -6.2382  -5.3529
     4.7693   4.8922   5.2926   5.3598   6.3292   6.7584

     occupation numbers 
     1.0000   1.0000   1.0000   1.0000   1.0000   1.0000   1.0000   1.0000
     0.0000   0.0000   0.0000   0.0000   0.0000   0.0000

          k = 0.4000 0.2309 0.0000 ( 11910 PWs)   bands (ev):

   -16.6749 -16.5024 -12.1438 -11.9958  -6.9833  -6.8587  -4.5713  -3.8258
     2.2354   2.7657   6.8242   6.9839   7.0554   7.4978

     occupation numbers 
     1.0000   1.0000   1.0000   1.0000   1.0000   1.0000   1.0000   1.0000
     0.0000   0.0000   0.0000   0.0000   0.0000   0.0000

          k = 0.4000 0.3079 0.0000 ( 11920 PWs)   bands (ev):

   -15.9953 -15.8284 -12.8839 -12.7338  -7.4573  -7.3313  -3.8926  -3.2500
     1.4914   1.9813   7.2280   7.4679   8.0099   8.4770

     occupation numbers 
     1.0000   1.0000   1.0000   1.0000   1.0000   1.0000   1.0000   1.0000
     0.0000   0.0000   0.0000   0.0000   0.0000   0.0000

          k = 0.4000 0.3849 0.0000 ( 11935 PWs)   bands (ev):

   -15.1809 -15.0242 -13.4107 -13.2638  -8.4379  -8.3080  -3.1224  -2.6295
     0.9235   1.2803   8.4262   8.6987   9.3200   9.7094

     occupation numbers 
     1.0000   1.0000   1.0000   1.0000   1.0000   1.0000   1.0000   1.0000
     0.0000   0.0000   0.0000   0.0000   0.0000   0.0000

          k = 0.4000 0.4619 0.0000 ( 11949 PWs)   bands (ev):

   -14.4740 -14.3378 -13.4979 -13.3681  -9.6554  -9.5213  -2.4184  -2.0411
     0.5561   0.7236  10.0172  10.3294  10.5740  10.7777

     occupation numbers 
     1.0000   1.0000   1.0000   1.0000   1.0000   1.0000   1.0000   1.0000
     0.0000   0.0000   0.0000   0.0000   0.0000   0.0000

          k = 0.4000 0.5389 0.0000 ( 11948 PWs)   bands (ev):

   -14.3643 -14.2124 -12.8553 -12.7186 -10.7677 -10.6354  -2.0486  -1.5478
     0.2163   0.5210   9.9710  10.2450  10.6802  10.9947

     occupation numbers 
     1.0000   1.0000   1.0000   1.0000   1.0000   1.0000   1.0000   1.0000
     0.0000   0.0000   0.0000   0.0000   0.0000   0.0000

          k = 0.4000 0.6158 0.0000 ( 11948 PWs)   bands (ev):

   -14.3643 -14.2124 -12.8553 -12.7186 -10.7677 -10.6354  -2.0486  -1.5478
     0.2163   0.5210   9.9710  10.2450  10.6802  10.9947

     occupation numbers 
     1.0000   1.0000   1.0000   1.0000   1.0000   1.0000   1.0000   1.0000
     0.0000   0.0000   0.0000   0.0000   0.0000   0.0000

          k = 0.4000 0.6928 0.0000 ( 11949 PWs)   bands (ev):

   -14.4740 -14.3378 -13.4979 -13.3681  -9.6554  -9.5213  -2.4184  -2.0411
     0.5561   0.7236  10.0172  10.3294  10.5741  10.7777

     occupation numbers 
     1.0000   1.0000   1.0000   1.0000   1.0000   1.0000   1.0000   1.0000
     0.0000   0.0000   0.0000   0.0000   0.0000   0.0000

          k = 0.4000 0.7698 0.0000 ( 11935 PWs)   bands (ev):

   -15.1809 -15.0242 -13.4107 -13.2638  -8.4379  -8.3080  -3.1224  -2.6295
     0.9235   1.2803   8.4262   8.6987   9.3200   9.7094

     occupation numbers 
     1.0000   1.0000   1.0000   1.0000   1.0000   1.0000   1.0000   1.0000
     0.0000   0.0000   0.0000   0.0000   0.0000   0.0000

          k = 0.4000-0.3079 0.0000 ( 11920 PWs)   bands (ev):

   -15.9953 -15.8284 -12.8839 -12.7338  -7.4573  -7.3313  -3.8926  -3.2500
     1.4914   1.9813   7.2280   7.4679   8.0099   8.4770

     occupation numbers 
     1.0000   1.0000   1.0000   1.0000   1.0000   1.0000   1.0000   1.0000
     0.0000   0.0000   0.0000   0.0000   0.0000   0.0000

          k = 0.4000-0.2309 0.0000 ( 11910 PWs)   bands (ev):

   -16.6749 -16.5024 -12.1438 -11.9958  -6.9833  -6.8588  -4.5713  -3.8258
     2.2354   2.7657   6.8242   6.9839   7.0554   7.4978

     occupation numbers 
     1.0000   1.0000   1.0000   1.0000   1.0000   1.0000   1.0000   1.0000
     0.0000   0.0000   0.0000   0.0000   0.0000   0.0000

          k = 0.4000-0.1540 0.0000 ( 11938 PWs)   bands (ev):

   -17.1743 -16.9983 -11.2563 -11.1123  -7.1426  -7.0169  -5.0891  -4.2811
     3.0553   3.5471   6.2485   6.7570   7.3887   7.5531

     occupation numbers 
     1.0000   1.0000   1.0000   1.0000   1.0000   1.0000   1.0000   1.0000
     0.0000   0.0000   0.0000   0.0000   0.0000   0.0000

          k = 0.4000-0.0770 0.0000 ( 11925 PWs)   bands (ev):

   -17.4783 -17.3002 -10.3149 -10.1774  -7.7659  -7.6380  -5.4111  -4.5697
     3.7704   4.1572   5.8073   6.3305   7.3079   7.7396

     occupation numbers 
     1.0000   1.0000   1.0000   1.0000   1.0000   1.0000   1.0000   1.0000
     0.0000   0.0000   0.0000   0.0000   0.0000   0.0000

          k = 0.4000 0.0000 0.0000 ( 11953 PWs)   bands (ev):

   -17.5802 -17.4015  -9.7294  -9.6019  -8.2656  -8.1402  -5.5202  -4.6682
     4.0822   4.3865   5.6598   6.1840   7.1689   7.5908

     occupation numbers 
     1.0000   1.0000   1.0000   1.0000   1.0000   1.0000   1.0000   1.0000
     0.0000   0.0000   0.0000   0.0000   0.0000   0.0000

          k = 0.4000 0.0770 0.0000 ( 11925 PWs)   bands (ev):

   -17.4783 -17.3002 -10.3149 -10.1774  -7.7659  -7.6380  -5.4111  -4.5697
     3.7704   4.1572   5.8073   6.3305   7.3079   7.7397

     occupation numbers 
     1.0000   1.0000   1.0000   1.0000   1.0000   1.0000   1.0000   1.0000
     0.0000   0.0000   0.0000   0.0000   0.0000   0.0000

          k = 0.4000 0.1540 0.0000 ( 11938 PWs)   bands (ev):

   -17.1743 -16.9983 -11.2563 -11.1123  -7.1426  -7.0169  -5.0891  -4.2811
     3.0553   3.5471   6.2485   6.7570   7.3887   7.5532

     occupation numbers 
     1.0000   1.0000   1.0000   1.0000   1.0000   1.0000   1.0000   1.0000
     0.0000   0.0000   0.0000   0.0000   0.0000   0.0000

          k = 0.4667 0.2694 0.0000 ( 11924 PWs)   bands (ev):

   -15.4595 -15.3010 -13.6639 -13.5150  -7.1927  -7.0680  -3.4991  -3.0064
     1.0116   1.4518   6.7237   6.9626   8.8885   9.3231

     occupation numbers 
     1.0000   1.0000   1.0000   1.0000   1.0000   1.0000   1.0000   1.0000
     0.0000   0.0000   0.0000   0.0000   0.0000   0.0000

          k = 0.4667 0.3464 0.0000 ( 11913 PWs)   bands (ev):

   -15.0145 -14.8769 -13.9948 -13.8624  -7.5638  -7.4377  -3.1887  -2.8039
     0.8263   1.1832   7.1742   7.4203  10.0468  10.0590

     occupation numbers 
     1.0000   1.0000   1.0000   1.0000   1.0000   1.0000   1.0000   1.0000
     0.0000   0.0000   0.0000   0.0000   0.0000   0.0000

          k = 0.4667 0.4234 0.0000 ( 11935 PWs)   bands (ev):

   -15.1809 -15.0242 -13.4107 -13.2638  -8.4379  -8.3080  -3.1224  -2.6295
     0.9235   1.2803   8.4262   8.6987   9.3200   9.7094

     occupation numbers 
     1.0000   1.0000   1.0000   1.0000   1.0000   1.0000   1.0000   1.0000
     0.0000   0.0000   0.0000   0.0000   0.0000   0.0000

          k = 0.4667 0.5004 0.0000 ( 11953 PWs)   bands (ev):

   -15.4242 -15.2611 -12.4579 -12.3138  -9.5216  -9.3885  -3.1790  -2.5446
     1.1799   1.5427   8.8732   9.2482   9.9609  10.1523

     occupation numbers 
     1.0000   1.0000   1.0000   1.0000   1.0000   1.0000   1.0000   1.0000
     0.0000   0.0000   0.0000   0.0000   0.0000   0.0000

          k = 0.4667 0.5774 0.0000 ( 11961 PWs)   bands (ev):

   -15.5136 -15.3493 -11.8011 -11.6704 -10.2217 -10.0941  -3.2124  -2.5280
     1.3263   1.6695   8.7234   9.0938   9.8347  10.3040

     occupation numbers 
     1.0000   1.0000   1.0000   1.0000   1.0000   1.0000   1.0000   1.0000
     0.0000   0.0000   0.0000   0.0000   0.0000   0.0000

          k = 0.4667 0.6543 0.0000 ( 11953 PWs)   bands (ev):

   -15.4242 -15.2611 -12.4579 -12.3138  -9.5216  -9.3885  -3.1790  -2.5446
     1.1799   1.5427   8.8732   9.2482   9.9609  10.1524

     occupation numbers 
     1.0000   1.0000   1.0000   1.0000   1.0000   1.0000   1.0000   1.0000
     0.0000   0.0000   0.0000   0.0000   0.0000   0.0000

          k = 0.4667 0.7313 0.0000 ( 11935 PWs)   bands (ev):

   -15.1809 -15.0242 -13.4107 -13.2638  -8.4379  -8.3080  -3.1224  -2.6295
     0.9235   1.2803   8.4262   8.6987   9.3200   9.7094

     occupation numbers 
     1.0000   1.0000   1.0000   1.0000   1.0000   1.0000   1.0000   1.0000
     0.0000   0.0000   0.0000   0.0000   0.0000   0.0000

          k = 0.4667 0.8083 0.0000 ( 11913 PWs)   bands (ev):

   -15.0145 -14.8769 -13.9948 -13.8624  -7.5638  -7.4377  -3.1887  -2.8039
     0.8263   1.1832   7.1742   7.4203  10.0468  10.0588

     occupation numbers 
     1.0000   1.0000   1.0000   1.0000   1.0000   1.0000   1.0000   1.0000
     0.0000   0.0000   0.0000   0.0000   0.0000   0.0000

          k = 0.4667-0.2694 0.0000 ( 11924 PWs)   bands (ev):

   -15.4595 -15.3010 -13.6639 -13.5150  -7.1927  -7.0680  -3.4991  -3.0064
     1.0116   1.4518   6.7237   6.9626   8.8885   9.3231

     occupation numbers 
     1.0000   1.0000   1.0000   1.0000   1.0000   1.0000   1.0000   1.0000
     0.0000   0.0000   0.0000   0.0000   0.0000   0.0000

          k = 0.4667-0.1925 0.0000 ( 11920 PWs)   bands (ev):

   -15.9953 -15.8284 -12.8839 -12.7338  -7.4573  -7.3313  -3.8926  -3.2500
     1.4914   1.9813   7.2280   7.4679   8.0099   8.4770

     occupation numbers 
     1.0000   1.0000   1.0000   1.0000   1.0000   1.0000   1.0000   1.0000
     0.0000   0.0000   0.0000   0.0000   0.0000   0.0000

          k = 0.4667-0.1155 0.0000 ( 11927 PWs)   bands (ev):

   -16.3805 -16.2101 -11.9372 -11.7918  -8.2140  -8.0848  -4.2122  -3.4761
     2.1078   2.5549   7.4204   7.8857   8.5354   8.7133

     occupation numbers 
     1.0000   1.0000   1.0000   1.0000   1.0000   1.0000   1.0000   1.0000
     0.0000   0.0000   0.0000   0.0000   0.0000   0.0000

          k = 0.4667-0.0385 0.0000 ( 11949 PWs)   bands (ev):

   -16.5778 -16.4059 -11.0212 -10.8862  -9.0914  -8.9620  -4.3860  -3.6082
     2.5770   2.9248   7.1258   7.5981   8.5345   8.9770

     occupation numbers 
     1.0000   1.0000   1.0000   1.0000   1.0000   1.0000   1.0000   1.0000
     0.0000   0.0000   0.0000   0.0000   0.0000   0.0000

          k = 0.4667 0.0385 0.0000 ( 11949 PWs)   bands (ev):

   -16.5778 -16.4059 -11.0212 -10.8862  -9.0914  -8.9620  -4.3860  -3.6082
     2.5770   2.9248   7.1258   7.5981   8.5345   8.9769

     occupation numbers 
     1.0000   1.0000   1.0000   1.0000   1.0000   1.0000   1.0000   1.0000
     0.0000   0.0000   0.0000   0.0000   0.0000   0.0000

          k = 0.4667 0.1155 0.0000 ( 11927 PWs)   bands (ev):

   -16.3805 -16.2101 -11.9372 -11.7918  -8.2140  -8.0848  -4.2122  -3.4761
     2.1078   2.5549   7.4204   7.8857   8.5354   8.7135

     occupation numbers 
     1.0000   1.0000   1.0000   1.0000   1.0000   1.0000   1.0000   1.0000
     0.0000   0.0000   0.0000   0.0000   0.0000   0.0000

          k = 0.4667 0.1925 0.0000 ( 11920 PWs)   bands (ev):

   -15.9953 -15.8284 -12.8839 -12.7338  -7.4573  -7.3313  -3.8926  -3.2500
     1.4914   1.9813   7.2280   7.4679   8.0099   8.4770

     occupation numbers 
     1.0000   1.0000   1.0000   1.0000   1.0000   1.0000   1.0000   1.0000
     0.0000   0.0000   0.0000   0.0000   0.0000   0.0000

     the Fermi energy is    -0.7011 ev

!    total energy              =     -48.20772614 Ry
     estimated scf accuracy    <          1.4E-10 Ry
     smearing contrib. (-TS)   =      -0.00007699 Ry
     internal energy E=F+TS    =     -48.20764916 Ry

     The total energy is F=E-TS. E is the sum of the following terms:
     one-electron contribution =    -707.98712188 Ry
     hartree contribution      =     357.59311246 Ry
     xc contribution           =     -17.18694852 Ry
     ewald contribution        =     319.74401924 Ry
     DFT-D3 Dispersion         =      -0.01770962 Ry
     electric field correction =      -0.35300084 Ry

     convergence has been achieved in   5 iterations

     Forces acting on atoms (cartesian axes, Ry/au):

     atom    1 type  1   force =    -0.00000026   -0.00000030   -0.00109756
     atom    2 type  1   force =     0.00000016    0.00000043   -0.00085090
     atom    3 type  1   force =    -0.00000041    0.00000026    0.00088092
     atom    4 type  1   force =     0.00000051   -0.00000039    0.00106753
     The non-local contrib.  to forces
     atom    1 type  1   force =    -0.00000015   -0.00000022   -0.00587353
     atom    2 type  1   force =     0.00000010    0.00000037   -0.00562050
     atom    3 type  1   force =    -0.00000022    0.00000015   -0.00246147
     atom    4 type  1   force =     0.00000039   -0.00000036   -0.00222897
     The ionic contribution  to forces
     atom    1 type  1   force =    -0.00000066   -0.00000094  -15.32102955
     atom    2 type  1   force =     0.00000066    0.00000094  -15.31561991
     atom    3 type  1   force =    -0.00000165    0.00000087   15.31680801
     atom    4 type  1   force =     0.00000165   -0.00000087   15.31984144
     The local contribution  to forces
     atom    1 type  1   force =     0.00000056    0.00000083   15.28434059
     atom    2 type  1   force =    -0.00000057   -0.00000086   15.27906885
     atom    3 type  1   force =     0.00000143   -0.00000074  -15.35229917
     atom    4 type  1   force =    -0.00000147    0.00000082  -15.35524134
     The core correction contribution to forces
     atom    1 type  1   force =     0.00000001    0.00000002    0.00020439
     atom    2 type  1   force =    -0.00000001   -0.00000002    0.00015754
     atom    3 type  1   force =     0.00000003   -0.00000001    0.00002219
     atom    4 type  1   force =    -0.00000003    0.00000002   -0.00001760
     The Hubbard contrib.    to forces
     atom    1 type  1   force =     0.00000000    0.00000000    0.00000000
     atom    2 type  1   force =     0.00000000    0.00000000    0.00000000
     atom    3 type  1   force =     0.00000000    0.00000000    0.00000000
     atom    4 type  1   force =     0.00000000    0.00000000    0.00000000
     The SCF correction term to forces
     atom    1 type  1   force =     0.00000000    0.00000000    0.00001126
     atom    2 type  1   force =     0.00000000    0.00000000    0.00001174
     atom    3 type  1   force =     0.00000001   -0.00000001   -0.00001878
     atom    4 type  1   force =     0.00000000   -0.00000001   -0.00001825

     DFT-D3 dispersion contribution to forces:
     atom    1 type  1   force =     0.00000000    0.00000000    0.00125851
     atom    2 type  1   force =    -0.00000000   -0.00000000    0.00116062
     atom    3 type  1   force =     0.00000000   -0.00000000   -0.00116062
     atom    4 type  1   force =    -0.00000000    0.00000000   -0.00125852

     Total force =     0.001961     Total SCF correction =     0.000031

     DFT-D3 dispersion Force =     0.002421
     Energy error            =      4.2E-06 Ry
     Gradient error          =      1.1E-03 Ry/Bohr

     number of scf cycles    =   2
     number of bfgs steps    =   1

     energy             old  =     -48.2077219687 Ry
     energy             new  =     -48.2077261450 Ry

     CASE: energy            _new < energy            _old


     WARNING: bfgs curvature condition failed, Theta= 0.879
     new trust radius        =       0.0015251105 bohr
     new conv_thr            =            1.0E-10 Ry


ATOMIC_POSITIONS (angstrom)
C               -0.0000001855       -0.0000001204        9.9984592611
C                1.2299998306        0.7101407850        9.9992073733
C                1.2300001809        0.7101409442       13.3508791630
C                0.0000001740        1.4202817155       13.3514542027



     Writing config-only to output data dir /home/ubuntu/projects/Graphene-Band-Structure-Quantum-Espresso/outputs/field_0.005/data/field_0.005.save/ :
     XML data file
     NEW-OLD atomic charge density approx. for the potential

     negative rho (up, down):  1.124E-07 0.000E+00

     Adding external electric field
        E field amplitude [Ha a.u.]:  5.0000E-03
        Potential amp.        0.3971 Ry
        Total length         39.7126 bohr


     total cpu time spent up to now is       66.5 secs

     Self-consistent Calculation

     iteration #  1     ecut=    90.00 Ry     beta= 0.70
     Davidson diagonalization with overlap

---- Real-time Memory Report at c_bands before calling an iterative solver
           153 MiB given to the printing process from OS
             0 MiB allocation reported by mallinfo(arena+hblkhd)
         29370 MiB available memory on the node where the printing process lives
------------------
     ethr =  1.00E-06,  avg # of iterations =  2.6

     Threshold (ethr) on eigenvalues was too large:
     Diagonalizing with lowered threshold

     Davidson diagonalization with overlap

---- Real-time Memory Report at c_bands before calling an iterative solver
           153 MiB given to the printing process from OS
             0 MiB allocation reported by mallinfo(arena+hblkhd)
         29602 MiB available memory on the node where the printing process lives
------------------
     ethr =  5.57E-09,  avg # of iterations =  2.7

     negative rho (up, down):  2.878E-08 0.000E+00

     total cpu time spent up to now is       74.5 secs

     total energy              =     -48.20773044 Ry
     estimated scf accuracy    <       0.00000124 Ry

     iteration #  2     ecut=    90.00 Ry     beta= 0.70
     Davidson diagonalization with overlap

---- Real-time Memory Report at c_bands before calling an iterative solver
           153 MiB given to the printing process from OS
             0 MiB allocation reported by mallinfo(arena+hblkhd)
         29271 MiB available memory on the node where the printing process lives
------------------
     ethr =  7.77E-09,  avg # of iterations =  2.0

     negative rho (up, down):  1.676E-08 0.000E+00

     total cpu time spent up to now is       77.8 secs

     total energy              =     -48.20773063 Ry
     estimated scf accuracy    <       0.00000107 Ry

     iteration #  3     ecut=    90.00 Ry     beta= 0.70
     Davidson diagonalization with overlap

---- Real-time Memory Report at c_bands before calling an iterative solver
           153 MiB given to the printing process from OS
             0 MiB allocation reported by mallinfo(arena+hblkhd)
         29279 MiB available memory on the node where the printing process lives
------------------
     ethr =  6.71E-09,  avg # of iterations =  2.0

     total cpu time spent up to now is       81.6 secs

     total energy              =     -48.20773088 Ry
     estimated scf accuracy    <       0.00000002 Ry

     iteration #  4     ecut=    90.00 Ry     beta= 0.70
     Davidson diagonalization with overlap

---- Real-time Memory Report at c_bands before calling an iterative solver
           153 MiB given to the printing process from OS
             0 MiB allocation reported by mallinfo(arena+hblkhd)
         29278 MiB available memory on the node where the printing process lives
------------------
     ethr =  1.16E-10,  avg # of iterations =  2.0

     total cpu time spent up to now is       85.1 secs

     total energy              =     -48.20773089 Ry
     estimated scf accuracy    <          6.6E-09 Ry

     iteration #  5     ecut=    90.00 Ry     beta= 0.70
     Davidson diagonalization with overlap

---- Real-time Memory Report at c_bands before calling an iterative solver
           153 MiB given to the printing process from OS
             0 MiB allocation reported by mallinfo(arena+hblkhd)
         29285 MiB available memory on the node where the printing process lives
------------------
     ethr =  4.10E-11,  avg # of iterations =  1.8

     total cpu time spent up to now is       88.8 secs

     total energy              =     -48.20773089 Ry
     estimated scf accuracy    <          3.6E-10 Ry

     iteration #  6     ecut=    90.00 Ry     beta= 0.70
     Davidson diagonalization with overlap

---- Real-time Memory Report at c_bands before calling an iterative solver
           153 MiB given to the printing process from OS
             0 MiB allocation reported by mallinfo(arena+hblkhd)
         29244 MiB available memory on the node where the printing process lives
------------------
     ethr =  2.25E-12,  avg # of iterations =  2.1

     total cpu time spent up to now is       92.1 secs

     End of self-consistent calculation

          k = 0.0000 0.0000 0.0000 ( 11659 PWs)   bands (ev):

   -20.3844 -20.1863  -8.8479  -7.8620  -3.7988  -3.7988  -3.6783  -3.6783
     1.6918   2.3047   3.3529   3.7378   5.0360   6.1725

     occupation numbers 
     1.0000   1.0000   1.0000   1.0000   1.0000   1.0000   1.0000   1.0000
     0.0000   0.0000   0.0000   0.0000   0.0000   0.0000

          k = 0.0000 0.0770 0.0000 ( 11791 PWs)   bands (ev):

   -20.2786 -20.0814  -8.7198  -7.7378  -4.2253  -4.1039  -4.0236  -3.9026
     1.8389   2.4491   3.4952   3.8816   5.1778   6.3112

     occupation numbers 
     1.0000   1.0000   1.0000   1.0000   1.0000   1.0000   1.0000   1.0000
     0.0000   0.0000   0.0000   0.0000   0.0000   0.0000

          k = 0.0000 0.1540 0.0000 ( 11788 PWs)   bands (ev):

   -19.9622 -19.7672  -8.3372  -7.3674  -5.3591  -5.2352  -4.5933  -4.4714
     2.2800   2.8820   3.9219   4.3127   5.6030   6.7239

     occupation numbers 
     1.0000   1.0000   1.0000   1.0000   1.0000   1.0000   1.0000   1.0000
     0.0000   0.0000   0.0000   0.0000   0.0000   0.0000

          k = 0.0000 0.2309 0.0000 ( 11848 PWs)   bands (ev):

   -19.4372 -19.2460  -7.7066  -6.9156  -6.7882  -6.7574  -5.3059  -5.1829
     3.0152   3.6026   4.6315   5.0290   6.3058   7.3611

     occupation numbers 
     1.0000   1.0000   1.0000   1.0000   1.0000   1.0000   1.0000   1.0000
     0.0000   0.0000   0.0000   0.0000   0.0000   0.0000

          k = 0.0000 0.3079 0.0000 ( 11876 PWs)   bands (ev):

   -18.7080 -18.5218  -8.6580  -8.5239  -6.8415  -5.9993  -5.9291  -5.8756
     4.0438   4.6050   5.6078   5.8713   6.1192   6.3148

     occupation numbers 
     1.0000   1.0000   1.0000   1.0000   1.0000   1.0000   1.0000   1.0000
     0.0000   0.0000   0.0000   0.0000   0.0000   0.0000

          k = 0.0000 0.3849 0.0000 ( 11914 PWs)   bands (ev):

   -17.7819 -17.6021 -10.4340 -10.2930  -6.5762  -6.4521  -5.7713  -4.9169
     4.0133   4.4935   5.3686   5.9080   6.8482   7.0474

     occupation numbers 
     1.0000   1.0000   1.0000   1.0000   1.0000   1.0000   1.0000   1.0000
     0.0000   0.0000   0.0000   0.0000   0.0000   0.0000

          k = 0.0000 0.4619 0.0000 ( 11910 PWs)   bands (ev):

   -16.6747 -16.5025 -12.1437 -11.9958  -6.9832  -6.8588  -4.5706  -3.8265
     2.2361   2.7651   6.8245   6.9840   7.0553   7.4977

     occupation numbers 
     1.0000   1.0000   1.0000   1.0000   1.0000   1.0000   1.0000   1.0000
     0.0000   0.0000   0.0000   0.0000   0.0000   0.0000

          k = 0.0000 0.5389 0.0000 ( 11924 PWs)   bands (ev):

   -15.4594 -15.3011 -13.6638 -13.5150  -7.1926  -7.0680  -3.4986  -3.0067
     1.0121   1.4512   6.7240   6.9624   8.8886   9.3230

     occupation numbers 
     1.0000   1.0000   1.0000   1.0000   1.0000   1.0000   1.0000   1.0000
     0.0000   0.0000   0.0000   0.0000   0.0000   0.0000

          k = 0.0667 0.0385 0.0000 ( 11791 PWs)   bands (ev):

   -20.2786 -20.0814  -8.7198  -7.7378  -4.2253  -4.1039  -4.0236  -3.9026
     1.8389   2.4491   3.4952   3.8816   5.1778   6.3111

     occupation numbers 
     1.0000   1.0000   1.0000   1.0000   1.0000   1.0000   1.0000   1.0000
     0.0000   0.0000   0.0000   0.0000   0.0000   0.0000

          k = 0.0667 0.1155 0.0000 ( 11813 PWs)   bands (ev):

   -20.0675 -19.8718  -8.4644  -7.4904  -4.9531  -4.8314  -4.4728  -4.3517
     2.1330   2.7378   3.7798   4.1691   5.4616   6.5878

     occupation numbers 
     1.0000   1.0000   1.0000   1.0000   1.0000   1.0000   1.0000   1.0000
     0.0000   0.0000   0.0000   0.0000   0.0000   0.0000

          k = 0.0667 0.1925 0.0000 ( 11832 PWs)   bands (ev):

   -19.6468 -19.4541  -7.9576  -7.0007  -6.2081  -6.0835  -5.2055  -5.0831
     2.7212   3.3148   4.3485   4.7435   6.0280   7.1344

     occupation numbers 
     1.0000   1.0000   1.0000   1.0000   1.0000   1.0000   1.0000   1.0000
     0.0000   0.0000   0.0000   0.0000   0.0000   0.0000

          k = 0.0667 0.2694 0.0000 ( 11880 PWs)   bands (ev):

   -19.0198 -18.8315  -7.7989  -7.6689  -7.2086  -6.2800  -5.9691  -5.8451
     3.6032   4.1780   5.1983   5.5982   6.7579   6.8508

     occupation numbers 
     1.0000   1.0000   1.0000   1.0000   1.0000   1.0000   1.0000   1.0000
     0.0000   0.0000   0.0000   0.0000   0.0000   0.0000

          k = 0.0667 0.3464 0.0000 ( 11910 PWs)   bands (ev):

   -18.1920 -18.0094  -9.5274  -9.3907  -6.6356  -6.5106  -6.2374  -5.3537
     4.7694   4.8927   5.2922   5.3596   6.3289   6.7585

     occupation numbers 
     1.0000   1.0000   1.0000   1.0000   1.0000   1.0000   1.0000   1.0000
     0.0000   0.0000   0.0000   0.0000   0.0000   0.0000

          k = 0.0667 0.4234 0.0000 ( 11938 PWs)   bands (ev):

   -17.1742 -16.9984 -11.2562 -11.1124  -7.1425  -7.0169  -5.0883  -4.2818
     3.0560   3.5466   6.2485   6.7569   7.3889   7.5528

     occupation numbers 
     1.0000   1.0000   1.0000   1.0000   1.0000   1.0000   1.0000   1.0000
     0.0000   0.0000   0.0000   0.0000   0.0000   0.0000

          k = 0.0667 0.5004 0.0000 ( 11920 PWs)   bands (ev):

   -15.9951 -15.8284 -12.8837 -12.7339  -7.4572  -7.3313  -3.8920  -3.2505
     1.4919   1.9808   7.2283   7.4677   8.0100   8.4769

     occupation numbers 
     1.0000   1.0000   1.0000   1.0000   1.0000   1.0000   1.0000   1.0000
     0.0000   0.0000   0.0000   0.0000   0.0000   0.0000

          k = 0.0667 0.5774 0.0000 ( 11913 PWs)   bands (ev):

   -15.0144 -14.8769 -13.9947 -13.8624  -7.5638  -7.4377  -3.1883  -2.8040
     0.8267   1.1826   7.1745   7.4201  10.0469  10.0587

     occupation numbers 
     1.0000   1.0000   1.0000   1.0000   1.0000   1.0000   1.0000   1.0000
     0.0000   0.0000   0.0000   0.0000   0.0000   0.0000

          k = 0.0667-0.5004 0.0000 ( 11920 PWs)   bands (ev):

   -15.9951 -15.8284 -12.8837 -12.7339  -7.4572  -7.3313  -3.8920  -3.2505
     1.4919   1.9808   7.2283   7.4677   8.0100   8.4769

     occupation numbers 
     1.0000   1.0000   1.0000   1.0000   1.0000   1.0000   1.0000   1.0000
     0.0000   0.0000   0.0000   0.0000   0.0000   0.0000

          k = 0.0667-0.4234 0.0000 ( 11938 PWs)   bands (ev):

   -17.1742 -16.9984 -11.2562 -11.1124  -7.1425  -7.0169  -5.0883  -4.2818
     3.0560   3.5466   6.2485   6.7569   7.3889   7.5529

     occupation numbers 
     1.0000   1.0000   1.0000   1.0000   1.0000   1.0000   1.0000   1.0000
     0.0000   0.0000   0.0000   0.0000   0.0000   0.0000

          k = 0.0667-0.3464 0.0000 ( 11910 PWs)   bands (ev):

   -18.1920 -18.0094  -9.5274  -9.3907  -6.6356  -6.5106  -6.2374  -5.3537
     4.7694   4.8927   5.2922   5.3596   6.3289   6.7585

     occupation numbers 
     1.0000   1.0000   1.0000   1.0000   1.0000   1.0000   1.0000   1.0000
     0.0000   0.0000   0.0000   0.0000   0.0000   0.0000

          k = 0.0667-0.2694 0.0000 ( 11880 PWs)   bands (ev):

   -19.0198 -18.8315  -7.7989  -7.6689  -7.2086  -6.2800  -5.9691  -5.8451
     3.6032   4.1780   5.1983   5.5982   6.7579   6.8503

     occupation numbers 
     1.0000   1.0000   1.0000   1.0000   1.0000   1.0000   1.0000   1.0000
     0.0000   0.0000   0.0000   0.0000   0.0000   0.0000

          k = 0.0667-0.1925 0.0000 ( 11832 PWs)   bands (ev):

   -19.6468 -19.4541  -7.9576  -7.0007  -6.2081  -6.0835  -5.2055  -5.0831
     2.7212   3.3148   4.3485   4.7435   6.0280   7.1344

     occupation numbers 
     1.0000   1.0000   1.0000   1.0000   1.0000   1.0000   1.0000   1.0000
     0.0000   0.0000   0.0000   0.0000   0.0000   0.0000

          k = 0.0667-0.1155 0.0000 ( 11813 PWs)   bands (ev):

   -20.0675 -19.8718  -8.4644  -7.4904  -4.9531  -4.8314  -4.4728  -4.3517
     2.1330   2.7378   3.7798   4.1691   5.4616   6.5877

     occupation numbers 
     1.0000   1.0000   1.0000   1.0000   1.0000   1.0000   1.0000   1.0000
     0.0000   0.0000   0.0000   0.0000   0.0000   0.0000

          k = 0.0667-0.0385 0.0000 ( 11791 PWs)   bands (ev):

   -20.2786 -20.0814  -8.7198  -7.7378  -4.2253  -4.1039  -4.0236  -3.9026
     1.8389   2.4491   3.4952   3.8816   5.1778   6.3111

     occupation numbers 
     1.0000   1.0000   1.0000   1.0000   1.0000   1.0000   1.0000   1.0000
     0.0000   0.0000   0.0000   0.0000   0.0000   0.0000

          k = 0.1333 0.0770 0.0000 ( 11788 PWs)   bands (ev):

   -19.9622 -19.7672  -8.3372  -7.3674  -5.3591  -5.2352  -4.5934  -4.4714
     2.2800   2.8820   3.9219   4.3127   5.6030   6.7239

     occupation numbers 
     1.0000   1.0000   1.0000   1.0000   1.0000   1.0000   1.0000   1.0000
     0.0000   0.0000   0.0000   0.0000   0.0000   0.0000

          k = 0.1333 0.1540 0.0000 ( 11832 PWs)   bands (ev):

   -19.6468 -19.4541  -7.9576  -7.0007  -6.2081  -6.0835  -5.2055  -5.0831
     2.7212   3.3148   4.3485   4.7435   6.0280   7.1344

     occupation numbers 
     1.0000   1.0000   1.0000   1.0000   1.0000   1.0000   1.0000   1.0000
     0.0000   0.0000   0.0000   0.0000   0.0000   0.0000

          k = 0.1333 0.2309 0.0000 ( 11879 PWs)   bands (ev):

   -19.1240 -18.9350  -7.3332  -7.3110  -7.1876  -6.3978  -6.1738  -6.0510
     3.4563   4.0352   5.0587   5.4603   6.7349   7.0803

     occupation numbers 
     1.0000   1.0000   1.0000   1.0000   1.0000   1.0000   1.0000   1.0000
     0.0000   0.0000   0.0000   0.0000   0.0000   0.0000

          k = 0.1333 0.3079 0.0000 ( 11929 PWs)   bands (ev):

   -18.3984 -18.2144  -8.7139  -8.5847  -7.0865  -6.9612  -6.4734  -5.5758
     4.4849   5.0377   5.4963   5.7954   6.0500   6.4637

     occupation numbers 
     1.0000   1.0000   1.0000   1.0000   1.0000   1.0000   1.0000   1.0000
     0.0000   0.0000   0.0000   0.0000   0.0000   0.0000

          k = 0.1333 0.3849 0.0000 ( 11925 PWs)   bands (ev):

   -17.4781 -17.3003 -10.3148 -10.1774  -7.7658  -7.6380  -5.4103  -4.5704
     3.7708   4.1569   5.8074   6.3304   7.3075   7.7398

     occupation numbers 
     1.0000   1.0000   1.0000   1.0000   1.0000   1.0000   1.0000   1.0000
     0.0000   0.0000   0.0000   0.0000   0.0000   0.0000

          k = 0.1333 0.4619 0.0000 ( 11927 PWs)   bands (ev):

   -16.3804 -16.2102 -11.9371 -11.7919  -8.2139  -8.0848  -4.2115  -3.4767
     2.1083   2.5545   7.4205   7.8856   8.5356   8.7125

     occupation numbers 
     1.0000   1.0000   1.0000   1.0000   1.0000   1.0000   1.0000   1.0000
     0.0000   0.0000   0.0000   0.0000   0.0000   0.0000

          k = 0.1333 0.5389 0.0000 ( 11935 PWs)   bands (ev):

   -15.1808 -15.0243 -13.4106 -13.2639  -8.4378  -8.3080  -3.1219  -2.6298
     0.9239   1.2799   8.4265   8.6985   9.3200   9.7094

     occupation numbers 
     1.0000   1.0000   1.0000   1.0000   1.0000   1.0000   1.0000   1.0000
     0.0000   0.0000   0.0000   0.0000   0.0000   0.0000

          k = 0.1333 0.6158 0.0000 ( 11935 PWs)   bands (ev):

   -15.1808 -15.0243 -13.4106 -13.2639  -8.4378  -8.3080  -3.1219  -2.6298
     0.9239   1.2799   8.4265   8.6985   9.3200   9.7094

     occupation numbers 
     1.0000   1.0000   1.0000   1.0000   1.0000   1.0000   1.0000   1.0000
     0.0000   0.0000   0.0000   0.0000   0.0000   0.0000

          k = 0.1333-0.4619 0.0000 ( 11927 PWs)   bands (ev):

   -16.3804 -16.2102 -11.9371 -11.7919  -8.2139  -8.0848  -4.2115  -3.4767
     2.1083   2.5545   7.4205   7.8856   8.5356   8.7127

     occupation numbers 
     1.0000   1.0000   1.0000   1.0000   1.0000   1.0000   1.0000   1.0000
     0.0000   0.0000   0.0000   0.0000   0.0000   0.0000

          k = 0.1333-0.3849 0.0000 ( 11925 PWs)   bands (ev):

   -17.4781 -17.3003 -10.3148 -10.1774  -7.7658  -7.6380  -5.4103  -4.5704
     3.7708   4.1569   5.8074   6.3304   7.3075   7.7397

     occupation numbers 
     1.0000   1.0000   1.0000   1.0000   1.0000   1.0000   1.0000   1.0000
     0.0000   0.0000   0.0000   0.0000   0.0000   0.0000

          k = 0.1333-0.3079 0.0000 ( 11929 PWs)   bands (ev):

   -18.3984 -18.2144  -8.7139  -8.5847  -7.0865  -6.9612  -6.4734  -5.5758
     4.4849   5.0377   5.4963   5.7954   6.0500   6.4637

     occupation numbers 
     1.0000   1.0000   1.0000   1.0000   1.0000   1.0000   1.0000   1.0000
     0.0000   0.0000   0.0000   0.0000   0.0000   0.0000

          k = 0.1333-0.2309 0.0000 ( 11879 PWs)   bands (ev):

   -19.1240 -18.9350  -7.3332  -7.3110  -7.1876  -6.3978  -6.1738  -6.0510
     3.4563   4.0352   5.0587   5.4603   6.7349   7.0803

     occupation numbers 
     1.0000   1.0000   1.0000   1.0000   1.0000   1.0000   1.0000   1.0000
     0.0000   0.0000   0.0000   0.0000   0.0000   0.0000

          k = 0.1333-0.1540 0.0000 ( 11832 PWs)   bands (ev):

   -19.6468 -19.4541  -7.9576  -7.0007  -6.2081  -6.0835  -5.2055  -5.0831
     2.7212   3.3148   4.3485   4.7435   6.0280   7.1344

     occupation numbers 
     1.0000   1.0000   1.0000   1.0000   1.0000   1.0000   1.0000   1.0000
     0.0000   0.0000   0.0000   0.0000   0.0000   0.0000

          k = 0.1333-0.0770 0.0000 ( 11788 PWs)   bands (ev):

   -19.9622 -19.7672  -8.3372  -7.3674  -5.3591  -5.2352  -4.5934  -4.4714
     2.2800   2.8820   3.9219   4.3127   5.6030   6.7239

     occupation numbers 
     1.0000   1.0000   1.0000   1.0000   1.0000   1.0000   1.0000   1.0000
     0.0000   0.0000   0.0000   0.0000   0.0000   0.0000

          k = 0.1333 0.0000 0.0000 ( 11813 PWs)   bands (ev):

   -20.0675 -19.8718  -8.4644  -7.4904  -4.9531  -4.8314  -4.4728  -4.3517
     2.1330   2.7378   3.7798   4.1691   5.4616   6.5878

     occupation numbers 
     1.0000   1.0000   1.0000   1.0000   1.0000   1.0000   1.0000   1.0000
     0.0000   0.0000   0.0000   0.0000   0.0000   0.0000

          k = 0.2000 0.1155 0.0000 ( 11848 PWs)   bands (ev):

   -19.4372 -19.2460  -7.7066  -6.9156  -6.7882  -6.7574  -5.3059  -5.1829
     3.0152   3.6026   4.6315   5.0290   6.3058   7.3611

     occupation numbers 
     1.0000   1.0000   1.0000   1.0000   1.0000   1.0000   1.0000   1.0000
     0.0000   0.0000   0.0000   0.0000   0.0000   0.0000

          k = 0.2000 0.1925 0.0000 ( 11880 PWs)   bands (ev):

   -19.0198 -18.8315  -7.7989  -7.6689  -7.2086  -6.2800  -5.9691  -5.8451
     3.6032   4.1780   5.1983   5.5982   6.7580   6.8510

     occupation numbers 
     1.0000   1.0000   1.0000   1.0000   1.0000   1.0000   1.0000   1.0000
     0.0000   0.0000   0.0000   0.0000   0.0000   0.0000

          k = 0.2000 0.2694 0.0000 ( 11929 PWs)   bands (ev):

   -18.3984 -18.2144  -8.7139  -8.5847  -7.0865  -6.9612  -6.4734  -5.5758
     4.4849   5.0377   5.4963   5.7954   6.0500   6.4637

     occupation numbers 
     1.0000   1.0000   1.0000   1.0000   1.0000   1.0000   1.0000   1.0000
     0.0000   0.0000   0.0000   0.0000   0.0000   0.0000

          k = 0.2000 0.3464 0.0000 ( 11953 PWs)   bands (ev):

   -17.5801 -17.4016  -9.7293  -9.6019  -8.2655  -8.1402  -5.5193  -4.6690
     4.0825   4.3864   5.6599   6.1840   7.1686   7.5909

     occupation numbers 
     1.0000   1.0000   1.0000   1.0000   1.0000   1.0000   1.0000   1.0000
     0.0000   0.0000   0.0000   0.0000   0.0000   0.0000

          k = 0.2000 0.4234 0.0000 ( 11949 PWs)   bands (ev):

   -16.5777 -16.4060 -11.0211 -10.8862  -9.0914  -8.9620  -4.3852  -3.6089
     2.5773   2.9246   7.1258   7.5980   8.5341   8.9771

     occupation numbers 
     1.0000   1.0000   1.0000   1.0000   1.0000   1.0000   1.0000   1.0000
     0.0000   0.0000   0.0000   0.0000   0.0000   0.0000

          k = 0.2000 0.5004 0.0000 ( 11953 PWs)   bands (ev):

   -15.4240 -15.2612 -12.4578 -12.3139  -9.5215  -9.3885  -3.1783  -2.5451
     1.1802   1.5424   8.8732   9.2482   9.9607  10.1523

     occupation numbers 
     1.0000   1.0000   1.0000   1.0000   1.0000   1.0000   1.0000   1.0000
     0.0000   0.0000   0.0000   0.0000   0.0000   0.0000

          k = 0.2000 0.5774 0.0000 ( 11949 PWs)   bands (ev):

   -14.4739 -14.3379 -13.4978 -13.3682  -9.6553  -9.5213  -2.4180  -2.0412
     0.5562   0.7234  10.0177  10.3292  10.5741  10.7768

     occupation numbers 
     1.0000   1.0000   1.0000   1.0000   1.0000   1.0000   1.0000   1.0000
     0.0000   0.0000   0.0000   0.0000   0.0000   0.0000

          k = 0.2000 0.6543 0.0000 ( 11953 PWs)   bands (ev):

   -15.4240 -15.2612 -12.4578 -12.3139  -9.5215  -9.3885  -3.1783  -2.5451
     1.1802   1.5424   8.8732   9.2482   9.9607  10.1522

     occupation numbers 
     1.0000   1.0000   1.0000   1.0000   1.0000   1.0000   1.0000   1.0000
     0.0000   0.0000   0.0000   0.0000   0.0000   0.0000

          k = 0.2000-0.4234 0.0000 ( 11949 PWs)   bands (ev):

   -16.5777 -16.4060 -11.0211 -10.8862  -9.0914  -8.9620  -4.3852  -3.6089
     2.5773   2.9246   7.1258   7.5980   8.5341   8.9771

     occupation numbers 
     1.0000   1.0000   1.0000   1.0000   1.0000   1.0000   1.0000   1.0000
     0.0000   0.0000   0.0000   0.0000   0.0000   0.0000

          k = 0.2000-0.3464 0.0000 ( 11953 PWs)   bands (ev):

   -17.5801 -17.4016  -9.7293  -9.6019  -8.2655  -8.1402  -5.5193  -4.6690
     4.0825   4.3864   5.6599   6.1840   7.1686   7.5909

     occupation numbers 
     1.0000   1.0000   1.0000   1.0000   1.0000   1.0000   1.0000   1.0000
     0.0000   0.0000   0.0000   0.0000   0.0000   0.0000

          k = 0.2000-0.2694 0.0000 ( 11929 PWs)   bands (ev):

   -18.3984 -18.2144  -8.7139  -8.5847  -7.0865  -6.9612  -6.4734  -5.5758
     4.4849   5.0377   5.4963   5.7954   6.0500   6.4637

     occupation numbers 
     1.0000   1.0000   1.0000   1.0000   1.0000   1.0000   1.0000   1.0000
     0.0000   0.0000   0.0000   0.0000   0.0000   0.0000

          k = 0.2000-0.1925 0.0000 ( 11880 PWs)   bands (ev):

   -19.0198 -18.8315  -7.7989  -7.6689  -7.2086  -6.2800  -5.9691  -5.8451
     3.6032   4.1780   5.1983   5.5982   6.7584   6.8510

     occupation numbers 
     1.0000   1.0000   1.0000   1.0000   1.0000   1.0000   1.0000   1.0000
     0.0000   0.0000   0.0000   0.0000   0.0000   0.0000

          k = 0.2000-0.1155 0.0000 ( 11848 PWs)   bands (ev):

   -19.4372 -19.2460  -7.7066  -6.9156  -6.7882  -6.7574  -5.3059  -5.1829
     3.0152   3.6026   4.6315   5.0290   6.3058   7.3608

     occupation numbers 
     1.0000   1.0000   1.0000   1.0000   1.0000   1.0000   1.0000   1.0000
     0.0000   0.0000   0.0000   0.0000   0.0000   0.0000

          k = 0.2000-0.0385 0.0000 ( 11832 PWs)   bands (ev):

   -19.6468 -19.4541  -7.9576  -7.0007  -6.2081  -6.0835  -5.2055  -5.0831
     2.7212   3.3148   4.3485   4.7435   6.0280   7.1344

     occupation numbers 
     1.0000   1.0000   1.0000   1.0000   1.0000   1.0000   1.0000   1.0000
     0.0000   0.0000   0.0000   0.0000   0.0000   0.0000

          k = 0.2000 0.0385 0.0000 ( 11832 PWs)   bands (ev):

   -19.6468 -19.4541  -7.9576  -7.0007  -6.2081  -6.0835  -5.2055  -5.0831
     2.7212   3.3148   4.3485   4.7435   6.0280   7.1344

     occupation numbers 
     1.0000   1.0000   1.0000   1.0000   1.0000   1.0000   1.0000   1.0000
     0.0000   0.0000   0.0000   0.0000   0.0000   0.0000

          k = 0.2667 0.1540 0.0000 ( 11876 PWs)   bands (ev):

   -18.7080 -18.5218  -8.6580  -8.5239  -6.8415  -5.9993  -5.9291  -5.8756
     4.0438   4.6050   5.6078   5.8713   6.1192   6.3148

     occupation numbers 
     1.0000   1.0000   1.0000   1.0000   1.0000   1.0000   1.0000   1.0000
     0.0000   0.0000   0.0000   0.0000   0.0000   0.0000

          k = 0.2667 0.2309 0.0000 ( 11910 PWs)   bands (ev):

   -18.1920 -18.0094  -9.5274  -9.3907  -6.6356  -6.5106  -6.2374  -5.3537
     4.7694   4.8927   5.2922   5.3596   6.3289   6.7584

     occupation numbers 
     1.0000   1.0000   1.0000   1.0000   1.0000   1.0000   1.0000   1.0000
     0.0000   0.0000   0.0000   0.0000   0.0000   0.0000

          k = 0.2667 0.3079 0.0000 ( 11925 PWs)   bands (ev):

   -17.4781 -17.3003 -10.3148 -10.1774  -7.7658  -7.6380  -5.4103  -4.5704
     3.7708   4.1569   5.8074   6.3304   7.3075   7.7397

     occupation numbers 
     1.0000   1.0000   1.0000   1.0000   1.0000   1.0000   1.0000   1.0000
     0.0000   0.0000   0.0000   0.0000   0.0000   0.0000

          k = 0.2667 0.3849 0.0000 ( 11949 PWs)   bands (ev):

   -16.5777 -16.4060 -11.0211 -10.8862  -9.0914  -8.9620  -4.3852  -3.6089
     2.5773   2.9246   7.1258   7.5980   8.5341   8.9771

     occupation numbers 
     1.0000   1.0000   1.0000   1.0000   1.0000   1.0000   1.0000   1.0000
     0.0000   0.0000   0.0000   0.0000   0.0000   0.0000

          k = 0.2667 0.4619 0.0000 ( 11961 PWs)   bands (ev):

   -15.5135 -15.3494 -11.8010 -11.6704 -10.2216 -10.0941  -3.2117  -2.5286
     1.3267   1.6693   8.7234   9.0938   9.8342  10.3034

     occupation numbers 
     1.0000   1.0000   1.0000   1.0000   1.0000   1.0000   1.0000   1.0000
     0.0000   0.0000   0.0000   0.0000   0.0000   0.0000

          k = 0.2667 0.5389 0.0000 ( 11948 PWs)   bands (ev):

   -14.3641 -14.2124 -12.8552 -12.7186 -10.7676 -10.6354  -2.0481  -1.5481
     0.2165   0.5208   9.9711  10.2443  10.6802  10.9946

     occupation numbers 
     1.0000   1.0000   1.0000   1.0000   1.0000   1.0000   1.0000   1.0000
     0.0000   0.0000   0.0000   0.0000   0.0000   0.0000

          k = 0.2667 0.6158 0.0000 ( 11948 PWs)   bands (ev):

   -14.3641 -14.2124 -12.8552 -12.7186 -10.7676 -10.6354  -2.0481  -1.5481
     0.2165   0.5208   9.9711  10.2443  10.6802  10.9946

     occupation numbers 
     1.0000   1.0000   1.0000   1.0000   1.0000   1.0000   1.0000   1.0000
     0.0000   0.0000   0.0000   0.0000   0.0000   0.0000

          k = 0.2667 0.6928 0.0000 ( 11961 PWs)   bands (ev):

   -15.5135 -15.3494 -11.8010 -11.6704 -10.2216 -10.0941  -3.2117  -2.5286
     1.3267   1.6693   8.7234   9.0938   9.8342  10.3034

     occupation numbers 
     1.0000   1.0000   1.0000   1.0000   1.0000   1.0000   1.0000   1.0000
     0.0000   0.0000   0.0000   0.0000   0.0000   0.0000

          k = 0.2667-0.3849 0.0000 ( 11949 PWs)   bands (ev):

   -16.5777 -16.4060 -11.0211 -10.8862  -9.0914  -8.9620  -4.3852  -3.6089
     2.5773   2.9246   7.1258   7.5980   8.5341   8.9771

     occupation numbers 
     1.0000   1.0000   1.0000   1.0000   1.0000   1.0000   1.0000   1.0000
     0.0000   0.0000   0.0000   0.0000   0.0000   0.0000

          k = 0.2667-0.3079 0.0000 ( 11925 PWs)   bands (ev):

   -17.4781 -17.3003 -10.3148 -10.1774  -7.7658  -7.6380  -5.4103  -4.5704
     3.7708   4.1569   5.8074   6.3304   7.3075   7.7397

     occupation numbers 
     1.0000   1.0000   1.0000   1.0000   1.0000   1.0000   1.0000   1.0000
     0.0000   0.0000   0.0000   0.0000   0.0000   0.0000

          k = 0.2667-0.2309 0.0000 ( 11910 PWs)   bands (ev):

   -18.1920 -18.0094  -9.5274  -9.3907  -6.6356  -6.5106  -6.2374  -5.3537
     4.7694   4.8927   5.2922   5.3596   6.3289   6.7585

     occupation numbers 
     1.0000   1.0000   1.0000   1.0000   1.0000   1.0000   1.0000   1.0000
     0.0000   0.0000   0.0000   0.0000   0.0000   0.0000

          k = 0.2667-0.1540 0.0000 ( 11876 PWs)   bands (ev):

   -18.7080 -18.5218  -8.6580  -8.5239  -6.8415  -5.9993  -5.9291  -5.8756
     4.0438   4.6050   5.6078   5.8713   6.1192   6.3148

     occupation numbers 
     1.0000   1.0000   1.0000   1.0000   1.0000   1.0000   1.0000   1.0000
     0.0000   0.0000   0.0000   0.0000   0.0000   0.0000

          k = 0.2667-0.0770 0.0000 ( 11880 PWs)   bands (ev):

   -19.0198 -18.8315  -7.7989  -7.6689  -7.2086  -6.2800  -5.9691  -5.8451
     3.6032   4.1780   5.1983   5.5982   6.7579   6.8504

     occupation numbers 
     1.0000   1.0000   1.0000   1.0000   1.0000   1.0000   1.0000   1.0000
     0.0000   0.0000   0.0000   0.0000   0.0000   0.0000

          k = 0.2667 0.0000 0.0000 ( 11879 PWs)   bands (ev):

   -19.1240 -18.9350  -7.3332  -7.3110  -7.1876  -6.3978  -6.1738  -6.0510
     3.4563   4.0352   5.0587   5.4603   6.7349   7.0803

     occupation numbers 
     1.0000   1.0000   1.0000   1.0000   1.0000   1.0000   1.0000   1.0000
     0.0000   0.0000   0.0000   0.0000   0.0000   0.0000

          k = 0.2667 0.0770 0.0000 ( 11880 PWs)   bands (ev):

   -19.0198 -18.8315  -7.7989  -7.6689  -7.2086  -6.2800  -5.9691  -5.8451
     3.6032   4.1780   5.1983   5.5982   6.7579   6.8510

     occupation numbers 
     1.0000   1.0000   1.0000   1.0000   1.0000   1.0000   1.0000   1.0000
     0.0000   0.0000   0.0000   0.0000   0.0000   0.0000

          k = 0.3333 0.1925 0.0000 ( 11914 PWs)   bands (ev):

   -17.7819 -17.6021 -10.4340 -10.2930  -6.5762  -6.4521  -5.7713  -4.9169
     4.0133   4.4935   5.3686   5.9080   6.8482   7.0473

     occupation numbers 
     1.0000   1.0000   1.0000   1.0000   1.0000   1.0000   1.0000   1.0000
     0.0000   0.0000   0.0000   0.0000   0.0000   0.0000

          k = 0.3333 0.2694 0.0000 ( 11938 PWs)   bands (ev):

   -17.1742 -16.9984 -11.2562 -11.1124  -7.1425  -7.0169  -5.0883  -4.2818
     3.0560   3.5466   6.2485   6.7569   7.3889   7.5528

     occupation numbers 
     1.0000   1.0000   1.0000   1.0000   1.0000   1.0000   1.0000   1.0000
     0.0000   0.0000   0.0000   0.0000   0.0000   0.0000

          k = 0.3333 0.3464 0.0000 ( 11927 PWs)   bands (ev):

   -16.3804 -16.2102 -11.9371 -11.7919  -8.2139  -8.0848  -4.2115  -3.4767
     2.1083   2.5545   7.4205   7.8856   8.5356   8.7125

     occupation numbers 
     1.0000   1.0000   1.0000   1.0000   1.0000   1.0000   1.0000   1.0000
     0.0000   0.0000   0.0000   0.0000   0.0000   0.0000

          k = 0.3333 0.4234 0.0000 ( 11953 PWs)   bands (ev):

   -15.4240 -15.2612 -12.4578 -12.3139  -9.5215  -9.3885  -3.1783  -2.5451
     1.1802   1.5424   8.8732   9.2482   9.9607  10.1523

     occupation numbers 
     1.0000   1.0000   1.0000   1.0000   1.0000   1.0000   1.0000   1.0000
     0.0000   0.0000   0.0000   0.0000   0.0000   0.0000

          k = 0.3333 0.5004 0.0000 ( 11948 PWs)   bands (ev):

   -14.3641 -14.2124 -12.8552 -12.7186 -10.7676 -10.6354  -2.0481  -1.5481
     0.2165   0.5208   9.9711  10.2443  10.6802  10.9946

     occupation numbers 
     1.0000   1.0000   1.0000   1.0000   1.0000   1.0000   1.0000   1.0000
     0.0000   0.0000   0.0000   0.0000   0.0000   0.0000

          k = 0.3333 0.5774 0.0000 ( 11919 PWs)   bands (ev):

   -13.4102 -13.3907 -13.2669 -13.2520 -11.3875 -11.2625  -1.0371  -0.7713
    -0.6308  -0.3451   9.8311  10.0375  11.9261  12.2676

     occupation numbers 
     1.0000   1.0000   1.0000   1.0000   1.0000   1.0000   0.9998   0.7674
     0.2327   0.0001   0.0000   0.0000   0.0000   0.0000

          k = 0.3333 0.6543 0.0000 ( 11948 PWs)   bands (ev):

   -14.3641 -14.2124 -12.8552 -12.7186 -10.7676 -10.6354  -2.0481  -1.5481
     0.2165   0.5208   9.9711  10.2443  10.6802  10.9946

     occupation numbers 
     1.0000   1.0000   1.0000   1.0000   1.0000   1.0000   1.0000   1.0000
     0.0000   0.0000   0.0000   0.0000   0.0000   0.0000

          k = 0.3333 0.7313 0.0000 ( 11953 PWs)   bands (ev):

   -15.4240 -15.2612 -12.4578 -12.3139  -9.5215  -9.3885  -3.1783  -2.5451
     1.1802   1.5424   8.8732   9.2482   9.9607  10.1523

     occupation numbers 
     1.0000   1.0000   1.0000   1.0000   1.0000   1.0000   1.0000   1.0000
     0.0000   0.0000   0.0000   0.0000   0.0000   0.0000

          k = 0.3333-0.3464 0.0000 ( 11927 PWs)   bands (ev):

   -16.3804 -16.2102 -11.9371 -11.7919  -8.2139  -8.0848  -4.2115  -3.4767
     2.1083   2.5545   7.4205   7.8856   8.5356   8.7127

     occupation numbers 
     1.0000   1.0000   1.0000   1.0000   1.0000   1.0000   1.0000   1.0000
     0.0000   0.0000   0.0000   0.0000   0.0000   0.0000

          k = 0.3333-0.2694 0.0000 ( 11938 PWs)   bands (ev):

   -17.1742 -16.9984 -11.2562 -11.1124  -7.1425  -7.0169  -5.0883  -4.2818
     3.0560   3.5466   6.2485   6.7569   7.3889   7.5526

     occupation numbers 
     1.0000   1.0000   1.0000   1.0000   1.0000   1.0000   1.0000   1.0000
     0.0000   0.0000   0.0000   0.0000   0.0000   0.0000

          k = 0.3333-0.1925 0.0000 ( 11914 PWs)   bands (ev):

   -17.7819 -17.6021 -10.4340 -10.2930  -6.5762  -6.4521  -5.7713  -4.9169
     4.0133   4.4935   5.3686   5.9080   6.8482   7.0474

     occupation numbers 
     1.0000   1.0000   1.0000   1.0000   1.0000   1.0000   1.0000   1.0000
     0.0000   0.0000   0.0000   0.0000   0.0000   0.0000

          k = 0.3333-0.1155 0.0000 ( 11910 PWs)   bands (ev):

   -18.1920 -18.0094  -9.5274  -9.3907  -6.6356  -6.5106  -6.2374  -5.3537
     4.7694   4.8927   5.2922   5.3596   6.3289   6.7584

     occupation numbers 
     1.0000   1.0000   1.0000   1.0000   1.0000   1.0000   1.0000   1.0000
     0.0000   0.0000   0.0000   0.0000   0.0000   0.0000

          k = 0.3333-0.0385 0.0000 ( 11929 PWs)   bands (ev):

   -18.3984 -18.2144  -8.7139  -8.5847  -7.0865  -6.9612  -6.4734  -5.5758
     4.4849   5.0377   5.4964   5.7954   6.0500   6.4637

     occupation numbers 
     1.0000   1.0000   1.0000   1.0000   1.0000   1.0000   1.0000   1.0000
     0.0000   0.0000   0.0000   0.0000   0.0000   0.0000

          k = 0.3333 0.0385 0.0000 ( 11929 PWs)   bands (ev):

   -18.3984 -18.2144  -8.7139  -8.5847  -7.0865  -6.9612  -6.4734  -5.5758
     4.4849   5.0377   5.4964   5.7954   6.0500   6.4637

     occupation numbers 
     1.0000   1.0000   1.0000   1.0000   1.0000   1.0000   1.0000   1.0000
     0.0000   0.0000   0.0000   0.0000   0.0000   0.0000

          k = 0.3333 0.1155 0.0000 ( 11910 PWs)   bands (ev):

   -18.1920 -18.0094  -9.5274  -9.3907  -6.6356  -6.5106  -6.2374  -5.3537
     4.7694   4.8927   5.2922   5.3596   6.3289   6.7585

     occupation numbers 
     1.0000   1.0000   1.0000   1.0000   1.0000   1.0000   1.0000   1.0000
     0.0000   0.0000   0.0000   0.0000   0.0000   0.0000

          k = 0.4000 0.2309 0.0000 ( 11910 PWs)   bands (ev):

   -16.6747 -16.5025 -12.1437 -11.9958  -6.9832  -6.8588  -4.5706  -3.8265
     2.2361   2.7651   6.8245   6.9840   7.0553   7.4977

     occupation numbers 
     1.0000   1.0000   1.0000   1.0000   1.0000   1.0000   1.0000   1.0000
     0.0000   0.0000   0.0000   0.0000   0.0000   0.0000

          k = 0.4000 0.3079 0.0000 ( 11920 PWs)   bands (ev):

   -15.9951 -15.8284 -12.8837 -12.7339  -7.4572  -7.3313  -3.8920  -3.2505
     1.4919   1.9808   7.2283   7.4677   8.0100   8.4769

     occupation numbers 
     1.0000   1.0000   1.0000   1.0000   1.0000   1.0000   1.0000   1.0000
     0.0000   0.0000   0.0000   0.0000   0.0000   0.0000

          k = 0.4000 0.3849 0.0000 ( 11935 PWs)   bands (ev):

   -15.1808 -15.0243 -13.4106 -13.2639  -8.4378  -8.3080  -3.1219  -2.6298
     0.9239   1.2799   8.4265   8.6985   9.3200   9.7094

     occupation numbers 
     1.0000   1.0000   1.0000   1.0000   1.0000   1.0000   1.0000   1.0000
     0.0000   0.0000   0.0000   0.0000   0.0000   0.0000

          k = 0.4000 0.4619 0.0000 ( 11949 PWs)   bands (ev):

   -14.4739 -14.3379 -13.4978 -13.3682  -9.6553  -9.5213  -2.4180  -2.0412
     0.5562   0.7234  10.0177  10.3292  10.5741  10.7768

     occupation numbers 
     1.0000   1.0000   1.0000   1.0000   1.0000   1.0000   1.0000   1.0000
     0.0000   0.0000   0.0000   0.0000   0.0000   0.0000

          k = 0.4000 0.5389 0.0000 ( 11948 PWs)   bands (ev):

   -14.3641 -14.2124 -12.8552 -12.7186 -10.7676 -10.6354  -2.0481  -1.5481
     0.2165   0.5208   9.9711  10.2443  10.6802  10.9946

     occupation numbers 
     1.0000   1.0000   1.0000   1.0000   1.0000   1.0000   1.0000   1.0000
     0.0000   0.0000   0.0000   0.0000   0.0000   0.0000

          k = 0.4000 0.6158 0.0000 ( 11948 PWs)   bands (ev):

   -14.3641 -14.2124 -12.8552 -12.7186 -10.7676 -10.6354  -2.0481  -1.5481
     0.2165   0.5208   9.9711  10.2443  10.6802  10.9946

     occupation numbers 
     1.0000   1.0000   1.0000   1.0000   1.0000   1.0000   1.0000   1.0000
     0.0000   0.0000   0.0000   0.0000   0.0000   0.0000

          k = 0.4000 0.6928 0.0000 ( 11949 PWs)   bands (ev):

   -14.4739 -14.3379 -13.4978 -13.3682  -9.6553  -9.5213  -2.4180  -2.0412
     0.5562   0.7234  10.0177  10.3292  10.5741  10.7768

     occupation numbers 
     1.0000   1.0000   1.0000   1.0000   1.0000   1.0000   1.0000   1.0000
     0.0000   0.0000   0.0000   0.0000   0.0000   0.0000

          k = 0.4000 0.7698 0.0000 ( 11935 PWs)   bands (ev):

   -15.1808 -15.0243 -13.4106 -13.2639  -8.4378  -8.3080  -3.1219  -2.6298
     0.9239   1.2799   8.4265   8.6985   9.3200   9.7094

     occupation numbers 
     1.0000   1.0000   1.0000   1.0000   1.0000   1.0000   1.0000   1.0000
     0.0000   0.0000   0.0000   0.0000   0.0000   0.0000

          k = 0.4000-0.3079 0.0000 ( 11920 PWs)   bands (ev):

   -15.9951 -15.8284 -12.8837 -12.7339  -7.4572  -7.3313  -3.8920  -3.2505
     1.4919   1.9808   7.2283   7.4677   8.0100   8.4769

     occupation numbers 
     1.0000   1.0000   1.0000   1.0000   1.0000   1.0000   1.0000   1.0000
     0.0000   0.0000   0.0000   0.0000   0.0000   0.0000

          k = 0.4000-0.2309 0.0000 ( 11910 PWs)   bands (ev):

   -16.6747 -16.5025 -12.1437 -11.9958  -6.9832  -6.8588  -4.5706  -3.8265
     2.2361   2.7651   6.8245   6.9840   7.0553   7.4977

     occupation numbers 
     1.0000   1.0000   1.0000   1.0000   1.0000   1.0000   1.0000   1.0000
     0.0000   0.0000   0.0000   0.0000   0.0000   0.0000

          k = 0.4000-0.1540 0.0000 ( 11938 PWs)   bands (ev):

   -17.1742 -16.9984 -11.2562 -11.1124  -7.1425  -7.0169  -5.0883  -4.2818
     3.0560   3.5466   6.2485   6.7569   7.3889   7.5528

     occupation numbers 
     1.0000   1.0000   1.0000   1.0000   1.0000   1.0000   1.0000   1.0000
     0.0000   0.0000   0.0000   0.0000   0.0000   0.0000

          k = 0.4000-0.0770 0.0000 ( 11925 PWs)   bands (ev):

   -17.4781 -17.3003 -10.3148 -10.1774  -7.7658  -7.6380  -5.4103  -4.5704
     3.7708   4.1569   5.8074   6.3304   7.3075   7.7397

     occupation numbers 
     1.0000   1.0000   1.0000   1.0000   1.0000   1.0000   1.0000   1.0000
     0.0000   0.0000   0.0000   0.0000   0.0000   0.0000

          k = 0.4000 0.0000 0.0000 ( 11953 PWs)   bands (ev):

   -17.5801 -17.4016  -9.7293  -9.6019  -8.2655  -8.1402  -5.5193  -4.6690
     4.0825   4.3864   5.6599   6.1840   7.1686   7.5909

     occupation numbers 
     1.0000   1.0000   1.0000   1.0000   1.0000   1.0000   1.0000   1.0000
     0.0000   0.0000   0.0000   0.0000   0.0000   0.0000

          k = 0.4000 0.0770 0.0000 ( 11925 PWs)   bands (ev):

   -17.4781 -17.3003 -10.3148 -10.1774  -7.7658  -7.6380  -5.4103  -4.5704
     3.7708   4.1569   5.8074   6.3304   7.3075   7.7397

     occupation numbers 
     1.0000   1.0000   1.0000   1.0000   1.0000   1.0000   1.0000   1.0000
     0.0000   0.0000   0.0000   0.0000   0.0000   0.0000

          k = 0.4000 0.1540 0.0000 ( 11938 PWs)   bands (ev):

   -17.1742 -16.9984 -11.2562 -11.1124  -7.1425  -7.0169  -5.0883  -4.2818
     3.0560   3.5466   6.2485   6.7569   7.3889   7.5528

     occupation numbers 
     1.0000   1.0000   1.0000   1.0000   1.0000   1.0000   1.0000   1.0000
     0.0000   0.0000   0.0000   0.0000   0.0000   0.0000

          k = 0.4667 0.2694 0.0000 ( 11924 PWs)   bands (ev):

   -15.4594 -15.3011 -13.6638 -13.5150  -7.1926  -7.0680  -3.4986  -3.0067
     1.0121   1.4512   6.7240   6.9624   8.8886   9.3230

     occupation numbers 
     1.0000   1.0000   1.0000   1.0000   1.0000   1.0000   1.0000   1.0000
     0.0000   0.0000   0.0000   0.0000   0.0000   0.0000

          k = 0.4667 0.3464 0.0000 ( 11913 PWs)   bands (ev):

   -15.0144 -14.8769 -13.9947 -13.8624  -7.5638  -7.4377  -3.1883  -2.8040
     0.8267   1.1826   7.1745   7.4201  10.0467  10.0589

     occupation numbers 
     1.0000   1.0000   1.0000   1.0000   1.0000   1.0000   1.0000   1.0000
     0.0000   0.0000   0.0000   0.0000   0.0000   0.0000

          k = 0.4667 0.4234 0.0000 ( 11935 PWs)   bands (ev):

   -15.1808 -15.0243 -13.4106 -13.2639  -8.4378  -8.3080  -3.1219  -2.6298
     0.9239   1.2799   8.4265   8.6985   9.3200   9.7094

     occupation numbers 
     1.0000   1.0000   1.0000   1.0000   1.0000   1.0000   1.0000   1.0000
     0.0000   0.0000   0.0000   0.0000   0.0000   0.0000

          k = 0.4667 0.5004 0.0000 ( 11953 PWs)   bands (ev):

   -15.4240 -15.2612 -12.4578 -12.3139  -9.5215  -9.3885  -3.1783  -2.5451
     1.1802   1.5424   8.8732   9.2482   9.9607  10.1522

     occupation numbers 
     1.0000   1.0000   1.0000   1.0000   1.0000   1.0000   1.0000   1.0000
     0.0000   0.0000   0.0000   0.0000   0.0000   0.0000

          k = 0.4667 0.5774 0.0000 ( 11961 PWs)   bands (ev):

   -15.5135 -15.3494 -11.8010 -11.6704 -10.2216 -10.0941  -3.2117  -2.5286
     1.3267   1.6693   8.7234   9.0938   9.8342  10.3034

     occupation numbers 
     1.0000   1.0000   1.0000   1.0000   1.0000   1.0000   1.0000   1.0000
     0.0000   0.0000   0.0000   0.0000   0.0000   0.0000

          k = 0.4667 0.6543 0.0000 ( 11953 PWs)   bands (ev):

   -15.4240 -15.2612 -12.4578 -12.3139  -9.5215  -9.3885  -3.1783  -2.5451
     1.1802   1.5424   8.8732   9.2482   9.9607  10.1523

     occupation numbers 
     1.0000   1.0000   1.0000   1.0000   1.0000   1.0000   1.0000   1.0000
     0.0000   0.0000   0.0000   0.0000   0.0000   0.0000

          k = 0.4667 0.7313 0.0000 ( 11935 PWs)   bands (ev):

   -15.1808 -15.0243 -13.4106 -13.2639  -8.4378  -8.3080  -3.1219  -2.6298
     0.9239   1.2799   8.4265   8.6985   9.3200   9.7094

     occupation numbers 
     1.0000   1.0000   1.0000   1.0000   1.0000   1.0000   1.0000   1.0000
     0.0000   0.0000   0.0000   0.0000   0.0000   0.0000

          k = 0.4667 0.8083 0.0000 ( 11913 PWs)   bands (ev):

   -15.0144 -14.8769 -13.9947 -13.8624  -7.5638  -7.4377  -3.1883  -2.8040
     0.8267   1.1826   7.1745   7.4201  10.0468  10.0588

     occupation numbers 
     1.0000   1.0000   1.0000   1.0000   1.0000   1.0000   1.0000   1.0000
     0.0000   0.0000   0.0000   0.0000   0.0000   0.0000

          k = 0.4667-0.2694 0.0000 ( 11924 PWs)   bands (ev):

   -15.4594 -15.3011 -13.6638 -13.5150  -7.1926  -7.0680  -3.4986  -3.0067
     1.0121   1.4512   6.7240   6.9624   8.8886   9.3230

     occupation numbers 
     1.0000   1.0000   1.0000   1.0000   1.0000   1.0000   1.0000   1.0000
     0.0000   0.0000   0.0000   0.0000   0.0000   0.0000

          k = 0.4667-0.1925 0.0000 ( 11920 PWs)   bands (ev):

   -15.9951 -15.8284 -12.8837 -12.7339  -7.4572  -7.3313  -3.8920  -3.2505
     1.4919   1.9808   7.2283   7.4677   8.0100   8.4769

     occupation numbers 
     1.0000   1.0000   1.0000   1.0000   1.0000   1.0000   1.0000   1.0000
     0.0000   0.0000   0.0000   0.0000   0.0000   0.0000

          k = 0.4667-0.1155 0.0000 ( 11927 PWs)   bands (ev):

   -16.3804 -16.2102 -11.9371 -11.7919  -8.2139  -8.0848  -4.2115  -3.4767
     2.1083   2.5545   7.4205   7.8856   8.5356   8.7127

     occupation numbers 
     1.0000   1.0000   1.0000   1.0000   1.0000   1.0000   1.0000   1.0000
     0.0000   0.0000   0.0000   0.0000   0.0000   0.0000

          k = 0.4667-0.0385 0.0000 ( 11949 PWs)   bands (ev):

   -16.5777 -16.4060 -11.0211 -10.8862  -9.0914  -8.9620  -4.3852  -3.6089
     2.5773   2.9246   7.1258   7.5980   8.5341   8.9771

     occupation numbers 
     1.0000   1.0000   1.0000   1.0000   1.0000   1.0000   1.0000   1.0000
     0.0000   0.0000   0.0000   0.0000   0.0000   0.0000

          k = 0.4667 0.0385 0.0000 ( 11949 PWs)   bands (ev):

   -16.5777 -16.4060 -11.0211 -10.8862  -9.0914  -8.9620  -4.3852  -3.6089
     2.5773   2.9246   7.1258   7.5980   8.5341   8.9771

     occupation numbers 
     1.0000   1.0000   1.0000   1.0000   1.0000   1.0000   1.0000   1.0000
     0.0000   0.0000   0.0000   0.0000   0.0000   0.0000

          k = 0.4667 0.1155 0.0000 ( 11927 PWs)   bands (ev):

   -16.3804 -16.2102 -11.9371 -11.7919  -8.2139  -8.0848  -4.2115  -3.4767
     2.1083   2.5545   7.4205   7.8856   8.5356   8.7128

     occupation numbers 
     1.0000   1.0000   1.0000   1.0000   1.0000   1.0000   1.0000   1.0000
     0.0000   0.0000   0.0000   0.0000   0.0000   0.0000

          k = 0.4667 0.1925 0.0000 ( 11920 PWs)   bands (ev):

   -15.9951 -15.8284 -12.8837 -12.7339  -7.4572  -7.3313  -3.8920  -3.2505
     1.4919   1.9808   7.2283   7.4677   8.0100   8.4769

     occupation numbers 
     1.0000   1.0000   1.0000   1.0000   1.0000   1.0000   1.0000   1.0000
     0.0000   0.0000   0.0000   0.0000   0.0000   0.0000

     the Fermi energy is    -0.7010 ev

!    total energy              =     -48.20773089 Ry
     estimated scf accuracy    <          7.2E-12 Ry
     smearing contrib. (-TS)   =      -0.00007700 Ry
     internal energy E=F+TS    =     -48.20765389 Ry

     The total energy is F=E-TS. E is the sum of the following terms:
     one-electron contribution =    -707.83750371 Ry
     hartree contribution      =     357.51835051 Ry
     xc contribution           =     -17.18692011 Ry
     ewald contribution        =     319.66912392 Ry
     DFT-D3 Dispersion         =      -0.01770366 Ry
     electric field correction =      -0.35300084 Ry

     convergence has been achieved in   6 iterations

     Forces acting on atoms (cartesian axes, Ry/au):

     atom    1 type  1   force =     0.00000005    0.00000017   -0.00087451
     atom    2 type  1   force =    -0.00000001   -0.00000019   -0.00104850
     atom    3 type  1   force =    -0.00000004   -0.00000012    0.00102887
     atom    4 type  1   force =    -0.00000001    0.00000015    0.00089415
     The non-local contrib.  to forces
     atom    1 type  1   force =     0.00000002    0.00000011   -0.00545597
     atom    2 type  1   force =    -0.00000002   -0.00000015   -0.00601893
     atom    3 type  1   force =    -0.00000006   -0.00000008   -0.00216564
     atom    4 type  1   force =    -0.00000005    0.00000010   -0.00255156
     The ionic contribution  to forces
     atom    1 type  1   force =     0.00000011    0.00000052  -15.32253832
     atom    2 type  1   force =    -0.00000011   -0.00000052  -15.30935976
     atom    3 type  1   force =    -0.00000005   -0.00000042   15.31145385
     atom    4 type  1   force =     0.00000005    0.00000042   15.32044423
     The local contribution  to forces
     atom    1 type  1   force =    -0.00000010   -0.00000045   15.28566368
     atom    2 type  1   force =     0.00000010    0.00000046   15.27300897
     atom    3 type  1   force =     0.00000004    0.00000037  -15.34712290
     atom    4 type  1   force =    -0.00000003   -0.00000037  -15.35573186
     The core correction contribution to forces
     atom    1 type  1   force =    -0.00000000   -0.00000001    0.00019934
     atom    2 type  1   force =     0.00000000    0.00000001    0.00016142
     atom    3 type  1   force =     0.00000000    0.00000001    0.00001911
     atom    4 type  1   force =     0.00000000   -0.00000001   -0.00001415
     The Hubbard contrib.    to forces
     atom    1 type  1   force =     0.00000000    0.00000000    0.00000000
     atom    2 type  1   force =     0.00000000    0.00000000    0.00000000
     atom    3 type  1   force =     0.00000000    0.00000000    0.00000000
     atom    4 type  1   force =     0.00000000    0.00000000    0.00000000
     The SCF correction term to forces
     atom    1 type  1   force =     0.00000000   -0.00000000   -0.00000140
     atom    2 type  1   force =    -0.00000000    0.00000000   -0.00000138
     atom    3 type  1   force =     0.00000000   -0.00000000    0.00000544
     atom    4 type  1   force =     0.00000000    0.00000000    0.00000549

     DFT-D3 dispersion contribution to forces:
     atom    1 type  1   force =    -0.00000000   -0.00000000    0.00125807
     atom    2 type  1   force =     0.00000000    0.00000000    0.00116109
     atom    3 type  1   force =    -0.00000000    0.00000000   -0.00116108
     atom    4 type  1   force =    -0.00000000   -0.00000000   -0.00125808

     Total force =     0.001929     Total SCF correction =     0.000008

     DFT-D3 dispersion Force =     0.002421
     Energy error            =      4.7E-06 Ry
     Gradient error          =      1.0E-03 Ry/Bohr

     number of scf cycles    =   3
     number of bfgs steps    =   2

     energy             old  =     -48.2077261450 Ry
     energy             new  =     -48.2077308884 Ry

     CASE: energy            _new < energy            _old

     new trust radius        =       0.0022876658 bohr
     new conv_thr            =            1.0E-10 Ry


ATOMIC_POSITIONS (angstrom)
C               -0.0000001757        0.0000000293        9.9972486804
C                1.2299996364        0.7101404452        9.9983191125
C                1.2300004606        0.7101408359       13.3518043930
C                0.0000000788        1.4202820141       13.3526278140



     Writing config-only to output data dir /home/ubuntu/projects/Graphene-Band-Structure-Quantum-Espresso/outputs/field_0.005/data/field_0.005.save/ :
     XML data file
     NEW-OLD atomic charge density approx. for the potential

     negative rho (up, down):  1.879E-07 0.000E+00

     Adding external electric field
        E field amplitude [Ha a.u.]:  5.0000E-03
        Potential amp.        0.3971 Ry
        Total length         39.7126 bohr


     total cpu time spent up to now is       93.1 secs

     Self-consistent Calculation

     iteration #  1     ecut=    90.00 Ry     beta= 0.70
     Davidson diagonalization with overlap

---- Real-time Memory Report at c_bands before calling an iterative solver
           153 MiB given to the printing process from OS
             0 MiB allocation reported by mallinfo(arena+hblkhd)
         29381 MiB available memory on the node where the printing process lives
------------------
     ethr =  1.00E-06,  avg # of iterations =  3.0

     Threshold (ethr) on eigenvalues was too large:
     Diagonalizing with lowered threshold

     Davidson diagonalization with overlap

---- Real-time Memory Report at c_bands before calling an iterative solver
           153 MiB given to the printing process from OS
             0 MiB allocation reported by mallinfo(arena+hblkhd)
         29633 MiB available memory on the node where the printing process lives
------------------
     ethr =  1.63E-08,  avg # of iterations =  1.8

     negative rho (up, down):  4.921E-08 0.000E+00

     total cpu time spent up to now is      101.3 secs

     total energy              =     -48.20773710 Ry
     estimated scf accuracy    <       0.00000328 Ry

     iteration #  2     ecut=    90.00 Ry     beta= 0.70
     Davidson diagonalization with overlap

---- Real-time Memory Report at c_bands before calling an iterative solver
           153 MiB given to the printing process from OS
             0 MiB allocation reported by mallinfo(arena+hblkhd)
         29252 MiB available memory on the node where the printing process lives
------------------
     ethr =  2.05E-08,  avg # of iterations =  2.0

     negative rho (up, down):  2.912E-08 0.000E+00

     total cpu time spent up to now is      105.2 secs

     total energy              =     -48.20773759 Ry
     estimated scf accuracy    <       0.00000279 Ry

     iteration #  3     ecut=    90.00 Ry     beta= 0.70
     Davidson diagonalization with overlap

---- Real-time Memory Report at c_bands before calling an iterative solver
           153 MiB given to the printing process from OS
             0 MiB allocation reported by mallinfo(arena+hblkhd)
         29262 MiB available memory on the node where the printing process lives
------------------
     ethr =  1.74E-08,  avg # of iterations =  2.0

     total cpu time spent up to now is      108.8 secs

     total energy              =     -48.20773825 Ry
     estimated scf accuracy    <       0.00000005 Ry

     iteration #  4     ecut=    90.00 Ry     beta= 0.70
     Davidson diagonalization with overlap

---- Real-time Memory Report at c_bands before calling an iterative solver
           153 MiB given to the printing process from OS
             0 MiB allocation reported by mallinfo(arena+hblkhd)
         29289 MiB available memory on the node where the printing process lives
------------------
     ethr =  3.18E-10,  avg # of iterations =  2.0

     total cpu time spent up to now is      112.3 secs

     total energy              =     -48.20773826 Ry
     estimated scf accuracy    <       0.00000002 Ry

     iteration #  5     ecut=    90.00 Ry     beta= 0.70
     Davidson diagonalization with overlap

---- Real-time Memory Report at c_bands before calling an iterative solver
           153 MiB given to the printing process from OS
             0 MiB allocation reported by mallinfo(arena+hblkhd)
         29283 MiB available memory on the node where the printing process lives
------------------
     ethr =  1.26E-10,  avg # of iterations =  1.6

     total cpu time spent up to now is      115.9 secs

     total energy              =     -48.20773826 Ry
     estimated scf accuracy    <          7.2E-10 Ry

     iteration #  6     ecut=    90.00 Ry     beta= 0.70
     Davidson diagonalization with overlap

---- Real-time Memory Report at c_bands before calling an iterative solver
           153 MiB given to the printing process from OS
             0 MiB allocation reported by mallinfo(arena+hblkhd)
         29257 MiB available memory on the node where the printing process lives
------------------
     ethr =  4.48E-12,  avg # of iterations =  2.5

     total cpu time spent up to now is      119.6 secs

     End of self-consistent calculation

          k = 0.0000 0.0000 0.0000 ( 11659 PWs)   bands (ev):

   -20.3840 -20.1865  -8.8464  -7.8635  -3.7987  -3.7987  -3.6782  -3.6782
     1.6918   2.3045   3.3525   3.7379   5.0352   6.1714

     occupation numbers 
     1.0000   1.0000   1.0000   1.0000   1.0000   1.0000   1.0000   1.0000
     0.0000   0.0000   0.0000   0.0000   0.0000   0.0000

          k = 0.0000 0.0770 0.0000 ( 11791 PWs)   bands (ev):

   -20.2782 -20.0815  -8.7183  -7.7392  -4.2252  -4.1039  -4.0235  -3.9025
     1.8388   2.4489   3.4947   3.8817   5.1770   6.3099

     occupation numbers 
     1.0000   1.0000   1.0000   1.0000   1.0000   1.0000   1.0000   1.0000
     0.0000   0.0000   0.0000   0.0000   0.0000   0.0000

          k = 0.0000 0.1540 0.0000 ( 11788 PWs)   bands (ev):

   -19.9618 -19.7674  -8.3357  -7.3689  -5.3590  -5.2351  -4.5933  -4.4713
     2.2800   2.8818   3.9214   4.3128   5.6022   6.7226

     occupation numbers 
     1.0000   1.0000   1.0000   1.0000   1.0000   1.0000   1.0000   1.0000
     0.0000   0.0000   0.0000   0.0000   0.0000   0.0000

          k = 0.0000 0.2309 0.0000 ( 11848 PWs)   bands (ev):

   -19.4369 -19.2461  -7.7051  -6.9155  -6.7883  -6.7587  -5.3058  -5.1829
     3.0152   3.6024   4.6310   5.0291   6.3048   7.3596

     occupation numbers 
     1.0000   1.0000   1.0000   1.0000   1.0000   1.0000   1.0000   1.0000
     0.0000   0.0000   0.0000   0.0000   0.0000   0.0000

          k = 0.0000 0.3079 0.0000 ( 11876 PWs)   bands (ev):

   -18.7076 -18.5220  -8.6579  -8.5238  -6.8400  -5.9992  -5.9304  -5.8756
     4.0438   4.6048   5.6072   5.8723   6.1189   6.3144

     occupation numbers 
     1.0000   1.0000   1.0000   1.0000   1.0000   1.0000   1.0000   1.0000
     0.0000   0.0000   0.0000   0.0000   0.0000   0.0000

          k = 0.0000 0.3849 0.0000 ( 11914 PWs)   bands (ev):

   -17.7816 -17.6022 -10.4338 -10.2930  -6.5761  -6.4520  -5.7700  -4.9181
     4.0143   4.4927   5.3686   5.9078   6.8477   7.0476

     occupation numbers 
     1.0000   1.0000   1.0000   1.0000   1.0000   1.0000   1.0000   1.0000
     0.0000   0.0000   0.0000   0.0000   0.0000   0.0000

          k = 0.0000 0.4619 0.0000 ( 11910 PWs)   bands (ev):

   -16.6744 -16.5026 -12.1435 -11.9958  -6.9831  -6.8587  -4.5693  -3.8275
     2.2371   2.7642   6.8249   6.9839   7.0550   7.4975

     occupation numbers 
     1.0000   1.0000   1.0000   1.0000   1.0000   1.0000   1.0000   1.0000
     0.0000   0.0000   0.0000   0.0000   0.0000   0.0000

          k = 0.0000 0.5389 0.0000 ( 11924 PWs)   bands (ev):

   -15.4591 -15.3011 -13.6636 -13.5151  -7.1925  -7.0680  -3.4977  -3.0071
     1.0128   1.4504   6.7245   6.9621   8.8885   9.3227

     occupation numbers 
     1.0000   1.0000   1.0000   1.0000   1.0000   1.0000   1.0000   1.0000
     0.0000   0.0000   0.0000   0.0000   0.0000   0.0000

          k = 0.0667 0.0385 0.0000 ( 11791 PWs)   bands (ev):

   -20.2782 -20.0815  -8.7183  -7.7392  -4.2252  -4.1039  -4.0235  -3.9025
     1.8388   2.4489   3.4947   3.8817   5.1770   6.3099

     occupation numbers 
     1.0000   1.0000   1.0000   1.0000   1.0000   1.0000   1.0000   1.0000
     0.0000   0.0000   0.0000   0.0000   0.0000   0.0000

          k = 0.0667 0.1155 0.0000 ( 11813 PWs)   bands (ev):

   -20.0672 -19.8720  -8.4629  -7.4919  -4.9530  -4.8313  -4.4727  -4.3517
     2.1330   2.7376   3.7793   4.1692   5.4608   6.5864

     occupation numbers 
     1.0000   1.0000   1.0000   1.0000   1.0000   1.0000   1.0000   1.0000
     0.0000   0.0000   0.0000   0.0000   0.0000   0.0000

          k = 0.0667 0.1925 0.0000 ( 11832 PWs)   bands (ev):

   -19.6465 -19.4543  -7.9561  -7.0021  -6.2080  -6.0834  -5.2054  -5.0831
     2.7212   3.3146   4.3480   4.7436   6.0271   7.1329

     occupation numbers 
     1.0000   1.0000   1.0000   1.0000   1.0000   1.0000   1.0000   1.0000
     0.0000   0.0000   0.0000   0.0000   0.0000   0.0000

          k = 0.0667 0.2694 0.0000 ( 11880 PWs)   bands (ev):

   -19.0194 -18.8316  -7.7988  -7.6689  -7.2071  -6.2814  -5.9690  -5.8451
     3.6032   4.1779   5.1977   5.5983   6.7589   6.8489

     occupation numbers 
     1.0000   1.0000   1.0000   1.0000   1.0000   1.0000   1.0000   1.0000
     0.0000   0.0000   0.0000   0.0000   0.0000   0.0000

          k = 0.0667 0.3464 0.0000 ( 11910 PWs)   bands (ev):

   -18.1917 -18.0095  -9.5273  -9.3907  -6.6355  -6.5106  -6.2360  -5.3550
     4.7694   4.8935   5.2917   5.3594   6.3284   6.7585

     occupation numbers 
     1.0000   1.0000   1.0000   1.0000   1.0000   1.0000   1.0000   1.0000
     0.0000   0.0000   0.0000   0.0000   0.0000   0.0000

          k = 0.0667 0.4234 0.0000 ( 11938 PWs)   bands (ev):

   -17.1738 -16.9985 -11.2560 -11.1124  -7.1424  -7.0169  -5.0870  -4.2830
     3.0570   3.5458   6.2485   6.7567   7.3893   7.5524

     occupation numbers 
     1.0000   1.0000   1.0000   1.0000   1.0000   1.0000   1.0000   1.0000
     0.0000   0.0000   0.0000   0.0000   0.0000   0.0000

          k = 0.0667 0.5004 0.0000 ( 11920 PWs)   bands (ev):

   -15.9949 -15.8285 -12.8835 -12.7339  -7.4571  -7.3312  -3.8909  -3.2513
     1.4928   1.9799   7.2287   7.4674   8.0099   8.4767

     occupation numbers 
     1.0000   1.0000   1.0000   1.0000   1.0000   1.0000   1.0000   1.0000
     0.0000   0.0000   0.0000   0.0000   0.0000   0.0000

          k = 0.0667 0.5774 0.0000 ( 11913 PWs)   bands (ev):

   -15.0142 -14.8768 -13.9946 -13.8624  -7.5636  -7.4376  -3.1876  -2.8042
     0.8273   1.1819   7.1750   7.4198  10.0467  10.0586

     occupation numbers 
     1.0000   1.0000   1.0000   1.0000   1.0000   1.0000   1.0000   1.0000
     0.0000   0.0000   0.0000   0.0000   0.0000   0.0000

          k = 0.0667-0.5004 0.0000 ( 11920 PWs)   bands (ev):

   -15.9949 -15.8285 -12.8835 -12.7339  -7.4571  -7.3312  -3.8909  -3.2513
     1.4928   1.9799   7.2287   7.4674   8.0099   8.4767

     occupation numbers 
     1.0000   1.0000   1.0000   1.0000   1.0000   1.0000   1.0000   1.0000
     0.0000   0.0000   0.0000   0.0000   0.0000   0.0000

          k = 0.0667-0.4234 0.0000 ( 11938 PWs)   bands (ev):

   -17.1738 -16.9985 -11.2560 -11.1124  -7.1424  -7.0169  -5.0870  -4.2830
     3.0570   3.5458   6.2485   6.7567   7.3893   7.5524

     occupation numbers 
     1.0000   1.0000   1.0000   1.0000   1.0000   1.0000   1.0000   1.0000
     0.0000   0.0000   0.0000   0.0000   0.0000   0.0000

          k = 0.0667-0.3464 0.0000 ( 11910 PWs)   bands (ev):

   -18.1917 -18.0095  -9.5273  -9.3907  -6.6355  -6.5106  -6.2360  -5.3550
     4.7694   4.8935   5.2917   5.3594   6.3284   6.7585

     occupation numbers 
     1.0000   1.0000   1.0000   1.0000   1.0000   1.0000   1.0000   1.0000
     0.0000   0.0000   0.0000   0.0000   0.0000   0.0000

          k = 0.0667-0.2694 0.0000 ( 11880 PWs)   bands (ev):

   -19.0194 -18.8316  -7.7988  -7.6689  -7.2071  -6.2814  -5.9690  -5.8451
     3.6032   4.1779   5.1977   5.5983   6.7589   6.8485

     occupation numbers 
     1.0000   1.0000   1.0000   1.0000   1.0000   1.0000   1.0000   1.0000
     0.0000   0.0000   0.0000   0.0000   0.0000   0.0000

          k = 0.0667-0.1925 0.0000 ( 11832 PWs)   bands (ev):

   -19.6465 -19.4543  -7.9561  -7.0021  -6.2080  -6.0834  -5.2054  -5.0831
     2.7212   3.3146   4.3480   4.7436   6.0271   7.1329

     occupation numbers 
     1.0000   1.0000   1.0000   1.0000   1.0000   1.0000   1.0000   1.0000
     0.0000   0.0000   0.0000   0.0000   0.0000   0.0000

          k = 0.0667-0.1155 0.0000 ( 11813 PWs)   bands (ev):

   -20.0672 -19.8720  -8.4629  -7.4919  -4.9530  -4.8313  -4.4727  -4.3517
     2.1330   2.7376   3.7793   4.1692   5.4608   6.5864

     occupation numbers 
     1.0000   1.0000   1.0000   1.0000   1.0000   1.0000   1.0000   1.0000
     0.0000   0.0000   0.0000   0.0000   0.0000   0.0000

          k = 0.0667-0.0385 0.0000 ( 11791 PWs)   bands (ev):

   -20.2782 -20.0815  -8.7183  -7.7392  -4.2252  -4.1039  -4.0235  -3.9026
     1.8388   2.4489   3.4947   3.8817   5.1770   6.3099

     occupation numbers 
     1.0000   1.0000   1.0000   1.0000   1.0000   1.0000   1.0000   1.0000
     0.0000   0.0000   0.0000   0.0000   0.0000   0.0000

          k = 0.1333 0.0770 0.0000 ( 11788 PWs)   bands (ev):

   -19.9618 -19.7674  -8.3357  -7.3689  -5.3590  -5.2351  -4.5933  -4.4713
     2.2800   2.8818   3.9214   4.3128   5.6022   6.7225

     occupation numbers 
     1.0000   1.0000   1.0000   1.0000   1.0000   1.0000   1.0000   1.0000
     0.0000   0.0000   0.0000   0.0000   0.0000   0.0000

          k = 0.1333 0.1540 0.0000 ( 11832 PWs)   bands (ev):

   -19.6465 -19.4543  -7.9561  -7.0021  -6.2080  -6.0834  -5.2054  -5.0831
     2.7212   3.3146   4.3480   4.7436   6.0271   7.1329

     occupation numbers 
     1.0000   1.0000   1.0000   1.0000   1.0000   1.0000   1.0000   1.0000
     0.0000   0.0000   0.0000   0.0000   0.0000   0.0000

          k = 0.1333 0.2309 0.0000 ( 11879 PWs)   bands (ev):

   -19.1237 -18.9352  -7.3316  -7.3110  -7.1875  -6.3992  -6.1737  -6.0509
     3.4563   4.0350   5.0582   5.4604   6.7338   7.0808

     occupation numbers 
     1.0000   1.0000   1.0000   1.0000   1.0000   1.0000   1.0000   1.0000
     0.0000   0.0000   0.0000   0.0000   0.0000   0.0000

          k = 0.1333 0.3079 0.0000 ( 11929 PWs)   bands (ev):

   -18.3980 -18.2145  -8.7138  -8.5846  -7.0863  -6.9612  -6.4720  -5.5772
     4.4849   5.0374   5.4969   5.7952   6.0495   6.4637

     occupation numbers 
     1.0000   1.0000   1.0000   1.0000   1.0000   1.0000   1.0000   1.0000
     0.0000   0.0000   0.0000   0.0000   0.0000   0.0000

          k = 0.1333 0.3849 0.0000 ( 11925 PWs)   bands (ev):

   -17.4778 -17.3005 -10.3147 -10.1774  -7.7657  -7.6380  -5.4089  -4.5717
     3.7716   4.1564   5.8074   6.3302   7.3070   7.7399

     occupation numbers 
     1.0000   1.0000   1.0000   1.0000   1.0000   1.0000   1.0000   1.0000
     0.0000   0.0000   0.0000   0.0000   0.0000   0.0000

          k = 0.1333 0.4619 0.0000 ( 11927 PWs)   bands (ev):

   -16.3801 -16.2103 -11.9369 -11.7919  -8.2138  -8.0847  -4.2103  -3.4777
     2.1092   2.5538   7.4204   7.8854   8.5361   8.7119

     occupation numbers 
     1.0000   1.0000   1.0000   1.0000   1.0000   1.0000   1.0000   1.0000
     0.0000   0.0000   0.0000   0.0000   0.0000   0.0000

          k = 0.1333 0.5389 0.0000 ( 11935 PWs)   bands (ev):

   -15.1806 -15.0243 -13.4104 -13.2639  -8.4377  -8.3080  -3.1210  -2.6302
     0.9244   1.2793   8.4271   8.6982   9.3200   9.7092

     occupation numbers 
     1.0000   1.0000   1.0000   1.0000   1.0000   1.0000   1.0000   1.0000
     0.0000   0.0000   0.0000   0.0000   0.0000   0.0000

          k = 0.1333 0.6158 0.0000 ( 11935 PWs)   bands (ev):

   -15.1806 -15.0243 -13.4104 -13.2639  -8.4377  -8.3080  -3.1210  -2.6302
     0.9244   1.2793   8.4271   8.6982   9.3200   9.7092

     occupation numbers 
     1.0000   1.0000   1.0000   1.0000   1.0000   1.0000   1.0000   1.0000
     0.0000   0.0000   0.0000   0.0000   0.0000   0.0000

          k = 0.1333-0.4619 0.0000 ( 11927 PWs)   bands (ev):

   -16.3801 -16.2103 -11.9369 -11.7919  -8.2138  -8.0847  -4.2103  -3.4777
     2.1092   2.5538   7.4204   7.8854   8.5361   8.7120

     occupation numbers 
     1.0000   1.0000   1.0000   1.0000   1.0000   1.0000   1.0000   1.0000
     0.0000   0.0000   0.0000   0.0000   0.0000   0.0000

          k = 0.1333-0.3849 0.0000 ( 11925 PWs)   bands (ev):

   -17.4778 -17.3005 -10.3147 -10.1774  -7.7657  -7.6380  -5.4089  -4.5717
     3.7716   4.1565   5.8074   6.3302   7.3070   7.7398

     occupation numbers 
     1.0000   1.0000   1.0000   1.0000   1.0000   1.0000   1.0000   1.0000
     0.0000   0.0000   0.0000   0.0000   0.0000   0.0000

          k = 0.1333-0.3079 0.0000 ( 11929 PWs)   bands (ev):

   -18.3980 -18.2145  -8.7138  -8.5846  -7.0864  -6.9612  -6.4720  -5.5772
     4.4849   5.0374   5.4969   5.7952   6.0495   6.4637

     occupation numbers 
     1.0000   1.0000   1.0000   1.0000   1.0000   1.0000   1.0000   1.0000
     0.0000   0.0000   0.0000   0.0000   0.0000   0.0000

          k = 0.1333-0.2309 0.0000 ( 11879 PWs)   bands (ev):

   -19.1237 -18.9352  -7.3316  -7.3110  -7.1875  -6.3992  -6.1737  -6.0510
     3.4563   4.0350   5.0582   5.4604   6.7338   7.0808

     occupation numbers 
     1.0000   1.0000   1.0000   1.0000   1.0000   1.0000   1.0000   1.0000
     0.0000   0.0000   0.0000   0.0000   0.0000   0.0000

          k = 0.1333-0.1540 0.0000 ( 11832 PWs)   bands (ev):

   -19.6465 -19.4543  -7.9561  -7.0021  -6.2080  -6.0834  -5.2054  -5.0831
     2.7212   3.3146   4.3480   4.7436   6.0271   7.1329

     occupation numbers 
     1.0000   1.0000   1.0000   1.0000   1.0000   1.0000   1.0000   1.0000
     0.0000   0.0000   0.0000   0.0000   0.0000   0.0000

          k = 0.1333-0.0770 0.0000 ( 11788 PWs)   bands (ev):

   -19.9618 -19.7674  -8.3357  -7.3689  -5.3590  -5.2351  -4.5933  -4.4713
     2.2800   2.8818   3.9214   4.3128   5.6022   6.7225

     occupation numbers 
     1.0000   1.0000   1.0000   1.0000   1.0000   1.0000   1.0000   1.0000
     0.0000   0.0000   0.0000   0.0000   0.0000   0.0000

          k = 0.1333 0.0000 0.0000 ( 11813 PWs)   bands (ev):

   -20.0672 -19.8720  -8.4629  -7.4919  -4.9530  -4.8313  -4.4727  -4.3517
     2.1330   2.7376   3.7793   4.1692   5.4608   6.5864

     occupation numbers 
     1.0000   1.0000   1.0000   1.0000   1.0000   1.0000   1.0000   1.0000
     0.0000   0.0000   0.0000   0.0000   0.0000   0.0000

          k = 0.2000 0.1155 0.0000 ( 11848 PWs)   bands (ev):

   -19.4369 -19.2461  -7.7051  -6.9155  -6.7883  -6.7587  -5.3058  -5.1829
     3.0152   3.6024   4.6310   5.0291   6.3048   7.3596

     occupation numbers 
     1.0000   1.0000   1.0000   1.0000   1.0000   1.0000   1.0000   1.0000
     0.0000   0.0000   0.0000   0.0000   0.0000   0.0000

          k = 0.2000 0.1925 0.0000 ( 11880 PWs)   bands (ev):

   -19.0194 -18.8316  -7.7988  -7.6689  -7.2071  -6.2814  -5.9690  -5.8451
     3.6032   4.1779   5.1977   5.5983   6.7590   6.8491

     occupation numbers 
     1.0000   1.0000   1.0000   1.0000   1.0000   1.0000   1.0000   1.0000
     0.0000   0.0000   0.0000   0.0000   0.0000   0.0000

          k = 0.2000 0.2694 0.0000 ( 11929 PWs)   bands (ev):

   -18.3980 -18.2145  -8.7138  -8.5846  -7.0863  -6.9612  -6.4720  -5.5772
     4.4849   5.0374   5.4969   5.7952   6.0495   6.4637

     occupation numbers 
     1.0000   1.0000   1.0000   1.0000   1.0000   1.0000   1.0000   1.0000
     0.0000   0.0000   0.0000   0.0000   0.0000   0.0000

          k = 0.2000 0.3464 0.0000 ( 11953 PWs)   bands (ev):

   -17.5797 -17.4017  -9.7292  -9.6019  -8.2654  -8.1401  -5.5180  -4.6702
     4.0830   4.3862   5.6599   6.1838   7.1680   7.5910

     occupation numbers 
     1.0000   1.0000   1.0000   1.0000   1.0000   1.0000   1.0000   1.0000
     0.0000   0.0000   0.0000   0.0000   0.0000   0.0000

          k = 0.2000 0.4234 0.0000 ( 11949 PWs)   bands (ev):

   -16.5774 -16.4061 -11.0209 -10.8862  -9.0912  -8.9619  -4.3839  -3.6100
     2.5780   2.9244   7.1258   7.5979   8.5334   8.9773

     occupation numbers 
     1.0000   1.0000   1.0000   1.0000   1.0000   1.0000   1.0000   1.0000
     0.0000   0.0000   0.0000   0.0000   0.0000   0.0000

          k = 0.2000 0.5004 0.0000 ( 11953 PWs)   bands (ev):

   -15.4238 -15.2613 -12.4576 -12.3139  -9.5214  -9.3885  -3.1773  -2.5459
     1.1809   1.5420   8.8732   9.2481   9.9604  10.1523

     occupation numbers 
     1.0000   1.0000   1.0000   1.0000   1.0000   1.0000   1.0000   1.0000
     0.0000   0.0000   0.0000   0.0000   0.0000   0.0000

          k = 0.2000 0.5774 0.0000 ( 11949 PWs)   bands (ev):

   -14.4737 -14.3378 -13.4977 -13.3681  -9.6552  -9.5213  -2.4173  -2.0413
     0.5563   0.7233  10.0186  10.3290  10.5741  10.7756

     occupation numbers 
     1.0000   1.0000   1.0000   1.0000   1.0000   1.0000   1.0000   1.0000
     0.0000   0.0000   0.0000   0.0000   0.0000   0.0000

          k = 0.2000 0.6543 0.0000 ( 11953 PWs)   bands (ev):

   -15.4238 -15.2613 -12.4576 -12.3139  -9.5214  -9.3885  -3.1773  -2.5459
     1.1809   1.5420   8.8732   9.2481   9.9604  10.1522

     occupation numbers 
     1.0000   1.0000   1.0000   1.0000   1.0000   1.0000   1.0000   1.0000
     0.0000   0.0000   0.0000   0.0000   0.0000   0.0000

          k = 0.2000-0.4234 0.0000 ( 11949 PWs)   bands (ev):

   -16.5774 -16.4061 -11.0209 -10.8862  -9.0912  -8.9619  -4.3839  -3.6100
     2.5780   2.9244   7.1258   7.5979   8.5334   8.9773

     occupation numbers 
     1.0000   1.0000   1.0000   1.0000   1.0000   1.0000   1.0000   1.0000
     0.0000   0.0000   0.0000   0.0000   0.0000   0.0000

          k = 0.2000-0.3464 0.0000 ( 11953 PWs)   bands (ev):

   -17.5797 -17.4017  -9.7292  -9.6019  -8.2654  -8.1401  -5.5180  -4.6702
     4.0830   4.3862   5.6599   6.1838   7.1680   7.5910

     occupation numbers 
     1.0000   1.0000   1.0000   1.0000   1.0000   1.0000   1.0000   1.0000
     0.0000   0.0000   0.0000   0.0000   0.0000   0.0000

          k = 0.2000-0.2694 0.0000 ( 11929 PWs)   bands (ev):

   -18.3980 -18.2145  -8.7138  -8.5846  -7.0863  -6.9612  -6.4720  -5.5772
     4.4849   5.0374   5.4969   5.7952   6.0495   6.4637

     occupation numbers 
     1.0000   1.0000   1.0000   1.0000   1.0000   1.0000   1.0000   1.0000
     0.0000   0.0000   0.0000   0.0000   0.0000   0.0000

          k = 0.2000-0.1925 0.0000 ( 11880 PWs)   bands (ev):

   -19.0194 -18.8316  -7.7988  -7.6689  -7.2071  -6.2814  -5.9690  -5.8451
     3.6032   4.1779   5.1977   5.5983   6.7593   6.8491

     occupation numbers 
     1.0000   1.0000   1.0000   1.0000   1.0000   1.0000   1.0000   1.0000
     0.0000   0.0000   0.0000   0.0000   0.0000   0.0000

          k = 0.2000-0.1155 0.0000 ( 11848 PWs)   bands (ev):

   -19.4369 -19.2461  -7.7051  -6.9155  -6.7883  -6.7587  -5.3058  -5.1829
     3.0152   3.6024   4.6310   5.0291   6.3048   7.3594

     occupation numbers 
     1.0000   1.0000   1.0000   1.0000   1.0000   1.0000   1.0000   1.0000
     0.0000   0.0000   0.0000   0.0000   0.0000   0.0000

          k = 0.2000-0.0385 0.0000 ( 11832 PWs)   bands (ev):

   -19.6465 -19.4543  -7.9561  -7.0021  -6.2080  -6.0834  -5.2054  -5.0831
     2.7212   3.3146   4.3480   4.7436   6.0271   7.1329

     occupation numbers 
     1.0000   1.0000   1.0000   1.0000   1.0000   1.0000   1.0000   1.0000
     0.0000   0.0000   0.0000   0.0000   0.0000   0.0000

          k = 0.2000 0.0385 0.0000 ( 11832 PWs)   bands (ev):

   -19.6465 -19.4543  -7.9561  -7.0021  -6.2080  -6.0834  -5.2054  -5.0831
     2.7212   3.3146   4.3480   4.7436   6.0271   7.1329

     occupation numbers 
     1.0000   1.0000   1.0000   1.0000   1.0000   1.0000   1.0000   1.0000
     0.0000   0.0000   0.0000   0.0000   0.0000   0.0000

          k = 0.2667 0.1540 0.0000 ( 11876 PWs)   bands (ev):

   -18.7076 -18.5220  -8.6579  -8.5238  -6.8400  -5.9992  -5.9304  -5.8756
     4.0438   4.6048   5.6072   5.8723   6.1189   6.3144

     occupation numbers 
     1.0000   1.0000   1.0000   1.0000   1.0000   1.0000   1.0000   1.0000
     0.0000   0.0000   0.0000   0.0000   0.0000   0.0000

          k = 0.2667 0.2309 0.0000 ( 11910 PWs)   bands (ev):

   -18.1917 -18.0095  -9.5273  -9.3907  -6.6355  -6.5106  -6.2360  -5.3550
     4.7694   4.8935   5.2917   5.3594   6.3284   6.7585

     occupation numbers 
     1.0000   1.0000   1.0000   1.0000   1.0000   1.0000   1.0000   1.0000
     0.0000   0.0000   0.0000   0.0000   0.0000   0.0000

          k = 0.2667 0.3079 0.0000 ( 11925 PWs)   bands (ev):

   -17.4778 -17.3005 -10.3147 -10.1774  -7.7657  -7.6380  -5.4089  -4.5717
     3.7716   4.1564   5.8074   6.3302   7.3070   7.7399

     occupation numbers 
     1.0000   1.0000   1.0000   1.0000   1.0000   1.0000   1.0000   1.0000
     0.0000   0.0000   0.0000   0.0000   0.0000   0.0000

          k = 0.2667 0.3849 0.0000 ( 11949 PWs)   bands (ev):

   -16.5774 -16.4061 -11.0209 -10.8862  -9.0912  -8.9619  -4.3839  -3.6100
     2.5780   2.9244   7.1258   7.5979   8.5334   8.9773

     occupation numbers 
     1.0000   1.0000   1.0000   1.0000   1.0000   1.0000   1.0000   1.0000
     0.0000   0.0000   0.0000   0.0000   0.0000   0.0000

          k = 0.2667 0.4619 0.0000 ( 11961 PWs)   bands (ev):

   -15.5132 -15.3494 -11.8009 -11.6703 -10.2215 -10.0940  -3.2105  -2.5295
     1.3273   1.6691   8.7234   9.0937   9.8335  10.3025

     occupation numbers 
     1.0000   1.0000   1.0000   1.0000   1.0000   1.0000   1.0000   1.0000
     0.0000   0.0000   0.0000   0.0000   0.0000   0.0000

          k = 0.2667 0.5389 0.0000 ( 11948 PWs)   bands (ev):

   -14.3639 -14.2125 -12.8551 -12.7186 -10.7675 -10.6354  -2.0472  -1.5486
     0.2170   0.5206   9.9712  10.2435  10.6802  10.9943

     occupation numbers 
     1.0000   1.0000   1.0000   1.0000   1.0000   1.0000   1.0000   1.0000
     0.0000   0.0000   0.0000   0.0000   0.0000   0.0000

          k = 0.2667 0.6158 0.0000 ( 11948 PWs)   bands (ev):

   -14.3639 -14.2125 -12.8551 -12.7186 -10.7675 -10.6354  -2.0472  -1.5486
     0.2170   0.5206   9.9712  10.2435  10.6802  10.9943

     occupation numbers 
     1.0000   1.0000   1.0000   1.0000   1.0000   1.0000   1.0000   1.0000
     0.0000   0.0000   0.0000   0.0000   0.0000   0.0000

          k = 0.2667 0.6928 0.0000 ( 11961 PWs)   bands (ev):

   -15.5132 -15.3494 -11.8009 -11.6703 -10.2215 -10.0940  -3.2105  -2.5295
     1.3273   1.6691   8.7234   9.0937   9.8335  10.3025

     occupation numbers 
     1.0000   1.0000   1.0000   1.0000   1.0000   1.0000   1.0000   1.0000
     0.0000   0.0000   0.0000   0.0000   0.0000   0.0000

          k = 0.2667-0.3849 0.0000 ( 11949 PWs)   bands (ev):

   -16.5774 -16.4061 -11.0209 -10.8862  -9.0912  -8.9620  -4.3839  -3.6100
     2.5780   2.9244   7.1258   7.5979   8.5334   8.9773

     occupation numbers 
     1.0000   1.0000   1.0000   1.0000   1.0000   1.0000   1.0000   1.0000
     0.0000   0.0000   0.0000   0.0000   0.0000   0.0000

          k = 0.2667-0.3079 0.0000 ( 11925 PWs)   bands (ev):

   -17.4778 -17.3005 -10.3147 -10.1774  -7.7657  -7.6380  -5.4089  -4.5717
     3.7716   4.1565   5.8074   6.3302   7.3070   7.7398

     occupation numbers 
     1.0000   1.0000   1.0000   1.0000   1.0000   1.0000   1.0000   1.0000
     0.0000   0.0000   0.0000   0.0000   0.0000   0.0000

          k = 0.2667-0.2309 0.0000 ( 11910 PWs)   bands (ev):

   -18.1917 -18.0095  -9.5273  -9.3907  -6.6355  -6.5106  -6.2360  -5.3550
     4.7694   4.8935   5.2917   5.3594   6.3284   6.7585

     occupation numbers 
     1.0000   1.0000   1.0000   1.0000   1.0000   1.0000   1.0000   1.0000
     0.0000   0.0000   0.0000   0.0000   0.0000   0.0000

          k = 0.2667-0.1540 0.0000 ( 11876 PWs)   bands (ev):

   -18.7076 -18.5220  -8.6579  -8.5238  -6.8400  -5.9992  -5.9304  -5.8756
     4.0438   4.6048   5.6072   5.8723   6.1189   6.3144

     occupation numbers 
     1.0000   1.0000   1.0000   1.0000   1.0000   1.0000   1.0000   1.0000
     0.0000   0.0000   0.0000   0.0000   0.0000   0.0000

          k = 0.2667-0.0770 0.0000 ( 11880 PWs)   bands (ev):

   -19.0194 -18.8316  -7.7988  -7.6689  -7.2071  -6.2814  -5.9690  -5.8451
     3.6032   4.1779   5.1977   5.5983   6.7589   6.8486

     occupation numbers 
     1.0000   1.0000   1.0000   1.0000   1.0000   1.0000   1.0000   1.0000
     0.0000   0.0000   0.0000   0.0000   0.0000   0.0000

          k = 0.2667 0.0000 0.0000 ( 11879 PWs)   bands (ev):

   -19.1237 -18.9352  -7.3316  -7.3110  -7.1875  -6.3992  -6.1737  -6.0510
     3.4563   4.0350   5.0582   5.4604   6.7338   7.0808

     occupation numbers 
     1.0000   1.0000   1.0000   1.0000   1.0000   1.0000   1.0000   1.0000
     0.0000   0.0000   0.0000   0.0000   0.0000   0.0000

          k = 0.2667 0.0770 0.0000 ( 11880 PWs)   bands (ev):

   -19.0194 -18.8316  -7.7988  -7.6689  -7.2071  -6.2814  -5.9689  -5.8451
     3.6032   4.1779   5.1977   5.5983   6.7589   6.8490

     occupation numbers 
     1.0000   1.0000   1.0000   1.0000   1.0000   1.0000   1.0000   1.0000
     0.0000   0.0000   0.0000   0.0000   0.0000   0.0000

          k = 0.3333 0.1925 0.0000 ( 11914 PWs)   bands (ev):

   -17.7816 -17.6022 -10.4338 -10.2930  -6.5761  -6.4520  -5.7700  -4.9181
     4.0143   4.4927   5.3686   5.9078   6.8477   7.0475

     occupation numbers 
     1.0000   1.0000   1.0000   1.0000   1.0000   1.0000   1.0000   1.0000
     0.0000   0.0000   0.0000   0.0000   0.0000   0.0000

          k = 0.3333 0.2694 0.0000 ( 11938 PWs)   bands (ev):

   -17.1738 -16.9985 -11.2560 -11.1124  -7.1424  -7.0169  -5.0870  -4.2830
     3.0570   3.5458   6.2485   6.7567   7.3893   7.5524

     occupation numbers 
     1.0000   1.0000   1.0000   1.0000   1.0000   1.0000   1.0000   1.0000
     0.0000   0.0000   0.0000   0.0000   0.0000   0.0000

          k = 0.3333 0.3464 0.0000 ( 11927 PWs)   bands (ev):

   -16.3801 -16.2103 -11.9369 -11.7919  -8.2138  -8.0847  -4.2103  -3.4777
     2.1092   2.5538   7.4204   7.8854   8.5361   8.7119

     occupation numbers 
     1.0000   1.0000   1.0000   1.0000   1.0000   1.0000   1.0000   1.0000
     0.0000   0.0000   0.0000   0.0000   0.0000   0.0000

          k = 0.3333 0.4234 0.0000 ( 11953 PWs)   bands (ev):

   -15.4238 -15.2613 -12.4576 -12.3139  -9.5214  -9.3885  -3.1773  -2.5459
     1.1809   1.5420   8.8732   9.2481   9.9604  10.1523

     occupation numbers 
     1.0000   1.0000   1.0000   1.0000   1.0000   1.0000   1.0000   1.0000
     0.0000   0.0000   0.0000   0.0000   0.0000   0.0000

          k = 0.3333 0.5004 0.0000 ( 11948 PWs)   bands (ev):

   -14.3639 -14.2125 -12.8551 -12.7186 -10.7675 -10.6354  -2.0472  -1.5486
     0.2170   0.5206   9.9712  10.2435  10.6802  10.9943

     occupation numbers 
     1.0000   1.0000   1.0000   1.0000   1.0000   1.0000   1.0000   1.0000
     0.0000   0.0000   0.0000   0.0000   0.0000   0.0000

          k = 0.3333 0.5774 0.0000 ( 11919 PWs)   bands (ev):

   -13.4100 -13.3906 -13.2668 -13.2521 -11.3874 -11.2624  -1.0360  -0.7711
    -0.6306  -0.3459   9.8309  10.0373  11.9259  12.2673

     occupation numbers 
     1.0000   1.0000   1.0000   1.0000   1.0000   1.0000   0.9998   0.7675
     0.2327   0.0001   0.0000   0.0000   0.0000   0.0000

          k = 0.3333 0.6543 0.0000 ( 11948 PWs)   bands (ev):

   -14.3639 -14.2125 -12.8551 -12.7186 -10.7675 -10.6354  -2.0472  -1.5486
     0.2170   0.5206   9.9712  10.2435  10.6802  10.9943

     occupation numbers 
     1.0000   1.0000   1.0000   1.0000   1.0000   1.0000   1.0000   1.0000
     0.0000   0.0000   0.0000   0.0000   0.0000   0.0000

          k = 0.3333 0.7313 0.0000 ( 11953 PWs)   bands (ev):

   -15.4238 -15.2613 -12.4576 -12.3139  -9.5214  -9.3885  -3.1773  -2.5459
     1.1809   1.5420   8.8732   9.2481   9.9604  10.1522

     occupation numbers 
     1.0000   1.0000   1.0000   1.0000   1.0000   1.0000   1.0000   1.0000
     0.0000   0.0000   0.0000   0.0000   0.0000   0.0000

          k = 0.3333-0.3464 0.0000 ( 11927 PWs)   bands (ev):

   -16.3801 -16.2103 -11.9369 -11.7919  -8.2138  -8.0847  -4.2103  -3.4777
     2.1092   2.5538   7.4204   7.8854   8.5361   8.7120

     occupation numbers 
     1.0000   1.0000   1.0000   1.0000   1.0000   1.0000   1.0000   1.0000
     0.0000   0.0000   0.0000   0.0000   0.0000   0.0000

          k = 0.3333-0.2694 0.0000 ( 11938 PWs)   bands (ev):

   -17.1738 -16.9985 -11.2560 -11.1124  -7.1424  -7.0169  -5.0870  -4.2830
     3.0570   3.5458   6.2485   6.7567   7.3893   7.5523

     occupation numbers 
     1.0000   1.0000   1.0000   1.0000   1.0000   1.0000   1.0000   1.0000
     0.0000   0.0000   0.0000   0.0000   0.0000   0.0000

          k = 0.3333-0.1925 0.0000 ( 11914 PWs)   bands (ev):

   -17.7816 -17.6022 -10.4338 -10.2930  -6.5761  -6.4520  -5.7700  -4.9181
     4.0143   4.4927   5.3686   5.9078   6.8477   7.0476

     occupation numbers 
     1.0000   1.0000   1.0000   1.0000   1.0000   1.0000   1.0000   1.0000
     0.0000   0.0000   0.0000   0.0000   0.0000   0.0000

          k = 0.3333-0.1155 0.0000 ( 11910 PWs)   bands (ev):

   -18.1917 -18.0095  -9.5273  -9.3907  -6.6355  -6.5106  -6.2360  -5.3550
     4.7694   4.8935   5.2917   5.3594   6.3284   6.7585

     occupation numbers 
     1.0000   1.0000   1.0000   1.0000   1.0000   1.0000   1.0000   1.0000
     0.0000   0.0000   0.0000   0.0000   0.0000   0.0000

          k = 0.3333-0.0385 0.0000 ( 11929 PWs)   bands (ev):

   -18.3980 -18.2145  -8.7138  -8.5846  -7.0863  -6.9612  -6.4720  -5.5772
     4.4849   5.0374   5.4969   5.7952   6.0495   6.4637

     occupation numbers 
     1.0000   1.0000   1.0000   1.0000   1.0000   1.0000   1.0000   1.0000
     0.0000   0.0000   0.0000   0.0000   0.0000   0.0000

          k = 0.3333 0.0385 0.0000 ( 11929 PWs)   bands (ev):

   -18.3980 -18.2145  -8.7138  -8.5846  -7.0863  -6.9612  -6.4720  -5.5772
     4.4849   5.0374   5.4969   5.7952   6.0495   6.4637

     occupation numbers 
     1.0000   1.0000   1.0000   1.0000   1.0000   1.0000   1.0000   1.0000
     0.0000   0.0000   0.0000   0.0000   0.0000   0.0000

          k = 0.3333 0.1155 0.0000 ( 11910 PWs)   bands (ev):

   -18.1917 -18.0095  -9.5273  -9.3907  -6.6355  -6.5106  -6.2360  -5.3550
     4.7694   4.8935   5.2917   5.3594   6.3284   6.7585

     occupation numbers 
     1.0000   1.0000   1.0000   1.0000   1.0000   1.0000   1.0000   1.0000
     0.0000   0.0000   0.0000   0.0000   0.0000   0.0000

          k = 0.4000 0.2309 0.0000 ( 11910 PWs)   bands (ev):

   -16.6744 -16.5026 -12.1435 -11.9958  -6.9831  -6.8587  -4.5693  -3.8275
     2.2371   2.7642   6.8249   6.9839   7.0550   7.4975

     occupation numbers 
     1.0000   1.0000   1.0000   1.0000   1.0000   1.0000   1.0000   1.0000
     0.0000   0.0000   0.0000   0.0000   0.0000   0.0000

          k = 0.4000 0.3079 0.0000 ( 11920 PWs)   bands (ev):

   -15.9949 -15.8285 -12.8835 -12.7339  -7.4571  -7.3312  -3.8909  -3.2513
     1.4928   1.9799   7.2287   7.4674   8.0099   8.4767

     occupation numbers 
     1.0000   1.0000   1.0000   1.0000   1.0000   1.0000   1.0000   1.0000
     0.0000   0.0000   0.0000   0.0000   0.0000   0.0000

          k = 0.4000 0.3849 0.0000 ( 11935 PWs)   bands (ev):

   -15.1806 -15.0243 -13.4104 -13.2639  -8.4377  -8.3080  -3.1210  -2.6302
     0.9244   1.2793   8.4271   8.6982   9.3200   9.7092

     occupation numbers 
     1.0000   1.0000   1.0000   1.0000   1.0000   1.0000   1.0000   1.0000
     0.0000   0.0000   0.0000   0.0000   0.0000   0.0000

          k = 0.4000 0.4619 0.0000 ( 11949 PWs)   bands (ev):

   -14.4737 -14.3378 -13.4977 -13.3681  -9.6552  -9.5213  -2.4173  -2.0413
     0.5563   0.7233  10.0186  10.3290  10.5741  10.7756

     occupation numbers 
     1.0000   1.0000   1.0000   1.0000   1.0000   1.0000   1.0000   1.0000
     0.0000   0.0000   0.0000   0.0000   0.0000   0.0000

          k = 0.4000 0.5389 0.0000 ( 11948 PWs)   bands (ev):

   -14.3639 -14.2125 -12.8551 -12.7186 -10.7675 -10.6354  -2.0472  -1.5486
     0.2170   0.5206   9.9712  10.2435  10.6802  10.9943

     occupation numbers 
     1.0000   1.0000   1.0000   1.0000   1.0000   1.0000   1.0000   1.0000
     0.0000   0.0000   0.0000   0.0000   0.0000   0.0000

          k = 0.4000 0.6158 0.0000 ( 11948 PWs)   bands (ev):

   -14.3639 -14.2125 -12.8551 -12.7186 -10.7675 -10.6354  -2.0472  -1.5486
     0.2170   0.5206   9.9712  10.2435  10.6802  10.9943

     occupation numbers 
     1.0000   1.0000   1.0000   1.0000   1.0000   1.0000   1.0000   1.0000
     0.0000   0.0000   0.0000   0.0000   0.0000   0.0000

          k = 0.4000 0.6928 0.0000 ( 11949 PWs)   bands (ev):

   -14.4737 -14.3378 -13.4977 -13.3681  -9.6552  -9.5213  -2.4173  -2.0413
     0.5563   0.7233  10.0186  10.3290  10.5742  10.7756

     occupation numbers 
     1.0000   1.0000   1.0000   1.0000   1.0000   1.0000   1.0000   1.0000
     0.0000   0.0000   0.0000   0.0000   0.0000   0.0000

          k = 0.4000 0.7698 0.0000 ( 11935 PWs)   bands (ev):

   -15.1806 -15.0243 -13.4104 -13.2639  -8.4377  -8.3080  -3.1210  -2.6302
     0.9244   1.2793   8.4271   8.6982   9.3200   9.7092

     occupation numbers 
     1.0000   1.0000   1.0000   1.0000   1.0000   1.0000   1.0000   1.0000
     0.0000   0.0000   0.0000   0.0000   0.0000   0.0000

          k = 0.4000-0.3079 0.0000 ( 11920 PWs)   bands (ev):

   -15.9949 -15.8285 -12.8835 -12.7339  -7.4571  -7.3312  -3.8909  -3.2513
     1.4928   1.9799   7.2287   7.4674   8.0099   8.4767

     occupation numbers 
     1.0000   1.0000   1.0000   1.0000   1.0000   1.0000   1.0000   1.0000
     0.0000   0.0000   0.0000   0.0000   0.0000   0.0000

          k = 0.4000-0.2309 0.0000 ( 11910 PWs)   bands (ev):

   -16.6744 -16.5026 -12.1435 -11.9958  -6.9831  -6.8587  -4.5693  -3.8275
     2.2371   2.7642   6.8249   6.9839   7.0550   7.4975

     occupation numbers 
     1.0000   1.0000   1.0000   1.0000   1.0000   1.0000   1.0000   1.0000
     0.0000   0.0000   0.0000   0.0000   0.0000   0.0000

          k = 0.4000-0.1540 0.0000 ( 11938 PWs)   bands (ev):

   -17.1738 -16.9985 -11.2560 -11.1124  -7.1424  -7.0169  -5.0870  -4.2830
     3.0570   3.5458   6.2485   6.7567   7.3893   7.5524

     occupation numbers 
     1.0000   1.0000   1.0000   1.0000   1.0000   1.0000   1.0000   1.0000
     0.0000   0.0000   0.0000   0.0000   0.0000   0.0000

          k = 0.4000-0.0770 0.0000 ( 11925 PWs)   bands (ev):

   -17.4778 -17.3005 -10.3147 -10.1774  -7.7657  -7.6380  -5.4089  -4.5717
     3.7716   4.1565   5.8074   6.3302   7.3070   7.7398

     occupation numbers 
     1.0000   1.0000   1.0000   1.0000   1.0000   1.0000   1.0000   1.0000
     0.0000   0.0000   0.0000   0.0000   0.0000   0.0000

          k = 0.4000 0.0000 0.0000 ( 11953 PWs)   bands (ev):

   -17.5797 -17.4017  -9.7292  -9.6019  -8.2654  -8.1401  -5.5180  -4.6702
     4.0830   4.3862   5.6599   6.1838   7.1680   7.5910

     occupation numbers 
     1.0000   1.0000   1.0000   1.0000   1.0000   1.0000   1.0000   1.0000
     0.0000   0.0000   0.0000   0.0000   0.0000   0.0000

          k = 0.4000 0.0770 0.0000 ( 11925 PWs)   bands (ev):

   -17.4778 -17.3005 -10.3147 -10.1774  -7.7657  -7.6380  -5.4089  -4.5717
     3.7716   4.1565   5.8074   6.3302   7.3070   7.7399

     occupation numbers 
     1.0000   1.0000   1.0000   1.0000   1.0000   1.0000   1.0000   1.0000
     0.0000   0.0000   0.0000   0.0000   0.0000   0.0000

          k = 0.4000 0.1540 0.0000 ( 11938 PWs)   bands (ev):

   -17.1738 -16.9985 -11.2560 -11.1124  -7.1424  -7.0169  -5.0870  -4.2830
     3.0570   3.5458   6.2485   6.7567   7.3893   7.5524

     occupation numbers 
     1.0000   1.0000   1.0000   1.0000   1.0000   1.0000   1.0000   1.0000
     0.0000   0.0000   0.0000   0.0000   0.0000   0.0000

          k = 0.4667 0.2694 0.0000 ( 11924 PWs)   bands (ev):

   -15.4591 -15.3011 -13.6636 -13.5151  -7.1925  -7.0680  -3.4977  -3.0071
     1.0128   1.4503   6.7245   6.9621   8.8885   9.3227

     occupation numbers 
     1.0000   1.0000   1.0000   1.0000   1.0000   1.0000   1.0000   1.0000
     0.0000   0.0000   0.0000   0.0000   0.0000   0.0000

          k = 0.4667 0.3464 0.0000 ( 11913 PWs)   bands (ev):

   -15.0142 -14.8768 -13.9946 -13.8624  -7.5636  -7.4376  -3.1876  -2.8042
     0.8273   1.1819   7.1750   7.4198  10.0466  10.0587

     occupation numbers 
     1.0000   1.0000   1.0000   1.0000   1.0000   1.0000   1.0000   1.0000
     0.0000   0.0000   0.0000   0.0000   0.0000   0.0000

          k = 0.4667 0.4234 0.0000 ( 11935 PWs)   bands (ev):

   -15.1806 -15.0243 -13.4104 -13.2639  -8.4377  -8.3080  -3.1210  -2.6302
     0.9244   1.2793   8.4271   8.6982   9.3200   9.7092

     occupation numbers 
     1.0000   1.0000   1.0000   1.0000   1.0000   1.0000   1.0000   1.0000
     0.0000   0.0000   0.0000   0.0000   0.0000   0.0000

          k = 0.4667 0.5004 0.0000 ( 11953 PWs)   bands (ev):

   -15.4238 -15.2613 -12.4576 -12.3139  -9.5214  -9.3885  -3.1773  -2.5459
     1.1809   1.5420   8.8732   9.2481   9.9604  10.1522

     occupation numbers 
     1.0000   1.0000   1.0000   1.0000   1.0000   1.0000   1.0000   1.0000
     0.0000   0.0000   0.0000   0.0000   0.0000   0.0000

          k = 0.4667 0.5774 0.0000 ( 11961 PWs)   bands (ev):

   -15.5132 -15.3494 -11.8009 -11.6703 -10.2215 -10.0940  -3.2105  -2.5295
     1.3273   1.6691   8.7234   9.0937   9.8335  10.3025

     occupation numbers 
     1.0000   1.0000   1.0000   1.0000   1.0000   1.0000   1.0000   1.0000
     0.0000   0.0000   0.0000   0.0000   0.0000   0.0000

          k = 0.4667 0.6543 0.0000 ( 11953 PWs)   bands (ev):

   -15.4238 -15.2613 -12.4576 -12.3139  -9.5214  -9.3885  -3.1773  -2.5459
     1.1809   1.5420   8.8732   9.2481   9.9604  10.1523

     occupation numbers 
     1.0000   1.0000   1.0000   1.0000   1.0000   1.0000   1.0000   1.0000
     0.0000   0.0000   0.0000   0.0000   0.0000   0.0000

          k = 0.4667 0.7313 0.0000 ( 11935 PWs)   bands (ev):

   -15.1806 -15.0243 -13.4104 -13.2639  -8.4377  -8.3080  -3.1210  -2.6302
     0.9244   1.2793   8.4271   8.6982   9.3200   9.7092

     occupation numbers 
     1.0000   1.0000   1.0000   1.0000   1.0000   1.0000   1.0000   1.0000
     0.0000   0.0000   0.0000   0.0000   0.0000   0.0000

          k = 0.4667 0.8083 0.0000 ( 11913 PWs)   bands (ev):

   -15.0142 -14.8768 -13.9946 -13.8624  -7.5636  -7.4376  -3.1876  -2.8042
     0.8273   1.1819   7.1750   7.4198  10.0466  10.0587

     occupation numbers 
     1.0000   1.0000   1.0000   1.0000   1.0000   1.0000   1.0000   1.0000
     0.0000   0.0000   0.0000   0.0000   0.0000   0.0000

          k = 0.4667-0.2694 0.0000 ( 11924 PWs)   bands (ev):

   -15.4591 -15.3011 -13.6636 -13.5150  -7.1925  -7.0680  -3.4977  -3.0071
     1.0128   1.4504   6.7245   6.9621   8.8885   9.3227

     occupation numbers 
     1.0000   1.0000   1.0000   1.0000   1.0000   1.0000   1.0000   1.0000
     0.0000   0.0000   0.0000   0.0000   0.0000   0.0000

          k = 0.4667-0.1925 0.0000 ( 11920 PWs)   bands (ev):

   -15.9949 -15.8285 -12.8835 -12.7339  -7.4571  -7.3312  -3.8909  -3.2513
     1.4928   1.9799   7.2287   7.4674   8.0099   8.4767

     occupation numbers 
     1.0000   1.0000   1.0000   1.0000   1.0000   1.0000   1.0000   1.0000
     0.0000   0.0000   0.0000   0.0000   0.0000   0.0000

          k = 0.4667-0.1155 0.0000 ( 11927 PWs)   bands (ev):

   -16.3801 -16.2103 -11.9369 -11.7919  -8.2138  -8.0847  -4.2103  -3.4777
     2.1092   2.5538   7.4204   7.8854   8.5361   8.7120

     occupation numbers 
     1.0000   1.0000   1.0000   1.0000   1.0000   1.0000   1.0000   1.0000
     0.0000   0.0000   0.0000   0.0000   0.0000   0.0000

          k = 0.4667-0.0385 0.0000 ( 11949 PWs)   bands (ev):

   -16.5774 -16.4061 -11.0209 -10.8862  -9.0912  -8.9620  -4.3839  -3.6100
     2.5780   2.9244   7.1258   7.5979   8.5334   8.9773

     occupation numbers 
     1.0000   1.0000   1.0000   1.0000   1.0000   1.0000   1.0000   1.0000
     0.0000   0.0000   0.0000   0.0000   0.0000   0.0000

          k = 0.4667 0.0385 0.0000 ( 11949 PWs)   bands (ev):

   -16.5774 -16.4061 -11.0209 -10.8862  -9.0912  -8.9620  -4.3839  -3.6100
     2.5780   2.9244   7.1258   7.5979   8.5334   8.9773

     occupation numbers 
     1.0000   1.0000   1.0000   1.0000   1.0000   1.0000   1.0000   1.0000
     0.0000   0.0000   0.0000   0.0000   0.0000   0.0000

          k = 0.4667 0.1155 0.0000 ( 11927 PWs)   bands (ev):

   -16.3801 -16.2103 -11.9369 -11.7919  -8.2138  -8.0847  -4.2103  -3.4777
     2.1092   2.5538   7.4204   7.8854   8.5361   8.7121

     occupation numbers 
     1.0000   1.0000   1.0000   1.0000   1.0000   1.0000   1.0000   1.0000
     0.0000   0.0000   0.0000   0.0000   0.0000   0.0000

          k = 0.4667 0.1925 0.0000 ( 11920 PWs)   bands (ev):

   -15.9949 -15.8285 -12.8835 -12.7339  -7.4571  -7.3312  -3.8909  -3.2513
     1.4928   1.9799   7.2287   7.4674   8.0099   8.4767

     occupation numbers 
     1.0000   1.0000   1.0000   1.0000   1.0000   1.0000   1.0000   1.0000
     0.0000   0.0000   0.0000   0.0000   0.0000   0.0000

     the Fermi energy is    -0.7008 ev

!    total energy              =     -48.20773826 Ry
     estimated scf accuracy    <          2.0E-11 Ry
     smearing contrib. (-TS)   =      -0.00007699 Ry
     internal energy E=F+TS    =     -48.20766127 Ry

     The total energy is F=E-TS. E is the sum of the following terms:
     one-electron contribution =    -707.59471052 Ry
     hartree contribution      =     357.39698147 Ry
     xc contribution           =     -17.18687523 Ry
     ewald contribution        =     319.54763787 Ry
     DFT-D3 Dispersion         =      -0.01769401 Ry
     electric field correction =      -0.35300084 Ry

     convergence has been achieved in   6 iterations

     Forces acting on atoms (cartesian axes, Ry/au):

     atom    1 type  1   force =    -0.00000040   -0.00000087   -0.00064559
     atom    2 type  1   force =     0.00000041    0.00000084   -0.00124344
     atom    3 type  1   force =    -0.00000080    0.00000074    0.00117594
     atom    4 type  1   force =     0.00000079   -0.00000071    0.00071308
     The non-local contrib.  to forces
     atom    1 type  1   force =    -0.00000024   -0.00000062   -0.00502715
     atom    2 type  1   force =     0.00000030    0.00000053   -0.00641362
     atom    3 type  1   force =    -0.00000053    0.00000045   -0.00186290
     atom    4 type  1   force =     0.00000054   -0.00000051   -0.00287838
     The ionic contribution  to forces
     atom    1 type  1   force =    -0.00000131   -0.00000289  -15.32259572
     atom    2 type  1   force =     0.00000131    0.00000289  -15.30159116
     atom    3 type  1   force =    -0.00000266    0.00000242   15.30457985
     atom    4 type  1   force =     0.00000266   -0.00000242   15.31960702
     The local contribution  to forces
     atom    1 type  1   force =     0.00000114    0.00000256   15.28552735
     atom    2 type  1   force =    -0.00000115   -0.00000255   15.26543558
     atom    3 type  1   force =     0.00000235   -0.00000213  -15.34040563
     atom    4 type  1   force =    -0.00000234    0.00000214  -15.35475828
     The core correction contribution to forces
     atom    1 type  1   force =     0.00000002    0.00000005    0.00019394
     atom    2 type  1   force =    -0.00000002   -0.00000005    0.00016511
     atom    3 type  1   force =     0.00000005   -0.00000004    0.00001641
     atom    4 type  1   force =    -0.00000005    0.00000004   -0.00001017
     The Hubbard contrib.    to forces
     atom    1 type  1   force =     0.00000000    0.00000000    0.00000000
     atom    2 type  1   force =     0.00000000    0.00000000    0.00000000
     atom    3 type  1   force =     0.00000000    0.00000000    0.00000000
     atom    4 type  1   force =     0.00000000    0.00000000    0.00000000
     The SCF correction term to forces
     atom    1 type  1   force =     0.00000000    0.00000000   -0.00000128
     atom    2 type  1   force =     0.00000000   -0.00000000   -0.00000125
     atom    3 type  1   force =     0.00000000   -0.00000000    0.00001025
     atom    4 type  1   force =    -0.00000000    0.00000000    0.00001032

     DFT-D3 dispersion contribution to forces:
     atom    1 type  1   force =     0.00000000    0.00000000    0.00125735
     atom    2 type  1   force =    -0.00000000   -0.00000000    0.00116197
     atom    3 type  1   force =     0.00000000   -0.00000000   -0.00116195
     atom    4 type  1   force =    -0.00000000    0.00000000   -0.00125737

     Total force =     0.001963     Total SCF correction =     0.000015

     DFT-D3 dispersion Force =     0.002421
     Energy error            =      7.4E-06 Ry
     Gradient error          =      1.2E-03 Ry/Bohr

     number of scf cycles    =   4
     number of bfgs steps    =   3

     energy             old  =     -48.2077308884 Ry
     energy             new  =     -48.2077382618 Ry

     CASE: energy            _new < energy            _old

     new trust radius        =       0.0034314987 bohr
     new conv_thr            =            1.0E-10 Ry


ATOMIC_POSITIONS (angstrom)
C               -0.0000005133       -0.0000005183        9.9954328096
C                1.2299996076        0.7101406768        9.9968464533
C                1.2300003844        0.7101413107       13.3533170367
C                0.0000005214        1.4202818552       13.3544037004



     Writing config-only to output data dir /home/ubuntu/projects/Graphene-Band-Structure-Quantum-Espresso/outputs/field_0.005/data/field_0.005.save/ :
     XML data file
     NEW-OLD atomic charge density approx. for the potential

     negative rho (up, down):  3.032E-07 0.000E+00

     Adding external electric field
        E field amplitude [Ha a.u.]:  5.0000E-03
        Potential amp.        0.3971 Ry
        Total length         39.7126 bohr


     total cpu time spent up to now is      120.8 secs

     Self-consistent Calculation

     iteration #  1     ecut=    90.00 Ry     beta= 0.70
     Davidson diagonalization with overlap

---- Real-time Memory Report at c_bands before calling an iterative solver
           153 MiB given to the printing process from OS
             0 MiB allocation reported by mallinfo(arena+hblkhd)
         29353 MiB available memory on the node where the printing process lives
------------------
     ethr =  1.00E-06,  avg # of iterations =  3.0

     Threshold (ethr) on eigenvalues was too large:
     Diagonalizing with lowered threshold

     Davidson diagonalization with overlap

---- Real-time Memory Report at c_bands before calling an iterative solver
           153 MiB given to the printing process from OS
             0 MiB allocation reported by mallinfo(arena+hblkhd)
         29603 MiB available memory on the node where the printing process lives
------------------
     ethr =  3.79E-08,  avg # of iterations =  1.8

     negative rho (up, down):  8.056E-08 0.000E+00

     total cpu time spent up to now is      128.6 secs

     total energy              =     -48.20774663 Ry
     estimated scf accuracy    <       0.00000796 Ry

     iteration #  2     ecut=    90.00 Ry     beta= 0.70
     Davidson diagonalization with overlap

---- Real-time Memory Report at c_bands before calling an iterative solver
           153 MiB given to the printing process from OS
             0 MiB allocation reported by mallinfo(arena+hblkhd)
         29260 MiB available memory on the node where the printing process lives
------------------
     ethr =  4.97E-08,  avg # of iterations =  2.0

     negative rho (up, down):  4.801E-08 0.000E+00

     total cpu time spent up to now is      132.6 secs

     total energy              =     -48.20774780 Ry
     estimated scf accuracy    <       0.00000664 Ry

     iteration #  3     ecut=    90.00 Ry     beta= 0.70
     Davidson diagonalization with overlap

---- Real-time Memory Report at c_bands before calling an iterative solver
           153 MiB given to the printing process from OS
             0 MiB allocation reported by mallinfo(arena+hblkhd)
         29270 MiB available memory on the node where the printing process lives
------------------
     ethr =  4.15E-08,  avg # of iterations =  2.0

     total cpu time spent up to now is      136.3 secs

     total energy              =     -48.20774939 Ry
     estimated scf accuracy    <       0.00000013 Ry

     iteration #  4     ecut=    90.00 Ry     beta= 0.70
     Davidson diagonalization with overlap

---- Real-time Memory Report at c_bands before calling an iterative solver
           153 MiB given to the printing process from OS
             0 MiB allocation reported by mallinfo(arena+hblkhd)
         29274 MiB available memory on the node where the printing process lives
------------------
     ethr =  8.24E-10,  avg # of iterations =  2.0

     total cpu time spent up to now is      139.4 secs

     total energy              =     -48.20774941 Ry
     estimated scf accuracy    <       0.00000005 Ry

     iteration #  5     ecut=    90.00 Ry     beta= 0.70
     Davidson diagonalization with overlap

---- Real-time Memory Report at c_bands before calling an iterative solver
           153 MiB given to the printing process from OS
             0 MiB allocation reported by mallinfo(arena+hblkhd)
         29283 MiB available memory on the node where the printing process lives
------------------
     ethr =  3.32E-10,  avg # of iterations =  1.6

     total cpu time spent up to now is      142.4 secs

     total energy              =     -48.20774942 Ry
     estimated scf accuracy    <          1.5E-09 Ry

     iteration #  6     ecut=    90.00 Ry     beta= 0.70
     Davidson diagonalization with overlap

---- Real-time Memory Report at c_bands before calling an iterative solver
           153 MiB given to the printing process from OS
             0 MiB allocation reported by mallinfo(arena+hblkhd)
         29289 MiB available memory on the node where the printing process lives
------------------
     ethr =  9.50E-12,  avg # of iterations =  2.5

     total cpu time spent up to now is      145.9 secs

     End of self-consistent calculation

          k = 0.0000 0.0000 0.0000 ( 11659 PWs)   bands (ev):

   -20.3834 -20.1867  -8.8440  -7.8658  -3.7986  -3.7986  -3.6781  -3.6781
     1.6918   2.3043   3.3518   3.7380   5.0339   6.1696

     occupation numbers 
     1.0000   1.0000   1.0000   1.0000   1.0000   1.0000   1.0000   1.0000
     0.0000   0.0000   0.0000   0.0000   0.0000   0.0000

          k = 0.0000 0.0770 0.0000 ( 11791 PWs)   bands (ev):

   -20.2776 -20.0818  -8.7159  -7.7415  -4.2251  -4.1037  -4.0234  -3.9024
     1.8388   2.4487   3.4940   3.8818   5.1758   6.3081

     occupation numbers 
     1.0000   1.0000   1.0000   1.0000   1.0000   1.0000   1.0000   1.0000
     0.0000   0.0000   0.0000   0.0000   0.0000   0.0000

          k = 0.0000 0.1540 0.0000 ( 11788 PWs)   bands (ev):

   -19.9612 -19.7676  -8.3333  -7.3711  -5.3589  -5.2350  -4.5931  -4.4712
     2.2800   2.8816   3.9206   4.3129   5.6008   6.7204

     occupation numbers 
     1.0000   1.0000   1.0000   1.0000   1.0000   1.0000   1.0000   1.0000
     0.0000   0.0000   0.0000   0.0000   0.0000   0.0000

          k = 0.0000 0.2309 0.0000 ( 11848 PWs)   bands (ev):

   -19.4363 -19.2464  -7.7028  -6.9154  -6.7884  -6.7607  -5.3056  -5.1828
     3.0152   3.6022   4.6302   5.0292   6.3033   7.3573

     occupation numbers 
     1.0000   1.0000   1.0000   1.0000   1.0000   1.0000   1.0000   1.0000
     0.0000   0.0000   0.0000   0.0000   0.0000   0.0000

          k = 0.0000 0.3079 0.0000 ( 11876 PWs)   bands (ev):

   -18.7071 -18.5222  -8.6577  -8.5238  -6.8378  -5.9990  -5.9325  -5.8755
     4.0438   4.6046   5.6062   5.8736   6.1187   6.3138

     occupation numbers 
     1.0000   1.0000   1.0000   1.0000   1.0000   1.0000   1.0000   1.0000
     0.0000   0.0000   0.0000   0.0000   0.0000   0.0000

          k = 0.0000 0.3849 0.0000 ( 11914 PWs)   bands (ev):

   -17.7811 -17.6024 -10.4335 -10.2930  -6.5759  -6.4519  -5.7678  -4.9201
     4.0159   4.4915   5.3685   5.9075   6.8469   7.0480

     occupation numbers 
     1.0000   1.0000   1.0000   1.0000   1.0000   1.0000   1.0000   1.0000
     0.0000   0.0000   0.0000   0.0000   0.0000   0.0000

          k = 0.0000 0.4619 0.0000 ( 11910 PWs)   bands (ev):

   -16.6739 -16.5027 -12.1432 -11.9959  -6.9829  -6.8586  -4.5674  -3.8291
     2.2387   2.7629   6.8256   6.9839   7.0547   7.4973

     occupation numbers 
     1.0000   1.0000   1.0000   1.0000   1.0000   1.0000   1.0000   1.0000
     0.0000   0.0000   0.0000   0.0000   0.0000   0.0000

          k = 0.0000 0.5389 0.0000 ( 11924 PWs)   bands (ev):

   -15.4587 -15.3012 -13.6633 -13.5151  -7.1924  -7.0679  -3.4963  -3.0079
     1.0139   1.4492   6.7253   6.9617   8.8885   9.3224

     occupation numbers 
     1.0000   1.0000   1.0000   1.0000   1.0000   1.0000   1.0000   1.0000
     0.0000   0.0000   0.0000   0.0000   0.0000   0.0000

          k = 0.0667 0.0385 0.0000 ( 11791 PWs)   bands (ev):

   -20.2776 -20.0818  -8.7159  -7.7415  -4.2251  -4.1038  -4.0234  -3.9024
     1.8388   2.4487   3.4940   3.8818   5.1758   6.3080

     occupation numbers 
     1.0000   1.0000   1.0000   1.0000   1.0000   1.0000   1.0000   1.0000
     0.0000   0.0000   0.0000   0.0000   0.0000   0.0000

          k = 0.0667 0.1155 0.0000 ( 11813 PWs)   bands (ev):

   -20.0666 -19.8722  -8.4605  -7.4942  -4.9529  -4.8312  -4.4726  -4.3515
     2.1329   2.7374   3.7786   4.1693   5.4595   6.5844

     occupation numbers 
     1.0000   1.0000   1.0000   1.0000   1.0000   1.0000   1.0000   1.0000
     0.0000   0.0000   0.0000   0.0000   0.0000   0.0000

          k = 0.0667 0.1925 0.0000 ( 11832 PWs)   bands (ev):

   -19.6459 -19.4545  -7.9537  -7.0043  -6.2079  -6.0833  -5.2053  -5.0830
     2.7211   3.3144   4.3473   4.7437   6.0257   7.1305

     occupation numbers 
     1.0000   1.0000   1.0000   1.0000   1.0000   1.0000   1.0000   1.0000
     0.0000   0.0000   0.0000   0.0000   0.0000   0.0000

          k = 0.0667 0.2694 0.0000 ( 11880 PWs)   bands (ev):

   -19.0188 -18.8318  -7.7986  -7.6688  -7.2049  -6.2835  -5.9688  -5.8450
     3.6032   4.1776   5.1969   5.5985   6.7602   6.8464

     occupation numbers 
     1.0000   1.0000   1.0000   1.0000   1.0000   1.0000   1.0000   1.0000
     0.0000   0.0000   0.0000   0.0000   0.0000   0.0000

          k = 0.0667 0.3464 0.0000 ( 11910 PWs)   bands (ev):

   -18.1911 -18.0097  -9.5270  -9.3907  -6.6353  -6.5105  -6.2338  -5.3570
     4.7694   4.8947   5.2909   5.3591   6.3276   6.7587

     occupation numbers 
     1.0000   1.0000   1.0000   1.0000   1.0000   1.0000   1.0000   1.0000
     0.0000   0.0000   0.0000   0.0000   0.0000   0.0000

          k = 0.0667 0.4234 0.0000 ( 11938 PWs)   bands (ev):

   -17.1733 -16.9987 -11.2557 -11.1124  -7.1422  -7.0168  -5.0850  -4.2848
     3.0585   3.5446   6.2485   6.7564   7.3900   7.5518

     occupation numbers 
     1.0000   1.0000   1.0000   1.0000   1.0000   1.0000   1.0000   1.0000
     0.0000   0.0000   0.0000   0.0000   0.0000   0.0000

          k = 0.0667 0.5004 0.0000 ( 11920 PWs)   bands (ev):

   -15.9944 -15.8286 -12.8832 -12.7339  -7.4569  -7.3312  -3.8891  -3.2526
     1.4942   1.9788   7.2295   7.4670   8.0099   8.4764

     occupation numbers 
     1.0000   1.0000   1.0000   1.0000   1.0000   1.0000   1.0000   1.0000
     0.0000   0.0000   0.0000   0.0000   0.0000   0.0000

          k = 0.0667 0.5774 0.0000 ( 11913 PWs)   bands (ev):

   -15.0139 -14.8767 -13.9944 -13.8623  -7.5635  -7.4376  -3.1864  -2.8046
     0.8280   1.1810   7.1758   7.4194  10.0466  10.0586

     occupation numbers 
     1.0000   1.0000   1.0000   1.0000   1.0000   1.0000   1.0000   1.0000
     0.0000   0.0000   0.0000   0.0000   0.0000   0.0000

          k = 0.0667-0.5004 0.0000 ( 11920 PWs)   bands (ev):

   -15.9944 -15.8286 -12.8832 -12.7339  -7.4569  -7.3312  -3.8891  -3.2526
     1.4942   1.9788   7.2295   7.4670   8.0099   8.4764

     occupation numbers 
     1.0000   1.0000   1.0000   1.0000   1.0000   1.0000   1.0000   1.0000
     0.0000   0.0000   0.0000   0.0000   0.0000   0.0000

          k = 0.0667-0.4234 0.0000 ( 11938 PWs)   bands (ev):

   -17.1733 -16.9987 -11.2557 -11.1124  -7.1422  -7.0168  -5.0849  -4.2848
     3.0585   3.5446   6.2485   6.7564   7.3900   7.5518

     occupation numbers 
     1.0000   1.0000   1.0000   1.0000   1.0000   1.0000   1.0000   1.0000
     0.0000   0.0000   0.0000   0.0000   0.0000   0.0000

          k = 0.0667-0.3464 0.0000 ( 11910 PWs)   bands (ev):

   -18.1911 -18.0097  -9.5270  -9.3907  -6.6353  -6.5105  -6.2338  -5.3570
     4.7694   4.8947   5.2909   5.3591   6.3276   6.7587

     occupation numbers 
     1.0000   1.0000   1.0000   1.0000   1.0000   1.0000   1.0000   1.0000
     0.0000   0.0000   0.0000   0.0000   0.0000   0.0000

          k = 0.0667-0.2694 0.0000 ( 11880 PWs)   bands (ev):

   -19.0188 -18.8318  -7.7986  -7.6688  -7.2049  -6.2835  -5.9688  -5.8450
     3.6032   4.1776   5.1969   5.5985   6.7603   6.8461

     occupation numbers 
     1.0000   1.0000   1.0000   1.0000   1.0000   1.0000   1.0000   1.0000
     0.0000   0.0000   0.0000   0.0000   0.0000   0.0000

          k = 0.0667-0.1925 0.0000 ( 11832 PWs)   bands (ev):

   -19.6459 -19.4545  -7.9537  -7.0043  -6.2079  -6.0833  -5.2053  -5.0830
     2.7211   3.3144   4.3473   4.7437   6.0257   7.1305

     occupation numbers 
     1.0000   1.0000   1.0000   1.0000   1.0000   1.0000   1.0000   1.0000
     0.0000   0.0000   0.0000   0.0000   0.0000   0.0000

          k = 0.0667-0.1155 0.0000 ( 11813 PWs)   bands (ev):

   -20.0666 -19.8722  -8.4605  -7.4942  -4.9529  -4.8312  -4.4726  -4.3515
     2.1329   2.7374   3.7786   4.1693   5.4595   6.5844

     occupation numbers 
     1.0000   1.0000   1.0000   1.0000   1.0000   1.0000   1.0000   1.0000
     0.0000   0.0000   0.0000   0.0000   0.0000   0.0000

          k = 0.0667-0.0385 0.0000 ( 11791 PWs)   bands (ev):

   -20.2776 -20.0818  -8.7159  -7.7415  -4.2251  -4.1038  -4.0234  -3.9024
     1.8388   2.4487   3.4940   3.8818   5.1758   6.3080

     occupation numbers 
     1.0000   1.0000   1.0000   1.0000   1.0000   1.0000   1.0000   1.0000
     0.0000   0.0000   0.0000   0.0000   0.0000   0.0000

          k = 0.1333 0.0770 0.0000 ( 11788 PWs)   bands (ev):

   -19.9612 -19.7676  -8.3333  -7.3711  -5.3589  -5.2350  -4.5931  -4.4712
     2.2800   2.8816   3.9206   4.3129   5.6008   6.7204

     occupation numbers 
     1.0000   1.0000   1.0000   1.0000   1.0000   1.0000   1.0000   1.0000
     0.0000   0.0000   0.0000   0.0000   0.0000   0.0000

          k = 0.1333 0.1540 0.0000 ( 11832 PWs)   bands (ev):

   -19.6459 -19.4545  -7.9537  -7.0043  -6.2078  -6.0833  -5.2053  -5.0830
     2.7211   3.3144   4.3473   4.7437   6.0257   7.1305

     occupation numbers 
     1.0000   1.0000   1.0000   1.0000   1.0000   1.0000   1.0000   1.0000
     0.0000   0.0000   0.0000   0.0000   0.0000   0.0000

          k = 0.1333 0.2309 0.0000 ( 11879 PWs)   bands (ev):

   -19.1231 -18.9354  -7.3292  -7.3109  -7.1874  -6.4014  -6.1736  -6.0508
     3.4562   4.0347   5.0573   5.4605   6.7322   7.0817

     occupation numbers 
     1.0000   1.0000   1.0000   1.0000   1.0000   1.0000   1.0000   1.0000
     0.0000   0.0000   0.0000   0.0000   0.0000   0.0000

          k = 0.1333 0.3079 0.0000 ( 11929 PWs)   bands (ev):

   -18.3975 -18.2147  -8.7136  -8.5845  -7.0862  -6.9611  -6.4698  -5.5792
     4.4848   5.0372   5.4979   5.7948   6.0487   6.4639

     occupation numbers 
     1.0000   1.0000   1.0000   1.0000   1.0000   1.0000   1.0000   1.0000
     0.0000   0.0000   0.0000   0.0000   0.0000   0.0000

          k = 0.1333 0.3849 0.0000 ( 11925 PWs)   bands (ev):

   -17.4773 -17.3006 -10.3144 -10.1774  -7.7655  -7.6379  -5.4068  -4.5736
     3.7728   4.1558   5.8073   6.3299   7.3060   7.7401

     occupation numbers 
     1.0000   1.0000   1.0000   1.0000   1.0000   1.0000   1.0000   1.0000
     0.0000   0.0000   0.0000   0.0000   0.0000   0.0000

          k = 0.1333 0.4619 0.0000 ( 11927 PWs)   bands (ev):

   -16.3796 -16.2104 -11.9366 -11.7919  -8.2136  -8.0847  -4.2083  -3.4793
     2.1105   2.5529   7.4204   7.8852   8.5368   8.7111

     occupation numbers 
     1.0000   1.0000   1.0000   1.0000   1.0000   1.0000   1.0000   1.0000
     0.0000   0.0000   0.0000   0.0000   0.0000   0.0000

          k = 0.1333 0.5389 0.0000 ( 11935 PWs)   bands (ev):

   -15.1802 -15.0244 -13.4101 -13.2639  -8.4375  -8.3079  -3.1196  -2.6310
     0.9253   1.2785   8.4279   8.6978   9.3199   9.7089

     occupation numbers 
     1.0000   1.0000   1.0000   1.0000   1.0000   1.0000   1.0000   1.0000
     0.0000   0.0000   0.0000   0.0000   0.0000   0.0000

          k = 0.1333 0.6158 0.0000 ( 11935 PWs)   bands (ev):

   -15.1802 -15.0244 -13.4101 -13.2639  -8.4375  -8.3079  -3.1196  -2.6310
     0.9253   1.2785   8.4279   8.6978   9.3199   9.7089

     occupation numbers 
     1.0000   1.0000   1.0000   1.0000   1.0000   1.0000   1.0000   1.0000
     0.0000   0.0000   0.0000   0.0000   0.0000   0.0000

          k = 0.1333-0.4619 0.0000 ( 11927 PWs)   bands (ev):

   -16.3796 -16.2104 -11.9366 -11.7919  -8.2136  -8.0847  -4.2083  -3.4793
     2.1105   2.5529   7.4204   7.8852   8.5368   8.7112

     occupation numbers 
     1.0000   1.0000   1.0000   1.0000   1.0000   1.0000   1.0000   1.0000
     0.0000   0.0000   0.0000   0.0000   0.0000   0.0000

          k = 0.1333-0.3849 0.0000 ( 11925 PWs)   bands (ev):

   -17.4773 -17.3006 -10.3144 -10.1774  -7.7655  -7.6379  -5.4068  -4.5736
     3.7728   4.1557   5.8073   6.3299   7.3060   7.7401

     occupation numbers 
     1.0000   1.0000   1.0000   1.0000   1.0000   1.0000   1.0000   1.0000
     0.0000   0.0000   0.0000   0.0000   0.0000   0.0000

          k = 0.1333-0.3079 0.0000 ( 11929 PWs)   bands (ev):

   -18.3975 -18.2147  -8.7136  -8.5845  -7.0862  -6.9611  -6.4698  -5.5792
     4.4848   5.0372   5.4979   5.7948   6.0487   6.4639

     occupation numbers 
     1.0000   1.0000   1.0000   1.0000   1.0000   1.0000   1.0000   1.0000
     0.0000   0.0000   0.0000   0.0000   0.0000   0.0000

          k = 0.1333-0.2309 0.0000 ( 11879 PWs)   bands (ev):

   -19.1231 -18.9354  -7.3292  -7.3109  -7.1874  -6.4014  -6.1736  -6.0508
     3.4562   4.0347   5.0573   5.4605   6.7322   7.0817

     occupation numbers 
     1.0000   1.0000   1.0000   1.0000   1.0000   1.0000   1.0000   1.0000
     0.0000   0.0000   0.0000   0.0000   0.0000   0.0000

          k = 0.1333-0.1540 0.0000 ( 11832 PWs)   bands (ev):

   -19.6459 -19.4545  -7.9537  -7.0043  -6.2079  -6.0833  -5.2053  -5.0830
     2.7211   3.3144   4.3473   4.7437   6.0257   7.1305

     occupation numbers 
     1.0000   1.0000   1.0000   1.0000   1.0000   1.0000   1.0000   1.0000
     0.0000   0.0000   0.0000   0.0000   0.0000   0.0000

          k = 0.1333-0.0770 0.0000 ( 11788 PWs)   bands (ev):

   -19.9612 -19.7676  -8.3333  -7.3711  -5.3589  -5.2350  -4.5931  -4.4712
     2.2800   2.8816   3.9206   4.3129   5.6008   6.7204

     occupation numbers 
     1.0000   1.0000   1.0000   1.0000   1.0000   1.0000   1.0000   1.0000
     0.0000   0.0000   0.0000   0.0000   0.0000   0.0000

          k = 0.1333 0.0000 0.0000 ( 11813 PWs)   bands (ev):

   -20.0666 -19.8722  -8.4605  -7.4942  -4.9529  -4.8312  -4.4726  -4.3515
     2.1329   2.7374   3.7786   4.1693   5.4595   6.5844

     occupation numbers 
     1.0000   1.0000   1.0000   1.0000   1.0000   1.0000   1.0000   1.0000
     0.0000   0.0000   0.0000   0.0000   0.0000   0.0000

          k = 0.2000 0.1155 0.0000 ( 11848 PWs)   bands (ev):

   -19.4363 -19.2464  -7.7028  -6.9154  -6.7884  -6.7607  -5.3056  -5.1828
     3.0152   3.6022   4.6302   5.0292   6.3033   7.3573

     occupation numbers 
     1.0000   1.0000   1.0000   1.0000   1.0000   1.0000   1.0000   1.0000
     0.0000   0.0000   0.0000   0.0000   0.0000   0.0000

          k = 0.2000 0.1925 0.0000 ( 11880 PWs)   bands (ev):

   -19.0188 -18.8318  -7.7986  -7.6688  -7.2049  -6.2835  -5.9688  -5.8450
     3.6032   4.1776   5.1969   5.5985   6.7603   6.8466

     occupation numbers 
     1.0000   1.0000   1.0000   1.0000   1.0000   1.0000   1.0000   1.0000
     0.0000   0.0000   0.0000   0.0000   0.0000   0.0000

          k = 0.2000 0.2694 0.0000 ( 11929 PWs)   bands (ev):

   -18.3975 -18.2147  -8.7136  -8.5845  -7.0862  -6.9611  -6.4698  -5.5792
     4.4848   5.0372   5.4979   5.7948   6.0487   6.4639

     occupation numbers 
     1.0000   1.0000   1.0000   1.0000   1.0000   1.0000   1.0000   1.0000
     0.0000   0.0000   0.0000   0.0000   0.0000   0.0000

          k = 0.2000 0.3464 0.0000 ( 11953 PWs)   bands (ev):

   -17.5792 -17.4019  -9.7290  -9.6018  -8.2652  -8.1400  -5.5158  -4.6722
     4.0839   4.3859   5.6598   6.1836   7.1670   7.5912

     occupation numbers 
     1.0000   1.0000   1.0000   1.0000   1.0000   1.0000   1.0000   1.0000
     0.0000   0.0000   0.0000   0.0000   0.0000   0.0000

          k = 0.2000 0.4234 0.0000 ( 11949 PWs)   bands (ev):

   -16.5769 -16.4062 -11.0207 -10.8861  -9.0911  -8.9619  -4.3819  -3.6117
     2.5790   2.9239   7.1258   7.5976   8.5323   8.9776

     occupation numbers 
     1.0000   1.0000   1.0000   1.0000   1.0000   1.0000   1.0000   1.0000
     0.0000   0.0000   0.0000   0.0000   0.0000   0.0000

          k = 0.2000 0.5004 0.0000 ( 11953 PWs)   bands (ev):

   -15.4233 -15.2614 -12.4573 -12.3139  -9.5212  -9.3885  -3.1755  -2.5472
     1.1819   1.5414   8.8731   9.2480   9.9600  10.1523

     occupation numbers 
     1.0000   1.0000   1.0000   1.0000   1.0000   1.0000   1.0000   1.0000
     0.0000   0.0000   0.0000   0.0000   0.0000   0.0000

          k = 0.2000 0.5774 0.0000 ( 11949 PWs)   bands (ev):

   -14.4735 -14.3377 -13.4976 -13.3680  -9.6550  -9.5213  -2.4161  -2.0417
     0.5564   0.7231  10.0199  10.3287  10.5742  10.7740

     occupation numbers 
     1.0000   1.0000   1.0000   1.0000   1.0000   1.0000   1.0000   1.0000
     0.0000   0.0000   0.0000   0.0000   0.0000   0.0000

          k = 0.2000 0.6543 0.0000 ( 11953 PWs)   bands (ev):

   -15.4233 -15.2614 -12.4573 -12.3139  -9.5212  -9.3885  -3.1755  -2.5472
     1.1819   1.5414   8.8731   9.2480   9.9600  10.1523

     occupation numbers 
     1.0000   1.0000   1.0000   1.0000   1.0000   1.0000   1.0000   1.0000
     0.0000   0.0000   0.0000   0.0000   0.0000   0.0000

          k = 0.2000-0.4234 0.0000 ( 11949 PWs)   bands (ev):

   -16.5769 -16.4062 -11.0207 -10.8861  -9.0910  -8.9619  -4.3819  -3.6117
     2.5790   2.9239   7.1258   7.5976   8.5323   8.9776

     occupation numbers 
     1.0000   1.0000   1.0000   1.0000   1.0000   1.0000   1.0000   1.0000
     0.0000   0.0000   0.0000   0.0000   0.0000   0.0000

          k = 0.2000-0.3464 0.0000 ( 11953 PWs)   bands (ev):

   -17.5792 -17.4019  -9.7290  -9.6018  -8.2652  -8.1400  -5.5158  -4.6722
     4.0839   4.3859   5.6598   6.1836   7.1670   7.5912

     occupation numbers 
     1.0000   1.0000   1.0000   1.0000   1.0000   1.0000   1.0000   1.0000
     0.0000   0.0000   0.0000   0.0000   0.0000   0.0000

          k = 0.2000-0.2694 0.0000 ( 11929 PWs)   bands (ev):

   -18.3975 -18.2147  -8.7136  -8.5845  -7.0862  -6.9611  -6.4698  -5.5792
     4.4848   5.0372   5.4979   5.7948   6.0487   6.4639

     occupation numbers 
     1.0000   1.0000   1.0000   1.0000   1.0000   1.0000   1.0000   1.0000
     0.0000   0.0000   0.0000   0.0000   0.0000   0.0000

          k = 0.2000-0.1925 0.0000 ( 11880 PWs)   bands (ev):

   -19.0188 -18.8318  -7.7986  -7.6688  -7.2049  -6.2835  -5.9688  -5.8450
     3.6032   4.1776   5.1969   5.5985   6.7605   6.8466

     occupation numbers 
     1.0000   1.0000   1.0000   1.0000   1.0000   1.0000   1.0000   1.0000
     0.0000   0.0000   0.0000   0.0000   0.0000   0.0000

          k = 0.2000-0.1155 0.0000 ( 11848 PWs)   bands (ev):

   -19.4363 -19.2464  -7.7028  -6.9154  -6.7884  -6.7607  -5.3056  -5.1828
     3.0152   3.6022   4.6302   5.0292   6.3033   7.3571

     occupation numbers 
     1.0000   1.0000   1.0000   1.0000   1.0000   1.0000   1.0000   1.0000
     0.0000   0.0000   0.0000   0.0000   0.0000   0.0000

          k = 0.2000-0.0385 0.0000 ( 11832 PWs)   bands (ev):

   -19.6459 -19.4545  -7.9537  -7.0043  -6.2078  -6.0833  -5.2053  -5.0830
     2.7211   3.3144   4.3473   4.7437   6.0257   7.1305

     occupation numbers 
     1.0000   1.0000   1.0000   1.0000   1.0000   1.0000   1.0000   1.0000
     0.0000   0.0000   0.0000   0.0000   0.0000   0.0000

          k = 0.2000 0.0385 0.0000 ( 11832 PWs)   bands (ev):

   -19.6459 -19.4545  -7.9537  -7.0043  -6.2078  -6.0833  -5.2053  -5.0830
     2.7211   3.3144   4.3473   4.7437   6.0257   7.1305

     occupation numbers 
     1.0000   1.0000   1.0000   1.0000   1.0000   1.0000   1.0000   1.0000
     0.0000   0.0000   0.0000   0.0000   0.0000   0.0000

          k = 0.2667 0.1540 0.0000 ( 11876 PWs)   bands (ev):

   -18.7071 -18.5222  -8.6577  -8.5238  -6.8378  -5.9990  -5.9325  -5.8755
     4.0438   4.6046   5.6062   5.8736   6.1187   6.3138

     occupation numbers 
     1.0000   1.0000   1.0000   1.0000   1.0000   1.0000   1.0000   1.0000
     0.0000   0.0000   0.0000   0.0000   0.0000   0.0000

          k = 0.2667 0.2309 0.0000 ( 11910 PWs)   bands (ev):

   -18.1911 -18.0097  -9.5270  -9.3907  -6.6353  -6.5105  -6.2338  -5.3570
     4.7694   4.8947   5.2909   5.3591   6.3276   6.7587

     occupation numbers 
     1.0000   1.0000   1.0000   1.0000   1.0000   1.0000   1.0000   1.0000
     0.0000   0.0000   0.0000   0.0000   0.0000   0.0000

          k = 0.2667 0.3079 0.0000 ( 11925 PWs)   bands (ev):

   -17.4773 -17.3006 -10.3144 -10.1774  -7.7655  -7.6379  -5.4068  -4.5736
     3.7728   4.1558   5.8073   6.3299   7.3060   7.7401

     occupation numbers 
     1.0000   1.0000   1.0000   1.0000   1.0000   1.0000   1.0000   1.0000
     0.0000   0.0000   0.0000   0.0000   0.0000   0.0000

          k = 0.2667 0.3849 0.0000 ( 11949 PWs)   bands (ev):

   -16.5769 -16.4062 -11.0207 -10.8861  -9.0911  -8.9619  -4.3819  -3.6117
     2.5790   2.9239   7.1258   7.5976   8.5323   8.9776

     occupation numbers 
     1.0000   1.0000   1.0000   1.0000   1.0000   1.0000   1.0000   1.0000
     0.0000   0.0000   0.0000   0.0000   0.0000   0.0000

          k = 0.2667 0.4619 0.0000 ( 11961 PWs)   bands (ev):

   -15.5128 -15.3496 -11.8006 -11.6702 -10.2213 -10.0939  -3.2087  -2.5309
     1.3283   1.6686   8.7233   9.0937   9.8323  10.3012

     occupation numbers 
     1.0000   1.0000   1.0000   1.0000   1.0000   1.0000   1.0000   1.0000
     0.0000   0.0000   0.0000   0.0000   0.0000   0.0000

          k = 0.2667 0.5389 0.0000 ( 11948 PWs)   bands (ev):

   -14.3636 -14.2125 -12.8548 -12.7185 -10.7673 -10.6353  -2.0457  -1.5494
     0.2177   0.5201   9.9714  10.2423  10.6802  10.9938

     occupation numbers 
     1.0000   1.0000   1.0000   1.0000   1.0000   1.0000   1.0000   1.0000
     0.0000   0.0000   0.0000   0.0000   0.0000   0.0000

          k = 0.2667 0.6158 0.0000 ( 11948 PWs)   bands (ev):

   -14.3636 -14.2125 -12.8548 -12.7185 -10.7673 -10.6353  -2.0457  -1.5494
     0.2177   0.5201   9.9714  10.2423  10.6802  10.9938

     occupation numbers 
     1.0000   1.0000   1.0000   1.0000   1.0000   1.0000   1.0000   1.0000
     0.0000   0.0000   0.0000   0.0000   0.0000   0.0000

          k = 0.2667 0.6928 0.0000 ( 11961 PWs)   bands (ev):

   -15.5128 -15.3496 -11.8007 -11.6702 -10.2213 -10.0939  -3.2087  -2.5309
     1.3283   1.6686   8.7233   9.0937   9.8323  10.3012

     occupation numbers 
     1.0000   1.0000   1.0000   1.0000   1.0000   1.0000   1.0000   1.0000
     0.0000   0.0000   0.0000   0.0000   0.0000   0.0000

          k = 0.2667-0.3849 0.0000 ( 11949 PWs)   bands (ev):

   -16.5769 -16.4062 -11.0207 -10.8861  -9.0911  -8.9619  -4.3819  -3.6117
     2.5790   2.9239   7.1258   7.5976   8.5323   8.9776

     occupation numbers 
     1.0000   1.0000   1.0000   1.0000   1.0000   1.0000   1.0000   1.0000
     0.0000   0.0000   0.0000   0.0000   0.0000   0.0000

          k = 0.2667-0.3079 0.0000 ( 11925 PWs)   bands (ev):

   -17.4773 -17.3006 -10.3144 -10.1774  -7.7655  -7.6379  -5.4068  -4.5736
     3.7728   4.1557   5.8073   6.3299   7.3060   7.7401

     occupation numbers 
     1.0000   1.0000   1.0000   1.0000   1.0000   1.0000   1.0000   1.0000
     0.0000   0.0000   0.0000   0.0000   0.0000   0.0000

          k = 0.2667-0.2309 0.0000 ( 11910 PWs)   bands (ev):

   -18.1911 -18.0097  -9.5270  -9.3907  -6.6353  -6.5105  -6.2338  -5.3570
     4.7694   4.8947   5.2909   5.3591   6.3276   6.7587

     occupation numbers 
     1.0000   1.0000   1.0000   1.0000   1.0000   1.0000   1.0000   1.0000
     0.0000   0.0000   0.0000   0.0000   0.0000   0.0000

          k = 0.2667-0.1540 0.0000 ( 11876 PWs)   bands (ev):

   -18.7071 -18.5222  -8.6577  -8.5238  -6.8378  -5.9990  -5.9325  -5.8755
     4.0438   4.6046   5.6062   5.8736   6.1187   6.3138

     occupation numbers 
     1.0000   1.0000   1.0000   1.0000   1.0000   1.0000   1.0000   1.0000
     0.0000   0.0000   0.0000   0.0000   0.0000   0.0000

          k = 0.2667-0.0770 0.0000 ( 11880 PWs)   bands (ev):

   -19.0188 -18.8318  -7.7986  -7.6688  -7.2049  -6.2835  -5.9688  -5.8450
     3.6032   4.1776   5.1969   5.5985   6.7603   6.8462

     occupation numbers 
     1.0000   1.0000   1.0000   1.0000   1.0000   1.0000   1.0000   1.0000
     0.0000   0.0000   0.0000   0.0000   0.0000   0.0000

          k = 0.2667 0.0000 0.0000 ( 11879 PWs)   bands (ev):

   -19.1231 -18.9354  -7.3292  -7.3109  -7.1874  -6.4014  -6.1736  -6.0508
     3.4562   4.0347   5.0573   5.4605   6.7322   7.0817

     occupation numbers 
     1.0000   1.0000   1.0000   1.0000   1.0000   1.0000   1.0000   1.0000
     0.0000   0.0000   0.0000   0.0000   0.0000   0.0000

          k = 0.2667 0.0770 0.0000 ( 11880 PWs)   bands (ev):

   -19.0188 -18.8318  -7.7986  -7.6688  -7.2049  -6.2835  -5.9688  -5.8450
     3.6032   4.1776   5.1969   5.5985   6.7603   6.8466

     occupation numbers 
     1.0000   1.0000   1.0000   1.0000   1.0000   1.0000   1.0000   1.0000
     0.0000   0.0000   0.0000   0.0000   0.0000   0.0000

          k = 0.3333 0.1925 0.0000 ( 11914 PWs)   bands (ev):

   -17.7811 -17.6024 -10.4335 -10.2930  -6.5759  -6.4519  -5.7678  -4.9201
     4.0159   4.4915   5.3685   5.9075   6.8469   7.0480

     occupation numbers 
     1.0000   1.0000   1.0000   1.0000   1.0000   1.0000   1.0000   1.0000
     0.0000   0.0000   0.0000   0.0000   0.0000   0.0000

          k = 0.3333 0.2694 0.0000 ( 11938 PWs)   bands (ev):

   -17.1733 -16.9987 -11.2557 -11.1124  -7.1422  -7.0168  -5.0850  -4.2848
     3.0585   3.5446   6.2485   6.7564   7.3900   7.5518

     occupation numbers 
     1.0000   1.0000   1.0000   1.0000   1.0000   1.0000   1.0000   1.0000
     0.0000   0.0000   0.0000   0.0000   0.0000   0.0000

          k = 0.3333 0.3464 0.0000 ( 11927 PWs)   bands (ev):

   -16.3796 -16.2104 -11.9366 -11.7919  -8.2136  -8.0847  -4.2083  -3.4793
     2.1105   2.5529   7.4204   7.8852   8.5368   8.7111

     occupation numbers 
     1.0000   1.0000   1.0000   1.0000   1.0000   1.0000   1.0000   1.0000
     0.0000   0.0000   0.0000   0.0000   0.0000   0.0000

          k = 0.3333 0.4234 0.0000 ( 11953 PWs)   bands (ev):

   -15.4233 -15.2614 -12.4573 -12.3139  -9.5212  -9.3885  -3.1755  -2.5472
     1.1819   1.5414   8.8731   9.2480   9.9600  10.1523

     occupation numbers 
     1.0000   1.0000   1.0000   1.0000   1.0000   1.0000   1.0000   1.0000
     0.0000   0.0000   0.0000   0.0000   0.0000   0.0000

          k = 0.3333 0.5004 0.0000 ( 11948 PWs)   bands (ev):

   -14.3636 -14.2125 -12.8548 -12.7185 -10.7673 -10.6353  -2.0457  -1.5494
     0.2177   0.5201   9.9714  10.2423  10.6802  10.9938

     occupation numbers 
     1.0000   1.0000   1.0000   1.0000   1.0000   1.0000   1.0000   1.0000
     0.0000   0.0000   0.0000   0.0000   0.0000   0.0000

          k = 0.3333 0.5774 0.0000 ( 11919 PWs)   bands (ev):

   -13.4096 -13.3904 -13.2666 -13.2522 -11.3872 -11.2623  -1.0341  -0.7708
    -0.6303  -0.3474   9.8305  10.0369  11.9256  12.2668

     occupation numbers 
     1.0000   1.0000   1.0000   1.0000   1.0000   1.0000   0.9997   0.7676
     0.2326   0.0001   0.0000   0.0000   0.0000   0.0000

          k = 0.3333 0.6543 0.0000 ( 11948 PWs)   bands (ev):

   -14.3636 -14.2125 -12.8548 -12.7185 -10.7673 -10.6353  -2.0457  -1.5494
     0.2177   0.5201   9.9714  10.2423  10.6802  10.9938

     occupation numbers 
     1.0000   1.0000   1.0000   1.0000   1.0000   1.0000   1.0000   1.0000
     0.0000   0.0000   0.0000   0.0000   0.0000   0.0000

          k = 0.3333 0.7313 0.0000 ( 11953 PWs)   bands (ev):

   -15.4233 -15.2614 -12.4573 -12.3139  -9.5212  -9.3885  -3.1755  -2.5472
     1.1819   1.5414   8.8731   9.2480   9.9600  10.1523

     occupation numbers 
     1.0000   1.0000   1.0000   1.0000   1.0000   1.0000   1.0000   1.0000
     0.0000   0.0000   0.0000   0.0000   0.0000   0.0000

          k = 0.3333-0.3464 0.0000 ( 11927 PWs)   bands (ev):

   -16.3796 -16.2104 -11.9366 -11.7919  -8.2136  -8.0847  -4.2083  -3.4793
     2.1105   2.5529   7.4204   7.8852   8.5368   8.7112

     occupation numbers 
     1.0000   1.0000   1.0000   1.0000   1.0000   1.0000   1.0000   1.0000
     0.0000   0.0000   0.0000   0.0000   0.0000   0.0000

          k = 0.3333-0.2694 0.0000 ( 11938 PWs)   bands (ev):

   -17.1733 -16.9987 -11.2557 -11.1124  -7.1422  -7.0168  -5.0850  -4.2848
     3.0585   3.5446   6.2485   6.7564   7.3900   7.5518

     occupation numbers 
     1.0000   1.0000   1.0000   1.0000   1.0000   1.0000   1.0000   1.0000
     0.0000   0.0000   0.0000   0.0000   0.0000   0.0000

          k = 0.3333-0.1925 0.0000 ( 11914 PWs)   bands (ev):

   -17.7811 -17.6024 -10.4335 -10.2930  -6.5759  -6.4519  -5.7678  -4.9201
     4.0159   4.4915   5.3685   5.9075   6.8469   7.0480

     occupation numbers 
     1.0000   1.0000   1.0000   1.0000   1.0000   1.0000   1.0000   1.0000
     0.0000   0.0000   0.0000   0.0000   0.0000   0.0000

          k = 0.3333-0.1155 0.0000 ( 11910 PWs)   bands (ev):

   -18.1911 -18.0097  -9.5270  -9.3907  -6.6353  -6.5105  -6.2338  -5.3570
     4.7694   4.8947   5.2909   5.3591   6.3276   6.7587

     occupation numbers 
     1.0000   1.0000   1.0000   1.0000   1.0000   1.0000   1.0000   1.0000
     0.0000   0.0000   0.0000   0.0000   0.0000   0.0000

          k = 0.3333-0.0385 0.0000 ( 11929 PWs)   bands (ev):

   -18.3975 -18.2147  -8.7136  -8.5845  -7.0862  -6.9611  -6.4698  -5.5792
     4.4848   5.0372   5.4979   5.7948   6.0487   6.4639

     occupation numbers 
     1.0000   1.0000   1.0000   1.0000   1.0000   1.0000   1.0000   1.0000
     0.0000   0.0000   0.0000   0.0000   0.0000   0.0000

          k = 0.3333 0.0385 0.0000 ( 11929 PWs)   bands (ev):

   -18.3975 -18.2147  -8.7136  -8.5845  -7.0862  -6.9611  -6.4698  -5.5792
     4.4848   5.0372   5.4979   5.7948   6.0487   6.4639

     occupation numbers 
     1.0000   1.0000   1.0000   1.0000   1.0000   1.0000   1.0000   1.0000
     0.0000   0.0000   0.0000   0.0000   0.0000   0.0000

          k = 0.3333 0.1155 0.0000 ( 11910 PWs)   bands (ev):

   -18.1911 -18.0097  -9.5270  -9.3907  -6.6353  -6.5105  -6.2338  -5.3570
     4.7694   4.8947   5.2909   5.3591   6.3276   6.7587

     occupation numbers 
     1.0000   1.0000   1.0000   1.0000   1.0000   1.0000   1.0000   1.0000
     0.0000   0.0000   0.0000   0.0000   0.0000   0.0000

          k = 0.4000 0.2309 0.0000 ( 11910 PWs)   bands (ev):

   -16.6739 -16.5027 -12.1432 -11.9959  -6.9830  -6.8586  -4.5674  -3.8291
     2.2387   2.7629   6.8256   6.9839   7.0547   7.4973

     occupation numbers 
     1.0000   1.0000   1.0000   1.0000   1.0000   1.0000   1.0000   1.0000
     0.0000   0.0000   0.0000   0.0000   0.0000   0.0000

          k = 0.4000 0.3079 0.0000 ( 11920 PWs)   bands (ev):

   -15.9944 -15.8286 -12.8832 -12.7339  -7.4570  -7.3312  -3.8891  -3.2526
     1.4942   1.9788   7.2295   7.4670   8.0099   8.4764

     occupation numbers 
     1.0000   1.0000   1.0000   1.0000   1.0000   1.0000   1.0000   1.0000
     0.0000   0.0000   0.0000   0.0000   0.0000   0.0000

          k = 0.4000 0.3849 0.0000 ( 11935 PWs)   bands (ev):

   -15.1802 -15.0244 -13.4101 -13.2639  -8.4375  -8.3079  -3.1196  -2.6310
     0.9253   1.2785   8.4279   8.6978   9.3199   9.7089

     occupation numbers 
     1.0000   1.0000   1.0000   1.0000   1.0000   1.0000   1.0000   1.0000
     0.0000   0.0000   0.0000   0.0000   0.0000   0.0000

          k = 0.4000 0.4619 0.0000 ( 11949 PWs)   bands (ev):

   -14.4735 -14.3377 -13.4975 -13.3680  -9.6550  -9.5213  -2.4161  -2.0417
     0.5564   0.7231  10.0199  10.3287  10.5742  10.7740

     occupation numbers 
     1.0000   1.0000   1.0000   1.0000   1.0000   1.0000   1.0000   1.0000
     0.0000   0.0000   0.0000   0.0000   0.0000   0.0000

          k = 0.4000 0.5389 0.0000 ( 11948 PWs)   bands (ev):

   -14.3636 -14.2125 -12.8548 -12.7185 -10.7673 -10.6353  -2.0457  -1.5494
     0.2177   0.5201   9.9714  10.2423  10.6802  10.9938

     occupation numbers 
     1.0000   1.0000   1.0000   1.0000   1.0000   1.0000   1.0000   1.0000
     0.0000   0.0000   0.0000   0.0000   0.0000   0.0000

          k = 0.4000 0.6158 0.0000 ( 11948 PWs)   bands (ev):

   -14.3636 -14.2125 -12.8548 -12.7185 -10.7673 -10.6353  -2.0457  -1.5494
     0.2177   0.5201   9.9714  10.2423  10.6802  10.9938

     occupation numbers 
     1.0000   1.0000   1.0000   1.0000   1.0000   1.0000   1.0000   1.0000
     0.0000   0.0000   0.0000   0.0000   0.0000   0.0000

          k = 0.4000 0.6928 0.0000 ( 11949 PWs)   bands (ev):

   -14.4735 -14.3377 -13.4975 -13.3680  -9.6550  -9.5213  -2.4161  -2.0417
     0.5564   0.7231  10.0199  10.3287  10.5742  10.7740

     occupation numbers 
     1.0000   1.0000   1.0000   1.0000   1.0000   1.0000   1.0000   1.0000
     0.0000   0.0000   0.0000   0.0000   0.0000   0.0000

          k = 0.4000 0.7698 0.0000 ( 11935 PWs)   bands (ev):

   -15.1802 -15.0244 -13.4101 -13.2639  -8.4375  -8.3079  -3.1196  -2.6310
     0.9253   1.2785   8.4279   8.6978   9.3199   9.7089

     occupation numbers 
     1.0000   1.0000   1.0000   1.0000   1.0000   1.0000   1.0000   1.0000
     0.0000   0.0000   0.0000   0.0000   0.0000   0.0000

          k = 0.4000-0.3079 0.0000 ( 11920 PWs)   bands (ev):

   -15.9944 -15.8286 -12.8832 -12.7339  -7.4570  -7.3311  -3.8891  -3.2526
     1.4942   1.9788   7.2295   7.4670   8.0099   8.4764

     occupation numbers 
     1.0000   1.0000   1.0000   1.0000   1.0000   1.0000   1.0000   1.0000
     0.0000   0.0000   0.0000   0.0000   0.0000   0.0000

          k = 0.4000-0.2309 0.0000 ( 11910 PWs)   bands (ev):

   -16.6739 -16.5027 -12.1432 -11.9959  -6.9830  -6.8586  -4.5674  -3.8291
     2.2387   2.7629   6.8256   6.9839   7.0547   7.4973

     occupation numbers 
     1.0000   1.0000   1.0000   1.0000   1.0000   1.0000   1.0000   1.0000
     0.0000   0.0000   0.0000   0.0000   0.0000   0.0000

          k = 0.4000-0.1540 0.0000 ( 11938 PWs)   bands (ev):

   -17.1733 -16.9987 -11.2557 -11.1124  -7.1422  -7.0168  -5.0850  -4.2848
     3.0585   3.5446   6.2485   6.7564   7.3900   7.5518

     occupation numbers 
     1.0000   1.0000   1.0000   1.0000   1.0000   1.0000   1.0000   1.0000
     0.0000   0.0000   0.0000   0.0000   0.0000   0.0000

          k = 0.4000-0.0770 0.0000 ( 11925 PWs)   bands (ev):

   -17.4773 -17.3006 -10.3144 -10.1774  -7.7655  -7.6379  -5.4068  -4.5736
     3.7728   4.1557   5.8073   6.3299   7.3060   7.7401

     occupation numbers 
     1.0000   1.0000   1.0000   1.0000   1.0000   1.0000   1.0000   1.0000
     0.0000   0.0000   0.0000   0.0000   0.0000   0.0000

          k = 0.4000 0.0000 0.0000 ( 11953 PWs)   bands (ev):

   -17.5792 -17.4019  -9.7290  -9.6018  -8.2652  -8.1400  -5.5158  -4.6722
     4.0840   4.3859   5.6598   6.1836   7.1670   7.5912

     occupation numbers 
     1.0000   1.0000   1.0000   1.0000   1.0000   1.0000   1.0000   1.0000
     0.0000   0.0000   0.0000   0.0000   0.0000   0.0000

          k = 0.4000 0.0770 0.0000 ( 11925 PWs)   bands (ev):

   -17.4773 -17.3006 -10.3144 -10.1774  -7.7655  -7.6379  -5.4068  -4.5736
     3.7728   4.1557   5.8073   6.3299   7.3060   7.7401

     occupation numbers 
     1.0000   1.0000   1.0000   1.0000   1.0000   1.0000   1.0000   1.0000
     0.0000   0.0000   0.0000   0.0000   0.0000   0.0000

          k = 0.4000 0.1540 0.0000 ( 11938 PWs)   bands (ev):

   -17.1733 -16.9987 -11.2557 -11.1124  -7.1422  -7.0168  -5.0850  -4.2848
     3.0585   3.5446   6.2485   6.7564   7.3900   7.5518

     occupation numbers 
     1.0000   1.0000   1.0000   1.0000   1.0000   1.0000   1.0000   1.0000
     0.0000   0.0000   0.0000   0.0000   0.0000   0.0000

          k = 0.4667 0.2694 0.0000 ( 11924 PWs)   bands (ev):

   -15.4587 -15.3012 -13.6633 -13.5151  -7.1924  -7.0679  -3.4963  -3.0079
     1.0139   1.4492   6.7253   6.9617   8.8885   9.3224

     occupation numbers 
     1.0000   1.0000   1.0000   1.0000   1.0000   1.0000   1.0000   1.0000
     0.0000   0.0000   0.0000   0.0000   0.0000   0.0000

          k = 0.4667 0.3464 0.0000 ( 11913 PWs)   bands (ev):

   -15.0139 -14.8767 -13.9944 -13.8623  -7.5635  -7.4376  -3.1864  -2.8046
     0.8280   1.1810   7.1758   7.4194  10.0465  10.0586

     occupation numbers 
     1.0000   1.0000   1.0000   1.0000   1.0000   1.0000   1.0000   1.0000
     0.0000   0.0000   0.0000   0.0000   0.0000   0.0000

          k = 0.4667 0.4234 0.0000 ( 11935 PWs)   bands (ev):

   -15.1802 -15.0244 -13.4101 -13.2639  -8.4375  -8.3079  -3.1196  -2.6310
     0.9253   1.2785   8.4279   8.6978   9.3199   9.7089

     occupation numbers 
     1.0000   1.0000   1.0000   1.0000   1.0000   1.0000   1.0000   1.0000
     0.0000   0.0000   0.0000   0.0000   0.0000   0.0000

          k = 0.4667 0.5004 0.0000 ( 11953 PWs)   bands (ev):

   -15.4233 -15.2614 -12.4573 -12.3139  -9.5212  -9.3885  -3.1755  -2.5472
     1.1819   1.5414   8.8731   9.2480   9.9600  10.1523

     occupation numbers 
     1.0000   1.0000   1.0000   1.0000   1.0000   1.0000   1.0000   1.0000
     0.0000   0.0000   0.0000   0.0000   0.0000   0.0000

          k = 0.4667 0.5774 0.0000 ( 11961 PWs)   bands (ev):

   -15.5128 -15.3496 -11.8006 -11.6702 -10.2213 -10.0939  -3.2087  -2.5309
     1.3283   1.6686   8.7233   9.0937   9.8323  10.3012

     occupation numbers 
     1.0000   1.0000   1.0000   1.0000   1.0000   1.0000   1.0000   1.0000
     0.0000   0.0000   0.0000   0.0000   0.0000   0.0000

          k = 0.4667 0.6543 0.0000 ( 11953 PWs)   bands (ev):

   -15.4233 -15.2614 -12.4573 -12.3139  -9.5212  -9.3885  -3.1755  -2.5472
     1.1819   1.5414   8.8731   9.2480   9.9600  10.1523

     occupation numbers 
     1.0000   1.0000   1.0000   1.0000   1.0000   1.0000   1.0000   1.0000
     0.0000   0.0000   0.0000   0.0000   0.0000   0.0000

          k = 0.4667 0.7313 0.0000 ( 11935 PWs)   bands (ev):

   -15.1802 -15.0244 -13.4101 -13.2639  -8.4375  -8.3079  -3.1196  -2.6310
     0.9253   1.2785   8.4279   8.6978   9.3199   9.7089

     occupation numbers 
     1.0000   1.0000   1.0000   1.0000   1.0000   1.0000   1.0000   1.0000
     0.0000   0.0000   0.0000   0.0000   0.0000   0.0000

          k = 0.4667 0.8083 0.0000 ( 11913 PWs)   bands (ev):

   -15.0139 -14.8767 -13.9944 -13.8623  -7.5635  -7.4375  -3.1864  -2.8046
     0.8280   1.1810   7.1758   7.4194  10.0465  10.0586

     occupation numbers 
     1.0000   1.0000   1.0000   1.0000   1.0000   1.0000   1.0000   1.0000
     0.0000   0.0000   0.0000   0.0000   0.0000   0.0000

          k = 0.4667-0.2694 0.0000 ( 11924 PWs)   bands (ev):

   -15.4587 -15.3012 -13.6633 -13.5151  -7.1924  -7.0679  -3.4963  -3.0079
     1.0139   1.4492   6.7253   6.9617   8.8885   9.3224

     occupation numbers 
     1.0000   1.0000   1.0000   1.0000   1.0000   1.0000   1.0000   1.0000
     0.0000   0.0000   0.0000   0.0000   0.0000   0.0000

          k = 0.4667-0.1925 0.0000 ( 11920 PWs)   bands (ev):

   -15.9944 -15.8286 -12.8832 -12.7339  -7.4570  -7.3311  -3.8891  -3.2526
     1.4942   1.9788   7.2295   7.4670   8.0099   8.4764

     occupation numbers 
     1.0000   1.0000   1.0000   1.0000   1.0000   1.0000   1.0000   1.0000
     0.0000   0.0000   0.0000   0.0000   0.0000   0.0000

          k = 0.4667-0.1155 0.0000 ( 11927 PWs)   bands (ev):

   -16.3796 -16.2104 -11.9366 -11.7919  -8.2136  -8.0847  -4.2083  -3.4793
     2.1105   2.5529   7.4204   7.8852   8.5368   8.7112

     occupation numbers 
     1.0000   1.0000   1.0000   1.0000   1.0000   1.0000   1.0000   1.0000
     0.0000   0.0000   0.0000   0.0000   0.0000   0.0000

          k = 0.4667-0.0385 0.0000 ( 11949 PWs)   bands (ev):

   -16.5769 -16.4062 -11.0207 -10.8861  -9.0911  -8.9619  -4.3819  -3.6117
     2.5790   2.9239   7.1258   7.5976   8.5323   8.9776

     occupation numbers 
     1.0000   1.0000   1.0000   1.0000   1.0000   1.0000   1.0000   1.0000
     0.0000   0.0000   0.0000   0.0000   0.0000   0.0000

          k = 0.4667 0.0385 0.0000 ( 11949 PWs)   bands (ev):

   -16.5769 -16.4062 -11.0207 -10.8861  -9.0911  -8.9619  -4.3819  -3.6117
     2.5790   2.9239   7.1258   7.5976   8.5323   8.9776

     occupation numbers 
     1.0000   1.0000   1.0000   1.0000   1.0000   1.0000   1.0000   1.0000
     0.0000   0.0000   0.0000   0.0000   0.0000   0.0000

          k = 0.4667 0.1155 0.0000 ( 11927 PWs)   bands (ev):

   -16.3796 -16.2104 -11.9366 -11.7919  -8.2136  -8.0847  -4.2083  -3.4793
     2.1105   2.5529   7.4204   7.8852   8.5368   8.7112

     occupation numbers 
     1.0000   1.0000   1.0000   1.0000   1.0000   1.0000   1.0000   1.0000
     0.0000   0.0000   0.0000   0.0000   0.0000   0.0000

          k = 0.4667 0.1925 0.0000 ( 11920 PWs)   bands (ev):

   -15.9944 -15.8286 -12.8832 -12.7339  -7.4570  -7.3312  -3.8891  -3.2526
     1.4942   1.9788   7.2295   7.4670   8.0099   8.4764

     occupation numbers 
     1.0000   1.0000   1.0000   1.0000   1.0000   1.0000   1.0000   1.0000
     0.0000   0.0000   0.0000   0.0000   0.0000   0.0000

     the Fermi energy is    -0.7005 ev

!    total energy              =     -48.20774942 Ry
     estimated scf accuracy    <          4.8E-11 Ry
     smearing contrib. (-TS)   =      -0.00007699 Ry
     internal energy E=F+TS    =     -48.20767243 Ry

     The total energy is F=E-TS. E is the sum of the following terms:
     one-electron contribution =    -707.21441505 Ry
     hartree contribution      =     357.20687661 Ry
     xc contribution           =     -17.18680536 Ry
     ewald contribution        =     319.35735112 Ry
     DFT-D3 Dispersion         =      -0.01767892 Ry
     electric field correction =      -0.35300084 Ry

     convergence has been achieved in   6 iterations

     Forces acting on atoms (cartesian axes, Ry/au):

     atom    1 type  1   force =     0.00000025    0.00000078   -0.00039265
     atom    2 type  1   force =    -0.00000025   -0.00000076   -0.00144375
     atom    3 type  1   force =     0.00000030   -0.00000061    0.00132384
     atom    4 type  1   force =    -0.00000030    0.00000059    0.00051256
     The non-local contrib.  to forces
     atom    1 type  1   force =     0.00000018    0.00000053   -0.00456260
     atom    2 type  1   force =    -0.00000015   -0.00000051   -0.00683076
     atom    3 type  1   force =     0.00000021   -0.00000044   -0.00154545
     atom    4 type  1   force =    -0.00000021    0.00000038   -0.00323137
     The ionic contribution  to forces
     atom    1 type  1   force =     0.00000085    0.00000254  -15.32072757
     atom    2 type  1   force =    -0.00000084   -0.00000254  -15.29137487
     atom    3 type  1   force =     0.00000096   -0.00000200   15.29533112
     atom    4 type  1   force =    -0.00000096    0.00000199   15.31677131
     The local contribution  to forces
     atom    1 type  1   force =    -0.00000076   -0.00000225   15.28345515
     atom    2 type  1   force =     0.00000075    0.00000223   15.25543118
     atom    3 type  1   force =    -0.00000084    0.00000178  -15.33132727
     atom    4 type  1   force =     0.00000086   -0.00000176  -15.35178076
     The core correction contribution to forces
     atom    1 type  1   force =    -0.00000002   -0.00000005    0.00018778
     atom    2 type  1   force =     0.00000001    0.00000005    0.00016885
     atom    3 type  1   force =    -0.00000002    0.00000004    0.00001376
     atom    4 type  1   force =     0.00000002   -0.00000004   -0.00000556
     The Hubbard contrib.    to forces
     atom    1 type  1   force =     0.00000000    0.00000000    0.00000000
     atom    2 type  1   force =     0.00000000    0.00000000    0.00000000
     atom    3 type  1   force =     0.00000000    0.00000000    0.00000000
     atom    4 type  1   force =     0.00000000    0.00000000    0.00000000
     The SCF correction term to forces
     atom    1 type  1   force =    -0.00000000    0.00000000   -0.00000135
     atom    2 type  1   force =    -0.00000000    0.00000000   -0.00000132
     atom    3 type  1   force =    -0.00000000   -0.00000000    0.00001534
     atom    4 type  1   force =    -0.00000000    0.00000000    0.00001543

     DFT-D3 dispersion contribution to forces:
     atom    1 type  1   force =    -0.00000000   -0.00000000    0.00125619
     atom    2 type  1   force =     0.00000000    0.00000000    0.00116343
     atom    3 type  1   force =    -0.00000000    0.00000000   -0.00116340
     atom    4 type  1   force =     0.00000000   -0.00000000   -0.00125622

     Total force =     0.002062     Total SCF correction =     0.000022

     DFT-D3 dispersion Force =     0.002421
     Energy error            =      1.1E-05 Ry
     Gradient error          =      1.4E-03 Ry/Bohr

     number of scf cycles    =   5
     number of bfgs steps    =   4

     energy             old  =     -48.2077382618 Ry
     energy             new  =     -48.2077494160 Ry

     CASE: energy            _new < energy            _old

     new trust radius        =       0.0051472481 bohr
     new conv_thr            =            1.0E-10 Ry


ATOMIC_POSITIONS (angstrom)
C               -0.0000005371       -0.0000000491        9.9927090033
C                1.2299990023        0.7101397417        9.9944934095
C                1.2300012035        0.7101409672       13.3557132321
C                0.0000003313        1.4202826646       13.3570843551



     Writing config-only to output data dir /home/ubuntu/projects/Graphene-Band-Structure-Quantum-Espresso/outputs/field_0.005/data/field_0.005.save/ :
     XML data file
     NEW-OLD atomic charge density approx. for the potential

     negative rho (up, down):  4.785E-07 0.000E+00

     Adding external electric field
        E field amplitude [Ha a.u.]:  5.0000E-03
        Potential amp.        0.3971 Ry
        Total length         39.7126 bohr


     total cpu time spent up to now is      147.0 secs

     Self-consistent Calculation

     iteration #  1     ecut=    90.00 Ry     beta= 0.70
     Davidson diagonalization with overlap

---- Real-time Memory Report at c_bands before calling an iterative solver
           153 MiB given to the printing process from OS
             0 MiB allocation reported by mallinfo(arena+hblkhd)
         29340 MiB available memory on the node where the printing process lives
------------------
     ethr =  1.00E-06,  avg # of iterations =  4.0

     negative rho (up, down):  1.285E-07 0.000E+00

     total cpu time spent up to now is      152.8 secs

     total energy              =     -48.20775919 Ry
     estimated scf accuracy    <       0.00001888 Ry

     iteration #  2     ecut=    90.00 Ry     beta= 0.70
     Davidson diagonalization with overlap

---- Real-time Memory Report at c_bands before calling an iterative solver
           153 MiB given to the printing process from OS
             0 MiB allocation reported by mallinfo(arena+hblkhd)
         29271 MiB available memory on the node where the printing process lives
------------------
     ethr =  1.18E-07,  avg # of iterations =  2.0

     negative rho (up, down):  7.711E-08 0.000E+00

     total cpu time spent up to now is      156.1 secs

     total energy              =     -48.20776211 Ry
     estimated scf accuracy    <       0.00001571 Ry

     iteration #  3     ecut=    90.00 Ry     beta= 0.70
     Davidson diagonalization with overlap

---- Real-time Memory Report at c_bands before calling an iterative solver
           153 MiB given to the printing process from OS
             0 MiB allocation reported by mallinfo(arena+hblkhd)
         29300 MiB available memory on the node where the printing process lives
------------------
     ethr =  9.82E-08,  avg # of iterations =  2.0

     total cpu time spent up to now is      160.1 secs

     total energy              =     -48.20776588 Ry
     estimated scf accuracy    <       0.00000033 Ry

     iteration #  4     ecut=    90.00 Ry     beta= 0.70
     Davidson diagonalization with overlap

---- Real-time Memory Report at c_bands before calling an iterative solver
           153 MiB given to the printing process from OS
             0 MiB allocation reported by mallinfo(arena+hblkhd)
         29298 MiB available memory on the node where the printing process lives
------------------
     ethr =  2.04E-09,  avg # of iterations =  2.0

     total cpu time spent up to now is      163.5 secs

     total energy              =     -48.20776592 Ry
     estimated scf accuracy    <       0.00000010 Ry

     iteration #  5     ecut=    90.00 Ry     beta= 0.70
     Davidson diagonalization with overlap

---- Real-time Memory Report at c_bands before calling an iterative solver
           153 MiB given to the printing process from OS
             0 MiB allocation reported by mallinfo(arena+hblkhd)
         29280 MiB available memory on the node where the printing process lives
------------------
     ethr =  6.41E-10,  avg # of iterations =  1.8

     total cpu time spent up to now is      166.9 secs

     total energy              =     -48.20776594 Ry
     estimated scf accuracy    <          4.5E-09 Ry

     iteration #  6     ecut=    90.00 Ry     beta= 0.70
     Davidson diagonalization with overlap

---- Real-time Memory Report at c_bands before calling an iterative solver
           153 MiB given to the printing process from OS
             0 MiB allocation reported by mallinfo(arena+hblkhd)
         29278 MiB available memory on the node where the printing process lives
------------------
     ethr =  2.81E-11,  avg # of iterations =  2.5

     total cpu time spent up to now is      170.1 secs

     total energy              =     -48.20776594 Ry
     estimated scf accuracy    <          1.1E-10 Ry

     iteration #  7     ecut=    90.00 Ry     beta= 0.70
     Davidson diagonalization with overlap

---- Real-time Memory Report at c_bands before calling an iterative solver
           153 MiB given to the printing process from OS
             0 MiB allocation reported by mallinfo(arena+hblkhd)
         29279 MiB available memory on the node where the printing process lives
------------------
     ethr =  6.87E-13,  avg # of iterations =  3.1

     total cpu time spent up to now is      174.1 secs

     End of self-consistent calculation

          k = 0.0000 0.0000 0.0000 ( 11659 PWs)   bands (ev):

   -20.3824 -20.1871  -8.8404  -7.8693  -3.7984  -3.7984  -3.6779  -3.6779
     1.6917   2.3040   3.3507   3.7381   5.0320   6.1668

     occupation numbers 
     1.0000   1.0000   1.0000   1.0000   1.0000   1.0000   1.0000   1.0000
     0.0000   0.0000   0.0000   0.0000   0.0000   0.0000

          k = 0.0000 0.0770 0.0000 ( 11791 PWs)   bands (ev):

   -20.2767 -20.0822  -8.7123  -7.7451  -4.2249  -4.1036  -4.0232  -3.9022
     1.8388   2.4484   3.4929   3.8819   5.1738   6.3051

     occupation numbers 
     1.0000   1.0000   1.0000   1.0000   1.0000   1.0000   1.0000   1.0000
     0.0000   0.0000   0.0000   0.0000   0.0000   0.0000

          k = 0.0000 0.1540 0.0000 ( 11788 PWs)   bands (ev):

   -19.9603 -19.7680  -8.3297  -7.3746  -5.3586  -5.2348  -4.5929  -4.4710
     2.2800   2.8813   3.9195   4.3130   5.5987   6.7170

     occupation numbers 
     1.0000   1.0000   1.0000   1.0000   1.0000   1.0000   1.0000   1.0000
     0.0000   0.0000   0.0000   0.0000   0.0000   0.0000

          k = 0.0000 0.2309 0.0000 ( 11848 PWs)   bands (ev):

   -19.4354 -19.2467  -7.6992  -6.9151  -6.7886  -6.7637  -5.3054  -5.1826
     3.0151   3.6018   4.6290   5.0294   6.3010   7.3538

     occupation numbers 
     1.0000   1.0000   1.0000   1.0000   1.0000   1.0000   1.0000   1.0000
     0.0000   0.0000   0.0000   0.0000   0.0000   0.0000

          k = 0.0000 0.3079 0.0000 ( 11876 PWs)   bands (ev):

   -18.7063 -18.5225  -8.6573  -8.5237  -6.8343  -5.9988  -5.9358  -5.8753
     4.0437   4.6042   5.6049   5.8755   6.1186   6.3128

     occupation numbers 
     1.0000   1.0000   1.0000   1.0000   1.0000   1.0000   1.0000   1.0000
     0.0000   0.0000   0.0000   0.0000   0.0000   0.0000

          k = 0.0000 0.3849 0.0000 ( 11914 PWs)   bands (ev):

   -17.7803 -17.6026 -10.4331 -10.2929  -6.5757  -6.4517  -5.7645  -4.9231
     4.0182   4.4898   5.3685   5.9071   6.8458   7.0486

     occupation numbers 
     1.0000   1.0000   1.0000   1.0000   1.0000   1.0000   1.0000   1.0000
     0.0000   0.0000   0.0000   0.0000   0.0000   0.0000

          k = 0.0000 0.4619 0.0000 ( 11910 PWs)   bands (ev):

   -16.6732 -16.5030 -12.1427 -11.9959  -6.9827  -6.8584  -4.5643  -3.8316
     2.2409   2.7610   6.8266   6.9839   7.0541   7.4969

     occupation numbers 
     1.0000   1.0000   1.0000   1.0000   1.0000   1.0000   1.0000   1.0000
     0.0000   0.0000   0.0000   0.0000   0.0000   0.0000

          k = 0.0000 0.5389 0.0000 ( 11924 PWs)   bands (ev):

   -15.4581 -15.3013 -13.6628 -13.5151  -7.1921  -7.0677  -3.4940  -3.0091
     1.0153   1.4476   6.7265   6.9611   8.8884   9.3219

     occupation numbers 
     1.0000   1.0000   1.0000   1.0000   1.0000   1.0000   1.0000   1.0000
     0.0000   0.0000   0.0000   0.0000   0.0000   0.0000

          k = 0.0667 0.0385 0.0000 ( 11791 PWs)   bands (ev):

   -20.2767 -20.0822  -8.7123  -7.7451  -4.2249  -4.1036  -4.0232  -3.9022
     1.8388   2.4484   3.4929   3.8819   5.1738   6.3051

     occupation numbers 
     1.0000   1.0000   1.0000   1.0000   1.0000   1.0000   1.0000   1.0000
     0.0000   0.0000   0.0000   0.0000   0.0000   0.0000

          k = 0.0667 0.1155 0.0000 ( 11813 PWs)   bands (ev):

   -20.0657 -19.8726  -8.4569  -7.4977  -4.9527  -4.8310  -4.4724  -4.3513
     2.1329   2.7371   3.7774   4.1694   5.4574   6.5811

     occupation numbers 
     1.0000   1.0000   1.0000   1.0000   1.0000   1.0000   1.0000   1.0000
     0.0000   0.0000   0.0000   0.0000   0.0000   0.0000

          k = 0.0667 0.1925 0.0000 ( 11832 PWs)   bands (ev):

   -19.6450 -19.4549  -7.9501  -7.0078  -6.2076  -6.0832  -5.2051  -5.0828
     2.7211   3.3140   4.3460   4.7438   6.0235   7.1268

     occupation numbers 
     1.0000   1.0000   1.0000   1.0000   1.0000   1.0000   1.0000   1.0000
     0.0000   0.0000   0.0000   0.0000   0.0000   0.0000

          k = 0.0667 0.2694 0.0000 ( 11880 PWs)   bands (ev):

   -19.0180 -18.8321  -7.7983  -7.6687  -7.2014  -6.2868  -5.9686  -5.8448
     3.6031   4.1773   5.1956   5.5988   6.7621   6.8430

     occupation numbers 
     1.0000   1.0000   1.0000   1.0000   1.0000   1.0000   1.0000   1.0000
     0.0000   0.0000   0.0000   0.0000   0.0000   0.0000

          k = 0.0667 0.3464 0.0000 ( 11910 PWs)   bands (ev):

   -18.1903 -18.0100  -9.5266  -9.3906  -6.6351  -6.5103  -6.2304  -5.3602
     4.7695   4.8966   5.2897   5.3586   6.3263   6.7589

     occupation numbers 
     1.0000   1.0000   1.0000   1.0000   1.0000   1.0000   1.0000   1.0000
     0.0000   0.0000   0.0000   0.0000   0.0000   0.0000

          k = 0.0667 0.4234 0.0000 ( 11938 PWs)   bands (ev):

   -17.1726 -16.9989 -11.2553 -11.1124  -7.1420  -7.0166  -5.0818  -4.2876
     3.0607   3.5429   6.2484   6.7560   7.3910   7.5509

     occupation numbers 
     1.0000   1.0000   1.0000   1.0000   1.0000   1.0000   1.0000   1.0000
     0.0000   0.0000   0.0000   0.0000   0.0000   0.0000

          k = 0.0667 0.5004 0.0000 ( 11920 PWs)   bands (ev):

   -15.9938 -15.8288 -12.8827 -12.7340  -7.4567  -7.3310  -3.8864  -3.2545
     1.4961   1.9770   7.2307   7.4664   8.0098   8.4759

     occupation numbers 
     1.0000   1.0000   1.0000   1.0000   1.0000   1.0000   1.0000   1.0000
     0.0000   0.0000   0.0000   0.0000   0.0000   0.0000

          k = 0.0667 0.5774 0.0000 ( 11913 PWs)   bands (ev):

   -15.0135 -14.8766 -13.9941 -13.8622  -7.5632  -7.4374  -3.1845  -2.8052
     0.8290   1.1797   7.1770   7.4188  10.0464  10.0585

     occupation numbers 
     1.0000   1.0000   1.0000   1.0000   1.0000   1.0000   1.0000   1.0000
     0.0000   0.0000   0.0000   0.0000   0.0000   0.0000

          k = 0.0667-0.5004 0.0000 ( 11920 PWs)   bands (ev):

   -15.9938 -15.8288 -12.8827 -12.7340  -7.4567  -7.3310  -3.8864  -3.2545
     1.4961   1.9770   7.2306   7.4664   8.0098   8.4759

     occupation numbers 
     1.0000   1.0000   1.0000   1.0000   1.0000   1.0000   1.0000   1.0000
     0.0000   0.0000   0.0000   0.0000   0.0000   0.0000

          k = 0.0667-0.4234 0.0000 ( 11938 PWs)   bands (ev):

   -17.1726 -16.9989 -11.2553 -11.1124  -7.1420  -7.0166  -5.0818  -4.2876
     3.0607   3.5430   6.2484   6.7560   7.3910   7.5509

     occupation numbers 
     1.0000   1.0000   1.0000   1.0000   1.0000   1.0000   1.0000   1.0000
     0.0000   0.0000   0.0000   0.0000   0.0000   0.0000

          k = 0.0667-0.3464 0.0000 ( 11910 PWs)   bands (ev):

   -18.1903 -18.0100  -9.5266  -9.3906  -6.6351  -6.5103  -6.2304  -5.3602
     4.7695   4.8966   5.2897   5.3586   6.3263   6.7589

     occupation numbers 
     1.0000   1.0000   1.0000   1.0000   1.0000   1.0000   1.0000   1.0000
     0.0000   0.0000   0.0000   0.0000   0.0000   0.0000

          k = 0.0667-0.2694 0.0000 ( 11880 PWs)   bands (ev):

   -19.0180 -18.8321  -7.7983  -7.6687  -7.2014  -6.2868  -5.9686  -5.8448
     3.6031   4.1773   5.1956   5.5988   6.7621   6.8427

     occupation numbers 
     1.0000   1.0000   1.0000   1.0000   1.0000   1.0000   1.0000   1.0000
     0.0000   0.0000   0.0000   0.0000   0.0000   0.0000

          k = 0.0667-0.1925 0.0000 ( 11832 PWs)   bands (ev):

   -19.6450 -19.4549  -7.9501  -7.0078  -6.2076  -6.0832  -5.2051  -5.0828
     2.7211   3.3140   4.3460   4.7438   6.0235   7.1268

     occupation numbers 
     1.0000   1.0000   1.0000   1.0000   1.0000   1.0000   1.0000   1.0000
     0.0000   0.0000   0.0000   0.0000   0.0000   0.0000

          k = 0.0667-0.1155 0.0000 ( 11813 PWs)   bands (ev):

   -20.0657 -19.8726  -8.4569  -7.4977  -4.9527  -4.8310  -4.4724  -4.3514
     2.1329   2.7371   3.7774   4.1694   5.4574   6.5812

     occupation numbers 
     1.0000   1.0000   1.0000   1.0000   1.0000   1.0000   1.0000   1.0000
     0.0000   0.0000   0.0000   0.0000   0.0000   0.0000

          k = 0.0667-0.0385 0.0000 ( 11791 PWs)   bands (ev):

   -20.2767 -20.0822  -8.7123  -7.7451  -4.2249  -4.1035  -4.0232  -3.9023
     1.8388   2.4484   3.4929   3.8819   5.1738   6.3051

     occupation numbers 
     1.0000   1.0000   1.0000   1.0000   1.0000   1.0000   1.0000   1.0000
     0.0000   0.0000   0.0000   0.0000   0.0000   0.0000

          k = 0.1333 0.0770 0.0000 ( 11788 PWs)   bands (ev):

   -19.9603 -19.7680  -8.3297  -7.3746  -5.3587  -5.2348  -4.5929  -4.4710
     2.2800   2.8813   3.9195   4.3130   5.5987   6.7170

     occupation numbers 
     1.0000   1.0000   1.0000   1.0000   1.0000   1.0000   1.0000   1.0000
     0.0000   0.0000   0.0000   0.0000   0.0000   0.0000

          k = 0.1333 0.1540 0.0000 ( 11832 PWs)   bands (ev):

   -19.6450 -19.4549  -7.9501  -7.0078  -6.2076  -6.0832  -5.2051  -5.0828
     2.7211   3.3140   4.3460   4.7438   6.0235   7.1268

     occupation numbers 
     1.0000   1.0000   1.0000   1.0000   1.0000   1.0000   1.0000   1.0000
     0.0000   0.0000   0.0000   0.0000   0.0000   0.0000

          k = 0.1333 0.2309 0.0000 ( 11879 PWs)   bands (ev):

   -19.1223 -18.9357  -7.3256  -7.3107  -7.1873  -6.4047  -6.1734  -6.0506
     3.4562   4.0344   5.0560   5.4607   6.7297   7.0830

     occupation numbers 
     1.0000   1.0000   1.0000   1.0000   1.0000   1.0000   1.0000   1.0000
     0.0000   0.0000   0.0000   0.0000   0.0000   0.0000

          k = 0.1333 0.3079 0.0000 ( 11929 PWs)   bands (ev):

   -18.3967 -18.2150  -8.7133  -8.5844  -7.0860  -6.9609  -6.4663  -5.5824
     4.4848   5.0368   5.4993   5.7942   6.0475   6.4641

     occupation numbers 
     1.0000   1.0000   1.0000   1.0000   1.0000   1.0000   1.0000   1.0000
     0.0000   0.0000   0.0000   0.0000   0.0000   0.0000

          k = 0.1333 0.3849 0.0000 ( 11925 PWs)   bands (ev):

   -17.4765 -17.3009 -10.3140 -10.1773  -7.7652  -7.6378  -5.4035  -4.5765
     3.7747   4.1547   5.8073   6.3296   7.3046   7.7404

     occupation numbers 
     1.0000   1.0000   1.0000   1.0000   1.0000   1.0000   1.0000   1.0000
     0.0000   0.0000   0.0000   0.0000   0.0000   0.0000

          k = 0.1333 0.4619 0.0000 ( 11927 PWs)   bands (ev):

   -16.3789 -16.2106 -11.9361 -11.7919  -8.2133  -8.0845  -4.2053  -3.4818
     2.1125   2.5515   7.4203   7.8848   8.5379   8.7099

     occupation numbers 
     1.0000   1.0000   1.0000   1.0000   1.0000   1.0000   1.0000   1.0000
     0.0000   0.0000   0.0000   0.0000   0.0000   0.0000

          k = 0.1333 0.5389 0.0000 ( 11935 PWs)   bands (ev):

   -15.1796 -15.0244 -13.4096 -13.2639  -8.4372  -8.3078  -3.1173  -2.6322
     0.9265   1.2773   8.4292   8.6971   9.3198   9.7086

     occupation numbers 
     1.0000   1.0000   1.0000   1.0000   1.0000   1.0000   1.0000   1.0000
     0.0000   0.0000   0.0000   0.0000   0.0000   0.0000

          k = 0.1333 0.6158 0.0000 ( 11935 PWs)   bands (ev):

   -15.1796 -15.0244 -13.4096 -13.2639  -8.4372  -8.3078  -3.1173  -2.6322
     0.9265   1.2773   8.4292   8.6971   9.3198   9.7086

     occupation numbers 
     1.0000   1.0000   1.0000   1.0000   1.0000   1.0000   1.0000   1.0000
     0.0000   0.0000   0.0000   0.0000   0.0000   0.0000

          k = 0.1333-0.4619 0.0000 ( 11927 PWs)   bands (ev):

   -16.3789 -16.2106 -11.9361 -11.7919  -8.2133  -8.0845  -4.2054  -3.4818
     2.1125   2.5515   7.4203   7.8848   8.5379   8.7100

     occupation numbers 
     1.0000   1.0000   1.0000   1.0000   1.0000   1.0000   1.0000   1.0000
     0.0000   0.0000   0.0000   0.0000   0.0000   0.0000

          k = 0.1333-0.3849 0.0000 ( 11925 PWs)   bands (ev):

   -17.4765 -17.3009 -10.3140 -10.1773  -7.7652  -7.6378  -5.4035  -4.5765
     3.7747   4.1547   5.8073   6.3296   7.3046   7.7404

     occupation numbers 
     1.0000   1.0000   1.0000   1.0000   1.0000   1.0000   1.0000   1.0000
     0.0000   0.0000   0.0000   0.0000   0.0000   0.0000

          k = 0.1333-0.3079 0.0000 ( 11929 PWs)   bands (ev):

   -18.3967 -18.2150  -8.7133  -8.5844  -7.0860  -6.9609  -6.4663  -5.5824
     4.4848   5.0368   5.4993   5.7942   6.0475   6.4641

     occupation numbers 
     1.0000   1.0000   1.0000   1.0000   1.0000   1.0000   1.0000   1.0000
     0.0000   0.0000   0.0000   0.0000   0.0000   0.0000

          k = 0.1333-0.2309 0.0000 ( 11879 PWs)   bands (ev):

   -19.1223 -18.9357  -7.3256  -7.3107  -7.1872  -6.4047  -6.1734  -6.0507
     3.4562   4.0344   5.0560   5.4607   6.7297   7.0830

     occupation numbers 
     1.0000   1.0000   1.0000   1.0000   1.0000   1.0000   1.0000   1.0000
     0.0000   0.0000   0.0000   0.0000   0.0000   0.0000

          k = 0.1333-0.1540 0.0000 ( 11832 PWs)   bands (ev):

   -19.6450 -19.4549  -7.9501  -7.0078  -6.2076  -6.0831  -5.2051  -5.0828
     2.7211   3.3140   4.3460   4.7438   6.0235   7.1268

     occupation numbers 
     1.0000   1.0000   1.0000   1.0000   1.0000   1.0000   1.0000   1.0000
     0.0000   0.0000   0.0000   0.0000   0.0000   0.0000

          k = 0.1333-0.0770 0.0000 ( 11788 PWs)   bands (ev):

   -19.9603 -19.7680  -8.3297  -7.3746  -5.3586  -5.2348  -4.5929  -4.4710
     2.2800   2.8813   3.9195   4.3130   5.5987   6.7170

     occupation numbers 
     1.0000   1.0000   1.0000   1.0000   1.0000   1.0000   1.0000   1.0000
     0.0000   0.0000   0.0000   0.0000   0.0000   0.0000

          k = 0.1333 0.0000 0.0000 ( 11813 PWs)   bands (ev):

   -20.0657 -19.8726  -8.4569  -7.4977  -4.9527  -4.8310  -4.4724  -4.3514
     2.1329   2.7371   3.7774   4.1694   5.4574   6.5812

     occupation numbers 
     1.0000   1.0000   1.0000   1.0000   1.0000   1.0000   1.0000   1.0000
     0.0000   0.0000   0.0000   0.0000   0.0000   0.0000

          k = 0.2000 0.1155 0.0000 ( 11848 PWs)   bands (ev):

   -19.4354 -19.2467  -7.6992  -6.9151  -6.7886  -6.7637  -5.3054  -5.1826
     3.0151   3.6018   4.6290   5.0294   6.3010   7.3538

     occupation numbers 
     1.0000   1.0000   1.0000   1.0000   1.0000   1.0000   1.0000   1.0000
     0.0000   0.0000   0.0000   0.0000   0.0000   0.0000

          k = 0.2000 0.1925 0.0000 ( 11880 PWs)   bands (ev):

   -19.0180 -18.8321  -7.7983  -7.6687  -7.2013  -6.2868  -5.9686  -5.8448
     3.6031   4.1773   5.1956   5.5988   6.7621   6.8431

     occupation numbers 
     1.0000   1.0000   1.0000   1.0000   1.0000   1.0000   1.0000   1.0000
     0.0000   0.0000   0.0000   0.0000   0.0000   0.0000

          k = 0.2000 0.2694 0.0000 ( 11929 PWs)   bands (ev):

   -18.3967 -18.2150  -8.7133  -8.5844  -7.0859  -6.9609  -6.4663  -5.5824
     4.4848   5.0368   5.4993   5.7942   6.0475   6.4641

     occupation numbers 
     1.0000   1.0000   1.0000   1.0000   1.0000   1.0000   1.0000   1.0000
     0.0000   0.0000   0.0000   0.0000   0.0000   0.0000

          k = 0.2000 0.3464 0.0000 ( 11953 PWs)   bands (ev):

   -17.5785 -17.4021  -9.7287  -9.6016  -8.2650  -8.1398  -5.5125  -4.6752
     4.0854   4.3854   5.6598   6.1832   7.1656   7.5916

     occupation numbers 
     1.0000   1.0000   1.0000   1.0000   1.0000   1.0000   1.0000   1.0000
     0.0000   0.0000   0.0000   0.0000   0.0000   0.0000

          k = 0.2000 0.4234 0.0000 ( 11949 PWs)   bands (ev):

   -16.5762 -16.4065 -11.0204 -10.8860  -9.0908  -8.9617  -4.3788  -3.6144
     2.5806   2.9231   7.1257   7.5973   8.5307   8.9781

     occupation numbers 
     1.0000   1.0000   1.0000   1.0000   1.0000   1.0000   1.0000   1.0000
     0.0000   0.0000   0.0000   0.0000   0.0000   0.0000

          k = 0.2000 0.5004 0.0000 ( 11953 PWs)   bands (ev):

   -15.4227 -15.2615 -12.4569 -12.3139  -9.5209  -9.3883  -3.1728  -2.5492
     1.1834   1.5404   8.8730   9.2478   9.9592  10.1524

     occupation numbers 
     1.0000   1.0000   1.0000   1.0000   1.0000   1.0000   1.0000   1.0000
     0.0000   0.0000   0.0000   0.0000   0.0000   0.0000

          k = 0.2000 0.5774 0.0000 ( 11949 PWs)   bands (ev):

   -14.4731 -14.3375 -13.4973 -13.3679  -9.6546  -9.5212  -2.4141  -2.0422
     0.5565   0.7229  10.0219  10.3282  10.5741  10.7719

     occupation numbers 
     1.0000   1.0000   1.0000   1.0000   1.0000   1.0000   1.0000   1.0000
     0.0000   0.0000   0.0000   0.0000   0.0000   0.0000

          k = 0.2000 0.6543 0.0000 ( 11953 PWs)   bands (ev):

   -15.4227 -15.2615 -12.4569 -12.3139  -9.5209  -9.3883  -3.1728  -2.5492
     1.1834   1.5405   8.8730   9.2478   9.9592  10.1524

     occupation numbers 
     1.0000   1.0000   1.0000   1.0000   1.0000   1.0000   1.0000   1.0000
     0.0000   0.0000   0.0000   0.0000   0.0000   0.0000

          k = 0.2000-0.4234 0.0000 ( 11949 PWs)   bands (ev):

   -16.5762 -16.4065 -11.0203 -10.8860  -9.0908  -8.9617  -4.3788  -3.6144
     2.5806   2.9231   7.1257   7.5973   8.5307   8.9781

     occupation numbers 
     1.0000   1.0000   1.0000   1.0000   1.0000   1.0000   1.0000   1.0000
     0.0000   0.0000   0.0000   0.0000   0.0000   0.0000

          k = 0.2000-0.3464 0.0000 ( 11953 PWs)   bands (ev):

   -17.5785 -17.4021  -9.7287  -9.6016  -8.2650  -8.1398  -5.5125  -4.6752
     4.0854   4.3854   5.6598   6.1832   7.1656   7.5916

     occupation numbers 
     1.0000   1.0000   1.0000   1.0000   1.0000   1.0000   1.0000   1.0000
     0.0000   0.0000   0.0000   0.0000   0.0000   0.0000

          k = 0.2000-0.2694 0.0000 ( 11929 PWs)   bands (ev):

   -18.3967 -18.2150  -8.7133  -8.5844  -7.0860  -6.9609  -6.4663  -5.5824
     4.4848   5.0368   5.4993   5.7942   6.0475   6.4641

     occupation numbers 
     1.0000   1.0000   1.0000   1.0000   1.0000   1.0000   1.0000   1.0000
     0.0000   0.0000   0.0000   0.0000   0.0000   0.0000

          k = 0.2000-0.1925 0.0000 ( 11880 PWs)   bands (ev):

   -19.0180 -18.8321  -7.7983  -7.6687  -7.2014  -6.2868  -5.9686  -5.8448
     3.6031   4.1773   5.1956   5.5988   6.7622   6.8431

     occupation numbers 
     1.0000   1.0000   1.0000   1.0000   1.0000   1.0000   1.0000   1.0000
     0.0000   0.0000   0.0000   0.0000   0.0000   0.0000

          k = 0.2000-0.1155 0.0000 ( 11848 PWs)   bands (ev):

   -19.4354 -19.2467  -7.6992  -6.9151  -6.7886  -6.7637  -5.3054  -5.1826
     3.0151   3.6018   4.6290   5.0294   6.3010   7.3537

     occupation numbers 
     1.0000   1.0000   1.0000   1.0000   1.0000   1.0000   1.0000   1.0000
     0.0000   0.0000   0.0000   0.0000   0.0000   0.0000

          k = 0.2000-0.0385 0.0000 ( 11832 PWs)   bands (ev):

   -19.6450 -19.4549  -7.9501  -7.0078  -6.2076  -6.0831  -5.2051  -5.0828
     2.7211   3.3140   4.3460   4.7438   6.0235   7.1268

     occupation numbers 
     1.0000   1.0000   1.0000   1.0000   1.0000   1.0000   1.0000   1.0000
     0.0000   0.0000   0.0000   0.0000   0.0000   0.0000

          k = 0.2000 0.0385 0.0000 ( 11832 PWs)   bands (ev):

   -19.6450 -19.4549  -7.9501  -7.0078  -6.2076  -6.0832  -5.2051  -5.0828
     2.7211   3.3140   4.3460   4.7438   6.0235   7.1268

     occupation numbers 
     1.0000   1.0000   1.0000   1.0000   1.0000   1.0000   1.0000   1.0000
     0.0000   0.0000   0.0000   0.0000   0.0000   0.0000

          k = 0.2667 0.1540 0.0000 ( 11876 PWs)   bands (ev):

   -18.7063 -18.5225  -8.6573  -8.5237  -6.8343  -5.9988  -5.9358  -5.8753
     4.0437   4.6042   5.6049   5.8755   6.1186   6.3128

     occupation numbers 
     1.0000   1.0000   1.0000   1.0000   1.0000   1.0000   1.0000   1.0000
     0.0000   0.0000   0.0000   0.0000   0.0000   0.0000

          k = 0.2667 0.2309 0.0000 ( 11910 PWs)   bands (ev):

   -18.1903 -18.0100  -9.5266  -9.3906  -6.6351  -6.5103  -6.2304  -5.3602
     4.7695   4.8965   5.2897   5.3586   6.3263   6.7589

     occupation numbers 
     1.0000   1.0000   1.0000   1.0000   1.0000   1.0000   1.0000   1.0000
     0.0000   0.0000   0.0000   0.0000   0.0000   0.0000

          k = 0.2667 0.3079 0.0000 ( 11925 PWs)   bands (ev):

   -17.4765 -17.3009 -10.3141 -10.1773  -7.7652  -7.6378  -5.4035  -4.5765
     3.7747   4.1547   5.8073   6.3296   7.3046   7.7404

     occupation numbers 
     1.0000   1.0000   1.0000   1.0000   1.0000   1.0000   1.0000   1.0000
     0.0000   0.0000   0.0000   0.0000   0.0000   0.0000

          k = 0.2667 0.3849 0.0000 ( 11949 PWs)   bands (ev):

   -16.5762 -16.4065 -11.0204 -10.8860  -9.0908  -8.9617  -4.3788  -3.6144
     2.5806   2.9231   7.1257   7.5973   8.5307   8.9781

     occupation numbers 
     1.0000   1.0000   1.0000   1.0000   1.0000   1.0000   1.0000   1.0000
     0.0000   0.0000   0.0000   0.0000   0.0000   0.0000

          k = 0.2667 0.4619 0.0000 ( 11961 PWs)   bands (ev):

   -15.5121 -15.3497 -11.8003 -11.6701 -10.2211 -10.0937  -3.2059  -2.5332
     1.3298   1.6679   8.7232   9.0935   9.8304  10.2992

     occupation numbers 
     1.0000   1.0000   1.0000   1.0000   1.0000   1.0000   1.0000   1.0000
     0.0000   0.0000   0.0000   0.0000   0.0000   0.0000

          k = 0.2667 0.5389 0.0000 ( 11948 PWs)   bands (ev):

   -14.3630 -14.2125 -12.8545 -12.7184 -10.7670 -10.6352  -2.0433  -1.5507
     0.2189   0.5193   9.9717  10.2407  10.6801  10.9931

     occupation numbers 
     1.0000   1.0000   1.0000   1.0000   1.0000   1.0000   1.0000   1.0000
     0.0000   0.0000   0.0000   0.0000   0.0000   0.0000

          k = 0.2667 0.6158 0.0000 ( 11948 PWs)   bands (ev):

   -14.3630 -14.2125 -12.8545 -12.7184 -10.7670 -10.6352  -2.0434  -1.5507
     0.2189   0.5194   9.9717  10.2407  10.6801  10.9931

     occupation numbers 
     1.0000   1.0000   1.0000   1.0000   1.0000   1.0000   1.0000   1.0000
     0.0000   0.0000   0.0000   0.0000   0.0000   0.0000

          k = 0.2667 0.6928 0.0000 ( 11961 PWs)   bands (ev):

   -15.5121 -15.3497 -11.8003 -11.6700 -10.2211 -10.0937  -3.2059  -2.5332
     1.3298   1.6679   8.7232   9.0935   9.8304  10.2992

     occupation numbers 
     1.0000   1.0000   1.0000   1.0000   1.0000   1.0000   1.0000   1.0000
     0.0000   0.0000   0.0000   0.0000   0.0000   0.0000

          k = 0.2667-0.3849 0.0000 ( 11949 PWs)   bands (ev):

   -16.5762 -16.4065 -11.0204 -10.8860  -9.0908  -8.9617  -4.3788  -3.6144
     2.5806   2.9231   7.1257   7.5973   8.5307   8.9781

     occupation numbers 
     1.0000   1.0000   1.0000   1.0000   1.0000   1.0000   1.0000   1.0000
     0.0000   0.0000   0.0000   0.0000   0.0000   0.0000

          k = 0.2667-0.3079 0.0000 ( 11925 PWs)   bands (ev):

   -17.4765 -17.3009 -10.3140 -10.1773  -7.7652  -7.6378  -5.4035  -4.5765
     3.7747   4.1547   5.8073   6.3296   7.3046   7.7404

     occupation numbers 
     1.0000   1.0000   1.0000   1.0000   1.0000   1.0000   1.0000   1.0000
     0.0000   0.0000   0.0000   0.0000   0.0000   0.0000

          k = 0.2667-0.2309 0.0000 ( 11910 PWs)   bands (ev):

   -18.1903 -18.0100  -9.5266  -9.3906  -6.6351  -6.5103  -6.2304  -5.3602
     4.7695   4.8966   5.2897   5.3586   6.3263   6.7589

     occupation numbers 
     1.0000   1.0000   1.0000   1.0000   1.0000   1.0000   1.0000   1.0000
     0.0000   0.0000   0.0000   0.0000   0.0000   0.0000

          k = 0.2667-0.1540 0.0000 ( 11876 PWs)   bands (ev):

   -18.7063 -18.5225  -8.6573  -8.5237  -6.8343  -5.9988  -5.9358  -5.8753
     4.0437   4.6042   5.6049   5.8755   6.1186   6.3128

     occupation numbers 
     1.0000   1.0000   1.0000   1.0000   1.0000   1.0000   1.0000   1.0000
     0.0000   0.0000   0.0000   0.0000   0.0000   0.0000

          k = 0.2667-0.0770 0.0000 ( 11880 PWs)   bands (ev):

   -19.0180 -18.8321  -7.7983  -7.6687  -7.2014  -6.2868  -5.9686  -5.8448
     3.6031   4.1773   5.1956   5.5988   6.7621   6.8428

     occupation numbers 
     1.0000   1.0000   1.0000   1.0000   1.0000   1.0000   1.0000   1.0000
     0.0000   0.0000   0.0000   0.0000   0.0000   0.0000

          k = 0.2667 0.0000 0.0000 ( 11879 PWs)   bands (ev):

   -19.1223 -18.9357  -7.3256  -7.3107  -7.1872  -6.4047  -6.1734  -6.0507
     3.4562   4.0344   5.0560   5.4607   6.7297   7.0830

     occupation numbers 
     1.0000   1.0000   1.0000   1.0000   1.0000   1.0000   1.0000   1.0000
     0.0000   0.0000   0.0000   0.0000   0.0000   0.0000

          k = 0.2667 0.0770 0.0000 ( 11880 PWs)   bands (ev):

   -19.0180 -18.8321  -7.7983  -7.6687  -7.2013  -6.2868  -5.9686  -5.8448
     3.6031   4.1773   5.1956   5.5988   6.7621   6.8430

     occupation numbers 
     1.0000   1.0000   1.0000   1.0000   1.0000   1.0000   1.0000   1.0000
     0.0000   0.0000   0.0000   0.0000   0.0000   0.0000

          k = 0.3333 0.1925 0.0000 ( 11914 PWs)   bands (ev):

   -17.7803 -17.6026 -10.4331 -10.2929  -6.5757  -6.4517  -5.7645  -4.9231
     4.0181   4.4898   5.3685   5.9071   6.8458   7.0486

     occupation numbers 
     1.0000   1.0000   1.0000   1.0000   1.0000   1.0000   1.0000   1.0000
     0.0000   0.0000   0.0000   0.0000   0.0000   0.0000

          k = 0.3333 0.2694 0.0000 ( 11938 PWs)   bands (ev):

   -17.1726 -16.9989 -11.2553 -11.1124  -7.1420  -7.0166  -5.0818  -4.2876
     3.0607   3.5429   6.2484   6.7560   7.3910   7.5509

     occupation numbers 
     1.0000   1.0000   1.0000   1.0000   1.0000   1.0000   1.0000   1.0000
     0.0000   0.0000   0.0000   0.0000   0.0000   0.0000

          k = 0.3333 0.3464 0.0000 ( 11927 PWs)   bands (ev):

   -16.3789 -16.2106 -11.9361 -11.7919  -8.2133  -8.0845  -4.2053  -3.4818
     2.1125   2.5515   7.4203   7.8848   8.5379   8.7099

     occupation numbers 
     1.0000   1.0000   1.0000   1.0000   1.0000   1.0000   1.0000   1.0000
     0.0000   0.0000   0.0000   0.0000   0.0000   0.0000

          k = 0.3333 0.4234 0.0000 ( 11953 PWs)   bands (ev):

   -15.4227 -15.2615 -12.4569 -12.3139  -9.5208  -9.3883  -3.1728  -2.5492
     1.1834   1.5404   8.8730   9.2478   9.9592  10.1524

     occupation numbers 
     1.0000   1.0000   1.0000   1.0000   1.0000   1.0000   1.0000   1.0000
     0.0000   0.0000   0.0000   0.0000   0.0000   0.0000

          k = 0.3333 0.5004 0.0000 ( 11948 PWs)   bands (ev):

   -14.3630 -14.2125 -12.8545 -12.7184 -10.7670 -10.6352  -2.0433  -1.5507
     0.2189   0.5193   9.9717  10.2407  10.6801  10.9931

     occupation numbers 
     1.0000   1.0000   1.0000   1.0000   1.0000   1.0000   1.0000   1.0000
     0.0000   0.0000   0.0000   0.0000   0.0000   0.0000

          k = 0.3333 0.5774 0.0000 ( 11919 PWs)   bands (ev):

   -13.4090 -13.3902 -13.2664 -13.2522 -11.3870 -11.2620  -1.0312  -0.7704
    -0.6297  -0.3498   9.8300  10.0365  11.9251  12.2661

     occupation numbers 
     1.0000   1.0000   1.0000   1.0000   1.0000   1.0000   0.9997   0.7677
     0.2324   0.0001   0.0000   0.0000   0.0000   0.0000

          k = 0.3333 0.6543 0.0000 ( 11948 PWs)   bands (ev):

   -14.3630 -14.2125 -12.8545 -12.7184 -10.7670 -10.6352  -2.0434  -1.5507
     0.2189   0.5194   9.9717  10.2407  10.6801  10.9931

     occupation numbers 
     1.0000   1.0000   1.0000   1.0000   1.0000   1.0000   1.0000   1.0000
     0.0000   0.0000   0.0000   0.0000   0.0000   0.0000

          k = 0.3333 0.7313 0.0000 ( 11953 PWs)   bands (ev):

   -15.4227 -15.2615 -12.4569 -12.3139  -9.5208  -9.3884  -3.1728  -2.5492
     1.1834   1.5405   8.8730   9.2478   9.9592  10.1524

     occupation numbers 
     1.0000   1.0000   1.0000   1.0000   1.0000   1.0000   1.0000   1.0000
     0.0000   0.0000   0.0000   0.0000   0.0000   0.0000

          k = 0.3333-0.3464 0.0000 ( 11927 PWs)   bands (ev):

   -16.3789 -16.2106 -11.9361 -11.7919  -8.2133  -8.0845  -4.2054  -3.4818
     2.1125   2.5515   7.4203   7.8848   8.5379   8.7100

     occupation numbers 
     1.0000   1.0000   1.0000   1.0000   1.0000   1.0000   1.0000   1.0000
     0.0000   0.0000   0.0000   0.0000   0.0000   0.0000

          k = 0.3333-0.2694 0.0000 ( 11938 PWs)   bands (ev):

   -17.1726 -16.9989 -11.2553 -11.1124  -7.1420  -7.0166  -5.0818  -4.2876
     3.0607   3.5430   6.2484   6.7560   7.3910   7.5509

     occupation numbers 
     1.0000   1.0000   1.0000   1.0000   1.0000   1.0000   1.0000   1.0000
     0.0000   0.0000   0.0000   0.0000   0.0000   0.0000

          k = 0.3333-0.1925 0.0000 ( 11914 PWs)   bands (ev):

   -17.7803 -17.6026 -10.4331 -10.2929  -6.5757  -6.4517  -5.7645  -4.9231
     4.0182   4.4898   5.3685   5.9071   6.8458   7.0486

     occupation numbers 
     1.0000   1.0000   1.0000   1.0000   1.0000   1.0000   1.0000   1.0000
     0.0000   0.0000   0.0000   0.0000   0.0000   0.0000

          k = 0.3333-0.1155 0.0000 ( 11910 PWs)   bands (ev):

   -18.1903 -18.0100  -9.5266  -9.3906  -6.6351  -6.5103  -6.2304  -5.3602
     4.7695   4.8966   5.2897   5.3586   6.3263   6.7589

     occupation numbers 
     1.0000   1.0000   1.0000   1.0000   1.0000   1.0000   1.0000   1.0000
     0.0000   0.0000   0.0000   0.0000   0.0000   0.0000

          k = 0.3333-0.0385 0.0000 ( 11929 PWs)   bands (ev):

   -18.3967 -18.2150  -8.7133  -8.5844  -7.0859  -6.9609  -6.4663  -5.5824
     4.4848   5.0368   5.4993   5.7942   6.0475   6.4641

     occupation numbers 
     1.0000   1.0000   1.0000   1.0000   1.0000   1.0000   1.0000   1.0000
     0.0000   0.0000   0.0000   0.0000   0.0000   0.0000

          k = 0.3333 0.0385 0.0000 ( 11929 PWs)   bands (ev):

   -18.3967 -18.2150  -8.7133  -8.5844  -7.0859  -6.9609  -6.4663  -5.5824
     4.4848   5.0368   5.4993   5.7942   6.0475   6.4641

     occupation numbers 
     1.0000   1.0000   1.0000   1.0000   1.0000   1.0000   1.0000   1.0000
     0.0000   0.0000   0.0000   0.0000   0.0000   0.0000

          k = 0.3333 0.1155 0.0000 ( 11910 PWs)   bands (ev):

   -18.1903 -18.0100  -9.5266  -9.3906  -6.6351  -6.5103  -6.2304  -5.3602
     4.7695   4.8965   5.2897   5.3586   6.3263   6.7589

     occupation numbers 
     1.0000   1.0000   1.0000   1.0000   1.0000   1.0000   1.0000   1.0000
     0.0000   0.0000   0.0000   0.0000   0.0000   0.0000

          k = 0.4000 0.2309 0.0000 ( 11910 PWs)   bands (ev):

   -16.6732 -16.5030 -12.1427 -11.9959  -6.9827  -6.8584  -4.5643  -3.8316
     2.2409   2.7610   6.8266   6.9839   7.0541   7.4969

     occupation numbers 
     1.0000   1.0000   1.0000   1.0000   1.0000   1.0000   1.0000   1.0000
     0.0000   0.0000   0.0000   0.0000   0.0000   0.0000

          k = 0.4000 0.3079 0.0000 ( 11920 PWs)   bands (ev):

   -15.9938 -15.8288 -12.8827 -12.7340  -7.4567  -7.3310  -3.8864  -3.2545
     1.4961   1.9770   7.2307   7.4664   8.0098   8.4759

     occupation numbers 
     1.0000   1.0000   1.0000   1.0000   1.0000   1.0000   1.0000   1.0000
     0.0000   0.0000   0.0000   0.0000   0.0000   0.0000

          k = 0.4000 0.3849 0.0000 ( 11935 PWs)   bands (ev):

   -15.1796 -15.0244 -13.4096 -13.2639  -8.4372  -8.3078  -3.1173  -2.6322
     0.9264   1.2773   8.4292   8.6971   9.3198   9.7086

     occupation numbers 
     1.0000   1.0000   1.0000   1.0000   1.0000   1.0000   1.0000   1.0000
     0.0000   0.0000   0.0000   0.0000   0.0000   0.0000

          k = 0.4000 0.4619 0.0000 ( 11949 PWs)   bands (ev):

   -14.4731 -14.3375 -13.4973 -13.3679  -9.6546  -9.5212  -2.4141  -2.0422
     0.5565   0.7229  10.0219  10.3282  10.5741  10.7719

     occupation numbers 
     1.0000   1.0000   1.0000   1.0000   1.0000   1.0000   1.0000   1.0000
     0.0000   0.0000   0.0000   0.0000   0.0000   0.0000

          k = 0.4000 0.5389 0.0000 ( 11948 PWs)   bands (ev):

   -14.3630 -14.2125 -12.8545 -12.7184 -10.7670 -10.6352  -2.0433  -1.5507
     0.2189   0.5194   9.9717  10.2407  10.6801  10.9931

     occupation numbers 
     1.0000   1.0000   1.0000   1.0000   1.0000   1.0000   1.0000   1.0000
     0.0000   0.0000   0.0000   0.0000   0.0000   0.0000

          k = 0.4000 0.6158 0.0000 ( 11948 PWs)   bands (ev):

   -14.3630 -14.2125 -12.8545 -12.7184 -10.7670 -10.6352  -2.0433  -1.5507
     0.2189   0.5194   9.9717  10.2407  10.6801  10.9931

     occupation numbers 
     1.0000   1.0000   1.0000   1.0000   1.0000   1.0000   1.0000   1.0000
     0.0000   0.0000   0.0000   0.0000   0.0000   0.0000

          k = 0.4000 0.6928 0.0000 ( 11949 PWs)   bands (ev):

   -14.4731 -14.3375 -13.4973 -13.3678  -9.6546  -9.5212  -2.4141  -2.0422
     0.5565   0.7230  10.0219  10.3282  10.5741  10.7719

     occupation numbers 
     1.0000   1.0000   1.0000   1.0000   1.0000   1.0000   1.0000   1.0000
     0.0000   0.0000   0.0000   0.0000   0.0000   0.0000

          k = 0.4000 0.7698 0.0000 ( 11935 PWs)   bands (ev):

   -15.1796 -15.0244 -13.4096 -13.2639  -8.4372  -8.3078  -3.1173  -2.6322
     0.9265   1.2773   8.4292   8.6971   9.3198   9.7086

     occupation numbers 
     1.0000   1.0000   1.0000   1.0000   1.0000   1.0000   1.0000   1.0000
     0.0000   0.0000   0.0000   0.0000   0.0000   0.0000

          k = 0.4000-0.3079 0.0000 ( 11920 PWs)   bands (ev):

   -15.9938 -15.8288 -12.8827 -12.7340  -7.4567  -7.3310  -3.8864  -3.2546
     1.4961   1.9770   7.2307   7.4664   8.0098   8.4759

     occupation numbers 
     1.0000   1.0000   1.0000   1.0000   1.0000   1.0000   1.0000   1.0000
     0.0000   0.0000   0.0000   0.0000   0.0000   0.0000

          k = 0.4000-0.2309 0.0000 ( 11910 PWs)   bands (ev):

   -16.6732 -16.5030 -12.1427 -11.9959  -6.9827  -6.8585  -4.5643  -3.8316
     2.2409   2.7610   6.8266   6.9839   7.0541   7.4969

     occupation numbers 
     1.0000   1.0000   1.0000   1.0000   1.0000   1.0000   1.0000   1.0000
     0.0000   0.0000   0.0000   0.0000   0.0000   0.0000

          k = 0.4000-0.1540 0.0000 ( 11938 PWs)   bands (ev):

   -17.1726 -16.9989 -11.2553 -11.1124  -7.1420  -7.0166  -5.0818  -4.2876
     3.0607   3.5430   6.2484   6.7560   7.3910   7.5509

     occupation numbers 
     1.0000   1.0000   1.0000   1.0000   1.0000   1.0000   1.0000   1.0000
     0.0000   0.0000   0.0000   0.0000   0.0000   0.0000

          k = 0.4000-0.0770 0.0000 ( 11925 PWs)   bands (ev):

   -17.4765 -17.3009 -10.3141 -10.1773  -7.7652  -7.6378  -5.4035  -4.5765
     3.7747   4.1547   5.8073   6.3296   7.3046   7.7404

     occupation numbers 
     1.0000   1.0000   1.0000   1.0000   1.0000   1.0000   1.0000   1.0000
     0.0000   0.0000   0.0000   0.0000   0.0000   0.0000

          k = 0.4000 0.0000 0.0000 ( 11953 PWs)   bands (ev):

   -17.5785 -17.4021  -9.7288  -9.6016  -8.2650  -8.1398  -5.5125  -4.6752
     4.0854   4.3854   5.6598   6.1832   7.1656   7.5916

     occupation numbers 
     1.0000   1.0000   1.0000   1.0000   1.0000   1.0000   1.0000   1.0000
     0.0000   0.0000   0.0000   0.0000   0.0000   0.0000

          k = 0.4000 0.0770 0.0000 ( 11925 PWs)   bands (ev):

   -17.4765 -17.3009 -10.3141 -10.1773  -7.7652  -7.6378  -5.4035  -4.5765
     3.7747   4.1547   5.8073   6.3296   7.3046   7.7404

     occupation numbers 
     1.0000   1.0000   1.0000   1.0000   1.0000   1.0000   1.0000   1.0000
     0.0000   0.0000   0.0000   0.0000   0.0000   0.0000

          k = 0.4000 0.1540 0.0000 ( 11938 PWs)   bands (ev):

   -17.1726 -16.9989 -11.2553 -11.1124  -7.1420  -7.0166  -5.0818  -4.2876
     3.0607   3.5429   6.2484   6.7560   7.3910   7.5509

     occupation numbers 
     1.0000   1.0000   1.0000   1.0000   1.0000   1.0000   1.0000   1.0000
     0.0000   0.0000   0.0000   0.0000   0.0000   0.0000

          k = 0.4667 0.2694 0.0000 ( 11924 PWs)   bands (ev):

   -15.4581 -15.3013 -13.6628 -13.5151  -7.1921  -7.0677  -3.4940  -3.0091
     1.0153   1.4476   6.7265   6.9611   8.8884   9.3219

     occupation numbers 
     1.0000   1.0000   1.0000   1.0000   1.0000   1.0000   1.0000   1.0000
     0.0000   0.0000   0.0000   0.0000   0.0000   0.0000

          k = 0.4667 0.3464 0.0000 ( 11913 PWs)   bands (ev):

   -15.0135 -14.8766 -13.9942 -13.8622  -7.5632  -7.4374  -3.1845  -2.8052
     0.8290   1.1797   7.1770   7.4188  10.0464  10.0585

     occupation numbers 
     1.0000   1.0000   1.0000   1.0000   1.0000   1.0000   1.0000   1.0000
     0.0000   0.0000   0.0000   0.0000   0.0000   0.0000

          k = 0.4667 0.4234 0.0000 ( 11935 PWs)   bands (ev):

   -15.1796 -15.0244 -13.4096 -13.2639  -8.4372  -8.3078  -3.1173  -2.6322
     0.9264   1.2773   8.4292   8.6971   9.3198   9.7086

     occupation numbers 
     1.0000   1.0000   1.0000   1.0000   1.0000   1.0000   1.0000   1.0000
     0.0000   0.0000   0.0000   0.0000   0.0000   0.0000

          k = 0.4667 0.5004 0.0000 ( 11953 PWs)   bands (ev):

   -15.4227 -15.2615 -12.4569 -12.3139  -9.5208  -9.3883  -3.1728  -2.5492
     1.1834   1.5404   8.8730   9.2478   9.9592  10.1524

     occupation numbers 
     1.0000   1.0000   1.0000   1.0000   1.0000   1.0000   1.0000   1.0000
     0.0000   0.0000   0.0000   0.0000   0.0000   0.0000

          k = 0.4667 0.5774 0.0000 ( 11961 PWs)   bands (ev):

   -15.5121 -15.3497 -11.8004 -11.6700 -10.2211 -10.0937  -3.2059  -2.5332
     1.3298   1.6679   8.7232   9.0935   9.8304  10.2992

     occupation numbers 
     1.0000   1.0000   1.0000   1.0000   1.0000   1.0000   1.0000   1.0000
     0.0000   0.0000   0.0000   0.0000   0.0000   0.0000

          k = 0.4667 0.6543 0.0000 ( 11953 PWs)   bands (ev):

   -15.4227 -15.2615 -12.4569 -12.3139  -9.5208  -9.3884  -3.1728  -2.5492
     1.1834   1.5405   8.8730   9.2478   9.9592  10.1524

     occupation numbers 
     1.0000   1.0000   1.0000   1.0000   1.0000   1.0000   1.0000   1.0000
     0.0000   0.0000   0.0000   0.0000   0.0000   0.0000

          k = 0.4667 0.7313 0.0000 ( 11935 PWs)   bands (ev):

   -15.1796 -15.0244 -13.4096 -13.2639  -8.4372  -8.3078  -3.1173  -2.6322
     0.9265   1.2773   8.4292   8.6971   9.3198   9.7086

     occupation numbers 
     1.0000   1.0000   1.0000   1.0000   1.0000   1.0000   1.0000   1.0000
     0.0000   0.0000   0.0000   0.0000   0.0000   0.0000

          k = 0.4667 0.8083 0.0000 ( 11913 PWs)   bands (ev):

   -15.0135 -14.8766 -13.9941 -13.8622  -7.5632  -7.4374  -3.1845  -2.8052
     0.8290   1.1797   7.1770   7.4187  10.0464  10.0585

     occupation numbers 
     1.0000   1.0000   1.0000   1.0000   1.0000   1.0000   1.0000   1.0000
     0.0000   0.0000   0.0000   0.0000   0.0000   0.0000

          k = 0.4667-0.2694 0.0000 ( 11924 PWs)   bands (ev):

   -15.4581 -15.3013 -13.6628 -13.5151  -7.1921  -7.0677  -3.4940  -3.0091
     1.0153   1.4476   6.7265   6.9611   8.8884   9.3219

     occupation numbers 
     1.0000   1.0000   1.0000   1.0000   1.0000   1.0000   1.0000   1.0000
     0.0000   0.0000   0.0000   0.0000   0.0000   0.0000

          k = 0.4667-0.1925 0.0000 ( 11920 PWs)   bands (ev):

   -15.9938 -15.8288 -12.8827 -12.7340  -7.4567  -7.3310  -3.8864  -3.2546
     1.4961   1.9770   7.2307   7.4664   8.0098   8.4759

     occupation numbers 
     1.0000   1.0000   1.0000   1.0000   1.0000   1.0000   1.0000   1.0000
     0.0000   0.0000   0.0000   0.0000   0.0000   0.0000

          k = 0.4667-0.1155 0.0000 ( 11927 PWs)   bands (ev):

   -16.3789 -16.2106 -11.9361 -11.7919  -8.2133  -8.0845  -4.2053  -3.4818
     2.1125   2.5515   7.4203   7.8848   8.5379   8.7100

     occupation numbers 
     1.0000   1.0000   1.0000   1.0000   1.0000   1.0000   1.0000   1.0000
     0.0000   0.0000   0.0000   0.0000   0.0000   0.0000

          k = 0.4667-0.0385 0.0000 ( 11949 PWs)   bands (ev):

   -16.5762 -16.4065 -11.0204 -10.8860  -9.0908  -8.9617  -4.3788  -3.6144
     2.5806   2.9231   7.1257   7.5973   8.5307   8.9781

     occupation numbers 
     1.0000   1.0000   1.0000   1.0000   1.0000   1.0000   1.0000   1.0000
     0.0000   0.0000   0.0000   0.0000   0.0000   0.0000

          k = 0.4667 0.0385 0.0000 ( 11949 PWs)   bands (ev):

   -16.5762 -16.4065 -11.0204 -10.8860  -9.0908  -8.9617  -4.3788  -3.6144
     2.5806   2.9231   7.1257   7.5973   8.5307   8.9781

     occupation numbers 
     1.0000   1.0000   1.0000   1.0000   1.0000   1.0000   1.0000   1.0000
     0.0000   0.0000   0.0000   0.0000   0.0000   0.0000

          k = 0.4667 0.1155 0.0000 ( 11927 PWs)   bands (ev):

   -16.3789 -16.2106 -11.9361 -11.7919  -8.2133  -8.0845  -4.2053  -3.4818
     2.1125   2.5515   7.4203   7.8848   8.5379   8.7100

     occupation numbers 
     1.0000   1.0000   1.0000   1.0000   1.0000   1.0000   1.0000   1.0000
     0.0000   0.0000   0.0000   0.0000   0.0000   0.0000

          k = 0.4667 0.1925 0.0000 ( 11920 PWs)   bands (ev):

   -15.9938 -15.8288 -12.8827 -12.7340  -7.4567  -7.3310  -3.8864  -3.2545
     1.4961   1.9770   7.2307   7.4664   8.0098   8.4759

     occupation numbers 
     1.0000   1.0000   1.0000   1.0000   1.0000   1.0000   1.0000   1.0000
     0.0000   0.0000   0.0000   0.0000   0.0000   0.0000

     the Fermi energy is    -0.7000 ev

!    total energy              =     -48.20776594 Ry
     estimated scf accuracy    <          6.0E-12 Ry
     smearing contrib. (-TS)   =      -0.00007698 Ry
     internal energy E=F+TS    =     -48.20768896 Ry

     The total energy is F=E-TS. E is the sum of the following terms:
     one-electron contribution =    -706.62757877 Ry
     hartree contribution      =     356.91351127 Ry
     xc contribution           =     -17.18669892 Ry
     ewald contribution        =     319.06373395 Ry
     DFT-D3 Dispersion         =      -0.01765565 Ry
     electric field correction =      -0.35300084 Ry

     convergence has been achieved in   7 iterations

     Forces acting on atoms (cartesian axes, Ry/au):

     atom    1 type  1   force =    -0.00000097   -0.00000221   -0.00010703
     atom    2 type  1   force =     0.00000098    0.00000219   -0.00165042
     atom    3 type  1   force =    -0.00000185    0.00000183    0.00147349
     atom    4 type  1   force =     0.00000184   -0.00000182    0.00028396
     The non-local contrib.  to forces
     atom    1 type  1   force =    -0.00000067   -0.00000149   -0.00405181
     atom    2 type  1   force =     0.00000066    0.00000149   -0.00727907
     atom    3 type  1   force =    -0.00000126    0.00000124   -0.00120745
     atom    4 type  1   force =     0.00000122   -0.00000123   -0.00362288
     The ionic contribution  to forces
     atom    1 type  1   force =    -0.00000320   -0.00000725  -15.31591797
     atom    2 type  1   force =     0.00000320    0.00000725  -15.27752601
     atom    3 type  1   force =    -0.00000607    0.00000604   15.28252644
     atom    4 type  1   force =     0.00000607   -0.00000604   15.31091754
     The local contribution  to forces
     atom    1 type  1   force =     0.00000283    0.00000640   15.27843169
     atom    2 type  1   force =    -0.00000283   -0.00000640   15.24182024
     atom    3 type  1   force =     0.00000537   -0.00000534  -15.31869614
     atom    4 type  1   force =    -0.00000535    0.00000534  -15.34576136
     The core correction contribution to forces
     atom    1 type  1   force =     0.00000006    0.00000013    0.00018070
     atom    2 type  1   force =    -0.00000006   -0.00000013    0.00017272
     atom    3 type  1   force =     0.00000011   -0.00000011    0.00001138
     atom    4 type  1   force =    -0.00000011    0.00000011    0.00000011
     The Hubbard contrib.    to forces
     atom    1 type  1   force =     0.00000000    0.00000000    0.00000000
     atom    2 type  1   force =     0.00000000    0.00000000    0.00000000
     atom    3 type  1   force =     0.00000000    0.00000000    0.00000000
     atom    4 type  1   force =     0.00000000    0.00000000    0.00000000
     The SCF correction term to forces
     atom    1 type  1   force =     0.00000000   -0.00000000   -0.00000411
     atom    2 type  1   force =     0.00000000   -0.00000001   -0.00000416
     atom    3 type  1   force =     0.00000000    0.00000000    0.00000475
     atom    4 type  1   force =    -0.00000000    0.00000000    0.00000474

     DFT-D3 dispersion contribution to forces:
     atom    1 type  1   force =     0.00000000    0.00000000    0.00125432
     atom    2 type  1   force =    -0.00000000   -0.00000000    0.00116568
     atom    3 type  1   force =     0.00000000   -0.00000000   -0.00116565
     atom    4 type  1   force =    -0.00000000    0.00000000   -0.00125436

     Total force =     0.002233     Total SCF correction =     0.000009

     DFT-D3 dispersion Force =     0.002422
     Energy error            =      1.7E-05 Ry
     Gradient error          =      1.7E-03 Ry/Bohr

     number of scf cycles    =   6
     number of bfgs steps    =   5

     energy             old  =     -48.2077494160 Ry
     energy             new  =     -48.2077659438 Ry

     CASE: energy            _new < energy            _old

     new trust radius        =       0.0077208721 bohr
     new conv_thr            =            1.0E-10 Ry


ATOMIC_POSITIONS (angstrom)
C               -0.0000015680       -0.0000017274        9.9886232942
C                1.2299990218        0.7101406636        9.9908037113
C                1.2300008009        0.7101424049       13.3594489014
C                0.0000017452        1.4202819833       13.3611240931



     Writing config-only to output data dir /home/ubuntu/projects/Graphene-Band-Structure-Quantum-Espresso/outputs/field_0.005/data/field_0.005.save/ :
     XML data file
     NEW-OLD atomic charge density approx. for the potential

     negative rho (up, down):  7.409E-07 0.000E+00

     Adding external electric field
        E field amplitude [Ha a.u.]:  5.0000E-03
        Potential amp.        0.3971 Ry
        Total length         39.7126 bohr


     total cpu time spent up to now is      175.2 secs

     Self-consistent Calculation

     iteration #  1     ecut=    90.00 Ry     beta= 0.70
     Davidson diagonalization with overlap

---- Real-time Memory Report at c_bands before calling an iterative solver
           153 MiB given to the printing process from OS
             0 MiB allocation reported by mallinfo(arena+hblkhd)
         29322 MiB available memory on the node where the printing process lives
------------------
     ethr =  1.00E-06,  avg # of iterations =  4.0

     negative rho (up, down):  2.005E-07 0.000E+00

     total cpu time spent up to now is      181.3 secs

     total energy              =     -48.20777350 Ry
     estimated scf accuracy    <       0.00004525 Ry

     iteration #  2     ecut=    90.00 Ry     beta= 0.70
     Davidson diagonalization with overlap

---- Real-time Memory Report at c_bands before calling an iterative solver
           153 MiB given to the printing process from OS
             0 MiB allocation reported by mallinfo(arena+hblkhd)
         29280 MiB available memory on the node where the printing process lives
------------------
     ethr =  2.83E-07,  avg # of iterations =  2.1

     negative rho (up, down):  1.219E-07 0.000E+00

     total cpu time spent up to now is      185.3 secs

     total energy              =     -48.20778048 Ry
     estimated scf accuracy    <       0.00003925 Ry

     iteration #  3     ecut=    90.00 Ry     beta= 0.70
     Davidson diagonalization with overlap

---- Real-time Memory Report at c_bands before calling an iterative solver
           153 MiB given to the printing process from OS
             0 MiB allocation reported by mallinfo(arena+hblkhd)
         29262 MiB available memory on the node where the printing process lives
------------------
     ethr =  2.45E-07,  avg # of iterations =  2.0

     negative rho (up, down):  1.648E-08 0.000E+00

     total cpu time spent up to now is      189.0 secs

     total energy              =     -48.20778971 Ry
     estimated scf accuracy    <       0.00000069 Ry

     iteration #  4     ecut=    90.00 Ry     beta= 0.70
     Davidson diagonalization with overlap

---- Real-time Memory Report at c_bands before calling an iterative solver
           153 MiB given to the printing process from OS
             0 MiB allocation reported by mallinfo(arena+hblkhd)
         29286 MiB available memory on the node where the printing process lives
------------------
     ethr =  4.29E-09,  avg # of iterations =  2.0

     negative rho (up, down):  1.110E-08 0.000E+00

     total cpu time spent up to now is      192.0 secs

     total energy              =     -48.20778979 Ry
     estimated scf accuracy    <       0.00000027 Ry

     iteration #  5     ecut=    90.00 Ry     beta= 0.70
     Davidson diagonalization with overlap

---- Real-time Memory Report at c_bands before calling an iterative solver
           153 MiB given to the printing process from OS
             0 MiB allocation reported by mallinfo(arena+hblkhd)
         29283 MiB available memory on the node where the printing process lives
------------------
     ethr =  1.67E-09,  avg # of iterations =  1.7

     total cpu time spent up to now is      194.8 secs

     total energy              =     -48.20778984 Ry
     estimated scf accuracy    <       0.00000001 Ry

     iteration #  6     ecut=    90.00 Ry     beta= 0.70
     Davidson diagonalization with overlap

---- Real-time Memory Report at c_bands before calling an iterative solver
           153 MiB given to the printing process from OS
             0 MiB allocation reported by mallinfo(arena+hblkhd)
         29288 MiB available memory on the node where the printing process lives
------------------
     ethr =  6.71E-11,  avg # of iterations =  2.3

     total cpu time spent up to now is      198.5 secs

     total energy              =     -48.20778984 Ry
     estimated scf accuracy    <          3.0E-10 Ry

     iteration #  7     ecut=    90.00 Ry     beta= 0.70
     Davidson diagonalization with overlap

---- Real-time Memory Report at c_bands before calling an iterative solver
           153 MiB given to the printing process from OS
             0 MiB allocation reported by mallinfo(arena+hblkhd)
         29299 MiB available memory on the node where the printing process lives
------------------
     ethr =  1.87E-12,  avg # of iterations =  3.1

     total cpu time spent up to now is      202.0 secs

     End of self-consistent calculation

          k = 0.0000 0.0000 0.0000 ( 11659 PWs)   bands (ev):

   -20.3810 -20.1877  -8.8349  -7.8747  -3.7981  -3.7981  -3.6777  -3.6776
     1.6917   2.3035   3.3490   3.7383   5.0290   6.1622

     occupation numbers 
     1.0000   1.0000   1.0000   1.0000   1.0000   1.0000   1.0000   1.0000
     0.0000   0.0000   0.0000   0.0000   0.0000   0.0000

          k = 0.0000 0.0770 0.0000 ( 11791 PWs)   bands (ev):

   -20.2753 -20.0827  -8.7067  -7.7504  -4.2246  -4.1033  -4.0229  -3.9020
     1.8388   2.4479   3.4912   3.8821   5.1707   6.3003

     occupation numbers 
     1.0000   1.0000   1.0000   1.0000   1.0000   1.0000   1.0000   1.0000
     0.0000   0.0000   0.0000   0.0000   0.0000   0.0000

          k = 0.0000 0.1540 0.0000 ( 11788 PWs)   bands (ev):

   -19.9589 -19.7685  -8.3242  -7.3799  -5.3583  -5.2346  -4.5926  -4.4708
     2.2799   2.8808   3.9177   4.3133   5.5955   6.7117

     occupation numbers 
     1.0000   1.0000   1.0000   1.0000   1.0000   1.0000   1.0000   1.0000
     0.0000   0.0000   0.0000   0.0000   0.0000   0.0000

          k = 0.0000 0.2309 0.0000 ( 11848 PWs)   bands (ev):

   -19.4341 -19.2472  -7.6938  -6.9147  -6.7890  -6.7682  -5.3050  -5.1824
     3.0151   3.6013   4.6271   5.0297   6.2973   7.3484

     occupation numbers 
     1.0000   1.0000   1.0000   1.0000   1.0000   1.0000   1.0000   1.0000
     0.0000   0.0000   0.0000   0.0000   0.0000   0.0000

          k = 0.0000 0.3079 0.0000 ( 11876 PWs)   bands (ev):

   -18.7050 -18.5230  -8.6568  -8.5236  -6.8290  -5.9984  -5.9407  -5.8751
     4.0437   4.6037   5.6028   5.8781   6.1186   6.3113

     occupation numbers 
     1.0000   1.0000   1.0000   1.0000   1.0000   1.0000   1.0000   1.0000
     0.0000   0.0000   0.0000   0.0000   0.0000   0.0000

          k = 0.0000 0.3849 0.0000 ( 11914 PWs)   bands (ev):

   -17.7791 -17.6030 -10.4325 -10.2929  -6.5753  -6.4515  -5.7594  -4.9277
     4.0215   4.4872   5.3684   5.9065   6.8440   7.0497

     occupation numbers 
     1.0000   1.0000   1.0000   1.0000   1.0000   1.0000   1.0000   1.0000
     0.0000   0.0000   0.0000   0.0000   0.0000   0.0000

          k = 0.0000 0.4619 0.0000 ( 11910 PWs)   bands (ev):

   -16.6721 -16.5033 -12.1420 -11.9959  -6.9823  -6.8582  -4.5597  -3.8354
     2.2443   2.7582   6.8282   6.9838   7.0533   7.4963

     occupation numbers 
     1.0000   1.0000   1.0000   1.0000   1.0000   1.0000   1.0000   1.0000
     0.0000   0.0000   0.0000   0.0000   0.0000   0.0000

          k = 0.0000 0.5389 0.0000 ( 11924 PWs)   bands (ev):

   -15.4572 -15.3014 -13.6621 -13.5151  -7.1918  -7.0675  -3.4906  -3.0109
     1.0175   1.4452   6.7282   6.9601   8.8882   9.3212

     occupation numbers 
     1.0000   1.0000   1.0000   1.0000   1.0000   1.0000   1.0000   1.0000
     0.0000   0.0000   0.0000   0.0000   0.0000   0.0000

          k = 0.0667 0.0385 0.0000 ( 11791 PWs)   bands (ev):

   -20.2753 -20.0827  -8.7067  -7.7504  -4.2245  -4.1033  -4.0229  -3.9020
     1.8388   2.4479   3.4912   3.8821   5.1707   6.3003

     occupation numbers 
     1.0000   1.0000   1.0000   1.0000   1.0000   1.0000   1.0000   1.0000
     0.0000   0.0000   0.0000   0.0000   0.0000   0.0000

          k = 0.0667 0.1155 0.0000 ( 11813 PWs)   bands (ev):

   -20.0643 -19.8731  -8.4514  -7.5030  -4.9523  -4.8307  -4.4721  -4.3511
     2.1329   2.7366   3.7757   4.1697   5.4543   6.5760

     occupation numbers 
     1.0000   1.0000   1.0000   1.0000   1.0000   1.0000   1.0000   1.0000
     0.0000   0.0000   0.0000   0.0000   0.0000   0.0000

          k = 0.0667 0.1925 0.0000 ( 11832 PWs)   bands (ev):

   -19.6437 -19.4554  -7.9447  -7.0130  -6.2073  -6.0829  -5.2047  -5.0825
     2.7211   3.3135   4.3442   4.7441   6.0200   7.1210

     occupation numbers 
     1.0000   1.0000   1.0000   1.0000   1.0000   1.0000   1.0000   1.0000
     0.0000   0.0000   0.0000   0.0000   0.0000   0.0000

          k = 0.0667 0.2694 0.0000 ( 11880 PWs)   bands (ev):

   -19.0167 -18.8326  -7.7978  -7.6685  -7.1960  -6.2918  -5.9682  -5.8446
     3.6031   4.1767   5.1936   5.5992   6.7647   6.8380

     occupation numbers 
     1.0000   1.0000   1.0000   1.0000   1.0000   1.0000   1.0000   1.0000
     0.0000   0.0000   0.0000   0.0000   0.0000   0.0000

          k = 0.0667 0.3464 0.0000 ( 11910 PWs)   bands (ev):

   -18.1891 -18.0104  -9.5261  -9.3905  -6.6347  -6.5101  -6.2252  -5.3649
     4.7696   4.8993   5.2879   5.3578   6.3243   6.7593

     occupation numbers 
     1.0000   1.0000   1.0000   1.0000   1.0000   1.0000   1.0000   1.0000
     0.0000   0.0000   0.0000   0.0000   0.0000   0.0000

          k = 0.0667 0.4234 0.0000 ( 11938 PWs)   bands (ev):

   -17.1715 -16.9993 -11.2546 -11.1124  -7.1416  -7.0164  -5.0769  -4.2919
     3.0641   3.5404   6.2483   6.7554   7.3925   7.5496

     occupation numbers 
     1.0000   1.0000   1.0000   1.0000   1.0000   1.0000   1.0000   1.0000
     0.0000   0.0000   0.0000   0.0000   0.0000   0.0000

          k = 0.0667 0.5004 0.0000 ( 11920 PWs)   bands (ev):

   -15.9928 -15.8291 -12.8819 -12.7340  -7.4563  -7.3308  -3.8823  -3.2576
     1.4990   1.9745   7.2324   7.4654   8.0097   8.4753

     occupation numbers 
     1.0000   1.0000   1.0000   1.0000   1.0000   1.0000   1.0000   1.0000
     0.0000   0.0000   0.0000   0.0000   0.0000   0.0000

          k = 0.0667 0.5774 0.0000 ( 11913 PWs)   bands (ev):

   -15.0129 -14.8763 -13.9937 -13.8620  -7.5628  -7.4372  -3.1816  -2.8062
     0.8303   1.1778   7.1788   7.4178  10.0461  10.0584

     occupation numbers 
     1.0000   1.0000   1.0000   1.0000   1.0000   1.0000   1.0000   1.0000
     0.0000   0.0000   0.0000   0.0000   0.0000   0.0000

          k = 0.0667-0.5004 0.0000 ( 11920 PWs)   bands (ev):

   -15.9928 -15.8291 -12.8819 -12.7340  -7.4563  -7.3308  -3.8823  -3.2576
     1.4990   1.9745   7.2324   7.4654   8.0097   8.4753

     occupation numbers 
     1.0000   1.0000   1.0000   1.0000   1.0000   1.0000   1.0000   1.0000
     0.0000   0.0000   0.0000   0.0000   0.0000   0.0000

          k = 0.0667-0.4234 0.0000 ( 11938 PWs)   bands (ev):

   -17.1715 -16.9993 -11.2546 -11.1124  -7.1416  -7.0164  -5.0769  -4.2918
     3.0641   3.5404   6.2483   6.7554   7.3925   7.5496

     occupation numbers 
     1.0000   1.0000   1.0000   1.0000   1.0000   1.0000   1.0000   1.0000
     0.0000   0.0000   0.0000   0.0000   0.0000   0.0000

          k = 0.0667-0.3464 0.0000 ( 11910 PWs)   bands (ev):

   -18.1891 -18.0104  -9.5261  -9.3905  -6.6347  -6.5101  -6.2252  -5.3649
     4.7696   4.8993   5.2879   5.3578   6.3243   6.7593

     occupation numbers 
     1.0000   1.0000   1.0000   1.0000   1.0000   1.0000   1.0000   1.0000
     0.0000   0.0000   0.0000   0.0000   0.0000   0.0000

          k = 0.0667-0.2694 0.0000 ( 11880 PWs)   bands (ev):

   -19.0167 -18.8326  -7.7978  -7.6685  -7.1960  -6.2918  -5.9682  -5.8446
     3.6031   4.1767   5.1936   5.5992   6.7647   6.8378

     occupation numbers 
     1.0000   1.0000   1.0000   1.0000   1.0000   1.0000   1.0000   1.0000
     0.0000   0.0000   0.0000   0.0000   0.0000   0.0000

          k = 0.0667-0.1925 0.0000 ( 11832 PWs)   bands (ev):

   -19.6437 -19.4554  -7.9447  -7.0130  -6.2073  -6.0829  -5.2047  -5.0825
     2.7211   3.3135   4.3442   4.7441   6.0200   7.1210

     occupation numbers 
     1.0000   1.0000   1.0000   1.0000   1.0000   1.0000   1.0000   1.0000
     0.0000   0.0000   0.0000   0.0000   0.0000   0.0000

          k = 0.0667-0.1155 0.0000 ( 11813 PWs)   bands (ev):

   -20.0643 -19.8731  -8.4514  -7.5030  -4.9524  -4.8307  -4.4720  -4.3511
     2.1329   2.7366   3.7757   4.1697   5.4543   6.5760

     occupation numbers 
     1.0000   1.0000   1.0000   1.0000   1.0000   1.0000   1.0000   1.0000
     0.0000   0.0000   0.0000   0.0000   0.0000   0.0000

          k = 0.0667-0.0385 0.0000 ( 11791 PWs)   bands (ev):

   -20.2753 -20.0827  -8.7067  -7.7504  -4.2245  -4.1033  -4.0229  -3.9020
     1.8388   2.4479   3.4912   3.8821   5.1707   6.3003

     occupation numbers 
     1.0000   1.0000   1.0000   1.0000   1.0000   1.0000   1.0000   1.0000
     0.0000   0.0000   0.0000   0.0000   0.0000   0.0000

          k = 0.1333 0.0770 0.0000 ( 11788 PWs)   bands (ev):

   -19.9589 -19.7685  -8.3242  -7.3799  -5.3583  -5.2346  -4.5926  -4.4708
     2.2799   2.8808   3.9177   4.3133   5.5955   6.7117

     occupation numbers 
     1.0000   1.0000   1.0000   1.0000   1.0000   1.0000   1.0000   1.0000
     0.0000   0.0000   0.0000   0.0000   0.0000   0.0000

          k = 0.1333 0.1540 0.0000 ( 11832 PWs)   bands (ev):

   -19.6437 -19.4554  -7.9447  -7.0130  -6.2072  -6.0829  -5.2048  -5.0825
     2.7211   3.3135   4.3442   4.7441   6.0200   7.1210

     occupation numbers 
     1.0000   1.0000   1.0000   1.0000   1.0000   1.0000   1.0000   1.0000
     0.0000   0.0000   0.0000   0.0000   0.0000   0.0000

          k = 0.1333 0.2309 0.0000 ( 11879 PWs)   bands (ev):

   -19.1210 -18.9362  -7.3204  -7.3102  -7.1870  -6.4097  -6.1731  -6.0504
     3.4562   4.0339   5.0541   5.4611   6.7258   7.0850

     occupation numbers 
     1.0000   1.0000   1.0000   1.0000   1.0000   1.0000   1.0000   1.0000
     0.0000   0.0000   0.0000   0.0000   0.0000   0.0000

          k = 0.1333 0.3079 0.0000 ( 11929 PWs)   bands (ev):

   -18.3955 -18.2154  -8.7129  -8.5842  -7.0856  -6.9607  -6.4611  -5.5873
     4.4847   5.0362   5.5016   5.7933   6.0456   6.4644

     occupation numbers 
     1.0000   1.0000   1.0000   1.0000   1.0000   1.0000   1.0000   1.0000
     0.0000   0.0000   0.0000   0.0000   0.0000   0.0000

          k = 0.1333 0.3849 0.0000 ( 11925 PWs)   bands (ev):

   -17.4754 -17.3013 -10.3135 -10.1772  -7.7648  -7.6376  -5.3985  -4.5810
     3.7775   4.1531   5.8072   6.3290   7.3023   7.7409

     occupation numbers 
     1.0000   1.0000   1.0000   1.0000   1.0000   1.0000   1.0000   1.0000
     0.0000   0.0000   0.0000   0.0000   0.0000   0.0000

          k = 0.1333 0.4619 0.0000 ( 11927 PWs)   bands (ev):

   -16.3779 -16.2109 -11.9354 -11.7919  -8.2129  -8.0844  -4.2008  -3.4856
     2.1154   2.5494   7.4202   7.8842   8.5396   8.7082

     occupation numbers 
     1.0000   1.0000   1.0000   1.0000   1.0000   1.0000   1.0000   1.0000
     0.0000   0.0000   0.0000   0.0000   0.0000   0.0000

          k = 0.1333 0.5389 0.0000 ( 11935 PWs)   bands (ev):

   -15.1787 -15.0246 -13.4089 -13.2639  -8.4367  -8.3076  -3.1138  -2.6340
     0.9282   1.2756   8.4312   8.6961   9.3196   9.7080

     occupation numbers 
     1.0000   1.0000   1.0000   1.0000   1.0000   1.0000   1.0000   1.0000
     0.0000   0.0000   0.0000   0.0000   0.0000   0.0000

          k = 0.1333 0.6158 0.0000 ( 11935 PWs)   bands (ev):

   -15.1787 -15.0246 -13.4089 -13.2639  -8.4367  -8.3076  -3.1138  -2.6340
     0.9282   1.2756   8.4312   8.6961   9.3196   9.7080

     occupation numbers 
     1.0000   1.0000   1.0000   1.0000   1.0000   1.0000   1.0000   1.0000
     0.0000   0.0000   0.0000   0.0000   0.0000   0.0000

          k = 0.1333-0.4619 0.0000 ( 11927 PWs)   bands (ev):

   -16.3779 -16.2109 -11.9354 -11.7919  -8.2129  -8.0843  -4.2008  -3.4856
     2.1154   2.5494   7.4202   7.8842   8.5396   8.7082

     occupation numbers 
     1.0000   1.0000   1.0000   1.0000   1.0000   1.0000   1.0000   1.0000
     0.0000   0.0000   0.0000   0.0000   0.0000   0.0000

          k = 0.1333-0.3849 0.0000 ( 11925 PWs)   bands (ev):

   -17.4754 -17.3013 -10.3135 -10.1772  -7.7648  -7.6376  -5.3985  -4.5810
     3.7774   4.1531   5.8072   6.3290   7.3023   7.7409

     occupation numbers 
     1.0000   1.0000   1.0000   1.0000   1.0000   1.0000   1.0000   1.0000
     0.0000   0.0000   0.0000   0.0000   0.0000   0.0000

          k = 0.1333-0.3079 0.0000 ( 11929 PWs)   bands (ev):

   -18.3955 -18.2154  -8.7129  -8.5842  -7.0856  -6.9607  -6.4611  -5.5873
     4.4847   5.0362   5.5016   5.7933   6.0456   6.4644

     occupation numbers 
     1.0000   1.0000   1.0000   1.0000   1.0000   1.0000   1.0000   1.0000
     0.0000   0.0000   0.0000   0.0000   0.0000   0.0000

          k = 0.1333-0.2309 0.0000 ( 11879 PWs)   bands (ev):

   -19.1210 -18.9362  -7.3204  -7.3102  -7.1870  -6.4097  -6.1730  -6.0504
     3.4562   4.0339   5.0541   5.4611   6.7258   7.0850

     occupation numbers 
     1.0000   1.0000   1.0000   1.0000   1.0000   1.0000   1.0000   1.0000
     0.0000   0.0000   0.0000   0.0000   0.0000   0.0000

          k = 0.1333-0.1540 0.0000 ( 11832 PWs)   bands (ev):

   -19.6437 -19.4554  -7.9447  -7.0130  -6.2072  -6.0829  -5.2047  -5.0825
     2.7211   3.3135   4.3442   4.7441   6.0200   7.1210

     occupation numbers 
     1.0000   1.0000   1.0000   1.0000   1.0000   1.0000   1.0000   1.0000
     0.0000   0.0000   0.0000   0.0000   0.0000   0.0000

          k = 0.1333-0.0770 0.0000 ( 11788 PWs)   bands (ev):

   -19.9589 -19.7685  -8.3242  -7.3799  -5.3583  -5.2346  -4.5926  -4.4708
     2.2799   2.8808   3.9177   4.3133   5.5955   6.7117

     occupation numbers 
     1.0000   1.0000   1.0000   1.0000   1.0000   1.0000   1.0000   1.0000
     0.0000   0.0000   0.0000   0.0000   0.0000   0.0000

          k = 0.1333 0.0000 0.0000 ( 11813 PWs)   bands (ev):

   -20.0643 -19.8731  -8.4514  -7.5030  -4.9523  -4.8307  -4.4721  -4.3511
     2.1329   2.7366   3.7757   4.1697   5.4543   6.5760

     occupation numbers 
     1.0000   1.0000   1.0000   1.0000   1.0000   1.0000   1.0000   1.0000
     0.0000   0.0000   0.0000   0.0000   0.0000   0.0000

          k = 0.2000 0.1155 0.0000 ( 11848 PWs)   bands (ev):

   -19.4341 -19.2472  -7.6938  -6.9147  -6.7891  -6.7682  -5.3051  -5.1824
     3.0151   3.6013   4.6271   5.0297   6.2973   7.3484

     occupation numbers 
     1.0000   1.0000   1.0000   1.0000   1.0000   1.0000   1.0000   1.0000
     0.0000   0.0000   0.0000   0.0000   0.0000   0.0000

          k = 0.2000 0.1925 0.0000 ( 11880 PWs)   bands (ev):

   -19.0167 -18.8326  -7.7978  -7.6685  -7.1960  -6.2918  -5.9682  -5.8446
     3.6031   4.1767   5.1936   5.5992   6.7647   6.8381

     occupation numbers 
     1.0000   1.0000   1.0000   1.0000   1.0000   1.0000   1.0000   1.0000
     0.0000   0.0000   0.0000   0.0000   0.0000   0.0000

          k = 0.2000 0.2694 0.0000 ( 11929 PWs)   bands (ev):

   -18.3955 -18.2154  -8.7129  -8.5842  -7.0856  -6.9607  -6.4611  -5.5873
     4.4847   5.0362   5.5016   5.7933   6.0456   6.4644

     occupation numbers 
     1.0000   1.0000   1.0000   1.0000   1.0000   1.0000   1.0000   1.0000
     0.0000   0.0000   0.0000   0.0000   0.0000   0.0000

          k = 0.2000 0.3464 0.0000 ( 11953 PWs)   bands (ev):

   -17.5773 -17.4025  -9.7283  -9.6013  -8.2647  -8.1396  -5.5074  -4.6797
     4.0876   4.3845   5.6597   6.1826   7.1634   7.5921

     occupation numbers 
     1.0000   1.0000   1.0000   1.0000   1.0000   1.0000   1.0000   1.0000
     0.0000   0.0000   0.0000   0.0000   0.0000   0.0000

          k = 0.2000 0.4234 0.0000 ( 11949 PWs)   bands (ev):

   -16.5751 -16.4068 -11.0198 -10.8859  -9.0903  -8.9615  -4.3741  -3.6185
     2.5831   2.9219   7.1256   7.5967   8.5282   8.9789

     occupation numbers 
     1.0000   1.0000   1.0000   1.0000   1.0000   1.0000   1.0000   1.0000
     0.0000   0.0000   0.0000   0.0000   0.0000   0.0000

          k = 0.2000 0.5004 0.0000 ( 11953 PWs)   bands (ev):

   -15.4218 -15.2618 -12.4562 -12.3138  -9.5203  -9.3882  -3.1687  -2.5522
     1.1857   1.5390   8.8729   9.2475   9.9580  10.1527

     occupation numbers 
     1.0000   1.0000   1.0000   1.0000   1.0000   1.0000   1.0000   1.0000
     0.0000   0.0000   0.0000   0.0000   0.0000   0.0000

          k = 0.2000 0.5774 0.0000 ( 11949 PWs)   bands (ev):

   -14.4725 -14.3373 -13.4970 -13.3676  -9.6541  -9.5210  -2.4112  -2.0431
     0.5566   0.7227  10.0250  10.3277  10.5738  10.7687

     occupation numbers 
     1.0000   1.0000   1.0000   1.0000   1.0000   1.0000   1.0000   1.0000
     0.0000   0.0000   0.0000   0.0000   0.0000   0.0000

          k = 0.2000 0.6543 0.0000 ( 11953 PWs)   bands (ev):

   -15.4218 -15.2618 -12.4562 -12.3138  -9.5203  -9.3882  -3.1687  -2.5522
     1.1857   1.5390   8.8729   9.2475   9.9580  10.1527

     occupation numbers 
     1.0000   1.0000   1.0000   1.0000   1.0000   1.0000   1.0000   1.0000
     0.0000   0.0000   0.0000   0.0000   0.0000   0.0000

          k = 0.2000-0.4234 0.0000 ( 11949 PWs)   bands (ev):

   -16.5751 -16.4068 -11.0198 -10.8859  -9.0903  -8.9615  -4.3741  -3.6185
     2.5831   2.9219   7.1256   7.5967   8.5282   8.9789

     occupation numbers 
     1.0000   1.0000   1.0000   1.0000   1.0000   1.0000   1.0000   1.0000
     0.0000   0.0000   0.0000   0.0000   0.0000   0.0000

          k = 0.2000-0.3464 0.0000 ( 11953 PWs)   bands (ev):

   -17.5773 -17.4025  -9.7283  -9.6013  -8.2646  -8.1396  -5.5074  -4.6797
     4.0876   4.3845   5.6597   6.1826   7.1634   7.5921

     occupation numbers 
     1.0000   1.0000   1.0000   1.0000   1.0000   1.0000   1.0000   1.0000
     0.0000   0.0000   0.0000   0.0000   0.0000   0.0000

          k = 0.2000-0.2694 0.0000 ( 11929 PWs)   bands (ev):

   -18.3955 -18.2154  -8.7129  -8.5842  -7.0856  -6.9607  -6.4611  -5.5873
     4.4847   5.0362   5.5016   5.7933   6.0456   6.4644

     occupation numbers 
     1.0000   1.0000   1.0000   1.0000   1.0000   1.0000   1.0000   1.0000
     0.0000   0.0000   0.0000   0.0000   0.0000   0.0000

          k = 0.2000-0.1925 0.0000 ( 11880 PWs)   bands (ev):

   -19.0167 -18.8326  -7.7978  -7.6685  -7.1960  -6.2918  -5.9682  -5.8446
     3.6031   4.1767   5.1936   5.5992   6.7648   6.8381

     occupation numbers 
     1.0000   1.0000   1.0000   1.0000   1.0000   1.0000   1.0000   1.0000
     0.0000   0.0000   0.0000   0.0000   0.0000   0.0000

          k = 0.2000-0.1155 0.0000 ( 11848 PWs)   bands (ev):

   -19.4341 -19.2472  -7.6938  -6.9147  -6.7891  -6.7682  -5.3050  -5.1823
     3.0151   3.6013   4.6271   5.0297   6.2973   7.3484

     occupation numbers 
     1.0000   1.0000   1.0000   1.0000   1.0000   1.0000   1.0000   1.0000
     0.0000   0.0000   0.0000   0.0000   0.0000   0.0000

          k = 0.2000-0.0385 0.0000 ( 11832 PWs)   bands (ev):

   -19.6437 -19.4554  -7.9447  -7.0130  -6.2072  -6.0829  -5.2048  -5.0825
     2.7211   3.3135   4.3442   4.7441   6.0200   7.1210

     occupation numbers 
     1.0000   1.0000   1.0000   1.0000   1.0000   1.0000   1.0000   1.0000
     0.0000   0.0000   0.0000   0.0000   0.0000   0.0000

          k = 0.2000 0.0385 0.0000 ( 11832 PWs)   bands (ev):

   -19.6437 -19.4554  -7.9447  -7.0130  -6.2072  -6.0829  -5.2048  -5.0825
     2.7211   3.3135   4.3442   4.7441   6.0200   7.1210

     occupation numbers 
     1.0000   1.0000   1.0000   1.0000   1.0000   1.0000   1.0000   1.0000
     0.0000   0.0000   0.0000   0.0000   0.0000   0.0000

          k = 0.2667 0.1540 0.0000 ( 11876 PWs)   bands (ev):

   -18.7050 -18.5230  -8.6568  -8.5236  -6.8290  -5.9984  -5.9407  -5.8751
     4.0437   4.6037   5.6028   5.8781   6.1186   6.3113

     occupation numbers 
     1.0000   1.0000   1.0000   1.0000   1.0000   1.0000   1.0000   1.0000
     0.0000   0.0000   0.0000   0.0000   0.0000   0.0000

          k = 0.2667 0.2309 0.0000 ( 11910 PWs)   bands (ev):

   -18.1891 -18.0104  -9.5261  -9.3905  -6.6347  -6.5101  -6.2252  -5.3649
     4.7696   4.8993   5.2879   5.3578   6.3243   6.7593

     occupation numbers 
     1.0000   1.0000   1.0000   1.0000   1.0000   1.0000   1.0000   1.0000
     0.0000   0.0000   0.0000   0.0000   0.0000   0.0000

          k = 0.2667 0.3079 0.0000 ( 11925 PWs)   bands (ev):

   -17.4754 -17.3013 -10.3135 -10.1772  -7.7648  -7.6376  -5.3985  -4.5810
     3.7775   4.1531   5.8072   6.3290   7.3023   7.7409

     occupation numbers 
     1.0000   1.0000   1.0000   1.0000   1.0000   1.0000   1.0000   1.0000
     0.0000   0.0000   0.0000   0.0000   0.0000   0.0000

          k = 0.2667 0.3849 0.0000 ( 11949 PWs)   bands (ev):

   -16.5751 -16.4068 -11.0198 -10.8859  -9.0903  -8.9615  -4.3741  -3.6185
     2.5831   2.9219   7.1256   7.5967   8.5282   8.9789

     occupation numbers 
     1.0000   1.0000   1.0000   1.0000   1.0000   1.0000   1.0000   1.0000
     0.0000   0.0000   0.0000   0.0000   0.0000   0.0000

          k = 0.2667 0.4619 0.0000 ( 11961 PWs)   bands (ev):

   -15.5111 -15.3499 -11.7999 -11.6698 -10.2207 -10.0935  -3.2015  -2.5367
     1.3323   1.6667   8.7231   9.0933   9.8276  10.2964

     occupation numbers 
     1.0000   1.0000   1.0000   1.0000   1.0000   1.0000   1.0000   1.0000
     0.0000   0.0000   0.0000   0.0000   0.0000   0.0000

          k = 0.2667 0.5389 0.0000 ( 11948 PWs)   bands (ev):

   -14.3622 -14.2126 -12.8539 -12.7183 -10.7665 -10.6350  -2.0398  -1.5526
     0.2206   0.5182   9.9722  10.2383  10.6800  10.9920

     occupation numbers 
     1.0000   1.0000   1.0000   1.0000   1.0000   1.0000   1.0000   1.0000
     0.0000   0.0000   0.0000   0.0000   0.0000   0.0000

          k = 0.2667 0.6158 0.0000 ( 11948 PWs)   bands (ev):

   -14.3622 -14.2126 -12.8539 -12.7183 -10.7665 -10.6350  -2.0398  -1.5526
     0.2206   0.5182   9.9722  10.2384  10.6800  10.9920

     occupation numbers 
     1.0000   1.0000   1.0000   1.0000   1.0000   1.0000   1.0000   1.0000
     0.0000   0.0000   0.0000   0.0000   0.0000   0.0000

          k = 0.2667 0.6928 0.0000 ( 11961 PWs)   bands (ev):

   -15.5111 -15.3499 -11.7999 -11.6698 -10.2207 -10.0935  -3.2015  -2.5367
     1.3323   1.6667   8.7231   9.0933   9.8276  10.2964

     occupation numbers 
     1.0000   1.0000   1.0000   1.0000   1.0000   1.0000   1.0000   1.0000
     0.0000   0.0000   0.0000   0.0000   0.0000   0.0000

          k = 0.2667-0.3849 0.0000 ( 11949 PWs)   bands (ev):

   -16.5751 -16.4068 -11.0198 -10.8859  -9.0903  -8.9615  -4.3741  -3.6185
     2.5831   2.9219   7.1256   7.5967   8.5282   8.9789

     occupation numbers 
     1.0000   1.0000   1.0000   1.0000   1.0000   1.0000   1.0000   1.0000
     0.0000   0.0000   0.0000   0.0000   0.0000   0.0000

          k = 0.2667-0.3079 0.0000 ( 11925 PWs)   bands (ev):

   -17.4754 -17.3013 -10.3135 -10.1772  -7.7648  -7.6375  -5.3985  -4.5810
     3.7774   4.1531   5.8072   6.3290   7.3023   7.7409

     occupation numbers 
     1.0000   1.0000   1.0000   1.0000   1.0000   1.0000   1.0000   1.0000
     0.0000   0.0000   0.0000   0.0000   0.0000   0.0000

          k = 0.2667-0.2309 0.0000 ( 11910 PWs)   bands (ev):

   -18.1891 -18.0104  -9.5261  -9.3905  -6.6347  -6.5101  -6.2252  -5.3649
     4.7696   4.8993   5.2879   5.3578   6.3243   6.7593

     occupation numbers 
     1.0000   1.0000   1.0000   1.0000   1.0000   1.0000   1.0000   1.0000
     0.0000   0.0000   0.0000   0.0000   0.0000   0.0000

          k = 0.2667-0.1540 0.0000 ( 11876 PWs)   bands (ev):

   -18.7050 -18.5230  -8.6568  -8.5236  -6.8290  -5.9984  -5.9407  -5.8750
     4.0437   4.6037   5.6028   5.8781   6.1186   6.3113

     occupation numbers 
     1.0000   1.0000   1.0000   1.0000   1.0000   1.0000   1.0000   1.0000
     0.0000   0.0000   0.0000   0.0000   0.0000   0.0000

          k = 0.2667-0.0770 0.0000 ( 11880 PWs)   bands (ev):

   -19.0167 -18.8326  -7.7978  -7.6685  -7.1960  -6.2918  -5.9682  -5.8446
     3.6031   4.1767   5.1936   5.5992   6.7647   6.8379

     occupation numbers 
     1.0000   1.0000   1.0000   1.0000   1.0000   1.0000   1.0000   1.0000
     0.0000   0.0000   0.0000   0.0000   0.0000   0.0000

          k = 0.2667 0.0000 0.0000 ( 11879 PWs)   bands (ev):

   -19.1210 -18.9362  -7.3204  -7.3102  -7.1870  -6.4097  -6.1731  -6.0504
     3.4562   4.0339   5.0541   5.4611   6.7258   7.0851

     occupation numbers 
     1.0000   1.0000   1.0000   1.0000   1.0000   1.0000   1.0000   1.0000
     0.0000   0.0000   0.0000   0.0000   0.0000   0.0000

          k = 0.2667 0.0770 0.0000 ( 11880 PWs)   bands (ev):

   -19.0167 -18.8326  -7.7978  -7.6685  -7.1960  -6.2918  -5.9682  -5.8446
     3.6031   4.1767   5.1936   5.5992   6.7647   6.8381

     occupation numbers 
     1.0000   1.0000   1.0000   1.0000   1.0000   1.0000   1.0000   1.0000
     0.0000   0.0000   0.0000   0.0000   0.0000   0.0000

          k = 0.3333 0.1925 0.0000 ( 11914 PWs)   bands (ev):

   -17.7791 -17.6030 -10.4324 -10.2929  -6.5753  -6.4515  -5.7594  -4.9277
     4.0215   4.4872   5.3684   5.9065   6.8440   7.0497

     occupation numbers 
     1.0000   1.0000   1.0000   1.0000   1.0000   1.0000   1.0000   1.0000
     0.0000   0.0000   0.0000   0.0000   0.0000   0.0000

          k = 0.3333 0.2694 0.0000 ( 11938 PWs)   bands (ev):

   -17.1715 -16.9993 -11.2546 -11.1124  -7.1416  -7.0164  -5.0769  -4.2919
     3.0641   3.5404   6.2483   6.7554   7.3925   7.5496

     occupation numbers 
     1.0000   1.0000   1.0000   1.0000   1.0000   1.0000   1.0000   1.0000
     0.0000   0.0000   0.0000   0.0000   0.0000   0.0000

          k = 0.3333 0.3464 0.0000 ( 11927 PWs)   bands (ev):

   -16.3779 -16.2109 -11.9354 -11.7919  -8.2129  -8.0843  -4.2008  -3.4856
     2.1154   2.5494   7.4202   7.8842   8.5396   8.7082

     occupation numbers 
     1.0000   1.0000   1.0000   1.0000   1.0000   1.0000   1.0000   1.0000
     0.0000   0.0000   0.0000   0.0000   0.0000   0.0000

          k = 0.3333 0.4234 0.0000 ( 11953 PWs)   bands (ev):

   -15.4218 -15.2618 -12.4562 -12.3138  -9.5203  -9.3882  -3.1687  -2.5522
     1.1858   1.5390   8.8729   9.2475   9.9580  10.1527

     occupation numbers 
     1.0000   1.0000   1.0000   1.0000   1.0000   1.0000   1.0000   1.0000
     0.0000   0.0000   0.0000   0.0000   0.0000   0.0000

          k = 0.3333 0.5004 0.0000 ( 11948 PWs)   bands (ev):

   -14.3622 -14.2126 -12.8539 -12.7183 -10.7665 -10.6350  -2.0398  -1.5526
     0.2206   0.5182   9.9722  10.2383  10.6800  10.9920

     occupation numbers 
     1.0000   1.0000   1.0000   1.0000   1.0000   1.0000   1.0000   1.0000
     0.0000   0.0000   0.0000   0.0000   0.0000   0.0000

          k = 0.3333 0.5774 0.0000 ( 11919 PWs)   bands (ev):

   -13.4080 -13.3899 -13.2661 -13.2524 -11.3867 -11.2617  -1.0266  -0.7697
    -0.6290  -0.3535   9.8293  10.0360  11.9243  12.2651

     occupation numbers 
     1.0000   1.0000   1.0000   1.0000   1.0000   1.0000   0.9997   0.7679
     0.2323   0.0002   0.0000   0.0000   0.0000   0.0000

          k = 0.3333 0.6543 0.0000 ( 11948 PWs)   bands (ev):

   -14.3622 -14.2126 -12.8539 -12.7183 -10.7665 -10.6350  -2.0398  -1.5526
     0.2206   0.5182   9.9722  10.2384  10.6800  10.9920

     occupation numbers 
     1.0000   1.0000   1.0000   1.0000   1.0000   1.0000   1.0000   1.0000
     0.0000   0.0000   0.0000   0.0000   0.0000   0.0000

          k = 0.3333 0.7313 0.0000 ( 11953 PWs)   bands (ev):

   -15.4218 -15.2618 -12.4562 -12.3138  -9.5203  -9.3882  -3.1687  -2.5522
     1.1857   1.5390   8.8729   9.2475   9.9580  10.1527

     occupation numbers 
     1.0000   1.0000   1.0000   1.0000   1.0000   1.0000   1.0000   1.0000
     0.0000   0.0000   0.0000   0.0000   0.0000   0.0000

          k = 0.3333-0.3464 0.0000 ( 11927 PWs)   bands (ev):

   -16.3779 -16.2109 -11.9354 -11.7919  -8.2129  -8.0843  -4.2008  -3.4856
     2.1154   2.5494   7.4202   7.8842   8.5396   8.7082

     occupation numbers 
     1.0000   1.0000   1.0000   1.0000   1.0000   1.0000   1.0000   1.0000
     0.0000   0.0000   0.0000   0.0000   0.0000   0.0000

          k = 0.3333-0.2694 0.0000 ( 11938 PWs)   bands (ev):

   -17.1715 -16.9993 -11.2546 -11.1124  -7.1416  -7.0164  -5.0769  -4.2918
     3.0641   3.5404   6.2483   6.7554   7.3925   7.5496

     occupation numbers 
     1.0000   1.0000   1.0000   1.0000   1.0000   1.0000   1.0000   1.0000
     0.0000   0.0000   0.0000   0.0000   0.0000   0.0000

          k = 0.3333-0.1925 0.0000 ( 11914 PWs)   bands (ev):

   -17.7791 -17.6030 -10.4324 -10.2929  -6.5753  -6.4515  -5.7594  -4.9277
     4.0215   4.4872   5.3684   5.9065   6.8440   7.0497

     occupation numbers 
     1.0000   1.0000   1.0000   1.0000   1.0000   1.0000   1.0000   1.0000
     0.0000   0.0000   0.0000   0.0000   0.0000   0.0000

          k = 0.3333-0.1155 0.0000 ( 11910 PWs)   bands (ev):

   -18.1891 -18.0104  -9.5261  -9.3905  -6.6347  -6.5101  -6.2252  -5.3649
     4.7696   4.8993   5.2879   5.3578   6.3243   6.7593

     occupation numbers 
     1.0000   1.0000   1.0000   1.0000   1.0000   1.0000   1.0000   1.0000
     0.0000   0.0000   0.0000   0.0000   0.0000   0.0000

          k = 0.3333-0.0385 0.0000 ( 11929 PWs)   bands (ev):

   -18.3955 -18.2154  -8.7129  -8.5842  -7.0856  -6.9607  -6.4611  -5.5873
     4.4847   5.0362   5.5016   5.7933   6.0456   6.4644

     occupation numbers 
     1.0000   1.0000   1.0000   1.0000   1.0000   1.0000   1.0000   1.0000
     0.0000   0.0000   0.0000   0.0000   0.0000   0.0000

          k = 0.3333 0.0385 0.0000 ( 11929 PWs)   bands (ev):

   -18.3955 -18.2154  -8.7129  -8.5842  -7.0856  -6.9607  -6.4611  -5.5873
     4.4847   5.0362   5.5016   5.7933   6.0456   6.4644

     occupation numbers 
     1.0000   1.0000   1.0000   1.0000   1.0000   1.0000   1.0000   1.0000
     0.0000   0.0000   0.0000   0.0000   0.0000   0.0000

          k = 0.3333 0.1155 0.0000 ( 11910 PWs)   bands (ev):

   -18.1891 -18.0104  -9.5261  -9.3905  -6.6347  -6.5101  -6.2252  -5.3649
     4.7696   4.8993   5.2879   5.3578   6.3243   6.7593

     occupation numbers 
     1.0000   1.0000   1.0000   1.0000   1.0000   1.0000   1.0000   1.0000
     0.0000   0.0000   0.0000   0.0000   0.0000   0.0000

          k = 0.4000 0.2309 0.0000 ( 11910 PWs)   bands (ev):

   -16.6721 -16.5033 -12.1419 -11.9959  -6.9824  -6.8582  -4.5597  -3.8354
     2.2443   2.7582   6.8282   6.9838   7.0533   7.4963

     occupation numbers 
     1.0000   1.0000   1.0000   1.0000   1.0000   1.0000   1.0000   1.0000
     0.0000   0.0000   0.0000   0.0000   0.0000   0.0000

          k = 0.4000 0.3079 0.0000 ( 11920 PWs)   bands (ev):

   -15.9928 -15.8291 -12.8819 -12.7340  -7.4563  -7.3308  -3.8823  -3.2576
     1.4990   1.9745   7.2324   7.4654   8.0097   8.4753

     occupation numbers 
     1.0000   1.0000   1.0000   1.0000   1.0000   1.0000   1.0000   1.0000
     0.0000   0.0000   0.0000   0.0000   0.0000   0.0000

          k = 0.4000 0.3849 0.0000 ( 11935 PWs)   bands (ev):

   -15.1787 -15.0246 -13.4089 -13.2639  -8.4367  -8.3076  -3.1138  -2.6340
     0.9282   1.2756   8.4312   8.6961   9.3196   9.7080

     occupation numbers 
     1.0000   1.0000   1.0000   1.0000   1.0000   1.0000   1.0000   1.0000
     0.0000   0.0000   0.0000   0.0000   0.0000   0.0000

          k = 0.4000 0.4619 0.0000 ( 11949 PWs)   bands (ev):

   -14.4725 -14.3373 -13.4969 -13.3676  -9.6541  -9.5210  -2.4112  -2.0431
     0.5566   0.7227  10.0250  10.3277  10.5738  10.7687

     occupation numbers 
     1.0000   1.0000   1.0000   1.0000   1.0000   1.0000   1.0000   1.0000
     0.0000   0.0000   0.0000   0.0000   0.0000   0.0000

          k = 0.4000 0.5389 0.0000 ( 11948 PWs)   bands (ev):

   -14.3622 -14.2126 -12.8539 -12.7183 -10.7665 -10.6350  -2.0398  -1.5526
     0.2206   0.5182   9.9722  10.2384  10.6800  10.9920

     occupation numbers 
     1.0000   1.0000   1.0000   1.0000   1.0000   1.0000   1.0000   1.0000
     0.0000   0.0000   0.0000   0.0000   0.0000   0.0000

          k = 0.4000 0.6158 0.0000 ( 11948 PWs)   bands (ev):

   -14.3622 -14.2126 -12.8539 -12.7183 -10.7665 -10.6350  -2.0398  -1.5526
     0.2206   0.5182   9.9722  10.2384  10.6800  10.9920

     occupation numbers 
     1.0000   1.0000   1.0000   1.0000   1.0000   1.0000   1.0000   1.0000
     0.0000   0.0000   0.0000   0.0000   0.0000   0.0000

          k = 0.4000 0.6928 0.0000 ( 11949 PWs)   bands (ev):

   -14.4725 -14.3373 -13.4969 -13.3676  -9.6541  -9.5210  -2.4112  -2.0431
     0.5566   0.7227  10.0250  10.3277  10.5738  10.7687

     occupation numbers 
     1.0000   1.0000   1.0000   1.0000   1.0000   1.0000   1.0000   1.0000
     0.0000   0.0000   0.0000   0.0000   0.0000   0.0000

          k = 0.4000 0.7698 0.0000 ( 11935 PWs)   bands (ev):

   -15.1787 -15.0246 -13.4089 -13.2639  -8.4367  -8.3076  -3.1138  -2.6340
     0.9282   1.2756   8.4312   8.6961   9.3196   9.7080

     occupation numbers 
     1.0000   1.0000   1.0000   1.0000   1.0000   1.0000   1.0000   1.0000
     0.0000   0.0000   0.0000   0.0000   0.0000   0.0000

          k = 0.4000-0.3079 0.0000 ( 11920 PWs)   bands (ev):

   -15.9928 -15.8291 -12.8819 -12.7340  -7.4563  -7.3308  -3.8823  -3.2576
     1.4990   1.9745   7.2324   7.4654   8.0097   8.4753

     occupation numbers 
     1.0000   1.0000   1.0000   1.0000   1.0000   1.0000   1.0000   1.0000
     0.0000   0.0000   0.0000   0.0000   0.0000   0.0000

          k = 0.4000-0.2309 0.0000 ( 11910 PWs)   bands (ev):

   -16.6721 -16.5033 -12.1419 -11.9959  -6.9824  -6.8582  -4.5597  -3.8354
     2.2443   2.7582   6.8282   6.9838   7.0533   7.4963

     occupation numbers 
     1.0000   1.0000   1.0000   1.0000   1.0000   1.0000   1.0000   1.0000
     0.0000   0.0000   0.0000   0.0000   0.0000   0.0000

          k = 0.4000-0.1540 0.0000 ( 11938 PWs)   bands (ev):

   -17.1715 -16.9993 -11.2546 -11.1124  -7.1416  -7.0164  -5.0769  -4.2918
     3.0641   3.5404   6.2483   6.7554   7.3925   7.5496

     occupation numbers 
     1.0000   1.0000   1.0000   1.0000   1.0000   1.0000   1.0000   1.0000
     0.0000   0.0000   0.0000   0.0000   0.0000   0.0000

          k = 0.4000-0.0770 0.0000 ( 11925 PWs)   bands (ev):

   -17.4754 -17.3013 -10.3135 -10.1772  -7.7648  -7.6375  -5.3985  -4.5810
     3.7775   4.1531   5.8072   6.3290   7.3023   7.7409

     occupation numbers 
     1.0000   1.0000   1.0000   1.0000   1.0000   1.0000   1.0000   1.0000
     0.0000   0.0000   0.0000   0.0000   0.0000   0.0000

          k = 0.4000 0.0000 0.0000 ( 11953 PWs)   bands (ev):

   -17.5773 -17.4025  -9.7283  -9.6013  -8.2647  -8.1396  -5.5074  -4.6797
     4.0876   4.3845   5.6597   6.1826   7.1634   7.5921

     occupation numbers 
     1.0000   1.0000   1.0000   1.0000   1.0000   1.0000   1.0000   1.0000
     0.0000   0.0000   0.0000   0.0000   0.0000   0.0000

          k = 0.4000 0.0770 0.0000 ( 11925 PWs)   bands (ev):

   -17.4754 -17.3013 -10.3135 -10.1772  -7.7648  -7.6376  -5.3985  -4.5810
     3.7775   4.1531   5.8072   6.3290   7.3023   7.7409

     occupation numbers 
     1.0000   1.0000   1.0000   1.0000   1.0000   1.0000   1.0000   1.0000
     0.0000   0.0000   0.0000   0.0000   0.0000   0.0000

          k = 0.4000 0.1540 0.0000 ( 11938 PWs)   bands (ev):

   -17.1715 -16.9993 -11.2546 -11.1124  -7.1416  -7.0164  -5.0769  -4.2919
     3.0641   3.5404   6.2483   6.7554   7.3925   7.5496

     occupation numbers 
     1.0000   1.0000   1.0000   1.0000   1.0000   1.0000   1.0000   1.0000
     0.0000   0.0000   0.0000   0.0000   0.0000   0.0000

          k = 0.4667 0.2694 0.0000 ( 11924 PWs)   bands (ev):

   -15.4573 -15.3014 -13.6621 -13.5151  -7.1918  -7.0675  -3.4906  -3.0109
     1.0175   1.4452   6.7282   6.9601   8.8882   9.3212

     occupation numbers 
     1.0000   1.0000   1.0000   1.0000   1.0000   1.0000   1.0000   1.0000
     0.0000   0.0000   0.0000   0.0000   0.0000   0.0000

          k = 0.4667 0.3464 0.0000 ( 11913 PWs)   bands (ev):

   -15.0129 -14.8763 -13.9937 -13.8620  -7.5628  -7.4372  -3.1816  -2.8062
     0.8303   1.1778   7.1788   7.4178  10.0461  10.0584

     occupation numbers 
     1.0000   1.0000   1.0000   1.0000   1.0000   1.0000   1.0000   1.0000
     0.0000   0.0000   0.0000   0.0000   0.0000   0.0000

          k = 0.4667 0.4234 0.0000 ( 11935 PWs)   bands (ev):

   -15.1787 -15.0246 -13.4089 -13.2639  -8.4367  -8.3076  -3.1138  -2.6340
     0.9282   1.2756   8.4312   8.6961   9.3196   9.7080

     occupation numbers 
     1.0000   1.0000   1.0000   1.0000   1.0000   1.0000   1.0000   1.0000
     0.0000   0.0000   0.0000   0.0000   0.0000   0.0000

          k = 0.4667 0.5004 0.0000 ( 11953 PWs)   bands (ev):

   -15.4218 -15.2618 -12.4562 -12.3138  -9.5204  -9.3882  -3.1687  -2.5522
     1.1858   1.5390   8.8729   9.2475   9.9580  10.1527

     occupation numbers 
     1.0000   1.0000   1.0000   1.0000   1.0000   1.0000   1.0000   1.0000
     0.0000   0.0000   0.0000   0.0000   0.0000   0.0000

          k = 0.4667 0.5774 0.0000 ( 11961 PWs)   bands (ev):

   -15.5111 -15.3499 -11.7999 -11.6698 -10.2207 -10.0935  -3.2015  -2.5367
     1.3323   1.6667   8.7231   9.0933   9.8276  10.2964

     occupation numbers 
     1.0000   1.0000   1.0000   1.0000   1.0000   1.0000   1.0000   1.0000
     0.0000   0.0000   0.0000   0.0000   0.0000   0.0000

          k = 0.4667 0.6543 0.0000 ( 11953 PWs)   bands (ev):

   -15.4218 -15.2618 -12.4562 -12.3138  -9.5203  -9.3882  -3.1687  -2.5522
     1.1857   1.5390   8.8729   9.2475   9.9580  10.1527

     occupation numbers 
     1.0000   1.0000   1.0000   1.0000   1.0000   1.0000   1.0000   1.0000
     0.0000   0.0000   0.0000   0.0000   0.0000   0.0000

          k = 0.4667 0.7313 0.0000 ( 11935 PWs)   bands (ev):

   -15.1787 -15.0246 -13.4089 -13.2639  -8.4367  -8.3076  -3.1138  -2.6340
     0.9282   1.2756   8.4312   8.6961   9.3196   9.7080

     occupation numbers 
     1.0000   1.0000   1.0000   1.0000   1.0000   1.0000   1.0000   1.0000
     0.0000   0.0000   0.0000   0.0000   0.0000   0.0000

          k = 0.4667 0.8083 0.0000 ( 11913 PWs)   bands (ev):

   -15.0129 -14.8763 -13.9937 -13.8620  -7.5628  -7.4372  -3.1816  -2.8062
     0.8303   1.1778   7.1788   7.4178  10.0461  10.0584

     occupation numbers 
     1.0000   1.0000   1.0000   1.0000   1.0000   1.0000   1.0000   1.0000
     0.0000   0.0000   0.0000   0.0000   0.0000   0.0000

          k = 0.4667-0.2694 0.0000 ( 11924 PWs)   bands (ev):

   -15.4573 -15.3014 -13.6621 -13.5151  -7.1918  -7.0675  -3.4906  -3.0109
     1.0175   1.4452   6.7282   6.9601   8.8882   9.3212

     occupation numbers 
     1.0000   1.0000   1.0000   1.0000   1.0000   1.0000   1.0000   1.0000
     0.0000   0.0000   0.0000   0.0000   0.0000   0.0000

          k = 0.4667-0.1925 0.0000 ( 11920 PWs)   bands (ev):

   -15.9928 -15.8291 -12.8819 -12.7340  -7.4563  -7.3308  -3.8823  -3.2576
     1.4990   1.9745   7.2324   7.4654   8.0097   8.4753

     occupation numbers 
     1.0000   1.0000   1.0000   1.0000   1.0000   1.0000   1.0000   1.0000
     0.0000   0.0000   0.0000   0.0000   0.0000   0.0000

          k = 0.4667-0.1155 0.0000 ( 11927 PWs)   bands (ev):

   -16.3779 -16.2109 -11.9354 -11.7919  -8.2129  -8.0843  -4.2008  -3.4856
     2.1154   2.5494   7.4202   7.8842   8.5396   8.7082

     occupation numbers 
     1.0000   1.0000   1.0000   1.0000   1.0000   1.0000   1.0000   1.0000
     0.0000   0.0000   0.0000   0.0000   0.0000   0.0000

          k = 0.4667-0.0385 0.0000 ( 11949 PWs)   bands (ev):

   -16.5751 -16.4068 -11.0198 -10.8859  -9.0903  -8.9615  -4.3741  -3.6185
     2.5831   2.9219   7.1256   7.5967   8.5282   8.9789

     occupation numbers 
     1.0000   1.0000   1.0000   1.0000   1.0000   1.0000   1.0000   1.0000
     0.0000   0.0000   0.0000   0.0000   0.0000   0.0000

          k = 0.4667 0.0385 0.0000 ( 11949 PWs)   bands (ev):

   -16.5751 -16.4068 -11.0198 -10.8859  -9.0904  -8.9615  -4.3741  -3.6185
     2.5831   2.9219   7.1256   7.5967   8.5282   8.9789

     occupation numbers 
     1.0000   1.0000   1.0000   1.0000   1.0000   1.0000   1.0000   1.0000
     0.0000   0.0000   0.0000   0.0000   0.0000   0.0000

          k = 0.4667 0.1155 0.0000 ( 11927 PWs)   bands (ev):

   -16.3779 -16.2109 -11.9354 -11.7919  -8.2129  -8.0843  -4.2008  -3.4856
     2.1154   2.5494   7.4202   7.8842   8.5396   8.7082

     occupation numbers 
     1.0000   1.0000   1.0000   1.0000   1.0000   1.0000   1.0000   1.0000
     0.0000   0.0000   0.0000   0.0000   0.0000   0.0000

          k = 0.4667 0.1925 0.0000 ( 11920 PWs)   bands (ev):

   -15.9928 -15.8291 -12.8819 -12.7340  -7.4563  -7.3308  -3.8823  -3.2576
     1.4990   1.9745   7.2324   7.4654   8.0097   8.4753

     occupation numbers 
     1.0000   1.0000   1.0000   1.0000   1.0000   1.0000   1.0000   1.0000
     0.0000   0.0000   0.0000   0.0000   0.0000   0.0000

     the Fermi energy is    -0.6993 ev

!    total energy              =     -48.20778984 Ry
     estimated scf accuracy    <          2.3E-11 Ry
     smearing contrib. (-TS)   =      -0.00007698 Ry
     internal energy E=F+TS    =     -48.20771286 Ry

     The total energy is F=E-TS. E is the sum of the following terms:
     one-electron contribution =    -705.72954691 Ry
     hartree contribution      =     356.46459675 Ry
     xc contribution           =     -17.18653893 Ry
     ewald contribution        =     318.61439710 Ry
     DFT-D3 Dispersion         =      -0.01762003 Ry
     electric field correction =      -0.35300084 Ry

     convergence has been achieved in   7 iterations

     Forces acting on atoms (cartesian axes, Ry/au):

     atom    1 type  1   force =     0.00000124    0.00000330    0.00021639
     atom    2 type  1   force =    -0.00000123   -0.00000330   -0.00185581
     atom    3 type  1   force =     0.00000198   -0.00000265    0.00161770
     atom    4 type  1   force =    -0.00000200    0.00000265    0.00002172
     The non-local contrib.  to forces
     atom    1 type  1   force =     0.00000084    0.00000223   -0.00348953
     atom    2 type  1   force =    -0.00000082   -0.00000223   -0.00774935
     atom    3 type  1   force =     0.00000134   -0.00000179   -0.00085211
     atom    4 type  1   force =    -0.00000136    0.00000178   -0.00405407
     The ionic contribution  to forces
     atom    1 type  1   force =     0.00000412    0.00001088  -15.30647143
     atom    2 type  1   force =    -0.00000411   -0.00001088  -15.25839333
     atom    3 type  1   force =     0.00000658   -0.00000873   15.26450613
     atom    4 type  1   force =    -0.00000659    0.00000872   15.30035863
     The local contribution  to forces
     atom    1 type  1   force =    -0.00000364   -0.00000962   15.26876225
     atom    2 type  1   force =     0.00000363    0.00000961   15.22294997
     atom    3 type  1   force =    -0.00000582    0.00000770  -15.30088666
     atom    4 type  1   force =     0.00000583   -0.00000771  -15.33504846
     The core correction contribution to forces
     atom    1 type  1   force =    -0.00000008   -0.00000020    0.00017227
     atom    2 type  1   force =     0.00000008    0.00000020    0.00017636
     atom    3 type  1   force =    -0.00000012    0.00000016    0.00000913
     atom    4 type  1   force =     0.00000012   -0.00000016    0.00000677
     The Hubbard contrib.    to forces
     atom    1 type  1   force =     0.00000000    0.00000000    0.00000000
     atom    2 type  1   force =     0.00000000    0.00000000    0.00000000
     atom    3 type  1   force =     0.00000000    0.00000000    0.00000000
     atom    4 type  1   force =     0.00000000    0.00000000    0.00000000
     The SCF correction term to forces
     atom    1 type  1   force =     0.00000000    0.00000000   -0.00000873
     atom    2 type  1   force =    -0.00000000   -0.00000000   -0.00000880
     atom    3 type  1   force =     0.00000000    0.00000001    0.00000989
     atom    4 type  1   force =     0.00000001    0.00000000    0.00000986

     DFT-D3 dispersion contribution to forces:
     atom    1 type  1   force =    -0.00000000   -0.00000000    0.00125127
     atom    2 type  1   force =     0.00000000    0.00000000    0.00116903
     atom    3 type  1   force =    -0.00000000    0.00000000   -0.00116898
     atom    4 type  1   force =     0.00000000   -0.00000000   -0.00125132

     Total force =     0.002472     Total SCF correction =     0.000019

     DFT-D3 dispersion Force =     0.002422
     Energy error            =      2.4E-05 Ry
     Gradient error          =      1.9E-03 Ry/Bohr

     number of scf cycles    =   7
     number of bfgs steps    =   6

     energy             old  =     -48.2077659438 Ry
     energy             new  =     -48.2077898448 Ry

     CASE: energy            _new < energy            _old

     new trust radius        =       0.0115813082 bohr
     new conv_thr            =            1.0E-10 Ry


ATOMIC_POSITIONS (angstrom)
C               -0.0000013130        0.0000003022        9.9824947302
C                1.2299971660        0.7101374726        9.9850796356
C                1.2300034502        0.7101408618       13.3652198172
C                0.0000006968        1.4202846878       13.3672058170



     Writing config-only to output data dir /home/ubuntu/projects/Graphene-Band-Structure-Quantum-Espresso/outputs/field_0.005/data/field_0.005.save/ :
     XML data file
     NEW-OLD atomic charge density approx. for the potential

     negative rho (up, down):  1.124E-06 0.000E+00

     Adding external electric field
        E field amplitude [Ha a.u.]:  5.0000E-03
        Potential amp.        0.3971 Ry
        Total length         39.7126 bohr


     total cpu time spent up to now is      203.2 secs

     Self-consistent Calculation

     iteration #  1     ecut=    90.00 Ry     beta= 0.70
     Davidson diagonalization with overlap

---- Real-time Memory Report at c_bands before calling an iterative solver
           153 MiB given to the printing process from OS
             0 MiB allocation reported by mallinfo(arena+hblkhd)
         29319 MiB available memory on the node where the printing process lives
------------------
     ethr =  1.00E-06,  avg # of iterations =  4.9

     negative rho (up, down):  3.076E-07 0.000E+00

     total cpu time spent up to now is      210.0 secs

     total energy              =     -48.20778519 Ry
     estimated scf accuracy    <       0.00010537 Ry

     iteration #  2     ecut=    90.00 Ry     beta= 0.70
     Davidson diagonalization with overlap

---- Real-time Memory Report at c_bands before calling an iterative solver
           153 MiB given to the printing process from OS
             0 MiB allocation reported by mallinfo(arena+hblkhd)
         29284 MiB available memory on the node where the printing process lives
------------------
     ethr =  6.59E-07,  avg # of iterations =  3.0

     negative rho (up, down):  1.879E-07 0.000E+00

     total cpu time spent up to now is      214.3 secs

     total energy              =     -48.20780138 Ry
     estimated scf accuracy    <       0.00009221 Ry

     iteration #  3     ecut=    90.00 Ry     beta= 0.70
     Davidson diagonalization with overlap

---- Real-time Memory Report at c_bands before calling an iterative solver
           153 MiB given to the printing process from OS
             0 MiB allocation reported by mallinfo(arena+hblkhd)
         29279 MiB available memory on the node where the printing process lives
------------------
     ethr =  5.76E-07,  avg # of iterations =  2.2

     negative rho (up, down):  2.552E-08 0.000E+00

     total cpu time spent up to now is      217.9 secs

     total energy              =     -48.20782296 Ry
     estimated scf accuracy    <       0.00000151 Ry

     iteration #  4     ecut=    90.00 Ry     beta= 0.70
     Davidson diagonalization with overlap

---- Real-time Memory Report at c_bands before calling an iterative solver
           153 MiB given to the printing process from OS
             0 MiB allocation reported by mallinfo(arena+hblkhd)
         29291 MiB available memory on the node where the printing process lives
------------------
     ethr =  9.47E-09,  avg # of iterations =  2.0

     negative rho (up, down):  1.741E-08 0.000E+00

     total cpu time spent up to now is      221.6 secs

     total energy              =     -48.20782314 Ry
     estimated scf accuracy    <       0.00000053 Ry

     iteration #  5     ecut=    90.00 Ry     beta= 0.70
     Davidson diagonalization with overlap

---- Real-time Memory Report at c_bands before calling an iterative solver
           153 MiB given to the printing process from OS
             0 MiB allocation reported by mallinfo(arena+hblkhd)
         29282 MiB available memory on the node where the printing process lives
------------------
     ethr =  3.33E-09,  avg # of iterations =  1.7

     total cpu time spent up to now is      225.3 secs

     total energy              =     -48.20782325 Ry
     estimated scf accuracy    <       0.00000003 Ry

     iteration #  6     ecut=    90.00 Ry     beta= 0.70
     Davidson diagonalization with overlap

---- Real-time Memory Report at c_bands before calling an iterative solver
           153 MiB given to the printing process from OS
             0 MiB allocation reported by mallinfo(arena+hblkhd)
         29248 MiB available memory on the node where the printing process lives
------------------
     ethr =  1.74E-10,  avg # of iterations =  2.2

     total cpu time spent up to now is      229.1 secs

     total energy              =     -48.20782325 Ry
     estimated scf accuracy    <          7.2E-10 Ry

     iteration #  7     ecut=    90.00 Ry     beta= 0.70
     Davidson diagonalization with overlap

---- Real-time Memory Report at c_bands before calling an iterative solver
           153 MiB given to the printing process from OS
             0 MiB allocation reported by mallinfo(arena+hblkhd)
         29255 MiB available memory on the node where the printing process lives
------------------
     ethr =  4.48E-12,  avg # of iterations =  3.7

     total cpu time spent up to now is      232.9 secs

     End of self-consistent calculation

          k = 0.0000 0.0000 0.0000 ( 11659 PWs)   bands (ev):

   -20.3790 -20.1886  -8.8265  -7.8827  -3.7977  -3.7976  -3.6773  -3.6772
     1.6916   2.3028   3.3464   3.7386   5.0243   6.1550

     occupation numbers 
     1.0000   1.0000   1.0000   1.0000   1.0000   1.0000   1.0000   1.0000
     0.0000   0.0000   0.0000   0.0000   0.0000   0.0000

          k = 0.0000 0.0770 0.0000 ( 11791 PWs)   bands (ev):

   -20.2733 -20.0836  -8.6984  -7.7584  -4.2240  -4.1030  -4.0224  -3.9016
     1.8387   2.4471   3.4886   3.8824   5.1659   6.2928

     occupation numbers 
     1.0000   1.0000   1.0000   1.0000   1.0000   1.0000   1.0000   1.0000
     0.0000   0.0000   0.0000   0.0000   0.0000   0.0000

          k = 0.0000 0.1540 0.0000 ( 11788 PWs)   bands (ev):

   -19.9569 -19.7693  -8.3160  -7.3878  -5.3577  -5.2343  -4.5921  -4.4704
     2.2799   2.8800   3.9150   4.3136   5.5904   6.7035

     occupation numbers 
     1.0000   1.0000   1.0000   1.0000   1.0000   1.0000   1.0000   1.0000
     0.0000   0.0000   0.0000   0.0000   0.0000   0.0000

          k = 0.0000 0.2309 0.0000 ( 11848 PWs)   bands (ev):

   -19.4322 -19.2480  -7.6856  -6.9141  -6.7903  -6.7744  -5.3046  -5.1820
     3.0150   3.6005   4.6242   5.0302   6.2917   7.3401

     occupation numbers 
     1.0000   1.0000   1.0000   1.0000   1.0000   1.0000   1.0000   1.0000
     0.0000   0.0000   0.0000   0.0000   0.0000   0.0000

          k = 0.0000 0.3079 0.0000 ( 11876 PWs)   bands (ev):

   -18.7032 -18.5237  -8.6560  -8.5234  -6.8211  -5.9979  -5.9481  -5.8747
     4.0436   4.6029   5.5998   5.8818   6.1189   6.3090

     occupation numbers 
     1.0000   1.0000   1.0000   1.0000   1.0000   1.0000   1.0000   1.0000
     0.0000   0.0000   0.0000   0.0000   0.0000   0.0000

          k = 0.0000 0.3849 0.0000 ( 11914 PWs)   bands (ev):

   -17.7774 -17.6036 -10.4315 -10.2929  -6.5748  -6.4511  -5.7518  -4.9345
     4.0266   4.4835   5.3683   5.9055   6.8413   7.0513

     occupation numbers 
     1.0000   1.0000   1.0000   1.0000   1.0000   1.0000   1.0000   1.0000
     0.0000   0.0000   0.0000   0.0000   0.0000   0.0000

          k = 0.0000 0.4619 0.0000 ( 11910 PWs)   bands (ev):

   -16.6705 -16.5038 -12.1408 -11.9960  -6.9818  -6.8579  -4.5528  -3.8412
     2.2494   2.7541   6.8305   6.9837   7.0520   7.4953

     occupation numbers 
     1.0000   1.0000   1.0000   1.0000   1.0000   1.0000   1.0000   1.0000
     0.0000   0.0000   0.0000   0.0000   0.0000   0.0000

          k = 0.0000 0.5389 0.0000 ( 11924 PWs)   bands (ev):

   -15.4559 -15.3016 -13.6610 -13.5152  -7.1912  -7.0671  -3.4853  -3.0138
     1.0206   1.4418   6.7309   6.9587   8.8880   9.3200

     occupation numbers 
     1.0000   1.0000   1.0000   1.0000   1.0000   1.0000   1.0000   1.0000
     0.0000   0.0000   0.0000   0.0000   0.0000   0.0000

          k = 0.0667 0.0385 0.0000 ( 11791 PWs)   bands (ev):

   -20.2733 -20.0836  -8.6984  -7.7584  -4.2241  -4.1029  -4.0224  -3.9016
     1.8387   2.4471   3.4886   3.8824   5.1659   6.2928

     occupation numbers 
     1.0000   1.0000   1.0000   1.0000   1.0000   1.0000   1.0000   1.0000
     0.0000   0.0000   0.0000   0.0000   0.0000   0.0000

          k = 0.0667 0.1155 0.0000 ( 11813 PWs)   bands (ev):

   -20.0623 -19.8740  -8.4431  -7.5109  -4.9518  -4.8303  -4.4716  -4.3506
     2.1328   2.7358   3.7730   4.1700   5.4493   6.5680

     occupation numbers 
     1.0000   1.0000   1.0000   1.0000   1.0000   1.0000   1.0000   1.0000
     0.0000   0.0000   0.0000   0.0000   0.0000   0.0000

          k = 0.0667 0.1925 0.0000 ( 11832 PWs)   bands (ev):

   -19.6417 -19.4562  -7.9365  -7.0208  -6.2067  -6.0826  -5.2043  -5.0821
     2.7210   3.3127   4.3414   4.7445   6.0147   7.1119

     occupation numbers 
     1.0000   1.0000   1.0000   1.0000   1.0000   1.0000   1.0000   1.0000
     0.0000   0.0000   0.0000   0.0000   0.0000   0.0000

          k = 0.0667 0.2694 0.0000 ( 11880 PWs)   bands (ev):

   -19.0148 -18.8334  -7.7971  -7.6683  -7.1880  -6.2994  -5.9677  -5.8442
     3.6030   4.1759   5.1906   5.5998   6.7684   6.8307

     occupation numbers 
     1.0000   1.0000   1.0000   1.0000   1.0000   1.0000   1.0000   1.0000
     0.0000   0.0000   0.0000   0.0000   0.0000   0.0000

          k = 0.0667 0.3464 0.0000 ( 11910 PWs)   bands (ev):

   -18.1873 -18.0111  -9.5252  -9.3904  -6.6342  -6.5097  -6.2174  -5.3721
     4.7698   4.9033   5.2853   5.3567   6.3212   6.7599

     occupation numbers 
     1.0000   1.0000   1.0000   1.0000   1.0000   1.0000   1.0000   1.0000
     0.0000   0.0000   0.0000   0.0000   0.0000   0.0000

          k = 0.0667 0.4234 0.0000 ( 11938 PWs)   bands (ev):

   -17.1698 -16.9998 -11.2536 -11.1124  -7.1410  -7.0161  -5.0696  -4.2982
     3.0690   3.5367   6.2482   6.7544   7.3947   7.5476

     occupation numbers 
     1.0000   1.0000   1.0000   1.0000   1.0000   1.0000   1.0000   1.0000
     0.0000   0.0000   0.0000   0.0000   0.0000   0.0000

          k = 0.0667 0.5004 0.0000 ( 11920 PWs)   bands (ev):

   -15.9913 -15.8294 -12.8808 -12.7341  -7.4557  -7.3304  -3.8760  -3.2622
     1.5033   1.9707   7.2350   7.4641   8.0095   8.4742

     occupation numbers 
     1.0000   1.0000   1.0000   1.0000   1.0000   1.0000   1.0000   1.0000
     0.0000   0.0000   0.0000   0.0000   0.0000   0.0000

          k = 0.0667 0.5774 0.0000 ( 11913 PWs)   bands (ev):

   -15.0119 -14.8760 -13.9931 -13.8617  -7.5622  -7.4368  -3.1771  -2.8077
     0.8323   1.1752   7.1815   7.4164  10.0457  10.0582

     occupation numbers 
     1.0000   1.0000   1.0000   1.0000   1.0000   1.0000   1.0000   1.0000
     0.0000   0.0000   0.0000   0.0000   0.0000   0.0000

          k = 0.0667-0.5004 0.0000 ( 11920 PWs)   bands (ev):

   -15.9913 -15.8294 -12.8808 -12.7341  -7.4557  -7.3304  -3.8760  -3.2622
     1.5033   1.9707   7.2350   7.4641   8.0095   8.4742

     occupation numbers 
     1.0000   1.0000   1.0000   1.0000   1.0000   1.0000   1.0000   1.0000
     0.0000   0.0000   0.0000   0.0000   0.0000   0.0000

          k = 0.0667-0.4234 0.0000 ( 11938 PWs)   bands (ev):

   -17.1698 -16.9998 -11.2536 -11.1124  -7.1410  -7.0161  -5.0696  -4.2983
     3.0690   3.5368   6.2482   6.7544   7.3947   7.5476

     occupation numbers 
     1.0000   1.0000   1.0000   1.0000   1.0000   1.0000   1.0000   1.0000
     0.0000   0.0000   0.0000   0.0000   0.0000   0.0000

          k = 0.0667-0.3464 0.0000 ( 11910 PWs)   bands (ev):

   -18.1873 -18.0111  -9.5252  -9.3904  -6.6342  -6.5097  -6.2174  -5.3721
     4.7698   4.9033   5.2853   5.3567   6.3212   6.7599

     occupation numbers 
     1.0000   1.0000   1.0000   1.0000   1.0000   1.0000   1.0000   1.0000
     0.0000   0.0000   0.0000   0.0000   0.0000   0.0000

          k = 0.0667-0.2694 0.0000 ( 11880 PWs)   bands (ev):

   -19.0148 -18.8334  -7.7971  -7.6682  -7.1880  -6.2994  -5.9677  -5.8442
     3.6030   4.1759   5.1906   5.5998   6.7684   6.8306

     occupation numbers 
     1.0000   1.0000   1.0000   1.0000   1.0000   1.0000   1.0000   1.0000
     0.0000   0.0000   0.0000   0.0000   0.0000   0.0000

          k = 0.0667-0.1925 0.0000 ( 11832 PWs)   bands (ev):

   -19.6417 -19.4562  -7.9365  -7.0208  -6.2066  -6.0826  -5.2043  -5.0821
     2.7210   3.3127   4.3414   4.7445   6.0147   7.1119

     occupation numbers 
     1.0000   1.0000   1.0000   1.0000   1.0000   1.0000   1.0000   1.0000
     0.0000   0.0000   0.0000   0.0000   0.0000   0.0000

          k = 0.0667-0.1155 0.0000 ( 11813 PWs)   bands (ev):

   -20.0623 -19.8740  -8.4431  -7.5109  -4.9518  -4.8303  -4.4716  -4.3507
     2.1328   2.7358   3.7730   4.1700   5.4493   6.5680

     occupation numbers 
     1.0000   1.0000   1.0000   1.0000   1.0000   1.0000   1.0000   1.0000
     0.0000   0.0000   0.0000   0.0000   0.0000   0.0000

          k = 0.0667-0.0385 0.0000 ( 11791 PWs)   bands (ev):

   -20.2733 -20.0836  -8.6984  -7.7584  -4.2241  -4.1029  -4.0224  -3.9017
     1.8387   2.4471   3.4886   3.8824   5.1659   6.2928

     occupation numbers 
     1.0000   1.0000   1.0000   1.0000   1.0000   1.0000   1.0000   1.0000
     0.0000   0.0000   0.0000   0.0000   0.0000   0.0000

          k = 0.1333 0.0770 0.0000 ( 11788 PWs)   bands (ev):

   -19.9569 -19.7693  -8.3160  -7.3878  -5.3578  -5.2343  -4.5920  -4.4704
     2.2799   2.8800   3.9150   4.3137   5.5904   6.7035

     occupation numbers 
     1.0000   1.0000   1.0000   1.0000   1.0000   1.0000   1.0000   1.0000
     0.0000   0.0000   0.0000   0.0000   0.0000   0.0000

          k = 0.1333 0.1540 0.0000 ( 11832 PWs)   bands (ev):

   -19.6417 -19.4562  -7.9365  -7.0208  -6.2067  -6.0826  -5.2042  -5.0821
     2.7210   3.3127   4.3414   4.7445   6.0147   7.1119

     occupation numbers 
     1.0000   1.0000   1.0000   1.0000   1.0000   1.0000   1.0000   1.0000
     0.0000   0.0000   0.0000   0.0000   0.0000   0.0000

          k = 0.1333 0.2309 0.0000 ( 11879 PWs)   bands (ev):

   -19.1191 -18.9369  -7.3135  -7.3084  -7.1867  -6.4173  -6.1726  -6.0499
     3.4561   4.0330   5.0511   5.4616   6.7197   7.0881

     occupation numbers 
     1.0000   1.0000   1.0000   1.0000   1.0000   1.0000   1.0000   1.0000
     0.0000   0.0000   0.0000   0.0000   0.0000   0.0000

          k = 0.1333 0.3079 0.0000 ( 11929 PWs)   bands (ev):

   -18.3937 -18.2161  -8.7122  -8.5839  -7.0850  -6.9603  -6.4532  -5.5945
     4.4846   5.0353   5.5049   5.7918   6.0426   6.4650

     occupation numbers 
     1.0000   1.0000   1.0000   1.0000   1.0000   1.0000   1.0000   1.0000
     0.0000   0.0000   0.0000   0.0000   0.0000   0.0000

          k = 0.1333 0.3849 0.0000 ( 11925 PWs)   bands (ev):

   -17.4737 -17.3018 -10.3126 -10.1771  -7.7642  -7.6372  -5.3910  -4.5877
     3.7816   4.1506   5.8071   6.3281   7.2989   7.7418

     occupation numbers 
     1.0000   1.0000   1.0000   1.0000   1.0000   1.0000   1.0000   1.0000
     0.0000   0.0000   0.0000   0.0000   0.0000   0.0000

          k = 0.1333 0.4619 0.0000 ( 11927 PWs)   bands (ev):

   -16.3763 -16.2114 -11.9344 -11.7919  -8.2122  -8.0840  -4.1939  -3.4912
     2.1199   2.5463   7.4200   7.8832   8.5422   8.7056

     occupation numbers 
     1.0000   1.0000   1.0000   1.0000   1.0000   1.0000   1.0000   1.0000
     0.0000   0.0000   0.0000   0.0000   0.0000   0.0000

          k = 0.1333 0.5389 0.0000 ( 11935 PWs)   bands (ev):

   -15.1774 -15.0247 -13.4078 -13.2639  -8.4361  -8.3074  -3.1086  -2.6369
     0.9307   1.2732   8.4341   8.6946   9.3193   9.7071

     occupation numbers 
     1.0000   1.0000   1.0000   1.0000   1.0000   1.0000   1.0000   1.0000
     0.0000   0.0000   0.0000   0.0000   0.0000   0.0000

          k = 0.1333 0.6158 0.0000 ( 11935 PWs)   bands (ev):

   -15.1774 -15.0247 -13.4078 -13.2639  -8.4361  -8.3074  -3.1086  -2.6369
     0.9307   1.2732   8.4341   8.6946   9.3193   9.7071

     occupation numbers 
     1.0000   1.0000   1.0000   1.0000   1.0000   1.0000   1.0000   1.0000
     0.0000   0.0000   0.0000   0.0000   0.0000   0.0000

          k = 0.1333-0.4619 0.0000 ( 11927 PWs)   bands (ev):

   -16.3763 -16.2114 -11.9344 -11.7919  -8.2122  -8.0841  -4.1939  -3.4912
     2.1199   2.5463   7.4200   7.8832   8.5422   8.7056

     occupation numbers 
     1.0000   1.0000   1.0000   1.0000   1.0000   1.0000   1.0000   1.0000
     0.0000   0.0000   0.0000   0.0000   0.0000   0.0000

          k = 0.1333-0.3849 0.0000 ( 11925 PWs)   bands (ev):

   -17.4737 -17.3018 -10.3126 -10.1771  -7.7642  -7.6372  -5.3910  -4.5878
     3.7816   4.1506   5.8071   6.3281   7.2989   7.7417

     occupation numbers 
     1.0000   1.0000   1.0000   1.0000   1.0000   1.0000   1.0000   1.0000
     0.0000   0.0000   0.0000   0.0000   0.0000   0.0000

          k = 0.1333-0.3079 0.0000 ( 11929 PWs)   bands (ev):

   -18.3936 -18.2161  -8.7122  -8.5839  -7.0850  -6.9603  -6.4532  -5.5946
     4.4846   5.0353   5.5049   5.7918   6.0426   6.4650

     occupation numbers 
     1.0000   1.0000   1.0000   1.0000   1.0000   1.0000   1.0000   1.0000
     0.0000   0.0000   0.0000   0.0000   0.0000   0.0000

          k = 0.1333-0.2309 0.0000 ( 11879 PWs)   bands (ev):

   -19.1191 -18.9369  -7.3135  -7.3084  -7.1866  -6.4173  -6.1726  -6.0500
     3.4561   4.0330   5.0511   5.4616   6.7197   7.0881

     occupation numbers 
     1.0000   1.0000   1.0000   1.0000   1.0000   1.0000   1.0000   1.0000
     0.0000   0.0000   0.0000   0.0000   0.0000   0.0000

          k = 0.1333-0.1540 0.0000 ( 11832 PWs)   bands (ev):

   -19.6417 -19.4562  -7.9365  -7.0208  -6.2067  -6.0825  -5.2043  -5.0822
     2.7210   3.3127   4.3414   4.7445   6.0147   7.1119

     occupation numbers 
     1.0000   1.0000   1.0000   1.0000   1.0000   1.0000   1.0000   1.0000
     0.0000   0.0000   0.0000   0.0000   0.0000   0.0000

          k = 0.1333-0.0770 0.0000 ( 11788 PWs)   bands (ev):

   -19.9569 -19.7693  -8.3160  -7.3878  -5.3577  -5.2342  -4.5921  -4.4704
     2.2799   2.8800   3.9150   4.3136   5.5904   6.7035

     occupation numbers 
     1.0000   1.0000   1.0000   1.0000   1.0000   1.0000   1.0000   1.0000
     0.0000   0.0000   0.0000   0.0000   0.0000   0.0000

          k = 0.1333 0.0000 0.0000 ( 11813 PWs)   bands (ev):

   -20.0623 -19.8740  -8.4431  -7.5109  -4.9519  -4.8302  -4.4715  -4.3507
     2.1328   2.7358   3.7730   4.1700   5.4493   6.5680

     occupation numbers 
     1.0000   1.0000   1.0000   1.0000   1.0000   1.0000   1.0000   1.0000
     0.0000   0.0000   0.0000   0.0000   0.0000   0.0000

          k = 0.2000 0.1155 0.0000 ( 11848 PWs)   bands (ev):

   -19.4322 -19.2480  -7.6856  -6.9141  -6.7903  -6.7744  -5.3045  -5.1820
     3.0150   3.6005   4.6242   5.0302   6.2917   7.3401

     occupation numbers 
     1.0000   1.0000   1.0000   1.0000   1.0000   1.0000   1.0000   1.0000
     0.0000   0.0000   0.0000   0.0000   0.0000   0.0000

          k = 0.2000 0.1925 0.0000 ( 11880 PWs)   bands (ev):

   -19.0148 -18.8334  -7.7971  -7.6682  -7.1880  -6.2994  -5.9676  -5.8442
     3.6030   4.1759   5.1906   5.5998   6.7684   6.8308

     occupation numbers 
     1.0000   1.0000   1.0000   1.0000   1.0000   1.0000   1.0000   1.0000
     0.0000   0.0000   0.0000   0.0000   0.0000   0.0000

          k = 0.2000 0.2694 0.0000 ( 11929 PWs)   bands (ev):

   -18.3937 -18.2161  -8.7122  -8.5839  -7.0850  -6.9603  -6.4532  -5.5945
     4.4846   5.0353   5.5049   5.7918   6.0426   6.4650

     occupation numbers 
     1.0000   1.0000   1.0000   1.0000   1.0000   1.0000   1.0000   1.0000
     0.0000   0.0000   0.0000   0.0000   0.0000   0.0000

          k = 0.2000 0.3464 0.0000 ( 11953 PWs)   bands (ev):

   -17.5756 -17.4031  -9.7277  -9.6010  -8.2641  -8.1392  -5.4998  -4.6866
     4.0910   4.3832   5.6596   6.1818   7.1599   7.5929

     occupation numbers 
     1.0000   1.0000   1.0000   1.0000   1.0000   1.0000   1.0000   1.0000
     0.0000   0.0000   0.0000   0.0000   0.0000   0.0000

          k = 0.2000 0.4234 0.0000 ( 11949 PWs)   bands (ev):

   -16.5735 -16.4072 -11.0190 -10.8857  -9.0897  -8.9612  -4.3669  -3.6246
     2.5869   2.9200   7.1254   7.5959   8.5243   8.9801

     occupation numbers 
     1.0000   1.0000   1.0000   1.0000   1.0000   1.0000   1.0000   1.0000
     0.0000   0.0000   0.0000   0.0000   0.0000   0.0000

          k = 0.2000 0.5004 0.0000 ( 11953 PWs)   bands (ev):

   -15.4204 -15.2621 -12.4552 -12.3138  -9.5196  -9.3880  -3.1625  -2.5568
     1.1892   1.5368   8.8726   9.2470   9.9559  10.1532

     occupation numbers 
     1.0000   1.0000   1.0000   1.0000   1.0000   1.0000   1.0000   1.0000
     0.0000   0.0000   0.0000   0.0000   0.0000   0.0000

          k = 0.2000 0.5774 0.0000 ( 11949 PWs)   bands (ev):

   -14.4716 -14.3369 -13.4964 -13.3673  -9.6533  -9.5208  -2.4067  -2.0445
     0.5567   0.7225  10.0297  10.3269  10.5733  10.7642

     occupation numbers 
     1.0000   1.0000   1.0000   1.0000   1.0000   1.0000   1.0000   1.0000
     0.0000   0.0000   0.0000   0.0000   0.0000   0.0000

          k = 0.2000 0.6543 0.0000 ( 11953 PWs)   bands (ev):

   -15.4204 -15.2621 -12.4552 -12.3138  -9.5196  -9.3880  -3.1625  -2.5568
     1.1893   1.5368   8.8726   9.2470   9.9559  10.1532

     occupation numbers 
     1.0000   1.0000   1.0000   1.0000   1.0000   1.0000   1.0000   1.0000
     0.0000   0.0000   0.0000   0.0000   0.0000   0.0000

          k = 0.2000-0.4234 0.0000 ( 11949 PWs)   bands (ev):

   -16.5735 -16.4072 -11.0190 -10.8856  -9.0897  -8.9612  -4.3669  -3.6246
     2.5869   2.9200   7.1254   7.5959   8.5243   8.9801

     occupation numbers 
     1.0000   1.0000   1.0000   1.0000   1.0000   1.0000   1.0000   1.0000
     0.0000   0.0000   0.0000   0.0000   0.0000   0.0000

          k = 0.2000-0.3464 0.0000 ( 11953 PWs)   bands (ev):

   -17.5756 -17.4031  -9.7277  -9.6009  -8.2641  -8.1392  -5.4999  -4.6866
     4.0910   4.3832   5.6596   6.1818   7.1599   7.5929

     occupation numbers 
     1.0000   1.0000   1.0000   1.0000   1.0000   1.0000   1.0000   1.0000
     0.0000   0.0000   0.0000   0.0000   0.0000   0.0000

          k = 0.2000-0.2694 0.0000 ( 11929 PWs)   bands (ev):

   -18.3936 -18.2161  -8.7122  -8.5839  -7.0850  -6.9603  -6.4532  -5.5946
     4.4846   5.0353   5.5049   5.7918   6.0426   6.4650

     occupation numbers 
     1.0000   1.0000   1.0000   1.0000   1.0000   1.0000   1.0000   1.0000
     0.0000   0.0000   0.0000   0.0000   0.0000   0.0000

          k = 0.2000-0.1925 0.0000 ( 11880 PWs)   bands (ev):

   -19.0148 -18.8334  -7.7971  -7.6682  -7.1880  -6.2994  -5.9677  -5.8443
     3.6030   4.1759   5.1906   5.5998   6.7684   6.8308

     occupation numbers 
     1.0000   1.0000   1.0000   1.0000   1.0000   1.0000   1.0000   1.0000
     0.0000   0.0000   0.0000   0.0000   0.0000   0.0000

          k = 0.2000-0.1155 0.0000 ( 11848 PWs)   bands (ev):

   -19.4322 -19.2480  -7.6856  -6.9141  -6.7902  -6.7744  -5.3045  -5.1820
     3.0150   3.6005   4.6242   5.0302   6.2917   7.3401

     occupation numbers 
     1.0000   1.0000   1.0000   1.0000   1.0000   1.0000   1.0000   1.0000
     0.0000   0.0000   0.0000   0.0000   0.0000   0.0000

          k = 0.2000-0.0385 0.0000 ( 11832 PWs)   bands (ev):

   -19.6417 -19.4562  -7.9365  -7.0208  -6.2067  -6.0825  -5.2042  -5.0822
     2.7210   3.3127   4.3414   4.7445   6.0147   7.1119

     occupation numbers 
     1.0000   1.0000   1.0000   1.0000   1.0000   1.0000   1.0000   1.0000
     0.0000   0.0000   0.0000   0.0000   0.0000   0.0000

          k = 0.2000 0.0385 0.0000 ( 11832 PWs)   bands (ev):

   -19.6417 -19.4562  -7.9365  -7.0208  -6.2067  -6.0825  -5.2042  -5.0822
     2.7210   3.3127   4.3414   4.7445   6.0147   7.1119

     occupation numbers 
     1.0000   1.0000   1.0000   1.0000   1.0000   1.0000   1.0000   1.0000
     0.0000   0.0000   0.0000   0.0000   0.0000   0.0000

          k = 0.2667 0.1540 0.0000 ( 11876 PWs)   bands (ev):

   -18.7032 -18.5237  -8.6560  -8.5234  -6.8211  -5.9979  -5.9481  -5.8747
     4.0436   4.6029   5.5998   5.8818   6.1189   6.3090

     occupation numbers 
     1.0000   1.0000   1.0000   1.0000   1.0000   1.0000   1.0000   1.0000
     0.0000   0.0000   0.0000   0.0000   0.0000   0.0000

          k = 0.2667 0.2309 0.0000 ( 11910 PWs)   bands (ev):

   -18.1873 -18.0111  -9.5252  -9.3904  -6.6341  -6.5098  -6.2174  -5.3721
     4.7698   4.9033   5.2853   5.3567   6.3212   6.7599

     occupation numbers 
     1.0000   1.0000   1.0000   1.0000   1.0000   1.0000   1.0000   1.0000
     0.0000   0.0000   0.0000   0.0000   0.0000   0.0000

          k = 0.2667 0.3079 0.0000 ( 11925 PWs)   bands (ev):

   -17.4737 -17.3018 -10.3126 -10.1771  -7.7642  -7.6372  -5.3910  -4.5877
     3.7816   4.1506   5.8071   6.3281   7.2989   7.7417

     occupation numbers 
     1.0000   1.0000   1.0000   1.0000   1.0000   1.0000   1.0000   1.0000
     0.0000   0.0000   0.0000   0.0000   0.0000   0.0000

          k = 0.2667 0.3849 0.0000 ( 11949 PWs)   bands (ev):

   -16.5735 -16.4072 -11.0190 -10.8857  -9.0897  -8.9612  -4.3669  -3.6246
     2.5869   2.9200   7.1254   7.5959   8.5243   8.9801

     occupation numbers 
     1.0000   1.0000   1.0000   1.0000   1.0000   1.0000   1.0000   1.0000
     0.0000   0.0000   0.0000   0.0000   0.0000   0.0000

          k = 0.2667 0.4619 0.0000 ( 11961 PWs)   bands (ev):

   -15.5097 -15.3503 -11.7992 -11.6695 -10.2201 -10.0931  -3.1950  -2.5419
     1.3359   1.6649   8.7228   9.0930   9.8231  10.2921

     occupation numbers 
     1.0000   1.0000   1.0000   1.0000   1.0000   1.0000   1.0000   1.0000
     0.0000   0.0000   0.0000   0.0000   0.0000   0.0000

          k = 0.2667 0.5389 0.0000 ( 11948 PWs)   bands (ev):

   -14.3611 -14.2127 -12.8531 -12.7181 -10.7658 -10.6347  -2.0344  -1.5555
     0.2233   0.5163   9.9729  10.2351  10.6798  10.9903

     occupation numbers 
     1.0000   1.0000   1.0000   1.0000   1.0000   1.0000   1.0000   1.0000
     0.0000   0.0000   0.0000   0.0000   0.0000   0.0000

          k = 0.2667 0.6158 0.0000 ( 11948 PWs)   bands (ev):

   -14.3611 -14.2127 -12.8531 -12.7181 -10.7658 -10.6347  -2.0344  -1.5555
     0.2233   0.5163   9.9729  10.2351  10.6798  10.9903

     occupation numbers 
     1.0000   1.0000   1.0000   1.0000   1.0000   1.0000   1.0000   1.0000
     0.0000   0.0000   0.0000   0.0000   0.0000   0.0000

          k = 0.2667 0.6928 0.0000 ( 11961 PWs)   bands (ev):

   -15.5097 -15.3503 -11.7991 -11.6694 -10.2201 -10.0931  -3.1950  -2.5419
     1.3359   1.6649   8.7228   9.0930   9.8231  10.2921

     occupation numbers 
     1.0000   1.0000   1.0000   1.0000   1.0000   1.0000   1.0000   1.0000
     0.0000   0.0000   0.0000   0.0000   0.0000   0.0000

          k = 0.2667-0.3849 0.0000 ( 11949 PWs)   bands (ev):

   -16.5735 -16.4072 -11.0190 -10.8856  -9.0897  -8.9612  -4.3669  -3.6246
     2.5869   2.9200   7.1254   7.5959   8.5243   8.9801

     occupation numbers 
     1.0000   1.0000   1.0000   1.0000   1.0000   1.0000   1.0000   1.0000
     0.0000   0.0000   0.0000   0.0000   0.0000   0.0000

          k = 0.2667-0.3079 0.0000 ( 11925 PWs)   bands (ev):

   -17.4737 -17.3018 -10.3126 -10.1771  -7.7642  -7.6373  -5.3910  -4.5878
     3.7816   4.1506   5.8071   6.3281   7.2989   7.7417

     occupation numbers 
     1.0000   1.0000   1.0000   1.0000   1.0000   1.0000   1.0000   1.0000
     0.0000   0.0000   0.0000   0.0000   0.0000   0.0000

          k = 0.2667-0.2309 0.0000 ( 11910 PWs)   bands (ev):

   -18.1873 -18.0111  -9.5252  -9.3904  -6.6341  -6.5098  -6.2174  -5.3721
     4.7698   4.9033   5.2853   5.3567   6.3212   6.7599

     occupation numbers 
     1.0000   1.0000   1.0000   1.0000   1.0000   1.0000   1.0000   1.0000
     0.0000   0.0000   0.0000   0.0000   0.0000   0.0000

          k = 0.2667-0.1540 0.0000 ( 11876 PWs)   bands (ev):

   -18.7032 -18.5237  -8.6560  -8.5234  -6.8211  -5.9979  -5.9481  -5.8747
     4.0436   4.6029   5.5998   5.8818   6.1189   6.3091

     occupation numbers 
     1.0000   1.0000   1.0000   1.0000   1.0000   1.0000   1.0000   1.0000
     0.0000   0.0000   0.0000   0.0000   0.0000   0.0000

          k = 0.2667-0.0770 0.0000 ( 11880 PWs)   bands (ev):

   -19.0148 -18.8334  -7.7971  -7.6682  -7.1880  -6.2994  -5.9676  -5.8443
     3.6030   4.1759   5.1906   5.5998   6.7684   6.8306

     occupation numbers 
     1.0000   1.0000   1.0000   1.0000   1.0000   1.0000   1.0000   1.0000
     0.0000   0.0000   0.0000   0.0000   0.0000   0.0000

          k = 0.2667 0.0000 0.0000 ( 11879 PWs)   bands (ev):

   -19.1191 -18.9369  -7.3135  -7.3084  -7.1866  -6.4173  -6.1725  -6.0500
     3.4561   4.0330   5.0511   5.4616   6.7197   7.0881

     occupation numbers 
     1.0000   1.0000   1.0000   1.0000   1.0000   1.0000   1.0000   1.0000
     0.0000   0.0000   0.0000   0.0000   0.0000   0.0000

          k = 0.2667 0.0770 0.0000 ( 11880 PWs)   bands (ev):

   -19.0148 -18.8334  -7.7971  -7.6682  -7.1880  -6.2994  -5.9676  -5.8442
     3.6030   4.1759   5.1906   5.5998   6.7684   6.8308

     occupation numbers 
     1.0000   1.0000   1.0000   1.0000   1.0000   1.0000   1.0000   1.0000
     0.0000   0.0000   0.0000   0.0000   0.0000   0.0000

          k = 0.3333 0.1925 0.0000 ( 11914 PWs)   bands (ev):

   -17.7774 -17.6036 -10.4315 -10.2928  -6.5748  -6.4511  -5.7518  -4.9345
     4.0265   4.4835   5.3683   5.9055   6.8413   7.0513

     occupation numbers 
     1.0000   1.0000   1.0000   1.0000   1.0000   1.0000   1.0000   1.0000
     0.0000   0.0000   0.0000   0.0000   0.0000   0.0000

          k = 0.3333 0.2694 0.0000 ( 11938 PWs)   bands (ev):

   -17.1698 -16.9998 -11.2536 -11.1124  -7.1410  -7.0161  -5.0696  -4.2982
     3.0690   3.5367   6.2482   6.7544   7.3947   7.5476

     occupation numbers 
     1.0000   1.0000   1.0000   1.0000   1.0000   1.0000   1.0000   1.0000
     0.0000   0.0000   0.0000   0.0000   0.0000   0.0000

          k = 0.3333 0.3464 0.0000 ( 11927 PWs)   bands (ev):

   -16.3763 -16.2114 -11.9344 -11.7919  -8.2122  -8.0841  -4.1939  -3.4912
     2.1198   2.5463   7.4200   7.8832   8.5422   8.7056

     occupation numbers 
     1.0000   1.0000   1.0000   1.0000   1.0000   1.0000   1.0000   1.0000
     0.0000   0.0000   0.0000   0.0000   0.0000   0.0000

          k = 0.3333 0.4234 0.0000 ( 11953 PWs)   bands (ev):

   -15.4204 -15.2621 -12.4552 -12.3138  -9.5196  -9.3880  -3.1625  -2.5568
     1.1892   1.5368   8.8726   9.2470   9.9559  10.1532

     occupation numbers 
     1.0000   1.0000   1.0000   1.0000   1.0000   1.0000   1.0000   1.0000
     0.0000   0.0000   0.0000   0.0000   0.0000   0.0000

          k = 0.3333 0.5004 0.0000 ( 11948 PWs)   bands (ev):

   -14.3610 -14.2127 -12.8531 -12.7181 -10.7658 -10.6347  -2.0344  -1.5555
     0.2233   0.5163   9.9729  10.2351  10.6798  10.9903

     occupation numbers 
     1.0000   1.0000   1.0000   1.0000   1.0000   1.0000   1.0000   1.0000
     0.0000   0.0000   0.0000   0.0000   0.0000   0.0000

          k = 0.3333 0.5774 0.0000 ( 11919 PWs)   bands (ev):

   -13.4067 -13.3894 -13.2656 -13.2526 -11.3862 -11.2612  -1.0196  -0.7687
    -0.6279  -0.3591   9.8284  10.0353  11.9230  12.2634

     occupation numbers 
     1.0000   1.0000   1.0000   1.0000   1.0000   1.0000   0.9996   0.7681
     0.2321   0.0002   0.0000   0.0000   0.0000   0.0000

          k = 0.3333 0.6543 0.0000 ( 11948 PWs)   bands (ev):

   -14.3611 -14.2127 -12.8531 -12.7180 -10.7658 -10.6347  -2.0344  -1.5556
     0.2233   0.5163   9.9729  10.2351  10.6798  10.9903

     occupation numbers 
     1.0000   1.0000   1.0000   1.0000   1.0000   1.0000   1.0000   1.0000
     0.0000   0.0000   0.0000   0.0000   0.0000   0.0000

          k = 0.3333 0.7313 0.0000 ( 11953 PWs)   bands (ev):

   -15.4204 -15.2621 -12.4552 -12.3138  -9.5196  -9.3880  -3.1625  -2.5568
     1.1892   1.5368   8.8726   9.2470   9.9559  10.1532

     occupation numbers 
     1.0000   1.0000   1.0000   1.0000   1.0000   1.0000   1.0000   1.0000
     0.0000   0.0000   0.0000   0.0000   0.0000   0.0000

          k = 0.3333-0.3464 0.0000 ( 11927 PWs)   bands (ev):

   -16.3763 -16.2114 -11.9344 -11.7919  -8.2122  -8.0841  -4.1939  -3.4912
     2.1199   2.5463   7.4200   7.8832   8.5422   8.7056

     occupation numbers 
     1.0000   1.0000   1.0000   1.0000   1.0000   1.0000   1.0000   1.0000
     0.0000   0.0000   0.0000   0.0000   0.0000   0.0000

          k = 0.3333-0.2694 0.0000 ( 11938 PWs)   bands (ev):

   -17.1698 -16.9998 -11.2536 -11.1124  -7.1410  -7.0161  -5.0696  -4.2983
     3.0690   3.5368   6.2482   6.7544   7.3947   7.5476

     occupation numbers 
     1.0000   1.0000   1.0000   1.0000   1.0000   1.0000   1.0000   1.0000
     0.0000   0.0000   0.0000   0.0000   0.0000   0.0000

          k = 0.3333-0.1925 0.0000 ( 11914 PWs)   bands (ev):

   -17.7774 -17.6036 -10.4315 -10.2928  -6.5748  -6.4512  -5.7518  -4.9345
     4.0266   4.4835   5.3683   5.9055   6.8413   7.0513

     occupation numbers 
     1.0000   1.0000   1.0000   1.0000   1.0000   1.0000   1.0000   1.0000
     0.0000   0.0000   0.0000   0.0000   0.0000   0.0000

          k = 0.3333-0.1155 0.0000 ( 11910 PWs)   bands (ev):

   -18.1873 -18.0111  -9.5252  -9.3904  -6.6341  -6.5098  -6.2174  -5.3721
     4.7698   4.9033   5.2853   5.3567   6.3212   6.7599

     occupation numbers 
     1.0000   1.0000   1.0000   1.0000   1.0000   1.0000   1.0000   1.0000
     0.0000   0.0000   0.0000   0.0000   0.0000   0.0000

          k = 0.3333-0.0385 0.0000 ( 11929 PWs)   bands (ev):

   -18.3937 -18.2161  -8.7122  -8.5839  -7.0850  -6.9604  -6.4532  -5.5946
     4.4846   5.0353   5.5049   5.7918   6.0426   6.4650

     occupation numbers 
     1.0000   1.0000   1.0000   1.0000   1.0000   1.0000   1.0000   1.0000
     0.0000   0.0000   0.0000   0.0000   0.0000   0.0000

          k = 0.3333 0.0385 0.0000 ( 11929 PWs)   bands (ev):

   -18.3937 -18.2161  -8.7122  -8.5839  -7.0850  -6.9603  -6.4532  -5.5945
     4.4846   5.0353   5.5049   5.7918   6.0426   6.4650

     occupation numbers 
     1.0000   1.0000   1.0000   1.0000   1.0000   1.0000   1.0000   1.0000
     0.0000   0.0000   0.0000   0.0000   0.0000   0.0000

          k = 0.3333 0.1155 0.0000 ( 11910 PWs)   bands (ev):

   -18.1873 -18.0111  -9.5252  -9.3904  -6.6341  -6.5098  -6.2174  -5.3721
     4.7698   4.9033   5.2853   5.3567   6.3212   6.7599

     occupation numbers 
     1.0000   1.0000   1.0000   1.0000   1.0000   1.0000   1.0000   1.0000
     0.0000   0.0000   0.0000   0.0000   0.0000   0.0000

          k = 0.4000 0.2309 0.0000 ( 11910 PWs)   bands (ev):

   -16.6705 -16.5038 -12.1409 -11.9960  -6.9818  -6.8579  -4.5528  -3.8412
     2.2493   2.7541   6.8305   6.9837   7.0520   7.4953

     occupation numbers 
     1.0000   1.0000   1.0000   1.0000   1.0000   1.0000   1.0000   1.0000
     0.0000   0.0000   0.0000   0.0000   0.0000   0.0000

          k = 0.4000 0.3079 0.0000 ( 11920 PWs)   bands (ev):

   -15.9913 -15.8294 -12.8808 -12.7341  -7.4557  -7.3305  -3.8760  -3.2622
     1.5032   1.9707   7.2350   7.4641   8.0095   8.4742

     occupation numbers 
     1.0000   1.0000   1.0000   1.0000   1.0000   1.0000   1.0000   1.0000
     0.0000   0.0000   0.0000   0.0000   0.0000   0.0000

          k = 0.4000 0.3849 0.0000 ( 11935 PWs)   bands (ev):

   -15.1774 -15.0247 -13.4079 -13.2639  -8.4360  -8.3074  -3.1085  -2.6369
     0.9307   1.2732   8.4341   8.6946   9.3193   9.7071

     occupation numbers 
     1.0000   1.0000   1.0000   1.0000   1.0000   1.0000   1.0000   1.0000
     0.0000   0.0000   0.0000   0.0000   0.0000   0.0000

          k = 0.4000 0.4619 0.0000 ( 11949 PWs)   bands (ev):

   -14.4716 -14.3369 -13.4964 -13.3673  -9.6533  -9.5208  -2.4066  -2.0445
     0.5566   0.7225  10.0297  10.3269  10.5733  10.7642

     occupation numbers 
     1.0000   1.0000   1.0000   1.0000   1.0000   1.0000   1.0000   1.0000
     0.0000   0.0000   0.0000   0.0000   0.0000   0.0000

          k = 0.4000 0.5389 0.0000 ( 11948 PWs)   bands (ev):

   -14.3610 -14.2127 -12.8531 -12.7180 -10.7658 -10.6347  -2.0344  -1.5555
     0.2233   0.5163   9.9730  10.2351  10.6798  10.9903

     occupation numbers 
     1.0000   1.0000   1.0000   1.0000   1.0000   1.0000   1.0000   1.0000
     0.0000   0.0000   0.0000   0.0000   0.0000   0.0000

          k = 0.4000 0.6158 0.0000 ( 11948 PWs)   bands (ev):

   -14.3610 -14.2127 -12.8531 -12.7180 -10.7658 -10.6347  -2.0344  -1.5555
     0.2233   0.5163   9.9729  10.2351  10.6798  10.9903

     occupation numbers 
     1.0000   1.0000   1.0000   1.0000   1.0000   1.0000   1.0000   1.0000
     0.0000   0.0000   0.0000   0.0000   0.0000   0.0000

          k = 0.4000 0.6928 0.0000 ( 11949 PWs)   bands (ev):

   -14.4716 -14.3370 -13.4964 -13.3673  -9.6533  -9.5208  -2.4067  -2.0445
     0.5566   0.7225  10.0297  10.3269  10.5733  10.7642

     occupation numbers 
     1.0000   1.0000   1.0000   1.0000   1.0000   1.0000   1.0000   1.0000
     0.0000   0.0000   0.0000   0.0000   0.0000   0.0000

          k = 0.4000 0.7698 0.0000 ( 11935 PWs)   bands (ev):

   -15.1774 -15.0247 -13.4079 -13.2639  -8.4360  -8.3074  -3.1086  -2.6369
     0.9307   1.2732   8.4341   8.6946   9.3193   9.7071

     occupation numbers 
     1.0000   1.0000   1.0000   1.0000   1.0000   1.0000   1.0000   1.0000
     0.0000   0.0000   0.0000   0.0000   0.0000   0.0000

          k = 0.4000-0.3079 0.0000 ( 11920 PWs)   bands (ev):

   -15.9913 -15.8295 -12.8808 -12.7341  -7.4557  -7.3305  -3.8760  -3.2622
     1.5033   1.9708   7.2350   7.4640   8.0095   8.4742

     occupation numbers 
     1.0000   1.0000   1.0000   1.0000   1.0000   1.0000   1.0000   1.0000
     0.0000   0.0000   0.0000   0.0000   0.0000   0.0000

          k = 0.4000-0.2309 0.0000 ( 11910 PWs)   bands (ev):

   -16.6705 -16.5037 -12.1408 -11.9960  -6.9818  -6.8579  -4.5528  -3.8412
     2.2494   2.7541   6.8305   6.9837   7.0520   7.4953

     occupation numbers 
     1.0000   1.0000   1.0000   1.0000   1.0000   1.0000   1.0000   1.0000
     0.0000   0.0000   0.0000   0.0000   0.0000   0.0000

          k = 0.4000-0.1540 0.0000 ( 11938 PWs)   bands (ev):

   -17.1698 -16.9998 -11.2536 -11.1124  -7.1410  -7.0161  -5.0696  -4.2983
     3.0690   3.5368   6.2482   6.7544   7.3947   7.5476

     occupation numbers 
     1.0000   1.0000   1.0000   1.0000   1.0000   1.0000   1.0000   1.0000
     0.0000   0.0000   0.0000   0.0000   0.0000   0.0000

          k = 0.4000-0.0770 0.0000 ( 11925 PWs)   bands (ev):

   -17.4737 -17.3018 -10.3126 -10.1771  -7.7642  -7.6373  -5.3910  -4.5878
     3.7816   4.1506   5.8071   6.3281   7.2989   7.7417

     occupation numbers 
     1.0000   1.0000   1.0000   1.0000   1.0000   1.0000   1.0000   1.0000
     0.0000   0.0000   0.0000   0.0000   0.0000   0.0000

          k = 0.4000 0.0000 0.0000 ( 11953 PWs)   bands (ev):

   -17.5756 -17.4031  -9.7277  -9.6009  -8.2641  -8.1392  -5.4998  -4.6866
     4.0910   4.3832   5.6596   6.1818   7.1599   7.5929

     occupation numbers 
     1.0000   1.0000   1.0000   1.0000   1.0000   1.0000   1.0000   1.0000
     0.0000   0.0000   0.0000   0.0000   0.0000   0.0000

          k = 0.4000 0.0770 0.0000 ( 11925 PWs)   bands (ev):

   -17.4737 -17.3018 -10.3126 -10.1771  -7.7642  -7.6373  -5.3910  -4.5878
     3.7816   4.1506   5.8071   6.3281   7.2989   7.7417

     occupation numbers 
     1.0000   1.0000   1.0000   1.0000   1.0000   1.0000   1.0000   1.0000
     0.0000   0.0000   0.0000   0.0000   0.0000   0.0000

          k = 0.4000 0.1540 0.0000 ( 11938 PWs)   bands (ev):

   -17.1698 -16.9998 -11.2536 -11.1124  -7.1410  -7.0161  -5.0696  -4.2982
     3.0690   3.5367   6.2482   6.7544   7.3947   7.5476

     occupation numbers 
     1.0000   1.0000   1.0000   1.0000   1.0000   1.0000   1.0000   1.0000
     0.0000   0.0000   0.0000   0.0000   0.0000   0.0000

          k = 0.4667 0.2694 0.0000 ( 11924 PWs)   bands (ev):

   -15.4559 -15.3016 -13.6610 -13.5152  -7.1912  -7.0672  -3.4853  -3.0138
     1.0205   1.4418   6.7309   6.9587   8.8880   9.3200

     occupation numbers 
     1.0000   1.0000   1.0000   1.0000   1.0000   1.0000   1.0000   1.0000
     0.0000   0.0000   0.0000   0.0000   0.0000   0.0000

          k = 0.4667 0.3464 0.0000 ( 11913 PWs)   bands (ev):

   -15.0119 -14.8760 -13.9931 -13.8617  -7.5622  -7.4369  -3.1771  -2.8077
     0.8322   1.1752   7.1816   7.4164  10.0458  10.0582

     occupation numbers 
     1.0000   1.0000   1.0000   1.0000   1.0000   1.0000   1.0000   1.0000
     0.0000   0.0000   0.0000   0.0000   0.0000   0.0000

          k = 0.4667 0.4234 0.0000 ( 11935 PWs)   bands (ev):

   -15.1774 -15.0247 -13.4079 -13.2639  -8.4360  -8.3074  -3.1085  -2.6369
     0.9307   1.2732   8.4341   8.6946   9.3193   9.7071

     occupation numbers 
     1.0000   1.0000   1.0000   1.0000   1.0000   1.0000   1.0000   1.0000
     0.0000   0.0000   0.0000   0.0000   0.0000   0.0000

          k = 0.4667 0.5004 0.0000 ( 11953 PWs)   bands (ev):

   -15.4204 -15.2621 -12.4552 -12.3138  -9.5196  -9.3880  -3.1625  -2.5568
     1.1892   1.5368   8.8726   9.2470   9.9559  10.1533

     occupation numbers 
     1.0000   1.0000   1.0000   1.0000   1.0000   1.0000   1.0000   1.0000
     0.0000   0.0000   0.0000   0.0000   0.0000   0.0000

          k = 0.4667 0.5774 0.0000 ( 11961 PWs)   bands (ev):

   -15.5097 -15.3503 -11.7992 -11.6694 -10.2201 -10.0931  -3.1950  -2.5419
     1.3359   1.6649   8.7228   9.0930   9.8231  10.2921

     occupation numbers 
     1.0000   1.0000   1.0000   1.0000   1.0000   1.0000   1.0000   1.0000
     0.0000   0.0000   0.0000   0.0000   0.0000   0.0000

          k = 0.4667 0.6543 0.0000 ( 11953 PWs)   bands (ev):

   -15.4204 -15.2621 -12.4552 -12.3138  -9.5196  -9.3880  -3.1625  -2.5568
     1.1892   1.5368   8.8726   9.2470   9.9559  10.1533

     occupation numbers 
     1.0000   1.0000   1.0000   1.0000   1.0000   1.0000   1.0000   1.0000
     0.0000   0.0000   0.0000   0.0000   0.0000   0.0000

          k = 0.4667 0.7313 0.0000 ( 11935 PWs)   bands (ev):

   -15.1774 -15.0247 -13.4079 -13.2639  -8.4360  -8.3074  -3.1085  -2.6369
     0.9307   1.2732   8.4341   8.6946   9.3193   9.7071

     occupation numbers 
     1.0000   1.0000   1.0000   1.0000   1.0000   1.0000   1.0000   1.0000
     0.0000   0.0000   0.0000   0.0000   0.0000   0.0000

          k = 0.4667 0.8083 0.0000 ( 11913 PWs)   bands (ev):

   -15.0119 -14.8760 -13.9931 -13.8617  -7.5622  -7.4369  -3.1771  -2.8078
     0.8322   1.1752   7.1815   7.4163  10.0458  10.0582

     occupation numbers 
     1.0000   1.0000   1.0000   1.0000   1.0000   1.0000   1.0000   1.0000
     0.0000   0.0000   0.0000   0.0000   0.0000   0.0000

          k = 0.4667-0.2694 0.0000 ( 11924 PWs)   bands (ev):

   -15.4559 -15.3016 -13.6610 -13.5152  -7.1912  -7.0672  -3.4853  -3.0138
     1.0206   1.4418   6.7309   6.9587   8.8880   9.3200

     occupation numbers 
     1.0000   1.0000   1.0000   1.0000   1.0000   1.0000   1.0000   1.0000
     0.0000   0.0000   0.0000   0.0000   0.0000   0.0000

          k = 0.4667-0.1925 0.0000 ( 11920 PWs)   bands (ev):

   -15.9913 -15.8295 -12.8808 -12.7341  -7.4557  -7.3305  -3.8760  -3.2622
     1.5033   1.9707   7.2350   7.4640   8.0095   8.4742

     occupation numbers 
     1.0000   1.0000   1.0000   1.0000   1.0000   1.0000   1.0000   1.0000
     0.0000   0.0000   0.0000   0.0000   0.0000   0.0000

          k = 0.4667-0.1155 0.0000 ( 11927 PWs)   bands (ev):

   -16.3763 -16.2114 -11.9344 -11.7919  -8.2122  -8.0841  -4.1939  -3.4912
     2.1199   2.5463   7.4200   7.8832   8.5422   8.7056

     occupation numbers 
     1.0000   1.0000   1.0000   1.0000   1.0000   1.0000   1.0000   1.0000
     0.0000   0.0000   0.0000   0.0000   0.0000   0.0000

          k = 0.4667-0.0385 0.0000 ( 11949 PWs)   bands (ev):

   -16.5735 -16.4072 -11.0190 -10.8856  -9.0897  -8.9612  -4.3669  -3.6246
     2.5869   2.9200   7.1254   7.5959   8.5243   8.9801

     occupation numbers 
     1.0000   1.0000   1.0000   1.0000   1.0000   1.0000   1.0000   1.0000
     0.0000   0.0000   0.0000   0.0000   0.0000   0.0000

          k = 0.4667 0.0385 0.0000 ( 11949 PWs)   bands (ev):

   -16.5735 -16.4072 -11.0190 -10.8856  -9.0897  -8.9612  -4.3669  -3.6246
     2.5869   2.9200   7.1254   7.5959   8.5243   8.9801

     occupation numbers 
     1.0000   1.0000   1.0000   1.0000   1.0000   1.0000   1.0000   1.0000
     0.0000   0.0000   0.0000   0.0000   0.0000   0.0000

          k = 0.4667 0.1155 0.0000 ( 11927 PWs)   bands (ev):

   -16.3763 -16.2114 -11.9344 -11.7919  -8.2122  -8.0841  -4.1939  -3.4912
     2.1198   2.5463   7.4200   7.8832   8.5422   8.7056

     occupation numbers 
     1.0000   1.0000   1.0000   1.0000   1.0000   1.0000   1.0000   1.0000
     0.0000   0.0000   0.0000   0.0000   0.0000   0.0000

          k = 0.4667 0.1925 0.0000 ( 11920 PWs)   bands (ev):

   -15.9913 -15.8294 -12.8808 -12.7341  -7.4557  -7.3305  -3.8760  -3.2622
     1.5032   1.9707   7.2350   7.4641   8.0095   8.4742

     occupation numbers 
     1.0000   1.0000   1.0000   1.0000   1.0000   1.0000   1.0000   1.0000
     0.0000   0.0000   0.0000   0.0000   0.0000   0.0000

     the Fermi energy is    -0.6983 ev

!    total energy              =     -48.20782325 Ry
     estimated scf accuracy    <          6.6E-11 Ry
     smearing contrib. (-TS)   =      -0.00007701 Ry
     internal energy E=F+TS    =     -48.20774625 Ry

     The total energy is F=E-TS. E is the sum of the following terms:
     one-electron contribution =    -704.36220734 Ry
     hartree contribution      =     355.78107589 Ry
     xc contribution           =     -17.18630203 Ry
     ewald contribution        =     317.93025383 Ry
     DFT-D3 Dispersion         =      -0.01756577 Ry
     electric field correction =      -0.35300084 Ry

     convergence has been achieved in   7 iterations

     Forces acting on atoms (cartesian axes, Ry/au):

     atom    1 type  1   force =    -0.00000319   -0.00000772    0.00057533
     atom    2 type  1   force =     0.00000320    0.00000771   -0.00204176
     atom    3 type  1   force =    -0.00000581    0.00000634    0.00174042
     atom    4 type  1   force =     0.00000580   -0.00000633   -0.00027399
     The non-local contrib.  to forces
     atom    1 type  1   force =    -0.00000216   -0.00000522   -0.00289032
     atom    2 type  1   force =     0.00000216    0.00000521   -0.00821816
     atom    3 type  1   force =    -0.00000393    0.00000428   -0.00049959
     atom    4 type  1   force =     0.00000390   -0.00000430   -0.00451618
     The ionic contribution  to forces
     atom    1 type  1   force =    -0.00001058   -0.00002550  -15.28965819
     atom    2 type  1   force =     0.00001058    0.00002551  -15.23163684
     atom    3 type  1   force =    -0.00001917    0.00002088   15.23888298
     atom    4 type  1   force =     0.00001917   -0.00002089   15.28241206
     The local contribution  to forces
     atom    1 type  1   force =     0.00000935    0.00002253   15.25173019
     atom    2 type  1   force =    -0.00000934   -0.00002253   15.19647505
     atom    3 type  1   force =     0.00001691   -0.00001845  -15.27549350
     atom    4 type  1   force =    -0.00001692    0.00001845  -15.31695486
     The core correction contribution to forces
     atom    1 type  1   force =     0.00000019    0.00000047    0.00016239
     atom    2 type  1   force =    -0.00000019   -0.00000047    0.00017938
     atom    3 type  1   force =     0.00000035   -0.00000038    0.00000756
     atom    4 type  1   force =    -0.00000035    0.00000038    0.00001479
     The Hubbard contrib.    to forces
     atom    1 type  1   force =     0.00000000    0.00000000    0.00000000
     atom    2 type  1   force =     0.00000000    0.00000000    0.00000000
     atom    3 type  1   force =     0.00000000    0.00000000    0.00000000
     atom    4 type  1   force =     0.00000000    0.00000000    0.00000000
     The SCF correction term to forces
     atom    1 type  1   force =     0.00000000   -0.00000000   -0.00001546
     atom    2 type  1   force =    -0.00000000   -0.00000000   -0.00001544
     atom    3 type  1   force =     0.00000001    0.00000000    0.00001614
     atom    4 type  1   force =    -0.00000000    0.00000000    0.00001599

     DFT-D3 dispersion contribution to forces:
     atom    1 type  1   force =     0.00000000    0.00000000    0.00124622
     atom    2 type  1   force =    -0.00000000   -0.00000000    0.00117375
     atom    3 type  1   force =     0.00000000   -0.00000000   -0.00117367
     atom    4 type  1   force =    -0.00000000    0.00000000   -0.00124629

     Total force =     0.002758     Total SCF correction =     0.000032

     DFT-D3 dispersion Force =     0.002421
     Energy error            =      3.3E-05 Ry
     Gradient error          =      2.0E-03 Ry/Bohr

     number of scf cycles    =   8
     number of bfgs steps    =   7

     energy             old  =     -48.2077898448 Ry
     energy             new  =     -48.2078232535 Ry

     CASE: energy            _new < energy            _old

     new trust radius        =       0.0173719623 bohr
     new conv_thr            =            1.0E-10 Ry


ATOMIC_POSITIONS (angstrom)
C               -0.0000047625       -0.0000060943        9.9733018865
C                1.2299981018        0.7101420752        9.9762557819
C                1.2300008468        0.7101462497       13.3740860589
C                0.0000058139        1.4202810938       13.3763562728



     Writing config-only to output data dir /home/ubuntu/projects/Graphene-Band-Structure-Quantum-Espresso/outputs/field_0.005/data/field_0.005.save/ :
     XML data file
     NEW-OLD atomic charge density approx. for the potential

     negative rho (up, down):  1.659E-06 0.000E+00

     Adding external electric field
        E field amplitude [Ha a.u.]:  5.0000E-03
        Potential amp.        0.3971 Ry
        Total length         39.7126 bohr


     total cpu time spent up to now is      234.3 secs

     Self-consistent Calculation

     iteration #  1     ecut=    90.00 Ry     beta= 0.70
     Davidson diagonalization with overlap

---- Real-time Memory Report at c_bands before calling an iterative solver
           153 MiB given to the printing process from OS
             0 MiB allocation reported by mallinfo(arena+hblkhd)
         29314 MiB available memory on the node where the printing process lives
------------------
     ethr =  1.00E-06,  avg # of iterations =  5.0

     negative rho (up, down):  4.566E-07 0.000E+00

     total cpu time spent up to now is      240.7 secs

     total energy              =     -48.20777836 Ry
     estimated scf accuracy    <       0.00024514 Ry

     iteration #  2     ecut=    90.00 Ry     beta= 0.70
     Davidson diagonalization with overlap

---- Real-time Memory Report at c_bands before calling an iterative solver
           153 MiB given to the printing process from OS
             0 MiB allocation reported by mallinfo(arena+hblkhd)
         29296 MiB available memory on the node where the printing process lives
------------------
     ethr =  1.53E-06,  avg # of iterations =  4.5

     negative rho (up, down):  2.803E-07 0.000E+00

     total cpu time spent up to now is      244.8 secs

     total energy              =     -48.20781587 Ry
     estimated scf accuracy    <       0.00021803 Ry

     iteration #  3     ecut=    90.00 Ry     beta= 0.70
     Davidson diagonalization with overlap

---- Real-time Memory Report at c_bands before calling an iterative solver
           153 MiB given to the printing process from OS
             0 MiB allocation reported by mallinfo(arena+hblkhd)
         29295 MiB available memory on the node where the printing process lives
------------------
     ethr =  1.36E-06,  avg # of iterations =  3.0

     negative rho (up, down):  4.000E-08 0.000E+00

     total cpu time spent up to now is      248.4 secs

     total energy              =     -48.20786676 Ry
     estimated scf accuracy    <       0.00000352 Ry

     iteration #  4     ecut=    90.00 Ry     beta= 0.70
     Davidson diagonalization with overlap

---- Real-time Memory Report at c_bands before calling an iterative solver
           153 MiB given to the printing process from OS
             0 MiB allocation reported by mallinfo(arena+hblkhd)
         29284 MiB available memory on the node where the printing process lives
------------------
     ethr =  2.20E-08,  avg # of iterations =  2.0

     negative rho (up, down):  2.764E-08 0.000E+00

     total cpu time spent up to now is      252.1 secs

     total energy              =     -48.20786715 Ry
     estimated scf accuracy    <       0.00000151 Ry

     iteration #  5     ecut=    90.00 Ry     beta= 0.70
     Davidson diagonalization with overlap

---- Real-time Memory Report at c_bands before calling an iterative solver
           153 MiB given to the printing process from OS
             0 MiB allocation reported by mallinfo(arena+hblkhd)
         29281 MiB available memory on the node where the printing process lives
------------------
     ethr =  9.46E-09,  avg # of iterations =  1.6

     total cpu time spent up to now is      255.8 secs

     total energy              =     -48.20786746 Ry
     estimated scf accuracy    <       0.00000006 Ry

     iteration #  6     ecut=    90.00 Ry     beta= 0.70
     Davidson diagonalization with overlap

---- Real-time Memory Report at c_bands before calling an iterative solver
           153 MiB given to the printing process from OS
             0 MiB allocation reported by mallinfo(arena+hblkhd)
         29255 MiB available memory on the node where the printing process lives
------------------
     ethr =  3.93E-10,  avg # of iterations =  2.1

     total cpu time spent up to now is      259.5 secs

     total energy              =     -48.20786747 Ry
     estimated scf accuracy    <          1.7E-09 Ry

     iteration #  7     ecut=    90.00 Ry     beta= 0.70
     Davidson diagonalization with overlap

---- Real-time Memory Report at c_bands before calling an iterative solver
           153 MiB given to the printing process from OS
             0 MiB allocation reported by mallinfo(arena+hblkhd)
         29261 MiB available memory on the node where the printing process lives
------------------
     ethr =  1.09E-11,  avg # of iterations =  3.1

     total cpu time spent up to now is      263.8 secs

     total energy              =     -48.20786747 Ry
     estimated scf accuracy    <          1.4E-10 Ry

     iteration #  8     ecut=    90.00 Ry     beta= 0.70
     Davidson diagonalization with overlap

---- Real-time Memory Report at c_bands before calling an iterative solver
           153 MiB given to the printing process from OS
             0 MiB allocation reported by mallinfo(arena+hblkhd)
         29258 MiB available memory on the node where the printing process lives
------------------
     ethr =  8.61E-13,  avg # of iterations =  2.5

     total cpu time spent up to now is      267.8 secs

     End of self-consistent calculation

          k = 0.0000 0.0000 0.0000 ( 11659 PWs)   bands (ev):

   -20.3760 -20.1898  -8.8141  -7.8947  -3.7970  -3.7968  -3.6768  -3.6766
     1.6916   2.3017   3.3425   3.7391   5.0168   6.1429

     occupation numbers 
     1.0000   1.0000   1.0000   1.0000   1.0000   1.0000   1.0000   1.0000
     0.0000   0.0000   0.0000   0.0000   0.0000   0.0000

          k = 0.0000 0.0770 0.0000 ( 11791 PWs)   bands (ev):

   -20.2703 -20.0848  -8.6860  -7.7704  -4.2234  -4.1023  -4.0216  -3.9012
     1.8386   2.4460   3.4846   3.8830   5.1583   6.2803

     occupation numbers 
     1.0000   1.0000   1.0000   1.0000   1.0000   1.0000   1.0000   1.0000
     0.0000   0.0000   0.0000   0.0000   0.0000   0.0000

          k = 0.0000 0.1540 0.0000 ( 11788 PWs)   bands (ev):

   -19.9540 -19.7705  -8.3037  -7.3996  -5.3570  -5.2337  -4.5912  -4.4700
     2.2798   2.8789   3.9109   4.3143   5.5824   6.6895

     occupation numbers 
     1.0000   1.0000   1.0000   1.0000   1.0000   1.0000   1.0000   1.0000
     0.0000   0.0000   0.0000   0.0000   0.0000   0.0000

          k = 0.0000 0.2309 0.0000 ( 11848 PWs)   bands (ev):

   -19.4293 -19.2491  -7.6735  -6.9132  -6.7950  -6.7807  -5.3036  -5.1816
     3.0149   3.5993   4.6198   5.0309   6.2828   7.3275

     occupation numbers 
     1.0000   1.0000   1.0000   1.0000   1.0000   1.0000   1.0000   1.0000
     0.0000   0.0000   0.0000   0.0000   0.0000   0.0000

          k = 0.0000 0.3079 0.0000 ( 11876 PWs)   bands (ev):

   -18.7004 -18.5247  -8.6549  -8.5231  -6.8092  -5.9970  -5.9591  -5.8743
     4.0435   4.6017   5.5951   5.8869   6.1195   6.3057

     occupation numbers 
     1.0000   1.0000   1.0000   1.0000   1.0000   1.0000   1.0000   1.0000
     0.0000   0.0000   0.0000   0.0000   0.0000   0.0000

          k = 0.0000 0.3849 0.0000 ( 11914 PWs)   bands (ev):

   -17.7748 -17.6045 -10.4301 -10.2927  -6.5739  -6.4507  -5.7404  -4.9448
     4.0339   4.4781   5.3682   5.9041   6.8370   7.0537

     occupation numbers 
     1.0000   1.0000   1.0000   1.0000   1.0000   1.0000   1.0000   1.0000
     0.0000   0.0000   0.0000   0.0000   0.0000   0.0000

          k = 0.0000 0.4619 0.0000 ( 11910 PWs)   bands (ev):

   -16.6682 -16.5044 -12.1393 -11.9961  -6.9809  -6.8575  -4.5425  -3.8497
     2.2567   2.7481   6.8338   6.9835   7.0501   7.4940

     occupation numbers 
     1.0000   1.0000   1.0000   1.0000   1.0000   1.0000   1.0000   1.0000
     0.0000   0.0000   0.0000   0.0000   0.0000   0.0000

          k = 0.0000 0.5389 0.0000 ( 11924 PWs)   bands (ev):

   -15.4540 -15.3019 -13.6594 -13.5152  -7.1903  -7.0667  -3.4775  -3.0181
     1.0250   1.4369   6.7348   6.9566   8.8877   9.3183

     occupation numbers 
     1.0000   1.0000   1.0000   1.0000   1.0000   1.0000   1.0000   1.0000
     0.0000   0.0000   0.0000   0.0000   0.0000   0.0000

          k = 0.0667 0.0385 0.0000 ( 11791 PWs)   bands (ev):

   -20.2703 -20.0848  -8.6860  -7.7704  -4.2232  -4.1024  -4.0218  -3.9011
     1.8386   2.4460   3.4846   3.8830   5.1583   6.2803

     occupation numbers 
     1.0000   1.0000   1.0000   1.0000   1.0000   1.0000   1.0000   1.0000
     0.0000   0.0000   0.0000   0.0000   0.0000   0.0000

          k = 0.0667 0.1155 0.0000 ( 11813 PWs)   bands (ev):

   -20.0593 -19.8752  -8.4308  -7.5228  -4.9511  -4.8296  -4.4709  -4.3503
     2.1327   2.7347   3.7689   4.1706   5.4414   6.5548

     occupation numbers 
     1.0000   1.0000   1.0000   1.0000   1.0000   1.0000   1.0000   1.0000
     0.0000   0.0000   0.0000   0.0000   0.0000   0.0000

          k = 0.0667 0.1925 0.0000 ( 11832 PWs)   bands (ev):

   -19.6388 -19.4573  -7.9243  -7.0324  -6.2059  -6.0820  -5.2034  -5.0817
     2.7209   3.3116   4.3371   4.7452   6.0062   7.0978

     occupation numbers 
     1.0000   1.0000   1.0000   1.0000   1.0000   1.0000   1.0000   1.0000
     0.0000   0.0000   0.0000   0.0000   0.0000   0.0000

          k = 0.0667 0.2694 0.0000 ( 11880 PWs)   bands (ev):

   -19.0121 -18.8344  -7.7961  -7.6678  -7.1760  -6.3106  -5.9668  -5.8438
     3.6029   4.1747   5.1860   5.6007   6.7736   6.8198

     occupation numbers 
     1.0000   1.0000   1.0000   1.0000   1.0000   1.0000   1.0000   1.0000
     0.0000   0.0000   0.0000   0.0000   0.0000   0.0000

          k = 0.0667 0.3464 0.0000 ( 11910 PWs)   bands (ev):

   -18.1847 -18.0120  -9.5240  -9.3902  -6.6332  -6.5094  -6.2058  -5.3827
     4.7700   4.9093   5.2815   5.3550   6.3164   6.7608

     occupation numbers 
     1.0000   1.0000   1.0000   1.0000   1.0000   1.0000   1.0000   1.0000
     0.0000   0.0000   0.0000   0.0000   0.0000   0.0000

          k = 0.0667 0.4234 0.0000 ( 11938 PWs)   bands (ev):

   -17.1674 -17.0006 -11.2521 -11.1123  -7.1401  -7.0157  -5.0586  -4.3078
     3.0763   3.5314   6.2480   6.7529   7.3981   7.5446

     occupation numbers 
     1.0000   1.0000   1.0000   1.0000   1.0000   1.0000   1.0000   1.0000
     0.0000   0.0000   0.0000   0.0000   0.0000   0.0000

          k = 0.0667 0.5004 0.0000 ( 11920 PWs)   bands (ev):

   -15.9891 -15.8300 -12.8791 -12.7342  -7.4548  -7.3301  -3.8667  -3.2691
     1.5095   1.9653   7.2388   7.4620   8.0093   8.4727

     occupation numbers 
     1.0000   1.0000   1.0000   1.0000   1.0000   1.0000   1.0000   1.0000
     0.0000   0.0000   0.0000   0.0000   0.0000   0.0000

          k = 0.0667 0.5774 0.0000 ( 11913 PWs)   bands (ev):

   -15.0105 -14.8756 -13.9922 -13.8613  -7.5613  -7.4365  -3.1704  -2.8102
     0.8349   1.1716   7.1855   7.4142  10.0451  10.0579

     occupation numbers 
     1.0000   1.0000   1.0000   1.0000   1.0000   1.0000   1.0000   1.0000
     0.0000   0.0000   0.0000   0.0000   0.0000   0.0000

          k = 0.0667-0.5004 0.0000 ( 11920 PWs)   bands (ev):

   -15.9891 -15.8300 -12.8791 -12.7342  -7.4548  -7.3301  -3.8667  -3.2691
     1.5095   1.9653   7.2388   7.4620   8.0093   8.4727

     occupation numbers 
     1.0000   1.0000   1.0000   1.0000   1.0000   1.0000   1.0000   1.0000
     0.0000   0.0000   0.0000   0.0000   0.0000   0.0000

          k = 0.0667-0.4234 0.0000 ( 11938 PWs)   bands (ev):

   -17.1674 -17.0006 -11.2522 -11.1124  -7.1401  -7.0157  -5.0586  -4.3078
     3.0763   3.5314   6.2480   6.7529   7.3981   7.5446

     occupation numbers 
     1.0000   1.0000   1.0000   1.0000   1.0000   1.0000   1.0000   1.0000
     0.0000   0.0000   0.0000   0.0000   0.0000   0.0000

          k = 0.0667-0.3464 0.0000 ( 11910 PWs)   bands (ev):

   -18.1847 -18.0120  -9.5240  -9.3902  -6.6332  -6.5093  -6.2058  -5.3827
     4.7700   4.9093   5.2815   5.3550   6.3164   6.7608

     occupation numbers 
     1.0000   1.0000   1.0000   1.0000   1.0000   1.0000   1.0000   1.0000
     0.0000   0.0000   0.0000   0.0000   0.0000   0.0000

          k = 0.0667-0.2694 0.0000 ( 11880 PWs)   bands (ev):

   -19.0121 -18.8344  -7.7961  -7.6678  -7.1760  -6.3106  -5.9668  -5.8438
     3.6029   4.1747   5.1860   5.6007   6.7736   6.8198

     occupation numbers 
     1.0000   1.0000   1.0000   1.0000   1.0000   1.0000   1.0000   1.0000
     0.0000   0.0000   0.0000   0.0000   0.0000   0.0000

          k = 0.0667-0.1925 0.0000 ( 11832 PWs)   bands (ev):

   -19.6388 -19.4573  -7.9243  -7.0324  -6.2059  -6.0820  -5.2034  -5.0817
     2.7209   3.3116   4.3371   4.7452   6.0062   7.0978

     occupation numbers 
     1.0000   1.0000   1.0000   1.0000   1.0000   1.0000   1.0000   1.0000
     0.0000   0.0000   0.0000   0.0000   0.0000   0.0000

          k = 0.0667-0.1155 0.0000 ( 11813 PWs)   bands (ev):

   -20.0593 -19.8752  -8.4308  -7.5228  -4.9512  -4.8297  -4.4708  -4.3501
     2.1327   2.7347   3.7689   4.1706   5.4414   6.5548

     occupation numbers 
     1.0000   1.0000   1.0000   1.0000   1.0000   1.0000   1.0000   1.0000
     0.0000   0.0000   0.0000   0.0000   0.0000   0.0000

          k = 0.0667-0.0385 0.0000 ( 11791 PWs)   bands (ev):

   -20.2703 -20.0848  -8.6860  -7.7704  -4.2233  -4.1025  -4.0217  -3.9010
     1.8386   2.4460   3.4846   3.8830   5.1583   6.2803

     occupation numbers 
     1.0000   1.0000   1.0000   1.0000   1.0000   1.0000   1.0000   1.0000
     0.0000   0.0000   0.0000   0.0000   0.0000   0.0000

          k = 0.1333 0.0770 0.0000 ( 11788 PWs)   bands (ev):

   -19.9540 -19.7705  -8.3037  -7.3996  -5.3568  -5.2337  -4.5914  -4.4699
     2.2798   2.8789   3.9109   4.3143   5.5824   6.6895

     occupation numbers 
     1.0000   1.0000   1.0000   1.0000   1.0000   1.0000   1.0000   1.0000
     0.0000   0.0000   0.0000   0.0000   0.0000   0.0000

          k = 0.1333 0.1540 0.0000 ( 11832 PWs)   bands (ev):

   -19.6388 -19.4573  -7.9243  -7.0324  -6.2058  -6.0820  -5.2035  -5.0817
     2.7209   3.3116   4.3371   4.7452   6.0062   7.0978

     occupation numbers 
     1.0000   1.0000   1.0000   1.0000   1.0000   1.0000   1.0000   1.0000
     0.0000   0.0000   0.0000   0.0000   0.0000   0.0000

          k = 0.1333 0.2309 0.0000 ( 11879 PWs)   bands (ev):

   -19.1163 -18.9380  -7.3102  -7.2988  -7.1860  -6.4287  -6.1718  -6.0495
     3.4560   4.0318   5.0466   5.4624   6.7103   7.0926

     occupation numbers 
     1.0000   1.0000   1.0000   1.0000   1.0000   1.0000   1.0000   1.0000
     0.0000   0.0000   0.0000   0.0000   0.0000   0.0000

          k = 0.1333 0.3079 0.0000 ( 11929 PWs)   bands (ev):

   -18.3910 -18.2171  -8.7112  -8.5834  -7.0841  -6.9599  -6.4415  -5.6054
     4.4845   5.0341   5.5099   5.7895   6.0379   6.4660

     occupation numbers 
     1.0000   1.0000   1.0000   1.0000   1.0000   1.0000   1.0000   1.0000
     0.0000   0.0000   0.0000   0.0000   0.0000   0.0000

          k = 0.1333 0.3849 0.0000 ( 11925 PWs)   bands (ev):

   -17.4712 -17.3026 -10.3114 -10.1769  -7.7632  -7.6369  -5.3797  -4.5978
     3.7878   4.1470   5.8069   6.3267   7.2936   7.7430

     occupation numbers 
     1.0000   1.0000   1.0000   1.0000   1.0000   1.0000   1.0000   1.0000
     0.0000   0.0000   0.0000   0.0000   0.0000   0.0000

          k = 0.1333 0.4619 0.0000 ( 11927 PWs)   bands (ev):

   -16.3740 -16.2120 -11.9329 -11.7919  -8.2112  -8.0837  -4.1837  -3.4997
     2.1264   2.5418   7.4198   7.8818   8.5459   8.7018

     occupation numbers 
     1.0000   1.0000   1.0000   1.0000   1.0000   1.0000   1.0000   1.0000
     0.0000   0.0000   0.0000   0.0000   0.0000   0.0000

          k = 0.1333 0.5389 0.0000 ( 11935 PWs)   bands (ev):

   -15.1755 -15.0250 -13.4063 -13.2639  -8.4350  -8.3071  -3.1007  -2.6412
     0.9343   1.2697   8.4385   8.6924   9.3189   9.7057

     occupation numbers 
     1.0000   1.0000   1.0000   1.0000   1.0000   1.0000   1.0000   1.0000
     0.0000   0.0000   0.0000   0.0000   0.0000   0.0000

          k = 0.1333 0.6158 0.0000 ( 11935 PWs)   bands (ev):

   -15.1755 -15.0250 -13.4063 -13.2639  -8.4350  -8.3071  -3.1007  -2.6412
     0.9343   1.2697   8.4385   8.6924   9.3189   9.7057

     occupation numbers 
     1.0000   1.0000   1.0000   1.0000   1.0000   1.0000   1.0000   1.0000
     0.0000   0.0000   0.0000   0.0000   0.0000   0.0000

          k = 0.1333-0.4619 0.0000 ( 11927 PWs)   bands (ev):

   -16.3740 -16.2120 -11.9329 -11.7919  -8.2112  -8.0837  -4.1837  -3.4997
     2.1263   2.5418   7.4198   7.8818   8.5460   8.7018

     occupation numbers 
     1.0000   1.0000   1.0000   1.0000   1.0000   1.0000   1.0000   1.0000
     0.0000   0.0000   0.0000   0.0000   0.0000   0.0000

          k = 0.1333-0.3849 0.0000 ( 11925 PWs)   bands (ev):

   -17.4712 -17.3026 -10.3114 -10.1769  -7.7632  -7.6369  -5.3797  -4.5978
     3.7878   4.1470   5.8069   6.3267   7.2936   7.7430

     occupation numbers 
     1.0000   1.0000   1.0000   1.0000   1.0000   1.0000   1.0000   1.0000
     0.0000   0.0000   0.0000   0.0000   0.0000   0.0000

          k = 0.1333-0.3079 0.0000 ( 11929 PWs)   bands (ev):

   -18.3910 -18.2171  -8.7113  -8.5835  -7.0841  -6.9598  -6.4415  -5.6054
     4.4845   5.0341   5.5098   5.7895   6.0379   6.4660

     occupation numbers 
     1.0000   1.0000   1.0000   1.0000   1.0000   1.0000   1.0000   1.0000
     0.0000   0.0000   0.0000   0.0000   0.0000   0.0000

          k = 0.1333-0.2309 0.0000 ( 11879 PWs)   bands (ev):

   -19.1163 -18.9380  -7.3103  -7.2988  -7.1861  -6.4287  -6.1717  -6.0494
     3.4560   4.0318   5.0466   5.4624   6.7103   7.0926

     occupation numbers 
     1.0000   1.0000   1.0000   1.0000   1.0000   1.0000   1.0000   1.0000
     0.0000   0.0000   0.0000   0.0000   0.0000   0.0000

          k = 0.1333-0.1540 0.0000 ( 11832 PWs)   bands (ev):

   -19.6388 -19.4573  -7.9243  -7.0324  -6.2059  -6.0821  -5.2034  -5.0816
     2.7209   3.3116   4.3371   4.7452   6.0062   7.0978

     occupation numbers 
     1.0000   1.0000   1.0000   1.0000   1.0000   1.0000   1.0000   1.0000
     0.0000   0.0000   0.0000   0.0000   0.0000   0.0000

          k = 0.1333-0.0770 0.0000 ( 11788 PWs)   bands (ev):

   -19.9540 -19.7705  -8.3037  -7.3996  -5.3569  -5.2338  -4.5913  -4.4698
     2.2798   2.8789   3.9109   4.3143   5.5824   6.6895

     occupation numbers 
     1.0000   1.0000   1.0000   1.0000   1.0000   1.0000   1.0000   1.0000
     0.0000   0.0000   0.0000   0.0000   0.0000   0.0000

          k = 0.1333 0.0000 0.0000 ( 11813 PWs)   bands (ev):

   -20.0593 -19.8752  -8.4308  -7.5228  -4.9510  -4.8298  -4.4710  -4.3501
     2.1327   2.7347   3.7689   4.1706   5.4414   6.5548

     occupation numbers 
     1.0000   1.0000   1.0000   1.0000   1.0000   1.0000   1.0000   1.0000
     0.0000   0.0000   0.0000   0.0000   0.0000   0.0000

          k = 0.2000 0.1155 0.0000 ( 11848 PWs)   bands (ev):

   -19.4293 -19.2491  -7.6735  -6.9131  -6.7950  -6.7808  -5.3038  -5.1815
     3.0149   3.5993   4.6198   5.0309   6.2828   7.3276

     occupation numbers 
     1.0000   1.0000   1.0000   1.0000   1.0000   1.0000   1.0000   1.0000
     0.0000   0.0000   0.0000   0.0000   0.0000   0.0000

          k = 0.2000 0.1925 0.0000 ( 11880 PWs)   bands (ev):

   -19.0121 -18.8344  -7.7960  -7.6678  -7.1760  -6.3106  -5.9669  -5.8438
     3.6029   4.1747   5.1860   5.6007   6.7736   6.8198

     occupation numbers 
     1.0000   1.0000   1.0000   1.0000   1.0000   1.0000   1.0000   1.0000
     0.0000   0.0000   0.0000   0.0000   0.0000   0.0000

          k = 0.2000 0.2694 0.0000 ( 11929 PWs)   bands (ev):

   -18.3910 -18.2171  -8.7112  -8.5834  -7.0842  -6.9599  -6.4415  -5.6054
     4.4845   5.0341   5.5099   5.7895   6.0379   6.4660

     occupation numbers 
     1.0000   1.0000   1.0000   1.0000   1.0000   1.0000   1.0000   1.0000
     0.0000   0.0000   0.0000   0.0000   0.0000   0.0000

          k = 0.2000 0.3464 0.0000 ( 11953 PWs)   bands (ev):

   -17.5731 -17.4039  -9.7268  -9.6004  -8.2633  -8.1387  -5.4885  -4.6968
     4.0960   4.3811   5.6594   6.1805   7.1546   7.5942

     occupation numbers 
     1.0000   1.0000   1.0000   1.0000   1.0000   1.0000   1.0000   1.0000
     0.0000   0.0000   0.0000   0.0000   0.0000   0.0000

          k = 0.2000 0.4234 0.0000 ( 11949 PWs)   bands (ev):

   -16.5712 -16.4079 -11.0178 -10.8853  -9.0887  -8.9608  -4.3563  -3.6338
     2.5925   2.9172   7.1252   7.5946   8.5184   8.9819

     occupation numbers 
     1.0000   1.0000   1.0000   1.0000   1.0000   1.0000   1.0000   1.0000
     0.0000   0.0000   0.0000   0.0000   0.0000   0.0000

          k = 0.2000 0.5004 0.0000 ( 11953 PWs)   bands (ev):

   -15.4183 -15.2625 -12.4537 -12.3137  -9.5184  -9.3877  -3.1532  -2.5637
     1.1944   1.5336   8.8723   9.2463   9.9525  10.1544

     occupation numbers 
     1.0000   1.0000   1.0000   1.0000   1.0000   1.0000   1.0000   1.0000
     0.0000   0.0000   0.0000   0.0000   0.0000   0.0000

          k = 0.2000 0.5774 0.0000 ( 11949 PWs)   bands (ev):

   -14.4702 -14.3365 -13.4956 -13.3668  -9.6521  -9.5206  -2.3999  -2.0467
     0.5566   0.7222  10.0365  10.3258  10.5722  10.7573

     occupation numbers 
     1.0000   1.0000   1.0000   1.0000   1.0000   1.0000   1.0000   1.0000
     0.0000   0.0000   0.0000   0.0000   0.0000   0.0000

          k = 0.2000 0.6543 0.0000 ( 11953 PWs)   bands (ev):

   -15.4183 -15.2625 -12.4538 -12.3138  -9.5184  -9.3877  -3.1532  -2.5637
     1.1944   1.5336   8.8723   9.2463   9.9525  10.1545

     occupation numbers 
     1.0000   1.0000   1.0000   1.0000   1.0000   1.0000   1.0000   1.0000
     0.0000   0.0000   0.0000   0.0000   0.0000   0.0000

          k = 0.2000-0.4234 0.0000 ( 11949 PWs)   bands (ev):

   -16.5712 -16.4079 -11.0178 -10.8853  -9.0887  -8.9608  -4.3563  -3.6338
     2.5925   2.9172   7.1252   7.5946   8.5184   8.9819

     occupation numbers 
     1.0000   1.0000   1.0000   1.0000   1.0000   1.0000   1.0000   1.0000
     0.0000   0.0000   0.0000   0.0000   0.0000   0.0000

          k = 0.2000-0.3464 0.0000 ( 11953 PWs)   bands (ev):

   -17.5731 -17.4039  -9.7268  -9.6004  -8.2632  -8.1386  -5.4885  -4.6968
     4.0960   4.3811   5.6594   6.1805   7.1546   7.5943

     occupation numbers 
     1.0000   1.0000   1.0000   1.0000   1.0000   1.0000   1.0000   1.0000
     0.0000   0.0000   0.0000   0.0000   0.0000   0.0000

          k = 0.2000-0.2694 0.0000 ( 11929 PWs)   bands (ev):

   -18.3910 -18.2171  -8.7112  -8.5835  -7.0841  -6.9598  -6.4415  -5.6054
     4.4845   5.0341   5.5098   5.7895   6.0379   6.4660

     occupation numbers 
     1.0000   1.0000   1.0000   1.0000   1.0000   1.0000   1.0000   1.0000
     0.0000   0.0000   0.0000   0.0000   0.0000   0.0000

          k = 0.2000-0.1925 0.0000 ( 11880 PWs)   bands (ev):

   -19.0121 -18.8344  -7.7961  -7.6679  -7.1760  -6.3106  -5.9668  -5.8437
     3.6029   4.1747   5.1860   5.6007   6.7736   6.8198

     occupation numbers 
     1.0000   1.0000   1.0000   1.0000   1.0000   1.0000   1.0000   1.0000
     0.0000   0.0000   0.0000   0.0000   0.0000   0.0000

          k = 0.2000-0.1155 0.0000 ( 11848 PWs)   bands (ev):

   -19.4293 -19.2491  -7.6735  -6.9132  -6.7950  -6.7808  -5.3037  -5.1814
     3.0149   3.5993   4.6198   5.0309   6.2828   7.3272

     occupation numbers 
     1.0000   1.0000   1.0000   1.0000   1.0000   1.0000   1.0000   1.0000
     0.0000   0.0000   0.0000   0.0000   0.0000   0.0000

          k = 0.2000-0.0385 0.0000 ( 11832 PWs)   bands (ev):

   -19.6388 -19.4573  -7.9243  -7.0324  -6.2058  -6.0821  -5.2035  -5.0815
     2.7209   3.3116   4.3371   4.7452   6.0062   7.0978

     occupation numbers 
     1.0000   1.0000   1.0000   1.0000   1.0000   1.0000   1.0000   1.0000
     0.0000   0.0000   0.0000   0.0000   0.0000   0.0000

          k = 0.2000 0.0385 0.0000 ( 11832 PWs)   bands (ev):

   -19.6388 -19.4573  -7.9243  -7.0324  -6.2057  -6.0821  -5.2036  -5.0816
     2.7209   3.3116   4.3371   4.7452   6.0062   7.0978

     occupation numbers 
     1.0000   1.0000   1.0000   1.0000   1.0000   1.0000   1.0000   1.0000
     0.0000   0.0000   0.0000   0.0000   0.0000   0.0000

          k = 0.2667 0.1540 0.0000 ( 11876 PWs)   bands (ev):

   -18.7004 -18.5247  -8.6548  -8.5232  -6.8092  -5.9971  -5.9591  -5.8742
     4.0435   4.6017   5.5951   5.8869   6.1195   6.3057

     occupation numbers 
     1.0000   1.0000   1.0000   1.0000   1.0000   1.0000   1.0000   1.0000
     0.0000   0.0000   0.0000   0.0000   0.0000   0.0000

          k = 0.2667 0.2309 0.0000 ( 11910 PWs)   bands (ev):

   -18.1847 -18.0120  -9.5239  -9.3902  -6.6333  -6.5093  -6.2058  -5.3827
     4.7700   4.9093   5.2815   5.3550   6.3164   6.7608

     occupation numbers 
     1.0000   1.0000   1.0000   1.0000   1.0000   1.0000   1.0000   1.0000
     0.0000   0.0000   0.0000   0.0000   0.0000   0.0000

          k = 0.2667 0.3079 0.0000 ( 11925 PWs)   bands (ev):

   -17.4712 -17.3026 -10.3113 -10.1769  -7.7633  -7.6369  -5.3798  -4.5978
     3.7878   4.1470   5.8069   6.3267   7.2936   7.7430

     occupation numbers 
     1.0000   1.0000   1.0000   1.0000   1.0000   1.0000   1.0000   1.0000
     0.0000   0.0000   0.0000   0.0000   0.0000   0.0000

          k = 0.2667 0.3849 0.0000 ( 11949 PWs)   bands (ev):

   -16.5712 -16.4079 -11.0178 -10.8853  -9.0887  -8.9608  -4.3563  -3.6338
     2.5925   2.9172   7.1252   7.5946   8.5184   8.9819

     occupation numbers 
     1.0000   1.0000   1.0000   1.0000   1.0000   1.0000   1.0000   1.0000
     0.0000   0.0000   0.0000   0.0000   0.0000   0.0000

          k = 0.2667 0.4619 0.0000 ( 11961 PWs)   bands (ev):

   -15.5076 -15.3508 -11.7981 -11.6689 -10.2192 -10.0926  -3.1853  -2.5497
     1.3414   1.6621   8.7225   9.0926   9.8162  10.2858

     occupation numbers 
     1.0000   1.0000   1.0000   1.0000   1.0000   1.0000   1.0000   1.0000
     0.0000   0.0000   0.0000   0.0000   0.0000   0.0000

          k = 0.2667 0.5389 0.0000 ( 11948 PWs)   bands (ev):

   -14.3593 -14.2129 -12.8519 -12.7177 -10.7647 -10.6344  -2.0263  -1.5600
     0.2274   0.5136   9.9741  10.2305  10.6796  10.9877

     occupation numbers 
     1.0000   1.0000   1.0000   1.0000   1.0000   1.0000   1.0000   1.0000
     0.0000   0.0000   0.0000   0.0000   0.0000   0.0000

          k = 0.2667 0.6158 0.0000 ( 11948 PWs)   bands (ev):

   -14.3593 -14.2129 -12.8519 -12.7177 -10.7647 -10.6343  -2.0263  -1.5600
     0.2273   0.5135   9.9741  10.2305  10.6796  10.9877

     occupation numbers 
     1.0000   1.0000   1.0000   1.0000   1.0000   1.0000   1.0000   1.0000
     0.0000   0.0000   0.0000   0.0000   0.0000   0.0000

          k = 0.2667 0.6928 0.0000 ( 11961 PWs)   bands (ev):

   -15.5076 -15.3508 -11.7981 -11.6690 -10.2192 -10.0926  -3.1853  -2.5496
     1.3414   1.6621   8.7225   9.0926   9.8162  10.2859

     occupation numbers 
     1.0000   1.0000   1.0000   1.0000   1.0000   1.0000   1.0000   1.0000
     0.0000   0.0000   0.0000   0.0000   0.0000   0.0000

          k = 0.2667-0.3849 0.0000 ( 11949 PWs)   bands (ev):

   -16.5712 -16.4079 -11.0178 -10.8854  -9.0887  -8.9608  -4.3563  -3.6338
     2.5925   2.9172   7.1252   7.5946   8.5184   8.9819

     occupation numbers 
     1.0000   1.0000   1.0000   1.0000   1.0000   1.0000   1.0000   1.0000
     0.0000   0.0000   0.0000   0.0000   0.0000   0.0000

          k = 0.2667-0.3079 0.0000 ( 11925 PWs)   bands (ev):

   -17.4712 -17.3026 -10.3113 -10.1769  -7.7632  -7.6368  -5.3797  -4.5978
     3.7878   4.1470   5.8069   6.3267   7.2936   7.7430

     occupation numbers 
     1.0000   1.0000   1.0000   1.0000   1.0000   1.0000   1.0000   1.0000
     0.0000   0.0000   0.0000   0.0000   0.0000   0.0000

          k = 0.2667-0.2309 0.0000 ( 11910 PWs)   bands (ev):

   -18.1847 -18.0120  -9.5240  -9.3903  -6.6333  -6.5093  -6.2058  -5.3827
     4.7700   4.9093   5.2814   5.3550   6.3164   6.7608

     occupation numbers 
     1.0000   1.0000   1.0000   1.0000   1.0000   1.0000   1.0000   1.0000
     0.0000   0.0000   0.0000   0.0000   0.0000   0.0000

          k = 0.2667-0.1540 0.0000 ( 11876 PWs)   bands (ev):

   -18.7004 -18.5247  -8.6548  -8.5232  -6.8092  -5.9971  -5.9591  -5.8742
     4.0435   4.6017   5.5951   5.8869   6.1195   6.3057

     occupation numbers 
     1.0000   1.0000   1.0000   1.0000   1.0000   1.0000   1.0000   1.0000
     0.0000   0.0000   0.0000   0.0000   0.0000   0.0000

          k = 0.2667-0.0770 0.0000 ( 11880 PWs)   bands (ev):

   -19.0121 -18.8344  -7.7960  -7.6679  -7.1760  -6.3106  -5.9669  -5.8437
     3.6029   4.1747   5.1860   5.6007   6.7736   6.8198

     occupation numbers 
     1.0000   1.0000   1.0000   1.0000   1.0000   1.0000   1.0000   1.0000
     0.0000   0.0000   0.0000   0.0000   0.0000   0.0000

          k = 0.2667 0.0000 0.0000 ( 11879 PWs)   bands (ev):

   -19.1163 -18.9380  -7.3101  -7.2988  -7.1861  -6.4287  -6.1719  -6.0494
     3.4560   4.0318   5.0466   5.4624   6.7103   7.0926

     occupation numbers 
     1.0000   1.0000   1.0000   1.0000   1.0000   1.0000   1.0000   1.0000
     0.0000   0.0000   0.0000   0.0000   0.0000   0.0000

          k = 0.2667 0.0770 0.0000 ( 11880 PWs)   bands (ev):

   -19.0121 -18.8344  -7.7960  -7.6679  -7.1760  -6.3106  -5.9669  -5.8437
     3.6029   4.1747   5.1860   5.6007   6.7736   6.8198

     occupation numbers 
     1.0000   1.0000   1.0000   1.0000   1.0000   1.0000   1.0000   1.0000
     0.0000   0.0000   0.0000   0.0000   0.0000   0.0000

          k = 0.3333 0.1925 0.0000 ( 11914 PWs)   bands (ev):

   -17.7748 -17.6045 -10.4301 -10.2928  -6.5740  -6.4507  -5.7404  -4.9448
     4.0339   4.4781   5.3682   5.9041   6.8370   7.0537

     occupation numbers 
     1.0000   1.0000   1.0000   1.0000   1.0000   1.0000   1.0000   1.0000
     0.0000   0.0000   0.0000   0.0000   0.0000   0.0000

          k = 0.3333 0.2694 0.0000 ( 11938 PWs)   bands (ev):

   -17.1674 -17.0006 -11.2521 -11.1124  -7.1402  -7.0157  -5.0587  -4.3078
     3.0764   3.5314   6.2480   6.7529   7.3980   7.5446

     occupation numbers 
     1.0000   1.0000   1.0000   1.0000   1.0000   1.0000   1.0000   1.0000
     0.0000   0.0000   0.0000   0.0000   0.0000   0.0000

          k = 0.3333 0.3464 0.0000 ( 11927 PWs)   bands (ev):

   -16.3740 -16.2120 -11.9328 -11.7919  -8.2112  -8.0837  -4.1837  -3.4997
     2.1264   2.5418   7.4198   7.8818   8.5459   8.7017

     occupation numbers 
     1.0000   1.0000   1.0000   1.0000   1.0000   1.0000   1.0000   1.0000
     0.0000   0.0000   0.0000   0.0000   0.0000   0.0000

          k = 0.3333 0.4234 0.0000 ( 11953 PWs)   bands (ev):

   -15.4183 -15.2625 -12.4537 -12.3138  -9.5185  -9.3877  -3.1532  -2.5637
     1.1944   1.5336   8.8723   9.2463   9.9525  10.1544

     occupation numbers 
     1.0000   1.0000   1.0000   1.0000   1.0000   1.0000   1.0000   1.0000
     0.0000   0.0000   0.0000   0.0000   0.0000   0.0000

          k = 0.3333 0.5004 0.0000 ( 11948 PWs)   bands (ev):

   -14.3593 -14.2129 -12.8518 -12.7177 -10.7647 -10.6344  -2.0264  -1.5600
     0.2274   0.5136   9.9740  10.2305  10.6796  10.9877

     occupation numbers 
     1.0000   1.0000   1.0000   1.0000   1.0000   1.0000   1.0000   1.0000
     0.0000   0.0000   0.0000   0.0000   0.0000   0.0000

          k = 0.3333 0.5774 0.0000 ( 11919 PWs)   bands (ev):

   -13.4047 -13.3886 -13.2649 -13.2529 -11.3855 -11.2606  -1.0090  -0.7673
    -0.6263  -0.3677   9.8273  10.0346  11.9210  12.2607

     occupation numbers 
     1.0000   1.0000   1.0000   1.0000   1.0000   1.0000   0.9994   0.7683
     0.2320   0.0003   0.0000   0.0000   0.0000   0.0000

          k = 0.3333 0.6543 0.0000 ( 11948 PWs)   bands (ev):

   -14.3593 -14.2128 -12.8519 -12.7178 -10.7647 -10.6343  -2.0263  -1.5600
     0.2274   0.5135   9.9740  10.2305  10.6796  10.9877

     occupation numbers 
     1.0000   1.0000   1.0000   1.0000   1.0000   1.0000   1.0000   1.0000
     0.0000   0.0000   0.0000   0.0000   0.0000   0.0000

          k = 0.3333 0.7313 0.0000 ( 11953 PWs)   bands (ev):

   -15.4183 -15.2625 -12.4537 -12.3138  -9.5185  -9.3876  -3.1532  -2.5636
     1.1944   1.5335   8.8723   9.2463   9.9525  10.1544

     occupation numbers 
     1.0000   1.0000   1.0000   1.0000   1.0000   1.0000   1.0000   1.0000
     0.0000   0.0000   0.0000   0.0000   0.0000   0.0000

          k = 0.3333-0.3464 0.0000 ( 11927 PWs)   bands (ev):

   -16.3740 -16.2120 -11.9329 -11.7920  -8.2112  -8.0837  -4.1837  -3.4997
     2.1263   2.5417   7.4198   7.8818   8.5459   8.7018

     occupation numbers 
     1.0000   1.0000   1.0000   1.0000   1.0000   1.0000   1.0000   1.0000
     0.0000   0.0000   0.0000   0.0000   0.0000   0.0000

          k = 0.3333-0.2694 0.0000 ( 11938 PWs)   bands (ev):

   -17.1674 -17.0006 -11.2521 -11.1124  -7.1401  -7.0156  -5.0586  -4.3078
     3.0763   3.5313   6.2480   6.7529   7.3981   7.5447

     occupation numbers 
     1.0000   1.0000   1.0000   1.0000   1.0000   1.0000   1.0000   1.0000
     0.0000   0.0000   0.0000   0.0000   0.0000   0.0000

          k = 0.3333-0.1925 0.0000 ( 11914 PWs)   bands (ev):

   -17.7748 -17.6045 -10.4301 -10.2928  -6.5740  -6.4506  -5.7404  -4.9447
     4.0339   4.4781   5.3682   5.9041   6.8370   7.0537

     occupation numbers 
     1.0000   1.0000   1.0000   1.0000   1.0000   1.0000   1.0000   1.0000
     0.0000   0.0000   0.0000   0.0000   0.0000   0.0000

          k = 0.3333-0.1155 0.0000 ( 11910 PWs)   bands (ev):

   -18.1847 -18.0120  -9.5239  -9.3903  -6.6333  -6.5092  -6.2058  -5.3827
     4.7700   4.9093   5.2814   5.3550   6.3164   6.7608

     occupation numbers 
     1.0000   1.0000   1.0000   1.0000   1.0000   1.0000   1.0000   1.0000
     0.0000   0.0000   0.0000   0.0000   0.0000   0.0000

          k = 0.3333-0.0385 0.0000 ( 11929 PWs)   bands (ev):

   -18.3910 -18.2171  -8.7111  -8.5835  -7.0842  -6.9598  -6.4415  -5.6054
     4.4845   5.0341   5.5099   5.7895   6.0379   6.4660

     occupation numbers 
     1.0000   1.0000   1.0000   1.0000   1.0000   1.0000   1.0000   1.0000
     0.0000   0.0000   0.0000   0.0000   0.0000   0.0000

          k = 0.3333 0.0385 0.0000 ( 11929 PWs)   bands (ev):

   -18.3910 -18.2171  -8.7111  -8.5835  -7.0842  -6.9598  -6.4415  -5.6054
     4.4845   5.0341   5.5099   5.7895   6.0379   6.4660

     occupation numbers 
     1.0000   1.0000   1.0000   1.0000   1.0000   1.0000   1.0000   1.0000
     0.0000   0.0000   0.0000   0.0000   0.0000   0.0000

          k = 0.3333 0.1155 0.0000 ( 11910 PWs)   bands (ev):

   -18.1847 -18.0120  -9.5239  -9.3902  -6.6333  -6.5093  -6.2058  -5.3827
     4.7700   4.9093   5.2815   5.3550   6.3164   6.7608

     occupation numbers 
     1.0000   1.0000   1.0000   1.0000   1.0000   1.0000   1.0000   1.0000
     0.0000   0.0000   0.0000   0.0000   0.0000   0.0000

          k = 0.4000 0.2309 0.0000 ( 11910 PWs)   bands (ev):

   -16.6682 -16.5044 -12.1392 -11.9961  -6.9810  -6.8574  -4.5425  -3.8497
     2.2568   2.7481   6.8338   6.9835   7.0502   7.4940

     occupation numbers 
     1.0000   1.0000   1.0000   1.0000   1.0000   1.0000   1.0000   1.0000
     0.0000   0.0000   0.0000   0.0000   0.0000   0.0000

          k = 0.4000 0.3079 0.0000 ( 11920 PWs)   bands (ev):

   -15.9891 -15.8300 -12.8791 -12.7343  -7.4549  -7.3300  -3.8667  -3.2691
     1.5096   1.9653   7.2388   7.4620   8.0093   8.4727

     occupation numbers 
     1.0000   1.0000   1.0000   1.0000   1.0000   1.0000   1.0000   1.0000
     0.0000   0.0000   0.0000   0.0000   0.0000   0.0000

          k = 0.4000 0.3849 0.0000 ( 11935 PWs)   bands (ev):

   -15.1755 -15.0250 -13.4063 -13.2640  -8.4350  -8.3070  -3.1007  -2.6412
     0.9344   1.2697   8.4384   8.6924   9.3189   9.7057

     occupation numbers 
     1.0000   1.0000   1.0000   1.0000   1.0000   1.0000   1.0000   1.0000
     0.0000   0.0000   0.0000   0.0000   0.0000   0.0000

          k = 0.4000 0.4619 0.0000 ( 11949 PWs)   bands (ev):

   -14.4703 -14.3365 -13.4955 -13.3668  -9.6522  -9.5206  -2.3999  -2.0467
     0.5568   0.7222  10.0365  10.3258  10.5722  10.7573

     occupation numbers 
     1.0000   1.0000   1.0000   1.0000   1.0000   1.0000   1.0000   1.0000
     0.0000   0.0000   0.0000   0.0000   0.0000   0.0000

          k = 0.4000 0.5389 0.0000 ( 11948 PWs)   bands (ev):

   -14.3593 -14.2128 -12.8518 -12.7178 -10.7648 -10.6343  -2.0264  -1.5600
     0.2274   0.5135   9.9740  10.2305  10.6796  10.9878

     occupation numbers 
     1.0000   1.0000   1.0000   1.0000   1.0000   1.0000   1.0000   1.0000
     0.0000   0.0000   0.0000   0.0000   0.0000   0.0000

          k = 0.4000 0.6158 0.0000 ( 11948 PWs)   bands (ev):

   -14.3593 -14.2128 -12.8518 -12.7178 -10.7647 -10.6343  -2.0263  -1.5600
     0.2274   0.5135   9.9740  10.2305  10.6796  10.9878

     occupation numbers 
     1.0000   1.0000   1.0000   1.0000   1.0000   1.0000   1.0000   1.0000
     0.0000   0.0000   0.0000   0.0000   0.0000   0.0000

          k = 0.4000 0.6928 0.0000 ( 11949 PWs)   bands (ev):

   -14.4703 -14.3364 -13.4955 -13.3669  -9.6522  -9.5205  -2.3999  -2.0466
     0.5567   0.7221  10.0365  10.3258  10.5722  10.7573

     occupation numbers 
     1.0000   1.0000   1.0000   1.0000   1.0000   1.0000   1.0000   1.0000
     0.0000   0.0000   0.0000   0.0000   0.0000   0.0000

          k = 0.4000 0.7698 0.0000 ( 11935 PWs)   bands (ev):

   -15.1755 -15.0250 -13.4063 -13.2640  -8.4350  -8.3070  -3.1007  -2.6412
     0.9343   1.2696   8.4385   8.6924   9.3189   9.7057

     occupation numbers 
     1.0000   1.0000   1.0000   1.0000   1.0000   1.0000   1.0000   1.0000
     0.0000   0.0000   0.0000   0.0000   0.0000   0.0000

          k = 0.4000-0.3079 0.0000 ( 11920 PWs)   bands (ev):

   -15.9891 -15.8300 -12.8791 -12.7343  -7.4548  -7.3300  -3.8667  -3.2690
     1.5095   1.9653   7.2388   7.4620   8.0093   8.4727

     occupation numbers 
     1.0000   1.0000   1.0000   1.0000   1.0000   1.0000   1.0000   1.0000
     0.0000   0.0000   0.0000   0.0000   0.0000   0.0000

          k = 0.4000-0.2309 0.0000 ( 11910 PWs)   bands (ev):

   -16.6682 -16.5044 -12.1392 -11.9961  -6.9810  -6.8574  -4.5425  -3.8497
     2.2567   2.7480   6.8338   6.9835   7.0502   7.4940

     occupation numbers 
     1.0000   1.0000   1.0000   1.0000   1.0000   1.0000   1.0000   1.0000
     0.0000   0.0000   0.0000   0.0000   0.0000   0.0000

          k = 0.4000-0.1540 0.0000 ( 11938 PWs)   bands (ev):

   -17.1674 -17.0006 -11.2521 -11.1124  -7.1402  -7.0156  -5.0586  -4.3078
     3.0763   3.5313   6.2480   6.7529   7.3980   7.5446

     occupation numbers 
     1.0000   1.0000   1.0000   1.0000   1.0000   1.0000   1.0000   1.0000
     0.0000   0.0000   0.0000   0.0000   0.0000   0.0000

          k = 0.4000-0.0770 0.0000 ( 11925 PWs)   bands (ev):

   -17.4712 -17.3026 -10.3113 -10.1770  -7.7633  -7.6368  -5.3797  -4.5978
     3.7878   4.1470   5.8069   6.3267   7.2936   7.7430

     occupation numbers 
     1.0000   1.0000   1.0000   1.0000   1.0000   1.0000   1.0000   1.0000
     0.0000   0.0000   0.0000   0.0000   0.0000   0.0000

          k = 0.4000 0.0000 0.0000 ( 11953 PWs)   bands (ev):

   -17.5731 -17.4039  -9.7267  -9.6005  -8.2634  -8.1386  -5.4885  -4.6968
     4.0960   4.3811   5.6594   6.1805   7.1546   7.5942

     occupation numbers 
     1.0000   1.0000   1.0000   1.0000   1.0000   1.0000   1.0000   1.0000
     0.0000   0.0000   0.0000   0.0000   0.0000   0.0000

          k = 0.4000 0.0770 0.0000 ( 11925 PWs)   bands (ev):

   -17.4712 -17.3026 -10.3113 -10.1769  -7.7633  -7.6368  -5.3798  -4.5978
     3.7878   4.1470   5.8069   6.3267   7.2936   7.7430

     occupation numbers 
     1.0000   1.0000   1.0000   1.0000   1.0000   1.0000   1.0000   1.0000
     0.0000   0.0000   0.0000   0.0000   0.0000   0.0000

          k = 0.4000 0.1540 0.0000 ( 11938 PWs)   bands (ev):

   -17.1674 -17.0006 -11.2521 -11.1124  -7.1402  -7.0156  -5.0587  -4.3078
     3.0764   3.5314   6.2480   6.7529   7.3980   7.5446

     occupation numbers 
     1.0000   1.0000   1.0000   1.0000   1.0000   1.0000   1.0000   1.0000
     0.0000   0.0000   0.0000   0.0000   0.0000   0.0000

          k = 0.4667 0.2694 0.0000 ( 11924 PWs)   bands (ev):

   -15.4540 -15.3019 -13.6593 -13.5153  -7.1904  -7.0667  -3.4775  -3.0181
     1.0251   1.4369   6.7347   6.9567   8.8877   9.3183

     occupation numbers 
     1.0000   1.0000   1.0000   1.0000   1.0000   1.0000   1.0000   1.0000
     0.0000   0.0000   0.0000   0.0000   0.0000   0.0000

          k = 0.4667 0.3464 0.0000 ( 11913 PWs)   bands (ev):

   -15.0106 -14.8755 -13.9921 -13.8613  -7.5614  -7.4364  -3.1704  -2.8102
     0.8350   1.1716   7.1855   7.4142  10.0451  10.0579

     occupation numbers 
     1.0000   1.0000   1.0000   1.0000   1.0000   1.0000   1.0000   1.0000
     0.0000   0.0000   0.0000   0.0000   0.0000   0.0000

          k = 0.4667 0.4234 0.0000 ( 11935 PWs)   bands (ev):

   -15.1755 -15.0250 -13.4063 -13.2640  -8.4350  -8.3070  -3.1007  -2.6412
     0.9344   1.2697   8.4384   8.6924   9.3189   9.7057

     occupation numbers 
     1.0000   1.0000   1.0000   1.0000   1.0000   1.0000   1.0000   1.0000
     0.0000   0.0000   0.0000   0.0000   0.0000   0.0000

          k = 0.4667 0.5004 0.0000 ( 11953 PWs)   bands (ev):

   -15.4183 -15.2625 -12.4537 -12.3138  -9.5185  -9.3877  -3.1533  -2.5637
     1.1945   1.5336   8.8723   9.2463   9.9525  10.1544

     occupation numbers 
     1.0000   1.0000   1.0000   1.0000   1.0000   1.0000   1.0000   1.0000
     0.0000   0.0000   0.0000   0.0000   0.0000   0.0000

          k = 0.4667 0.5774 0.0000 ( 11961 PWs)   bands (ev):

   -15.5076 -15.3508 -11.7980 -11.6690 -10.2193 -10.0925  -3.1853  -2.5496
     1.3415   1.6621   8.7225   9.0926   9.8162  10.2858

     occupation numbers 
     1.0000   1.0000   1.0000   1.0000   1.0000   1.0000   1.0000   1.0000
     0.0000   0.0000   0.0000   0.0000   0.0000   0.0000

          k = 0.4667 0.6543 0.0000 ( 11953 PWs)   bands (ev):

   -15.4183 -15.2625 -12.4537 -12.3138  -9.5185  -9.3876  -3.1532  -2.5636
     1.1944   1.5335   8.8723   9.2463   9.9525  10.1544

     occupation numbers 
     1.0000   1.0000   1.0000   1.0000   1.0000   1.0000   1.0000   1.0000
     0.0000   0.0000   0.0000   0.0000   0.0000   0.0000

          k = 0.4667 0.7313 0.0000 ( 11935 PWs)   bands (ev):

   -15.1755 -15.0250 -13.4063 -13.2640  -8.4350  -8.3070  -3.1007  -2.6412
     0.9344   1.2696   8.4384   8.6924   9.3189   9.7058

     occupation numbers 
     1.0000   1.0000   1.0000   1.0000   1.0000   1.0000   1.0000   1.0000
     0.0000   0.0000   0.0000   0.0000   0.0000   0.0000

          k = 0.4667 0.8083 0.0000 ( 11913 PWs)   bands (ev):

   -15.0106 -14.8755 -13.9922 -13.8614  -7.5613  -7.4364  -3.1704  -2.8102
     0.8349   1.1715   7.1855   7.4143  10.0451  10.0579

     occupation numbers 
     1.0000   1.0000   1.0000   1.0000   1.0000   1.0000   1.0000   1.0000
     0.0000   0.0000   0.0000   0.0000   0.0000   0.0000

          k = 0.4667-0.2694 0.0000 ( 11924 PWs)   bands (ev):

   -15.4540 -15.3019 -13.6594 -13.5153  -7.1904  -7.0667  -3.4775  -3.0180
     1.0251   1.4368   6.7347   6.9567   8.8877   9.3183

     occupation numbers 
     1.0000   1.0000   1.0000   1.0000   1.0000   1.0000   1.0000   1.0000
     0.0000   0.0000   0.0000   0.0000   0.0000   0.0000

          k = 0.4667-0.1925 0.0000 ( 11920 PWs)   bands (ev):

   -15.9891 -15.8300 -12.8791 -12.7343  -7.4548  -7.3300  -3.8667  -3.2690
     1.5095   1.9653   7.2388   7.4620   8.0093   8.4727

     occupation numbers 
     1.0000   1.0000   1.0000   1.0000   1.0000   1.0000   1.0000   1.0000
     0.0000   0.0000   0.0000   0.0000   0.0000   0.0000

          k = 0.4667-0.1155 0.0000 ( 11927 PWs)   bands (ev):

   -16.3740 -16.2120 -11.9328 -11.7920  -8.2112  -8.0836  -4.1837  -3.4997
     2.1264   2.5417   7.4198   7.8818   8.5459   8.7018

     occupation numbers 
     1.0000   1.0000   1.0000   1.0000   1.0000   1.0000   1.0000   1.0000
     0.0000   0.0000   0.0000   0.0000   0.0000   0.0000

          k = 0.4667-0.0385 0.0000 ( 11949 PWs)   bands (ev):

   -16.5712 -16.4079 -11.0178 -10.8854  -9.0887  -8.9607  -4.3563  -3.6338
     2.5925   2.9172   7.1252   7.5946   8.5184   8.9819

     occupation numbers 
     1.0000   1.0000   1.0000   1.0000   1.0000   1.0000   1.0000   1.0000
     0.0000   0.0000   0.0000   0.0000   0.0000   0.0000

          k = 0.4667 0.0385 0.0000 ( 11949 PWs)   bands (ev):

   -16.5712 -16.4079 -11.0178 -10.8854  -9.0888  -8.9608  -4.3563  -3.6338
     2.5925   2.9172   7.1252   7.5946   8.5184   8.9819

     occupation numbers 
     1.0000   1.0000   1.0000   1.0000   1.0000   1.0000   1.0000   1.0000
     0.0000   0.0000   0.0000   0.0000   0.0000   0.0000

          k = 0.4667 0.1155 0.0000 ( 11927 PWs)   bands (ev):

   -16.3740 -16.2120 -11.9328 -11.7919  -8.2113  -8.0837  -4.1837  -3.4997
     2.1264   2.5418   7.4198   7.8818   8.5459   8.7018

     occupation numbers 
     1.0000   1.0000   1.0000   1.0000   1.0000   1.0000   1.0000   1.0000
     0.0000   0.0000   0.0000   0.0000   0.0000   0.0000

          k = 0.4667 0.1925 0.0000 ( 11920 PWs)   bands (ev):

   -15.9891 -15.8300 -12.8791 -12.7343  -7.4549  -7.3300  -3.8667  -3.2691
     1.5096   1.9653   7.2388   7.4620   8.0093   8.4727

     occupation numbers 
     1.0000   1.0000   1.0000   1.0000   1.0000   1.0000   1.0000   1.0000
     0.0000   0.0000   0.0000   0.0000   0.0000   0.0000

     the Fermi energy is    -0.6967 ev

!    total energy              =     -48.20786747 Ry
     estimated scf accuracy    <          3.6E-12 Ry
     smearing contrib. (-TS)   =      -0.00007709 Ry
     internal energy E=F+TS    =     -48.20779038 Ry

     The total energy is F=E-TS. E is the sum of the following terms:
     one-electron contribution =    -702.28739614 Ry
     hartree contribution      =     354.74384950 Ry
     xc contribution           =     -17.18595938 Ry
     ewald contribution        =     316.89219985 Ry
     DFT-D3 Dispersion         =      -0.01748337 Ry
     electric field correction =      -0.35300084 Ry

     convergence has been achieved in   8 iterations

     Forces acting on atoms (cartesian axes, Ry/au):

     atom    1 type  1   force =     0.00000603    0.00001546    0.00095060
     atom    2 type  1   force =    -0.00000601   -0.00001544   -0.00217272
     atom    3 type  1   force =     0.00001043   -0.00001264    0.00181222
     atom    4 type  1   force =    -0.00001044    0.00001262   -0.00059011
     The non-local contrib.  to forces
     atom    1 type  1   force =     0.00000408    0.00001045   -0.00229898
     atom    2 type  1   force =    -0.00000406   -0.00001044   -0.00862580
     atom    3 type  1   force =     0.00000704   -0.00000854   -0.00019451
     atom    4 type  1   force =    -0.00000707    0.00000851   -0.00497424
     The ionic contribution  to forces
     atom    1 type  1   force =     0.00001999    0.00005117  -15.26111939
     atom    2 type  1   force =    -0.00001995   -0.00005115  -15.19394041
     atom    3 type  1   force =     0.00003461   -0.00004172   15.20221207
     atom    4 type  1   force =    -0.00003465    0.00004171   15.25284773
     The local contribution  to forces
     atom    1 type  1   force =    -0.00001768   -0.00004521   15.22298308
     atom    2 type  1   force =     0.00001763    0.00004519   15.15903564
     atom    3 type  1   force =    -0.00003057    0.00003683  -15.23903656
     atom    4 type  1   force =     0.00003063   -0.00003683  -15.28725350
     The core correction contribution to forces
     atom    1 type  1   force =    -0.00000037   -0.00000094    0.00015092
     atom    2 type  1   force =     0.00000037    0.00000094    0.00018075
     atom    3 type  1   force =    -0.00000063    0.00000077    0.00000747
     atom    4 type  1   force =     0.00000064   -0.00000077    0.00002429
     The Hubbard contrib.    to forces
     atom    1 type  1   force =     0.00000000    0.00000000    0.00000000
     atom    2 type  1   force =     0.00000000    0.00000000    0.00000000
     atom    3 type  1   force =     0.00000000    0.00000000    0.00000000
     atom    4 type  1   force =     0.00000000    0.00000000    0.00000000
     The SCF correction term to forces
     atom    1 type  1   force =     0.00000000   -0.00000000   -0.00000277
     atom    2 type  1   force =    -0.00000000    0.00000000   -0.00000278
     atom    3 type  1   force =    -0.00000000    0.00000000    0.00000350
     atom    4 type  1   force =     0.00000000   -0.00000000    0.00000343

     DFT-D3 dispersion contribution to forces:
     atom    1 type  1   force =    -0.00000000   -0.00000001    0.00123773
     atom    2 type  1   force =     0.00000000    0.00000001    0.00117987
     atom    3 type  1   force =    -0.00000001    0.00000001   -0.00117976
     atom    4 type  1   force =     0.00000001   -0.00000001   -0.00123783

     Total force =     0.003043     Total SCF correction =     0.000006

     DFT-D3 dispersion Force =     0.002418
     Energy error            =      4.4E-05 Ry
     Gradient error          =      2.2E-03 Ry/Bohr

     number of scf cycles    =   9
     number of bfgs steps    =   8

     energy             old  =     -48.2078232535 Ry
     energy             new  =     -48.2078674685 Ry

     CASE: energy            _new < energy            _old

     new trust radius        =       0.0260579434 bohr
     new conv_thr            =            1.0E-10 Ry


ATOMIC_POSITIONS (angstrom)
C               -0.0000016477        0.0000053038        9.9595126217
C                1.2299910715        0.7101279486        9.9627031211
C                1.2300117695        0.7101371443       13.3876648383
C               -0.0000011933        1.4202929277       13.3901194189



     Writing config-only to output data dir /home/ubuntu/projects/Graphene-Band-Structure-Quantum-Espresso/outputs/field_0.005/data/field_0.005.save/ :
     XML data file
     NEW-OLD atomic charge density approx. for the potential

     negative rho (up, down):  2.384E-06 0.000E+00

     Adding external electric field
        E field amplitude [Ha a.u.]:  5.0000E-03
        Potential amp.        0.3971 Ry
        Total length         39.7126 bohr


     total cpu time spent up to now is      268.9 secs

     Self-consistent Calculation

     iteration #  1     ecut=    90.00 Ry     beta= 0.70
     Davidson diagonalization with overlap

---- Real-time Memory Report at c_bands before calling an iterative solver
           153 MiB given to the printing process from OS
             0 MiB allocation reported by mallinfo(arena+hblkhd)
         29331 MiB available memory on the node where the printing process lives
------------------
     ethr =  1.00E-06,  avg # of iterations =  5.8

     negative rho (up, down):  6.642E-07 0.000E+00

     total cpu time spent up to now is      276.2 secs

     total energy              =     -48.20770800 Ry
     estimated scf accuracy    <       0.00057445 Ry

     iteration #  2     ecut=    90.00 Ry     beta= 0.70
     Davidson diagonalization with overlap

---- Real-time Memory Report at c_bands before calling an iterative solver
           153 MiB given to the printing process from OS
             0 MiB allocation reported by mallinfo(arena+hblkhd)
         29276 MiB available memory on the node where the printing process lives
------------------
     ethr =  3.59E-06,  avg # of iterations =  5.0

     negative rho (up, down):  4.092E-07 0.000E+00

     total cpu time spent up to now is      281.1 secs

     total energy              =     -48.20779753 Ry
     estimated scf accuracy    <       0.00052637 Ry

     iteration #  3     ecut=    90.00 Ry     beta= 0.70
     Davidson diagonalization with overlap

---- Real-time Memory Report at c_bands before calling an iterative solver
           153 MiB given to the printing process from OS
             0 MiB allocation reported by mallinfo(arena+hblkhd)
         29308 MiB available memory on the node where the printing process lives
------------------
     ethr =  3.29E-06,  avg # of iterations =  4.2

     negative rho (up, down):  6.008E-08 0.000E+00

     total cpu time spent up to now is      285.4 secs

     total energy              =     -48.20791891 Ry
     estimated scf accuracy    <       0.00000748 Ry

     iteration #  4     ecut=    90.00 Ry     beta= 0.70
     Davidson diagonalization with overlap

---- Real-time Memory Report at c_bands before calling an iterative solver
           153 MiB given to the printing process from OS
             0 MiB allocation reported by mallinfo(arena+hblkhd)
         29309 MiB available memory on the node where the printing process lives
------------------
     ethr =  4.67E-08,  avg # of iterations =  2.0

     negative rho (up, down):  4.204E-08 0.000E+00

     total cpu time spent up to now is      289.1 secs

     total energy              =     -48.20791966 Ry
     estimated scf accuracy    <       0.00000370 Ry

     iteration #  5     ecut=    90.00 Ry     beta= 0.70
     Davidson diagonalization with overlap

---- Real-time Memory Report at c_bands before calling an iterative solver
           153 MiB given to the printing process from OS
             0 MiB allocation reported by mallinfo(arena+hblkhd)
         29304 MiB available memory on the node where the printing process lives
------------------
     ethr =  2.31E-08,  avg # of iterations =  1.6

     total cpu time spent up to now is      291.7 secs

     total energy              =     -48.20792038 Ry
     estimated scf accuracy    <       0.00000014 Ry

     iteration #  6     ecut=    90.00 Ry     beta= 0.70
     Davidson diagonalization with overlap

---- Real-time Memory Report at c_bands before calling an iterative solver
           153 MiB given to the printing process from OS
             0 MiB allocation reported by mallinfo(arena+hblkhd)
         29251 MiB available memory on the node where the printing process lives
------------------
     ethr =  8.90E-10,  avg # of iterations =  2.4

     total cpu time spent up to now is      295.0 secs

     total energy              =     -48.20792041 Ry
     estimated scf accuracy    <          4.5E-09 Ry

     iteration #  7     ecut=    90.00 Ry     beta= 0.70
     Davidson diagonalization with overlap

---- Real-time Memory Report at c_bands before calling an iterative solver
           153 MiB given to the printing process from OS
             0 MiB allocation reported by mallinfo(arena+hblkhd)
         29278 MiB available memory on the node where the printing process lives
------------------
     ethr =  2.79E-11,  avg # of iterations =  2.9

     total cpu time spent up to now is      299.2 secs

     total energy              =     -48.20792041 Ry
     estimated scf accuracy    <          4.4E-10 Ry

     iteration #  8     ecut=    90.00 Ry     beta= 0.70
     Davidson diagonalization with overlap

---- Real-time Memory Report at c_bands before calling an iterative solver
           153 MiB given to the printing process from OS
             0 MiB allocation reported by mallinfo(arena+hblkhd)
         29287 MiB available memory on the node where the printing process lives
------------------
     ethr =  2.76E-12,  avg # of iterations =  2.5

     total cpu time spent up to now is      302.8 secs

     End of self-consistent calculation

          k = 0.0000 0.0000 0.0000 ( 11659 PWs)   bands (ev):

   -20.3717 -20.1916  -8.7958  -7.9124  -3.7962  -3.7956  -3.6763  -3.6757
     1.6914   2.3000   3.3363   3.7400   5.0048   6.1223

     occupation numbers 
     1.0000   1.0000   1.0000   1.0000   1.0000   1.0000   1.0000   1.0000
     0.0000   0.0000   0.0000   0.0000   0.0000   0.0000

          k = 0.0000 0.0770 0.0000 ( 11791 PWs)   bands (ev):

   -20.2660 -20.0866  -8.6678  -7.7879  -4.2220  -4.1019  -4.0209  -3.9001
     1.8385   2.4444   3.4784   3.8839   5.1461   6.2595

     occupation numbers 
     1.0000   1.0000   1.0000   1.0000   1.0000   1.0000   1.0000   1.0000
     0.0000   0.0000   0.0000   0.0000   0.0000   0.0000

          k = 0.0000 0.1540 0.0000 ( 11788 PWs)   bands (ev):

   -19.9498 -19.7722  -8.2856  -7.4169  -5.3555  -5.2333  -4.5904  -4.4690
     2.2797   2.8772   3.9044   4.3153   5.5695   6.6681

     occupation numbers 
     1.0000   1.0000   1.0000   1.0000   1.0000   1.0000   1.0000   1.0000
     0.0000   0.0000   0.0000   0.0000   0.0000   0.0000

          k = 0.0000 0.2309 0.0000 ( 11848 PWs)   bands (ev):

   -19.4253 -19.2507  -7.6556  -6.9117  -6.8086  -6.7837  -5.3028  -5.1807
     3.0148   3.5975   4.6130   5.0321   6.2686   7.3076

     occupation numbers 
     1.0000   1.0000   1.0000   1.0000   1.0000   1.0000   1.0000   1.0000
     0.0000   0.0000   0.0000   0.0000   0.0000   0.0000

          k = 0.0000 0.3079 0.0000 ( 11876 PWs)   bands (ev):

   -18.6966 -18.5261  -8.6530  -8.5229  -6.7918  -5.9961  -5.9754  -5.8735
     4.0433   4.5999   5.5881   5.8939   6.1208   6.3007

     occupation numbers 
     1.0000   1.0000   1.0000   1.0000   1.0000   1.0000   1.0000   1.0000
     0.0000   0.0000   0.0000   0.0000   0.0000   0.0000

          k = 0.0000 0.3849 0.0000 ( 11914 PWs)   bands (ev):

   -17.7712 -17.6057 -10.4280 -10.2928  -6.5729  -6.4499  -5.7238  -4.9598
     4.0446   4.4703   5.3680   5.9018   6.8304   7.0572

     occupation numbers 
     1.0000   1.0000   1.0000   1.0000   1.0000   1.0000   1.0000   1.0000
     0.0000   0.0000   0.0000   0.0000   0.0000   0.0000

          k = 0.0000 0.4619 0.0000 ( 11910 PWs)   bands (ev):

   -16.6649 -16.5054 -12.1369 -11.9963  -6.9799  -6.8567  -4.5274  -3.8623
     2.2675   2.7394   6.8385   6.9833   7.0475   7.4918

     occupation numbers 
     1.0000   1.0000   1.0000   1.0000   1.0000   1.0000   1.0000   1.0000
     0.0000   0.0000   0.0000   0.0000   0.0000   0.0000

          k = 0.0000 0.5389 0.0000 ( 11924 PWs)   bands (ev):

   -15.4512 -15.3023 -13.6570 -13.5155  -7.1893  -7.0660  -3.4661  -3.0245
     1.0316   1.4299   6.7402   6.9537   8.8872   9.3156

     occupation numbers 
     1.0000   1.0000   1.0000   1.0000   1.0000   1.0000   1.0000   1.0000
     0.0000   0.0000   0.0000   0.0000   0.0000   0.0000

          k = 0.0667 0.0385 0.0000 ( 11791 PWs)   bands (ev):

   -20.2660 -20.0866  -8.6678  -7.7879  -4.2225  -4.1017  -4.0204  -3.9003
     1.8385   2.4444   3.4784   3.8839   5.1461   6.2595

     occupation numbers 
     1.0000   1.0000   1.0000   1.0000   1.0000   1.0000   1.0000   1.0000
     0.0000   0.0000   0.0000   0.0000   0.0000   0.0000

          k = 0.0667 0.1155 0.0000 ( 11813 PWs)   bands (ev):

   -20.0551 -19.8769  -8.4126  -7.5402  -4.9500  -4.8292  -4.4699  -4.3492
     2.1326   2.7330   3.7625   4.1716   5.4288   6.5326

     occupation numbers 
     1.0000   1.0000   1.0000   1.0000   1.0000   1.0000   1.0000   1.0000
     0.0000   0.0000   0.0000   0.0000   0.0000   0.0000

          k = 0.0667 0.1925 0.0000 ( 11832 PWs)   bands (ev):

   -19.6347 -19.4590  -7.9063  -7.0495  -6.2045  -6.0816  -5.2025  -5.0807
     2.7208   3.3098   4.3305   4.7463   5.9926   7.0748

     occupation numbers 
     1.0000   1.0000   1.0000   1.0000   1.0000   1.0000   1.0000   1.0000
     0.0000   0.0000   0.0000   0.0000   0.0000   0.0000

          k = 0.0667 0.2694 0.0000 ( 11880 PWs)   bands (ev):

   -19.0081 -18.8359  -7.7945  -7.6675  -7.1584  -6.3272  -5.9658  -5.8429
     3.6027   4.1728   5.1789   5.6021   6.7803   6.8040

     occupation numbers 
     1.0000   1.0000   1.0000   1.0000   1.0000   1.0000   1.0000   1.0000
     0.0000   0.0000   0.0000   0.0000   0.0000   0.0000

          k = 0.0667 0.3464 0.0000 ( 11910 PWs)   bands (ev):

   -18.1810 -18.0133  -9.5221  -9.3901  -6.6322  -6.5086  -6.1887  -5.3983
     4.7703   4.9180   5.2758   5.3524   6.3091   6.7623

     occupation numbers 
     1.0000   1.0000   1.0000   1.0000   1.0000   1.0000   1.0000   1.0000
     0.0000   0.0000   0.0000   0.0000   0.0000   0.0000

          k = 0.0667 0.4234 0.0000 ( 11938 PWs)   bands (ev):

   -17.1640 -17.0017 -11.2499 -11.1125  -7.1390  -7.0149  -5.0426  -4.3218
     3.0869   3.5235   6.2477   6.7506   7.4027   7.5403

     occupation numbers 
     1.0000   1.0000   1.0000   1.0000   1.0000   1.0000   1.0000   1.0000
     0.0000   0.0000   0.0000   0.0000   0.0000   0.0000

          k = 0.0667 0.5004 0.0000 ( 11920 PWs)   bands (ev):

   -15.9860 -15.8308 -12.8767 -12.7345  -7.4537  -7.3293  -3.8530  -3.2792
     1.5186   1.9574   7.2442   7.4591   8.0089   8.4703

     occupation numbers 
     1.0000   1.0000   1.0000   1.0000   1.0000   1.0000   1.0000   1.0000
     0.0000   0.0000   0.0000   0.0000   0.0000   0.0000

          k = 0.0667 0.5774 0.0000 ( 11913 PWs)   bands (ev):

   -15.0087 -14.8749 -13.9907 -13.8610  -7.5602  -7.4358  -3.1607  -2.8139
     0.8389   1.1663   7.1911   7.4112  10.0441  10.0574

     occupation numbers 
     1.0000   1.0000   1.0000   1.0000   1.0000   1.0000   1.0000   1.0000
     0.0000   0.0000   0.0000   0.0000   0.0000   0.0000

          k = 0.0667-0.5004 0.0000 ( 11920 PWs)   bands (ev):

   -15.9860 -15.8308 -12.8767 -12.7345  -7.4537  -7.3294  -3.8530  -3.2792
     1.5186   1.9575   7.2442   7.4591   8.0089   8.4703

     occupation numbers 
     1.0000   1.0000   1.0000   1.0000   1.0000   1.0000   1.0000   1.0000
     0.0000   0.0000   0.0000   0.0000   0.0000   0.0000

          k = 0.0667-0.4234 0.0000 ( 11938 PWs)   bands (ev):

   -17.1639 -17.0017 -11.2499 -11.1125  -7.1390  -7.0150  -5.0426  -4.3218
     3.0870   3.5235   6.2477   6.7506   7.4027   7.5402

     occupation numbers 
     1.0000   1.0000   1.0000   1.0000   1.0000   1.0000   1.0000   1.0000
     0.0000   0.0000   0.0000   0.0000   0.0000   0.0000

          k = 0.0667-0.3464 0.0000 ( 11910 PWs)   bands (ev):

   -18.1810 -18.0133  -9.5221  -9.3901  -6.6322  -6.5086  -6.1887  -5.3983
     4.7703   4.9181   5.2759   5.3524   6.3091   6.7623

     occupation numbers 
     1.0000   1.0000   1.0000   1.0000   1.0000   1.0000   1.0000   1.0000
     0.0000   0.0000   0.0000   0.0000   0.0000   0.0000

          k = 0.0667-0.2694 0.0000 ( 11880 PWs)   bands (ev):

   -19.0081 -18.8359  -7.7944  -7.6675  -7.1584  -6.3272  -5.9659  -5.8430
     3.6027   4.1728   5.1789   5.6021   6.7804   6.8040

     occupation numbers 
     1.0000   1.0000   1.0000   1.0000   1.0000   1.0000   1.0000   1.0000
     0.0000   0.0000   0.0000   0.0000   0.0000   0.0000

          k = 0.0667-0.1925 0.0000 ( 11832 PWs)   bands (ev):

   -19.6347 -19.4590  -7.9063  -7.0495  -6.2044  -6.0815  -5.2026  -5.0809
     2.7208   3.3098   4.3305   4.7463   5.9926   7.0748

     occupation numbers 
     1.0000   1.0000   1.0000   1.0000   1.0000   1.0000   1.0000   1.0000
     0.0000   0.0000   0.0000   0.0000   0.0000   0.0000

          k = 0.0667-0.1155 0.0000 ( 11813 PWs)   bands (ev):

   -20.0551 -19.8769  -8.4126  -7.5402  -4.9498  -4.8289  -4.4701  -4.3495
     2.1326   2.7330   3.7625   4.1716   5.4288   6.5326

     occupation numbers 
     1.0000   1.0000   1.0000   1.0000   1.0000   1.0000   1.0000   1.0000
     0.0000   0.0000   0.0000   0.0000   0.0000   0.0000

          k = 0.0667-0.0385 0.0000 ( 11791 PWs)   bands (ev):

   -20.2660 -20.0866  -8.6678  -7.7879  -4.2223  -4.1014  -4.0206  -3.9006
     1.8385   2.4444   3.4784   3.8839   5.1461   6.2588

     occupation numbers 
     1.0000   1.0000   1.0000   1.0000   1.0000   1.0000   1.0000   1.0000
     0.0000   0.0000   0.0000   0.0000   0.0000   0.0000

          k = 0.1333 0.0770 0.0000 ( 11788 PWs)   bands (ev):

   -19.9498 -19.7722  -8.2856  -7.4169  -5.3559  -5.2332  -4.5900  -4.4692
     2.2797   2.8772   3.9044   4.3153   5.5695   6.6681

     occupation numbers 
     1.0000   1.0000   1.0000   1.0000   1.0000   1.0000   1.0000   1.0000
     0.0000   0.0000   0.0000   0.0000   0.0000   0.0000

          k = 0.1333 0.1540 0.0000 ( 11832 PWs)   bands (ev):

   -19.6347 -19.4590  -7.9063  -7.0495  -6.2047  -6.0815  -5.2023  -5.0808
     2.7208   3.3098   4.3305   4.7463   5.9926   7.0753

     occupation numbers 
     1.0000   1.0000   1.0000   1.0000   1.0000   1.0000   1.0000   1.0000
     0.0000   0.0000   0.0000   0.0000   0.0000   0.0000

          k = 0.1333 0.2309 0.0000 ( 11879 PWs)   bands (ev):

   -19.1123 -18.9395  -7.3087  -7.2814  -7.1855  -6.4453  -6.1707  -6.0485
     3.4558   4.0300   5.0396   5.4637   6.6954   7.0989

     occupation numbers 
     1.0000   1.0000   1.0000   1.0000   1.0000   1.0000   1.0000   1.0000
     0.0000   0.0000   0.0000   0.0000   0.0000   0.0000

          k = 0.1333 0.3079 0.0000 ( 11929 PWs)   bands (ev):

   -18.3872 -18.2184  -8.7097  -8.5831  -7.0831  -6.9590  -6.4242  -5.6213
     4.4843   5.0322   5.5171   5.7860   6.0306   6.4675

     occupation numbers 
     1.0000   1.0000   1.0000   1.0000   1.0000   1.0000   1.0000   1.0000
     0.0000   0.0000   0.0000   0.0000   0.0000   0.0000

          k = 0.1333 0.3849 0.0000 ( 11925 PWs)   bands (ev):

   -17.4677 -17.3038 -10.3094 -10.1768  -7.7620  -7.6362  -5.3633  -4.6125
     3.7968   4.1417   5.8067   6.3247   7.2855   7.7450

     occupation numbers 
     1.0000   1.0000   1.0000   1.0000   1.0000   1.0000   1.0000   1.0000
     0.0000   0.0000   0.0000   0.0000   0.0000   0.0000

          k = 0.1333 0.4619 0.0000 ( 11927 PWs)   bands (ev):

   -16.3708 -16.2129 -11.9306 -11.7921  -8.2099  -8.0831  -4.1687  -3.5121
     2.1358   2.5351   7.4194   7.8796   8.5512   8.6960

     occupation numbers 
     1.0000   1.0000   1.0000   1.0000   1.0000   1.0000   1.0000   1.0000
     0.0000   0.0000   0.0000   0.0000   0.0000   0.0000

          k = 0.1333 0.5389 0.0000 ( 11935 PWs)   bands (ev):

   -15.1729 -15.0253 -13.4040 -13.2641  -8.4337  -8.3064  -3.0892  -2.6476
     0.9397   1.2646   8.4446   8.6892   9.3183   9.7037

     occupation numbers 
     1.0000   1.0000   1.0000   1.0000   1.0000   1.0000   1.0000   1.0000
     0.0000   0.0000   0.0000   0.0000   0.0000   0.0000

          k = 0.1333 0.6158 0.0000 ( 11935 PWs)   bands (ev):

   -15.1729 -15.0253 -13.4040 -13.2641  -8.4337  -8.3065  -3.0892  -2.6476
     0.9397   1.2646   8.4446   8.6892   9.3183   9.7037

     occupation numbers 
     1.0000   1.0000   1.0000   1.0000   1.0000   1.0000   1.0000   1.0000
     0.0000   0.0000   0.0000   0.0000   0.0000   0.0000

          k = 0.1333-0.4619 0.0000 ( 11927 PWs)   bands (ev):

   -16.3708 -16.2129 -11.9306 -11.7921  -8.2099  -8.0831  -4.1687  -3.5122
     2.1359   2.5351   7.4194   7.8796   8.5512   8.6960

     occupation numbers 
     1.0000   1.0000   1.0000   1.0000   1.0000   1.0000   1.0000   1.0000
     0.0000   0.0000   0.0000   0.0000   0.0000   0.0000

          k = 0.1333-0.3849 0.0000 ( 11925 PWs)   bands (ev):

   -17.4677 -17.3038 -10.3094 -10.1767  -7.7620  -7.6362  -5.3633  -4.6126
     3.7968   4.1417   5.8067   6.3246   7.2855   7.7450

     occupation numbers 
     1.0000   1.0000   1.0000   1.0000   1.0000   1.0000   1.0000   1.0000
     0.0000   0.0000   0.0000   0.0000   0.0000   0.0000

          k = 0.1333-0.3079 0.0000 ( 11929 PWs)   bands (ev):

   -18.3872 -18.2184  -8.7096  -8.5830  -7.0831  -6.9591  -6.4242  -5.6213
     4.4843   5.0322   5.5171   5.7861   6.0306   6.4675

     occupation numbers 
     1.0000   1.0000   1.0000   1.0000   1.0000   1.0000   1.0000   1.0000
     0.0000   0.0000   0.0000   0.0000   0.0000   0.0000

          k = 0.1333-0.2309 0.0000 ( 11879 PWs)   bands (ev):

   -19.1123 -18.9395  -7.3086  -7.2814  -7.1853  -6.4453  -6.1709  -6.0488
     3.4558   4.0300   5.0396   5.4637   6.6954   7.0990

     occupation numbers 
     1.0000   1.0000   1.0000   1.0000   1.0000   1.0000   1.0000   1.0000
     0.0000   0.0000   0.0000   0.0000   0.0000   0.0000

          k = 0.1333-0.1540 0.0000 ( 11832 PWs)   bands (ev):

   -19.6347 -19.4590  -7.9063  -7.0495  -6.2045  -6.0813  -5.2025  -5.0811
     2.7208   3.3098   4.3305   4.7463   5.9926   7.0753

     occupation numbers 
     1.0000   1.0000   1.0000   1.0000   1.0000   1.0000   1.0000   1.0000
     0.0000   0.0000   0.0000   0.0000   0.0000   0.0000

          k = 0.1333-0.0770 0.0000 ( 11788 PWs)   bands (ev):

   -19.9498 -19.7722  -8.2856  -7.4169  -5.3557  -5.2329  -4.5902  -4.4694
     2.2797   2.8772   3.9044   4.3153   5.5695   6.6681

     occupation numbers 
     1.0000   1.0000   1.0000   1.0000   1.0000   1.0000   1.0000   1.0000
     0.0000   0.0000   0.0000   0.0000   0.0000   0.0000

          k = 0.1333 0.0000 0.0000 ( 11813 PWs)   bands (ev):

   -20.0551 -19.8769  -8.4126  -7.5402  -4.9502  -4.8288  -4.4696  -4.3496
     2.1326   2.7330   3.7625   4.1716   5.4288   6.5326

     occupation numbers 
     1.0000   1.0000   1.0000   1.0000   1.0000   1.0000   1.0000   1.0000
     0.0000   0.0000   0.0000   0.0000   0.0000   0.0000

          k = 0.2000 0.1155 0.0000 ( 11848 PWs)   bands (ev):

   -19.4253 -19.2507  -7.6556  -6.9120  -6.8086  -6.7836  -5.3024  -5.1808
     3.0148   3.5975   4.6130   5.0321   6.2686   7.3076

     occupation numbers 
     1.0000   1.0000   1.0000   1.0000   1.0000   1.0000   1.0000   1.0000
     0.0000   0.0000   0.0000   0.0000   0.0000   0.0000

          k = 0.2000 0.1925 0.0000 ( 11880 PWs)   bands (ev):

   -19.0081 -18.8359  -7.7947  -7.6675  -7.1584  -6.3272  -5.9656  -5.8430
     3.6027   4.1728   5.1789   5.6021   6.7803   6.8040

     occupation numbers 
     1.0000   1.0000   1.0000   1.0000   1.0000   1.0000   1.0000   1.0000
     0.0000   0.0000   0.0000   0.0000   0.0000   0.0000

          k = 0.2000 0.2694 0.0000 ( 11929 PWs)   bands (ev):

   -18.3872 -18.2184  -8.7098  -8.5830  -7.0829  -6.9590  -6.4242  -5.6213
     4.4843   5.0322   5.5170   5.7860   6.0306   6.4675

     occupation numbers 
     1.0000   1.0000   1.0000   1.0000   1.0000   1.0000   1.0000   1.0000
     0.0000   0.0000   0.0000   0.0000   0.0000   0.0000

          k = 0.2000 0.3464 0.0000 ( 11953 PWs)   bands (ev):

   -17.5695 -17.4051  -9.7254  -9.5998  -8.2621  -8.1378  -5.4719  -4.7118
     4.1034   4.3778   5.6592   6.1785   7.1465   7.5963

     occupation numbers 
     1.0000   1.0000   1.0000   1.0000   1.0000   1.0000   1.0000   1.0000
     0.0000   0.0000   0.0000   0.0000   0.0000   0.0000

          k = 0.2000 0.4234 0.0000 ( 11949 PWs)   bands (ev):

   -16.5679 -16.4089 -11.0160 -10.8851  -9.0874  -8.9601  -4.3407  -3.6472
     2.6007   2.9129   7.1248   7.5926   8.5093   8.9847

     occupation numbers 
     1.0000   1.0000   1.0000   1.0000   1.0000   1.0000   1.0000   1.0000
     0.0000   0.0000   0.0000   0.0000   0.0000   0.0000

          k = 0.2000 0.5004 0.0000 ( 11953 PWs)   bands (ev):

   -15.4154 -15.2632 -12.4515 -12.3138  -9.5170  -9.3872  -3.1397  -2.5738
     1.2020   1.5287   8.8717   9.2452   9.9461  10.1567

     occupation numbers 
     1.0000   1.0000   1.0000   1.0000   1.0000   1.0000   1.0000   1.0000
     0.0000   0.0000   0.0000   0.0000   0.0000   0.0000

          k = 0.2000 0.5774 0.0000 ( 11949 PWs)   bands (ev):

   -14.4685 -14.3358 -13.4941 -13.3663  -9.6506  -9.5201  -2.3901  -2.0500
     0.5569   0.7216  10.0466  10.3244  10.5702  10.7469

     occupation numbers 
     1.0000   1.0000   1.0000   1.0000   1.0000   1.0000   1.0000   1.0000
     0.0000   0.0000   0.0000   0.0000   0.0000   0.0000

          k = 0.2000 0.6543 0.0000 ( 11953 PWs)   bands (ev):

   -15.4154 -15.2632 -12.4515 -12.3138  -9.5170  -9.3872  -3.1397  -2.5738
     1.2020   1.5288   8.8717   9.2452   9.9460  10.1567

     occupation numbers 
     1.0000   1.0000   1.0000   1.0000   1.0000   1.0000   1.0000   1.0000
     0.0000   0.0000   0.0000   0.0000   0.0000   0.0000

          k = 0.2000-0.4234 0.0000 ( 11949 PWs)   bands (ev):

   -16.5679 -16.4089 -11.0160 -10.8850  -9.0875  -8.9602  -4.3407  -3.6473
     2.6007   2.9130   7.1248   7.5926   8.5093   8.9847

     occupation numbers 
     1.0000   1.0000   1.0000   1.0000   1.0000   1.0000   1.0000   1.0000
     0.0000   0.0000   0.0000   0.0000   0.0000   0.0000

          k = 0.2000-0.3464 0.0000 ( 11953 PWs)   bands (ev):

   -17.5695 -17.4051  -9.7253  -9.5997  -8.2623  -8.1380  -5.4719  -4.7118
     4.1035   4.3779   5.6592   6.1785   7.1465   7.5963

     occupation numbers 
     1.0000   1.0000   1.0000   1.0000   1.0000   1.0000   1.0000   1.0000
     0.0000   0.0000   0.0000   0.0000   0.0000   0.0000

          k = 0.2000-0.2694 0.0000 ( 11929 PWs)   bands (ev):

   -18.3872 -18.2184  -8.7097  -8.5828  -7.0830  -6.9593  -6.4242  -5.6213
     4.4843   5.0322   5.5171   5.7861   6.0306   6.4675

     occupation numbers 
     1.0000   1.0000   1.0000   1.0000   1.0000   1.0000   1.0000   1.0000
     0.0000   0.0000   0.0000   0.0000   0.0000   0.0000

          k = 0.2000-0.1925 0.0000 ( 11880 PWs)   bands (ev):

   -19.0081 -18.8359  -7.7946  -7.6673  -7.1584  -6.3272  -5.9657  -5.8433
     3.6027   4.1728   5.1789   5.6021   6.7803   6.8040

     occupation numbers 
     1.0000   1.0000   1.0000   1.0000   1.0000   1.0000   1.0000   1.0000
     0.0000   0.0000   0.0000   0.0000   0.0000   0.0000

          k = 0.2000-0.1155 0.0000 ( 11848 PWs)   bands (ev):

   -19.4253 -19.2507  -7.6556  -6.9118  -6.8086  -6.7834  -5.3026  -5.1810
     3.0148   3.5975   4.6130   5.0321   6.2686   7.3073

     occupation numbers 
     1.0000   1.0000   1.0000   1.0000   1.0000   1.0000   1.0000   1.0000
     0.0000   0.0000   0.0000   0.0000   0.0000   0.0000

          k = 0.2000-0.0385 0.0000 ( 11832 PWs)   bands (ev):

   -19.6347 -19.4590  -7.9063  -7.0495  -6.2047  -6.0812  -5.2022  -5.0812
     2.7208   3.3098   4.3305   4.7463   5.9926   7.0753

     occupation numbers 
     1.0000   1.0000   1.0000   1.0000   1.0000   1.0000   1.0000   1.0000
     0.0000   0.0000   0.0000   0.0000   0.0000   0.0000

          k = 0.2000 0.0385 0.0000 ( 11832 PWs)   bands (ev):

   -19.6347 -19.4590  -7.9063  -7.0495  -6.2048  -6.0813  -5.2021  -5.0810
     2.7208   3.3098   4.3305   4.7463   5.9926   7.0753

     occupation numbers 
     1.0000   1.0000   1.0000   1.0000   1.0000   1.0000   1.0000   1.0000
     0.0000   0.0000   0.0000   0.0000   0.0000   0.0000

          k = 0.2667 0.1540 0.0000 ( 11876 PWs)   bands (ev):

   -18.6966 -18.5261  -8.6533  -8.5229  -6.7918  -5.9958  -5.9753  -5.8736
     4.0433   4.5999   5.5881   5.8939   6.1207   6.3007

     occupation numbers 
     1.0000   1.0000   1.0000   1.0000   1.0000   1.0000   1.0000   1.0000
     0.0000   0.0000   0.0000   0.0000   0.0000   0.0000

          k = 0.2667 0.2309 0.0000 ( 11910 PWs)   bands (ev):

   -18.1810 -18.0133  -9.5223  -9.3900  -6.6319  -6.5086  -6.1887  -5.3983
     4.7703   4.9180   5.2758   5.3524   6.3091   6.7623

     occupation numbers 
     1.0000   1.0000   1.0000   1.0000   1.0000   1.0000   1.0000   1.0000
     0.0000   0.0000   0.0000   0.0000   0.0000   0.0000

          k = 0.2667 0.3079 0.0000 ( 11925 PWs)   bands (ev):

   -17.4677 -17.3038 -10.3096 -10.1767  -7.7618  -7.6362  -5.3632  -4.6125
     3.7967   4.1417   5.8067   6.3246   7.2855   7.7450

     occupation numbers 
     1.0000   1.0000   1.0000   1.0000   1.0000   1.0000   1.0000   1.0000
     0.0000   0.0000   0.0000   0.0000   0.0000   0.0000

          k = 0.2667 0.3849 0.0000 ( 11949 PWs)   bands (ev):

   -16.5679 -16.4089 -11.0161 -10.8850  -9.0873  -8.9601  -4.3406  -3.6472
     2.6006   2.9129   7.1248   7.5926   8.5093   8.9847

     occupation numbers 
     1.0000   1.0000   1.0000   1.0000   1.0000   1.0000   1.0000   1.0000
     0.0000   0.0000   0.0000   0.0000   0.0000   0.0000

          k = 0.2667 0.4619 0.0000 ( 11961 PWs)   bands (ev):

   -15.5046 -15.3515 -11.7965 -11.6684 -10.2180 -10.0917  -3.1710  -2.5611
     1.3494   1.6578   8.7220   9.0918   9.8054  10.2761

     occupation numbers 
     1.0000   1.0000   1.0000   1.0000   1.0000   1.0000   1.0000   1.0000
     0.0000   0.0000   0.0000   0.0000   0.0000   0.0000

          k = 0.2667 0.5389 0.0000 ( 11948 PWs)   bands (ev):

   -14.3569 -14.2130 -12.8500 -12.7175 -10.7633 -10.6337  -2.0146  -1.5666
     0.2334   0.5093   9.9756  10.2244  10.6793  10.9840

     occupation numbers 
     1.0000   1.0000   1.0000   1.0000   1.0000   1.0000   1.0000   1.0000
     0.0000   0.0000   0.0000   0.0000   0.0000   0.0000

          k = 0.2667 0.6158 0.0000 ( 11948 PWs)   bands (ev):

   -14.3569 -14.2130 -12.8500 -12.7174 -10.7633 -10.6338  -2.0146  -1.5666
     0.2334   0.5094   9.9756  10.2243  10.6793  10.9840

     occupation numbers 
     1.0000   1.0000   1.0000   1.0000   1.0000   1.0000   1.0000   1.0000
     0.0000   0.0000   0.0000   0.0000   0.0000   0.0000

          k = 0.2667 0.6928 0.0000 ( 11961 PWs)   bands (ev):

   -15.5046 -15.3515 -11.7965 -11.6683 -10.2181 -10.0919  -3.1710  -2.5611
     1.3495   1.6580   8.7220   9.0918   9.8054  10.2760

     occupation numbers 
     1.0000   1.0000   1.0000   1.0000   1.0000   1.0000   1.0000   1.0000
     0.0000   0.0000   0.0000   0.0000   0.0000   0.0000

          k = 0.2667-0.3849 0.0000 ( 11949 PWs)   bands (ev):

   -16.5679 -16.4089 -11.0160 -10.8849  -9.0874  -8.9603  -4.3407  -3.6473
     2.6007   2.9130   7.1248   7.5926   8.5093   8.9847

     occupation numbers 
     1.0000   1.0000   1.0000   1.0000   1.0000   1.0000   1.0000   1.0000
     0.0000   0.0000   0.0000   0.0000   0.0000   0.0000

          k = 0.2667-0.3079 0.0000 ( 11925 PWs)   bands (ev):

   -17.4677 -17.3038 -10.3095 -10.1766  -7.7619  -7.6364  -5.3633  -4.6126
     3.7968   4.1418   5.8067   6.3246   7.2855   7.7450

     occupation numbers 
     1.0000   1.0000   1.0000   1.0000   1.0000   1.0000   1.0000   1.0000
     0.0000   0.0000   0.0000   0.0000   0.0000   0.0000

          k = 0.2667-0.2309 0.0000 ( 11910 PWs)   bands (ev):

   -18.1810 -18.0133  -9.5222  -9.3899  -6.6320  -6.5088  -6.1887  -5.3984
     4.7703   4.9181   5.2759   5.3524   6.3091   6.7623

     occupation numbers 
     1.0000   1.0000   1.0000   1.0000   1.0000   1.0000   1.0000   1.0000
     0.0000   0.0000   0.0000   0.0000   0.0000   0.0000

          k = 0.2667-0.1540 0.0000 ( 11876 PWs)   bands (ev):

   -18.6966 -18.5261  -8.6532  -8.5227  -6.7918  -5.9959  -5.9754  -5.8738
     4.0433   4.5999   5.5881   5.8939   6.1207   6.3008

     occupation numbers 
     1.0000   1.0000   1.0000   1.0000   1.0000   1.0000   1.0000   1.0000
     0.0000   0.0000   0.0000   0.0000   0.0000   0.0000

          k = 0.2667-0.0770 0.0000 ( 11880 PWs)   bands (ev):

   -19.0081 -18.8359  -7.7946  -7.6672  -7.1584  -6.3272  -5.9656  -5.8433
     3.6027   4.1728   5.1789   5.6021   6.7803   6.8040

     occupation numbers 
     1.0000   1.0000   1.0000   1.0000   1.0000   1.0000   1.0000   1.0000
     0.0000   0.0000   0.0000   0.0000   0.0000   0.0000

          k = 0.2667 0.0000 0.0000 ( 11879 PWs)   bands (ev):

   -19.1123 -18.9395  -7.3089  -7.2814  -7.1852  -6.4453  -6.1705  -6.0489
     3.4558   4.0300   5.0396   5.4637   6.6954   7.0989

     occupation numbers 
     1.0000   1.0000   1.0000   1.0000   1.0000   1.0000   1.0000   1.0000
     0.0000   0.0000   0.0000   0.0000   0.0000   0.0000

          k = 0.2667 0.0770 0.0000 ( 11880 PWs)   bands (ev):

   -19.0081 -18.8359  -7.7947  -7.6674  -7.1584  -6.3272  -5.9655  -5.8431
     3.6027   4.1728   5.1789   5.6021   6.7803   6.8040

     occupation numbers 
     1.0000   1.0000   1.0000   1.0000   1.0000   1.0000   1.0000   1.0000
     0.0000   0.0000   0.0000   0.0000   0.0000   0.0000

          k = 0.3333 0.1925 0.0000 ( 11914 PWs)   bands (ev):

   -17.7712 -17.6057 -10.4282 -10.2927  -6.5726  -6.4500  -5.7237  -4.9598
     4.0445   4.4703   5.3680   5.9018   6.8304   7.0573

     occupation numbers 
     1.0000   1.0000   1.0000   1.0000   1.0000   1.0000   1.0000   1.0000
     0.0000   0.0000   0.0000   0.0000   0.0000   0.0000

          k = 0.3333 0.2694 0.0000 ( 11938 PWs)   bands (ev):

   -17.1640 -17.0017 -11.2501 -11.1124  -7.1388  -7.0150  -5.0426  -4.3218
     3.0868   3.5235   6.2477   6.7506   7.4028   7.5403

     occupation numbers 
     1.0000   1.0000   1.0000   1.0000   1.0000   1.0000   1.0000   1.0000
     0.0000   0.0000   0.0000   0.0000   0.0000   0.0000

          k = 0.3333 0.3464 0.0000 ( 11927 PWs)   bands (ev):

   -16.3708 -16.2129 -11.9308 -11.7920  -8.2097  -8.0832  -4.1686  -3.5121
     2.1357   2.5351   7.4194   7.8796   8.5513   8.6960

     occupation numbers 
     1.0000   1.0000   1.0000   1.0000   1.0000   1.0000   1.0000   1.0000
     0.0000   0.0000   0.0000   0.0000   0.0000   0.0000

          k = 0.3333 0.4234 0.0000 ( 11953 PWs)   bands (ev):

   -15.4154 -15.2632 -12.4517 -12.3138  -9.5168  -9.3872  -3.1396  -2.5737
     1.2019   1.5287   8.8717   9.2452   9.9461  10.1567

     occupation numbers 
     1.0000   1.0000   1.0000   1.0000   1.0000   1.0000   1.0000   1.0000
     0.0000   0.0000   0.0000   0.0000   0.0000   0.0000

          k = 0.3333 0.5004 0.0000 ( 11948 PWs)   bands (ev):

   -14.3568 -14.2130 -12.8502 -12.7174 -10.7632 -10.6338  -2.0145  -1.5666
     0.2332   0.5093   9.9756  10.2244  10.6793  10.9840

     occupation numbers 
     1.0000   1.0000   1.0000   1.0000   1.0000   1.0000   1.0000   1.0000
     0.0000   0.0000   0.0000   0.0000   0.0000   0.0000

          k = 0.3333 0.5774 0.0000 ( 11919 PWs)   bands (ev):

   -13.4018 -13.3875 -13.2639 -13.2534 -11.3844 -11.2597  -0.9935  -0.7651
    -0.6241  -0.3804   9.8259  10.0338  11.9180  12.2568

     occupation numbers 
     1.0000   1.0000   1.0000   1.0000   1.0000   1.0000   0.9991   0.7685
     0.2319   0.0005   0.0000   0.0000   0.0000   0.0000

          k = 0.3333 0.6543 0.0000 ( 11948 PWs)   bands (ev):

   -14.3568 -14.2131 -12.8501 -12.7173 -10.7632 -10.6339  -2.0146  -1.5667
     0.2334   0.5095   9.9756  10.2243  10.6793  10.9840

     occupation numbers 
     1.0000   1.0000   1.0000   1.0000   1.0000   1.0000   1.0000   1.0000
     0.0000   0.0000   0.0000   0.0000   0.0000   0.0000

          k = 0.3333 0.7313 0.0000 ( 11953 PWs)   bands (ev):

   -15.4154 -15.2632 -12.4516 -12.3137  -9.5169  -9.3874  -3.1397  -2.5738
     1.2020   1.5288   8.8717   9.2452   9.9461  10.1567

     occupation numbers 
     1.0000   1.0000   1.0000   1.0000   1.0000   1.0000   1.0000   1.0000
     0.0000   0.0000   0.0000   0.0000   0.0000   0.0000

          k = 0.3333-0.3464 0.0000 ( 11927 PWs)   bands (ev):

   -16.3708 -16.2129 -11.9307 -11.7919  -8.2098  -8.0833  -4.1687  -3.5122
     2.1359   2.5352   7.4194   7.8796   8.5512   8.6960

     occupation numbers 
     1.0000   1.0000   1.0000   1.0000   1.0000   1.0000   1.0000   1.0000
     0.0000   0.0000   0.0000   0.0000   0.0000   0.0000

          k = 0.3333-0.2694 0.0000 ( 11938 PWs)   bands (ev):

   -17.1640 -17.0017 -11.2500 -11.1123  -7.1389  -7.0152  -5.0426  -4.3218
     3.0869   3.5236   6.2477   6.7506   7.4027   7.5402

     occupation numbers 
     1.0000   1.0000   1.0000   1.0000   1.0000   1.0000   1.0000   1.0000
     0.0000   0.0000   0.0000   0.0000   0.0000   0.0000

          k = 0.3333-0.1925 0.0000 ( 11914 PWs)   bands (ev):

   -17.7712 -17.6057 -10.4281 -10.2926  -6.5727  -6.4502  -5.7238  -4.9598
     4.0446   4.4704   5.3680   5.9018   6.8304   7.0572

     occupation numbers 
     1.0000   1.0000   1.0000   1.0000   1.0000   1.0000   1.0000   1.0000
     0.0000   0.0000   0.0000   0.0000   0.0000   0.0000

          k = 0.3333-0.1155 0.0000 ( 11910 PWs)   bands (ev):

   -18.1810 -18.0133  -9.5222  -9.3899  -6.6320  -6.5089  -6.1887  -5.3984
     4.7703   4.9180   5.2759   5.3524   6.3091   6.7623

     occupation numbers 
     1.0000   1.0000   1.0000   1.0000   1.0000   1.0000   1.0000   1.0000
     0.0000   0.0000   0.0000   0.0000   0.0000   0.0000

          k = 0.3333-0.0385 0.0000 ( 11929 PWs)   bands (ev):

   -18.3872 -18.2184  -8.7099  -8.5828  -7.0828  -6.9594  -6.4242  -5.6213
     4.4843   5.0322   5.5170   5.7861   6.0306   6.4675

     occupation numbers 
     1.0000   1.0000   1.0000   1.0000   1.0000   1.0000   1.0000   1.0000
     0.0000   0.0000   0.0000   0.0000   0.0000   0.0000

          k = 0.3333 0.0385 0.0000 ( 11929 PWs)   bands (ev):

   -18.3872 -18.2184  -8.7099  -8.5829  -7.0828  -6.9593  -6.4242  -5.6213
     4.4843   5.0322   5.5170   5.7861   6.0306   6.4675

     occupation numbers 
     1.0000   1.0000   1.0000   1.0000   1.0000   1.0000   1.0000   1.0000
     0.0000   0.0000   0.0000   0.0000   0.0000   0.0000

          k = 0.3333 0.1155 0.0000 ( 11910 PWs)   bands (ev):

   -18.1810 -18.0133  -9.5223  -9.3900  -6.6319  -6.5087  -6.1887  -5.3983
     4.7703   4.9180   5.2759   5.3524   6.3091   6.7623

     occupation numbers 
     1.0000   1.0000   1.0000   1.0000   1.0000   1.0000   1.0000   1.0000
     0.0000   0.0000   0.0000   0.0000   0.0000   0.0000

          k = 0.4000 0.2309 0.0000 ( 11910 PWs)   bands (ev):

   -16.6649 -16.5054 -12.1370 -11.9963  -6.9796  -6.8568  -4.5273  -3.8623
     2.2673   2.7394   6.8386   6.9833   7.0475   7.4918

     occupation numbers 
     1.0000   1.0000   1.0000   1.0000   1.0000   1.0000   1.0000   1.0000
     0.0000   0.0000   0.0000   0.0000   0.0000   0.0000

          k = 0.4000 0.3079 0.0000 ( 11920 PWs)   bands (ev):

   -15.9860 -15.8308 -12.8768 -12.7345  -7.4534  -7.3294  -3.8530  -3.2792
     1.5185   1.9574   7.2443   7.4591   8.0089   8.4703

     occupation numbers 
     1.0000   1.0000   1.0000   1.0000   1.0000   1.0000   1.0000   1.0000
     0.0000   0.0000   0.0000   0.0000   0.0000   0.0000

          k = 0.4000 0.3849 0.0000 ( 11935 PWs)   bands (ev):

   -15.1728 -15.0254 -13.4042 -13.2640  -8.4335  -8.3065  -3.0891  -2.6476
     0.9395   1.2646   8.4447   8.6892   9.3183   9.7037

     occupation numbers 
     1.0000   1.0000   1.0000   1.0000   1.0000   1.0000   1.0000   1.0000
     0.0000   0.0000   0.0000   0.0000   0.0000   0.0000

          k = 0.4000 0.4619 0.0000 ( 11949 PWs)   bands (ev):

   -14.4683 -14.3358 -13.4944 -13.3662  -9.6504  -9.5202  -2.3900  -2.0500
     0.5566   0.7217  10.0466  10.3244  10.5702  10.7470

     occupation numbers 
     1.0000   1.0000   1.0000   1.0000   1.0000   1.0000   1.0000   1.0000
     0.0000   0.0000   0.0000   0.0000   0.0000   0.0000

          k = 0.4000 0.5389 0.0000 ( 11948 PWs)   bands (ev):

   -14.3568 -14.2131 -12.8502 -12.7174 -10.7631 -10.6338  -2.0145  -1.5666
     0.2332   0.5094   9.9756  10.2243  10.6793  10.9840

     occupation numbers 
     1.0000   1.0000   1.0000   1.0000   1.0000   1.0000   1.0000   1.0000
     0.0000   0.0000   0.0000   0.0000   0.0000   0.0000

          k = 0.4000 0.6158 0.0000 ( 11948 PWs)   bands (ev):

   -14.3568 -14.2131 -12.8501 -12.7172 -10.7632 -10.6339  -2.0146  -1.5667
     0.2333   0.5095   9.9756  10.2243  10.6793  10.9840

     occupation numbers 
     1.0000   1.0000   1.0000   1.0000   1.0000   1.0000   1.0000   1.0000
     0.0000   0.0000   0.0000   0.0000   0.0000   0.0000

          k = 0.4000 0.6928 0.0000 ( 11949 PWs)   bands (ev):

   -14.4684 -14.3359 -13.4943 -13.3660  -9.6505  -9.5203  -2.3901  -2.0501
     0.5568   0.7220  10.0466  10.3244  10.5702  10.7469

     occupation numbers 
     1.0000   1.0000   1.0000   1.0000   1.0000   1.0000   1.0000   1.0000
     0.0000   0.0000   0.0000   0.0000   0.0000   0.0000

          k = 0.4000 0.7698 0.0000 ( 11935 PWs)   bands (ev):

   -15.1729 -15.0254 -13.4041 -13.2639  -8.4335  -8.3067  -3.0892  -2.6477
     0.9397   1.2648   8.4446   8.6891   9.3183   9.7037

     occupation numbers 
     1.0000   1.0000   1.0000   1.0000   1.0000   1.0000   1.0000   1.0000
     0.0000   0.0000   0.0000   0.0000   0.0000   0.0000

          k = 0.4000-0.3079 0.0000 ( 11920 PWs)   bands (ev):

   -15.9860 -15.8308 -12.8768 -12.7344  -7.4535  -7.3296  -3.8530  -3.2793
     1.5186   1.9576   7.2442   7.4590   8.0089   8.4703

     occupation numbers 
     1.0000   1.0000   1.0000   1.0000   1.0000   1.0000   1.0000   1.0000
     0.0000   0.0000   0.0000   0.0000   0.0000   0.0000

          k = 0.4000-0.2309 0.0000 ( 11910 PWs)   bands (ev):

   -16.6649 -16.5054 -12.1370 -11.9962  -6.9797  -6.8569  -4.5274  -3.8624
     2.2674   2.7395   6.8386   6.9833   7.0475   7.4918

     occupation numbers 
     1.0000   1.0000   1.0000   1.0000   1.0000   1.0000   1.0000   1.0000
     0.0000   0.0000   0.0000   0.0000   0.0000   0.0000

          k = 0.4000-0.1540 0.0000 ( 11938 PWs)   bands (ev):

   -17.1640 -17.0017 -11.2500 -11.1123  -7.1389  -7.0152  -5.0426  -4.3218
     3.0869   3.5236   6.2477   6.7506   7.4028   7.5402

     occupation numbers 
     1.0000   1.0000   1.0000   1.0000   1.0000   1.0000   1.0000   1.0000
     0.0000   0.0000   0.0000   0.0000   0.0000   0.0000

          k = 0.4000-0.0770 0.0000 ( 11925 PWs)   bands (ev):

   -17.4677 -17.3038 -10.3096 -10.1766  -7.7618  -7.6364  -5.3633  -4.6126
     3.7967   4.1418   5.8067   6.3247   7.2855   7.7450

     occupation numbers 
     1.0000   1.0000   1.0000   1.0000   1.0000   1.0000   1.0000   1.0000
     0.0000   0.0000   0.0000   0.0000   0.0000   0.0000

          k = 0.4000 0.0000 0.0000 ( 11953 PWs)   bands (ev):

   -17.5695 -17.4051  -9.7255  -9.5996  -8.2620  -8.1381  -5.4719  -4.7118
     4.1034   4.3779   5.6592   6.1785   7.1465   7.5963

     occupation numbers 
     1.0000   1.0000   1.0000   1.0000   1.0000   1.0000   1.0000   1.0000
     0.0000   0.0000   0.0000   0.0000   0.0000   0.0000

          k = 0.4000 0.0770 0.0000 ( 11925 PWs)   bands (ev):

   -17.4677 -17.3038 -10.3096 -10.1767  -7.7617  -7.6363  -5.3632  -4.6125
     3.7967   4.1417   5.8067   6.3246   7.2855   7.7450

     occupation numbers 
     1.0000   1.0000   1.0000   1.0000   1.0000   1.0000   1.0000   1.0000
     0.0000   0.0000   0.0000   0.0000   0.0000   0.0000

          k = 0.4000 0.1540 0.0000 ( 11938 PWs)   bands (ev):

   -17.1640 -17.0017 -11.2501 -11.1124  -7.1388  -7.0150  -5.0426  -4.3218
     3.0868   3.5235   6.2477   6.7506   7.4028   7.5402

     occupation numbers 
     1.0000   1.0000   1.0000   1.0000   1.0000   1.0000   1.0000   1.0000
     0.0000   0.0000   0.0000   0.0000   0.0000   0.0000

          k = 0.4667 0.2694 0.0000 ( 11924 PWs)   bands (ev):

   -15.4512 -15.3023 -13.6572 -13.5154  -7.1890  -7.0661  -3.4660  -3.0245
     1.0314   1.4298   6.7403   6.9537   8.8872   9.3156

     occupation numbers 
     1.0000   1.0000   1.0000   1.0000   1.0000   1.0000   1.0000   1.0000
     0.0000   0.0000   0.0000   0.0000   0.0000   0.0000

          k = 0.4667 0.3464 0.0000 ( 11913 PWs)   bands (ev):

   -15.0085 -14.8749 -13.9910 -13.8609  -7.5599  -7.4358  -3.1605  -2.8139
     0.8387   1.1663   7.1912   7.4112  10.0441  10.0574

     occupation numbers 
     1.0000   1.0000   1.0000   1.0000   1.0000   1.0000   1.0000   1.0000
     0.0000   0.0000   0.0000   0.0000   0.0000   0.0000

          k = 0.4667 0.4234 0.0000 ( 11935 PWs)   bands (ev):

   -15.1728 -15.0254 -13.4042 -13.2640  -8.4335  -8.3065  -3.0891  -2.6476
     0.9395   1.2646   8.4447   8.6892   9.3183   9.7037

     occupation numbers 
     1.0000   1.0000   1.0000   1.0000   1.0000   1.0000   1.0000   1.0000
     0.0000   0.0000   0.0000   0.0000   0.0000   0.0000

          k = 0.4667 0.5004 0.0000 ( 11953 PWs)   bands (ev):

   -15.4154 -15.2632 -12.4517 -12.3137  -9.5168  -9.3873  -3.1396  -2.5738
     1.2018   1.5287   8.8717   9.2452   9.9460  10.1568

     occupation numbers 
     1.0000   1.0000   1.0000   1.0000   1.0000   1.0000   1.0000   1.0000
     0.0000   0.0000   0.0000   0.0000   0.0000   0.0000

          k = 0.4667 0.5774 0.0000 ( 11961 PWs)   bands (ev):

   -15.5046 -15.3515 -11.7967 -11.6682 -10.2179 -10.0920  -3.1710  -2.5611
     1.3494   1.6579   8.7220   9.0918   9.8054  10.2760

     occupation numbers 
     1.0000   1.0000   1.0000   1.0000   1.0000   1.0000   1.0000   1.0000
     0.0000   0.0000   0.0000   0.0000   0.0000   0.0000

          k = 0.4667 0.6543 0.0000 ( 11953 PWs)   bands (ev):

   -15.4154 -15.2632 -12.4517 -12.3136  -9.5168  -9.3874  -3.1397  -2.5738
     1.2019   1.5288   8.8717   9.2452   9.9461  10.1567

     occupation numbers 
     1.0000   1.0000   1.0000   1.0000   1.0000   1.0000   1.0000   1.0000
     0.0000   0.0000   0.0000   0.0000   0.0000   0.0000

          k = 0.4667 0.7313 0.0000 ( 11935 PWs)   bands (ev):

   -15.1729 -15.0254 -13.4041 -13.2639  -8.4335  -8.3067  -3.0892  -2.6477
     0.9397   1.2648   8.4446   8.6891   9.3183   9.7037

     occupation numbers 
     1.0000   1.0000   1.0000   1.0000   1.0000   1.0000   1.0000   1.0000
     0.0000   0.0000   0.0000   0.0000   0.0000   0.0000

          k = 0.4667 0.8083 0.0000 ( 11913 PWs)   bands (ev):

   -15.0086 -14.8750 -13.9909 -13.8607  -7.5600  -7.4360  -3.1606  -2.8140
     0.8388   1.1665   7.1912   7.4112  10.0441  10.0574

     occupation numbers 
     1.0000   1.0000   1.0000   1.0000   1.0000   1.0000   1.0000   1.0000
     0.0000   0.0000   0.0000   0.0000   0.0000   0.0000

          k = 0.4667-0.2694 0.0000 ( 11924 PWs)   bands (ev):

   -15.4512 -15.3024 -13.6571 -13.5153  -7.1891  -7.0662  -3.4660  -3.0246
     1.0316   1.4300   6.7402   6.9537   8.8872   9.3156

     occupation numbers 
     1.0000   1.0000   1.0000   1.0000   1.0000   1.0000   1.0000   1.0000
     0.0000   0.0000   0.0000   0.0000   0.0000   0.0000

          k = 0.4667-0.1925 0.0000 ( 11920 PWs)   bands (ev):

   -15.9860 -15.8308 -12.8768 -12.7344  -7.4535  -7.3296  -3.8530  -3.2793
     1.5186   1.9576   7.2442   7.4590   8.0089   8.4703

     occupation numbers 
     1.0000   1.0000   1.0000   1.0000   1.0000   1.0000   1.0000   1.0000
     0.0000   0.0000   0.0000   0.0000   0.0000   0.0000

          k = 0.4667-0.1155 0.0000 ( 11927 PWs)   bands (ev):

   -16.3708 -16.2129 -11.9307 -11.7919  -8.2098  -8.0833  -4.1687  -3.5122
     2.1358   2.5352   7.4194   7.8796   8.5513   8.6960

     occupation numbers 
     1.0000   1.0000   1.0000   1.0000   1.0000   1.0000   1.0000   1.0000
     0.0000   0.0000   0.0000   0.0000   0.0000   0.0000

          k = 0.4667-0.0385 0.0000 ( 11949 PWs)   bands (ev):

   -16.5680 -16.4089 -11.0162 -10.8848  -9.0872  -8.9604  -4.3407  -3.6473
     2.6006   2.9130   7.1248   7.5926   8.5093   8.9847

     occupation numbers 
     1.0000   1.0000   1.0000   1.0000   1.0000   1.0000   1.0000   1.0000
     0.0000   0.0000   0.0000   0.0000   0.0000   0.0000

          k = 0.4667 0.0385 0.0000 ( 11949 PWs)   bands (ev):

   -16.5680 -16.4089 -11.0162 -10.8849  -9.0872  -8.9603  -4.3406  -3.6472
     2.6006   2.9130   7.1248   7.5926   8.5093   8.9847

     occupation numbers 
     1.0000   1.0000   1.0000   1.0000   1.0000   1.0000   1.0000   1.0000
     0.0000   0.0000   0.0000   0.0000   0.0000   0.0000

          k = 0.4667 0.1155 0.0000 ( 11927 PWs)   bands (ev):

   -16.3708 -16.2129 -11.9308 -11.7920  -8.2097  -8.0832  -4.1686  -3.5121
     2.1357   2.5351   7.4194   7.8796   8.5513   8.6960

     occupation numbers 
     1.0000   1.0000   1.0000   1.0000   1.0000   1.0000   1.0000   1.0000
     0.0000   0.0000   0.0000   0.0000   0.0000   0.0000

          k = 0.4667 0.1925 0.0000 ( 11920 PWs)   bands (ev):

   -15.9860 -15.8308 -12.8768 -12.7345  -7.4534  -7.3294  -3.8530  -3.2792
     1.5185   1.9574   7.2443   7.4591   8.0089   8.4703

     occupation numbers 
     1.0000   1.0000   1.0000   1.0000   1.0000   1.0000   1.0000   1.0000
     0.0000   0.0000   0.0000   0.0000   0.0000   0.0000

     the Fermi energy is    -0.6945 ev

!    total energy              =     -48.20792041 Ry
     estimated scf accuracy    <          8.1E-12 Ry
     smearing contrib. (-TS)   =      -0.00007731 Ry
     internal energy E=F+TS    =     -48.20784311 Ry

     The total energy is F=E-TS. E is the sum of the following terms:
     one-electron contribution =    -699.14729660 Ry
     hartree contribution      =     353.17408884 Ry
     xc contribution           =     -17.18547313 Ry
     ewald contribution        =     315.32119709 Ry
     DFT-D3 Dispersion         =      -0.01735847 Ry
     electric field correction =      -0.35300084 Ry

     convergence has been achieved in   8 iterations

     Forces acting on atoms (cartesian axes, Ry/au):

     atom    1 type  1   force =    -0.00001525   -0.00003824    0.00129346
     atom    2 type  1   force =     0.00001527    0.00003819   -0.00217299
     atom    3 type  1   force =    -0.00002726    0.00003147    0.00177268
     atom    4 type  1   force =     0.00002724   -0.00003141   -0.00089315
     The non-local contrib.  to forces
     atom    1 type  1   force =    -0.00001034   -0.00002591   -0.00182772
     atom    2 type  1   force =     0.00001033    0.00002582   -0.00884470
     atom    3 type  1   force =    -0.00001841    0.00002123   -0.00003462
     atom    4 type  1   force =     0.00001842   -0.00002127   -0.00534761
     The ionic contribution  to forces
     atom    1 type  1   force =    -0.00005070   -0.00012671  -15.21388159
     atom    2 type  1   force =     0.00005067    0.00012672  -15.14064896
     atom    3 type  1   force =    -0.00009026    0.00010423   15.14955237
     atom    4 type  1   force =     0.00009030   -0.00010424   15.20497818
     The local contribution  to forces
     atom    1 type  1   force =     0.00004485    0.00011202   15.17564535
     atom    2 type  1   force =    -0.00004478   -0.00011202   15.10595977
     atom    3 type  1   force =     0.00007973   -0.00009208  -15.18657356
     atom    4 type  1   force =    -0.00007980    0.00009215  -15.23933992
     The core correction contribution to forces
     atom    1 type  1   force =     0.00000093    0.00000233    0.00013892
     atom    2 type  1   force =    -0.00000093   -0.00000232    0.00017916
     atom    3 type  1   force =     0.00000166   -0.00000191    0.00000996
     atom    4 type  1   force =    -0.00000166    0.00000191    0.00003473
     The Hubbard contrib.    to forces
     atom    1 type  1   force =     0.00000000    0.00000000    0.00000000
     atom    2 type  1   force =     0.00000000    0.00000000    0.00000000
     atom    3 type  1   force =     0.00000000    0.00000000    0.00000000
     atom    4 type  1   force =     0.00000000    0.00000000    0.00000000
     The SCF correction term to forces
     atom    1 type  1   force =     0.00000000   -0.00000001   -0.00000504
     atom    2 type  1   force =    -0.00000000   -0.00000000   -0.00000502
     atom    3 type  1   force =     0.00000000    0.00000000    0.00000502
     atom    4 type  1   force =     0.00000000   -0.00000000    0.00000499

     DFT-D3 dispersion contribution to forces:
     atom    1 type  1   force =     0.00000001    0.00000002    0.00122347
     atom    2 type  1   force =    -0.00000001   -0.00000002    0.00118669
     atom    3 type  1   force =     0.00000002   -0.00000002   -0.00118656
     atom    4 type  1   force =    -0.00000002    0.00000002   -0.00122360

     Total force =     0.003216     Total SCF correction =     0.000010

     DFT-D3 dispersion Force =     0.002410
     Energy error            =      5.3E-05 Ry
     Gradient error          =      2.2E-03 Ry/Bohr

     number of scf cycles    =  10
     number of bfgs steps    =   9

     energy             old  =     -48.2078674685 Ry
     energy             new  =     -48.2079204140 Ry

     CASE: energy            _new < energy            _old

     new trust radius        =       0.0390869152 bohr
     new conv_thr            =            1.0E-10 Ry


ATOMIC_POSITIONS (angstrom)
C               -0.0000186822       -0.0000321895        9.9389528893
C                1.2300020557        0.7101611995        9.9420192460
C                1.2299899623        0.7101683314       13.4083318989
C                0.0000266642        1.4202659830       13.4106959658



     Writing config-only to output data dir /home/ubuntu/projects/Graphene-Band-Structure-Quantum-Espresso/outputs/field_0.005/data/field_0.005.save/ :
     XML data file
     NEW-OLD atomic charge density approx. for the potential

     negative rho (up, down):  3.459E-06 0.000E+00

     Adding external electric field
        E field amplitude [Ha a.u.]:  5.0000E-03
        Potential amp.        0.3971 Ry
        Total length         39.7126 bohr


     total cpu time spent up to now is      304.1 secs

     Self-consistent Calculation

     iteration #  1     ecut=    90.00 Ry     beta= 0.70
     Davidson diagonalization with overlap

---- Real-time Memory Report at c_bands before calling an iterative solver
           153 MiB given to the printing process from OS
             0 MiB allocation reported by mallinfo(arena+hblkhd)
         29330 MiB available memory on the node where the printing process lives
------------------
     ethr =  1.00E-06,  avg # of iterations =  6.6

     negative rho (up, down):  9.781E-07 0.000E+00

     total cpu time spent up to now is      311.1 secs

     total energy              =     -48.20748483 Ry
     estimated scf accuracy    <       0.00131265 Ry

     iteration #  2     ecut=    90.00 Ry     beta= 0.70
     Davidson diagonalization with overlap

---- Real-time Memory Report at c_bands before calling an iterative solver
           153 MiB given to the printing process from OS
             0 MiB allocation reported by mallinfo(arena+hblkhd)
         29268 MiB available memory on the node where the printing process lives
------------------
     ethr =  8.20E-06,  avg # of iterations =  4.6

     negative rho (up, down):  6.045E-07 0.000E+00

     total cpu time spent up to now is      315.5 secs

     total energy              =     -48.20769053 Ry
     estimated scf accuracy    <       0.00120978 Ry

     iteration #  3     ecut=    90.00 Ry     beta= 0.70
     Davidson diagonalization with overlap

---- Real-time Memory Report at c_bands before calling an iterative solver
           153 MiB given to the printing process from OS
             0 MiB allocation reported by mallinfo(arena+hblkhd)
         29288 MiB available memory on the node where the printing process lives
------------------
     ethr =  7.56E-06,  avg # of iterations =  3.5

     negative rho (up, down):  9.110E-08 0.000E+00

     total cpu time spent up to now is      319.6 secs

     total energy              =     -48.20796837 Ry
     estimated scf accuracy    <       0.00001681 Ry

     iteration #  4     ecut=    90.00 Ry     beta= 0.70
     Davidson diagonalization with overlap

---- Real-time Memory Report at c_bands before calling an iterative solver
           153 MiB given to the printing process from OS
             0 MiB allocation reported by mallinfo(arena+hblkhd)
         29304 MiB available memory on the node where the printing process lives
------------------
     ethr =  1.05E-07,  avg # of iterations =  2.8

     negative rho (up, down):  6.425E-08 0.000E+00

     total cpu time spent up to now is      322.8 secs

     total energy              =     -48.20796975 Ry
     estimated scf accuracy    <       0.00001139 Ry

     iteration #  5     ecut=    90.00 Ry     beta= 0.70
     Davidson diagonalization with overlap

---- Real-time Memory Report at c_bands before calling an iterative solver
           153 MiB given to the printing process from OS
             0 MiB allocation reported by mallinfo(arena+hblkhd)
         29274 MiB available memory on the node where the printing process lives
------------------
     ethr =  7.12E-08,  avg # of iterations =  1.4

     total cpu time spent up to now is      325.4 secs

     total energy              =     -48.20797184 Ry
     estimated scf accuracy    <       0.00000031 Ry

     iteration #  6     ecut=    90.00 Ry     beta= 0.70
     Davidson diagonalization with overlap

---- Real-time Memory Report at c_bands before calling an iterative solver
           153 MiB given to the printing process from OS
             0 MiB allocation reported by mallinfo(arena+hblkhd)
         29300 MiB available memory on the node where the printing process lives
------------------
     ethr =  1.94E-09,  avg # of iterations =  2.2

     total cpu time spent up to now is      329.0 secs

     total energy              =     -48.20797191 Ry
     estimated scf accuracy    <       0.00000001 Ry

     iteration #  7     ecut=    90.00 Ry     beta= 0.70
     Davidson diagonalization with overlap

---- Real-time Memory Report at c_bands before calling an iterative solver
           153 MiB given to the printing process from OS
             0 MiB allocation reported by mallinfo(arena+hblkhd)
         29283 MiB available memory on the node where the printing process lives
------------------
     ethr =  7.25E-11,  avg # of iterations =  3.2

     total cpu time spent up to now is      332.9 secs

     total energy              =     -48.20797192 Ry
     estimated scf accuracy    <          1.1E-09 Ry

     iteration #  8     ecut=    90.00 Ry     beta= 0.70
     Davidson diagonalization with overlap

---- Real-time Memory Report at c_bands before calling an iterative solver
           153 MiB given to the printing process from OS
             0 MiB allocation reported by mallinfo(arena+hblkhd)
         29269 MiB available memory on the node where the printing process lives
------------------
     ethr =  6.63E-12,  avg # of iterations =  2.5

     total cpu time spent up to now is      336.4 secs

     End of self-consistent calculation

          k = 0.0000 0.0000 0.0000 ( 11659 PWs)   bands (ev):

   -20.3659 -20.1941  -8.7696  -7.9377  -3.7952  -3.7935  -3.6760  -3.6743
     1.6912   2.2969   3.3264   3.7412   4.9847   6.0871

     occupation numbers 
     1.0000   1.0000   1.0000   1.0000   1.0000   1.0000   1.0000   1.0000
     0.0000   0.0000   0.0000   0.0000   0.0000   0.0000

          k = 0.0000 0.0770 0.0000 ( 11791 PWs)   bands (ev):

   -20.2603 -20.0890  -8.6416  -7.8131  -4.2215  -4.1003  -4.0184  -3.9002
     1.8383   2.4412   3.4683   3.8851   5.1257   6.2240

     occupation numbers 
     1.0000   1.0000   1.0000   1.0000   1.0000   1.0000   1.0000   1.0000
     0.0000   0.0000   0.0000   0.0000   0.0000   0.0000

          k = 0.0000 0.1540 0.0000 ( 11788 PWs)   bands (ev):

   -19.9442 -19.7746  -8.2596  -7.4418  -5.3546  -5.2319  -4.5880  -4.4689
     2.2794   2.8739   3.8940   4.3166   5.5481   6.6324

     occupation numbers 
     1.0000   1.0000   1.0000   1.0000   1.0000   1.0000   1.0000   1.0000
     0.0000   0.0000   0.0000   0.0000   0.0000   0.0000

          k = 0.0000 0.2309 0.0000 ( 11848 PWs)   bands (ev):

   -19.4198 -19.2529  -7.6300  -6.9104  -6.8316  -6.7837  -5.3004  -5.1805
     3.0145   3.5942   4.6021   5.0338   6.2453   7.2773

     occupation numbers 
     1.0000   1.0000   1.0000   1.0000   1.0000   1.0000   1.0000   1.0000
     0.0000   0.0000   0.0000   0.0000   0.0000   0.0000

          k = 0.0000 0.3079 0.0000 ( 11876 PWs)   bands (ev):

   -18.6914 -18.5281  -8.6512  -8.5222  -6.7668  -5.9986  -5.9938  -5.8732
     4.0430   4.5966   5.5769   5.9032   6.1227   6.2936

     occupation numbers 
     1.0000   1.0000   1.0000   1.0000   1.0000   1.0000   1.0000   1.0000
     0.0000   0.0000   0.0000   0.0000   0.0000   0.0000

          k = 0.0000 0.3849 0.0000 ( 11914 PWs)   bands (ev):

   -17.7664 -17.6074 -10.4257 -10.2924  -6.5707  -6.4497  -5.6998  -4.9814
     4.0593   4.4595   5.3676   5.8978   6.8196   7.0623

     occupation numbers 
     1.0000   1.0000   1.0000   1.0000   1.0000   1.0000   1.0000   1.0000
     0.0000   0.0000   0.0000   0.0000   0.0000   0.0000

          k = 0.0000 0.4619 0.0000 ( 11910 PWs)   bands (ev):

   -16.6604 -16.5068 -12.1341 -11.9963  -6.9777  -6.8564  -4.5056  -3.8805
     2.2823   2.7273   6.8451   6.9830   7.0437   7.4881

     occupation numbers 
     1.0000   1.0000   1.0000   1.0000   1.0000   1.0000   1.0000   1.0000
     0.0000   0.0000   0.0000   0.0000   0.0000   0.0000

          k = 0.0000 0.5389 0.0000 ( 11924 PWs)   bands (ev):

   -15.4474 -15.3030 -13.6543 -13.5154  -7.1871  -7.0657  -3.4496  -3.0340
     1.0404   1.4204   6.7479   6.9495   8.8863   9.3112

     occupation numbers 
     1.0000   1.0000   1.0000   1.0000   1.0000   1.0000   1.0000   1.0000
     0.0000   0.0000   0.0000   0.0000   0.0000   0.0000

          k = 0.0667 0.0385 0.0000 ( 11791 PWs)   bands (ev):

   -20.2603 -20.0890  -8.6416  -7.8131  -4.2201  -4.1007  -4.0197  -3.8997
     1.8383   2.4412   3.4683   3.8851   5.1257   6.2240

     occupation numbers 
     1.0000   1.0000   1.0000   1.0000   1.0000   1.0000   1.0000   1.0000
     0.0000   0.0000   0.0000   0.0000   0.0000   0.0000

          k = 0.0667 0.1155 0.0000 ( 11813 PWs)   bands (ev):

   -20.0494 -19.8793  -8.3866  -7.5651  -4.9485  -4.8274  -4.4682  -4.3493
     2.1324   2.7297   3.7522   4.1729   5.4077   6.4975

     occupation numbers 
     1.0000   1.0000   1.0000   1.0000   1.0000   1.0000   1.0000   1.0000
     0.0000   0.0000   0.0000   0.0000   0.0000   0.0000

          k = 0.0667 0.1925 0.0000 ( 11832 PWs)   bands (ev):

   -19.6292 -19.4612  -7.8805  -7.0740  -6.2032  -6.0800  -5.2004  -5.0808
     2.7205   3.3065   4.3198   4.7478   5.9702   7.0396

     occupation numbers 
     1.0000   1.0000   1.0000   1.0000   1.0000   1.0000   1.0000   1.0000
     0.0000   0.0000   0.0000   0.0000   0.0000   0.0000

          k = 0.0667 0.2694 0.0000 ( 11880 PWs)   bands (ev):

   -19.0028 -18.8380  -7.7929  -7.6664  -7.1331  -6.3509  -5.9636  -5.8429
     3.6024   4.1694   5.1675   5.6041   6.7729   6.7955

     occupation numbers 
     1.0000   1.0000   1.0000   1.0000   1.0000   1.0000   1.0000   1.0000
     0.0000   0.0000   0.0000   0.0000   0.0000   0.0000

          k = 0.0667 0.3464 0.0000 ( 11910 PWs)   bands (ev):

   -18.1760 -18.0151  -9.5200  -9.3895  -6.6299  -6.5084  -6.1643  -5.4208
     4.7705   4.9303   5.2680   5.3480   6.2972   6.7643

     occupation numbers 
     1.0000   1.0000   1.0000   1.0000   1.0000   1.0000   1.0000   1.0000
     0.0000   0.0000   0.0000   0.0000   0.0000   0.0000

          k = 0.0667 0.4234 0.0000 ( 11938 PWs)   bands (ev):

   -17.1593 -17.0032 -11.2474 -11.1123  -7.1368  -7.0147  -5.0197  -4.3420
     3.1017   3.5127   6.2472   6.7466   7.4092   7.5333

     occupation numbers 
     1.0000   1.0000   1.0000   1.0000   1.0000   1.0000   1.0000   1.0000
     0.0000   0.0000   0.0000   0.0000   0.0000   0.0000

          k = 0.0667 0.5004 0.0000 ( 11920 PWs)   bands (ev):

   -15.9818 -15.8319 -12.8738 -12.7346  -7.4514  -7.3291  -3.8334  -3.2940
     1.5312   1.9466   7.2518   7.4548   8.0082   8.4663

     occupation numbers 
     1.0000   1.0000   1.0000   1.0000   1.0000   1.0000   1.0000   1.0000
     0.0000   0.0000   0.0000   0.0000   0.0000   0.0000

          k = 0.0667 0.5774 0.0000 ( 11913 PWs)   bands (ev):

   -15.0057 -14.8743 -13.9894 -13.8599  -7.5579  -7.4355  -3.1466  -2.8197
     0.8439   1.1595   7.1991   7.4069  10.0422  10.0566

     occupation numbers 
     1.0000   1.0000   1.0000   1.0000   1.0000   1.0000   1.0000   1.0000
     0.0000   0.0000   0.0000   0.0000   0.0000   0.0000

          k = 0.0667-0.5004 0.0000 ( 11920 PWs)   bands (ev):

   -15.9818 -15.8319 -12.8738 -12.7346  -7.4514  -7.3291  -3.8334  -3.2940
     1.5311   1.9466   7.2518   7.4549   8.0082   8.4663

     occupation numbers 
     1.0000   1.0000   1.0000   1.0000   1.0000   1.0000   1.0000   1.0000
     0.0000   0.0000   0.0000   0.0000   0.0000   0.0000

          k = 0.0667-0.4234 0.0000 ( 11938 PWs)   bands (ev):

   -17.1593 -17.0032 -11.2474 -11.1123  -7.1367  -7.0147  -5.0196  -4.3420
     3.1016   3.5126   6.2472   6.7466   7.4093   7.5334

     occupation numbers 
     1.0000   1.0000   1.0000   1.0000   1.0000   1.0000   1.0000   1.0000
     0.0000   0.0000   0.0000   0.0000   0.0000   0.0000

          k = 0.0667-0.3464 0.0000 ( 11910 PWs)   bands (ev):

   -18.1760 -18.0151  -9.5201  -9.3895  -6.6299  -6.5083  -6.1642  -5.4208
     4.7705   4.9302   5.2679   5.3480   6.2972   6.7644

     occupation numbers 
     1.0000   1.0000   1.0000   1.0000   1.0000   1.0000   1.0000   1.0000
     0.0000   0.0000   0.0000   0.0000   0.0000   0.0000

          k = 0.0667-0.2694 0.0000 ( 11880 PWs)   bands (ev):

   -19.0028 -18.8380  -7.7930  -7.6666  -7.1331  -6.3509  -5.9635  -5.8426
     3.6024   4.1694   5.1675   5.6041   6.7730   6.7956

     occupation numbers 
     1.0000   1.0000   1.0000   1.0000   1.0000   1.0000   1.0000   1.0000
     0.0000   0.0000   0.0000   0.0000   0.0000   0.0000

          k = 0.0667-0.1925 0.0000 ( 11832 PWs)   bands (ev):

   -19.6292 -19.4612  -7.8805  -7.0740  -6.2035  -6.0805  -5.2002  -5.0803
     2.7205   3.3065   4.3198   4.7478   5.9702   7.0397

     occupation numbers 
     1.0000   1.0000   1.0000   1.0000   1.0000   1.0000   1.0000   1.0000
     0.0000   0.0000   0.0000   0.0000   0.0000   0.0000

          k = 0.0667-0.1155 0.0000 ( 11813 PWs)   bands (ev):

   -20.0494 -19.8793  -8.3866  -7.5651  -4.9490  -4.8283  -4.4677  -4.3485
     2.1324   2.7297   3.7522   4.1729   5.4077   6.4975

     occupation numbers 
     1.0000   1.0000   1.0000   1.0000   1.0000   1.0000   1.0000   1.0000
     0.0000   0.0000   0.0000   0.0000   0.0000   0.0000

          k = 0.0667-0.0385 0.0000 ( 11791 PWs)   bands (ev):

   -20.2603 -20.0890  -8.6416  -7.8131  -4.2206  -4.1016  -4.0192  -3.8988
     1.8383   2.4412   3.4683   3.8851   5.1257   6.2240

     occupation numbers 
     1.0000   1.0000   1.0000   1.0000   1.0000   1.0000   1.0000   1.0000
     0.0000   0.0000   0.0000   0.0000   0.0000   0.0000

          k = 0.1333 0.0770 0.0000 ( 11788 PWs)   bands (ev):

   -19.9442 -19.7746  -8.2596  -7.4418  -5.3535  -5.2323  -4.5892  -4.4685
     2.2794   2.8739   3.8940   4.3166   5.5481   6.6324

     occupation numbers 
     1.0000   1.0000   1.0000   1.0000   1.0000   1.0000   1.0000   1.0000
     0.0000   0.0000   0.0000   0.0000   0.0000   0.0000

          k = 0.1333 0.1540 0.0000 ( 11832 PWs)   bands (ev):

   -19.6292 -19.4612  -7.8806  -7.0740  -6.2027  -6.0802  -5.2010  -5.0806
     2.7205   3.3065   4.3198   4.7478   5.9702   7.0396

     occupation numbers 
     1.0000   1.0000   1.0000   1.0000   1.0000   1.0000   1.0000   1.0000
     0.0000   0.0000   0.0000   0.0000   0.0000   0.0000

          k = 0.1333 0.2309 0.0000 ( 11879 PWs)   bands (ev):

   -19.1070 -18.9416  -7.3070  -7.2561  -7.1839  -6.4692  -6.1691  -6.0485
     3.4555   4.0266   5.0284   5.4655   6.6710   7.1077

     occupation numbers 
     1.0000   1.0000   1.0000   1.0000   1.0000   1.0000   1.0000   1.0000
     0.0000   0.0000   0.0000   0.0000   0.0000   0.0000

          k = 0.1333 0.3079 0.0000 ( 11929 PWs)   bands (ev):

   -18.3821 -18.2203  -8.7080  -8.5818  -7.0810  -6.9589  -6.3995  -5.6442
     4.4839   5.0289   5.5271   5.7813   6.0187   6.4697

     occupation numbers 
     1.0000   1.0000   1.0000   1.0000   1.0000   1.0000   1.0000   1.0000
     0.0000   0.0000   0.0000   0.0000   0.0000   0.0000

          k = 0.1333 0.3849 0.0000 ( 11925 PWs)   bands (ev):

   -17.4629 -17.3054 -10.3073 -10.1761  -7.7597  -7.6360  -5.3396  -4.6338
     3.8093   4.1344   5.8062   6.3209   7.2726   7.7478

     occupation numbers 
     1.0000   1.0000   1.0000   1.0000   1.0000   1.0000   1.0000   1.0000
     0.0000   0.0000   0.0000   0.0000   0.0000   0.0000

          k = 0.1333 0.4619 0.0000 ( 11927 PWs)   bands (ev):

   -16.3665 -16.2142 -11.9280 -11.7919  -8.2075  -8.0829  -4.1471  -3.5302
     2.1490   2.5259   7.4187   7.8758   8.5585   8.6872

     occupation numbers 
     1.0000   1.0000   1.0000   1.0000   1.0000   1.0000   1.0000   1.0000
     0.0000   0.0000   0.0000   0.0000   0.0000   0.0000

          k = 0.1333 0.5389 0.0000 ( 11935 PWs)   bands (ev):

   -15.1692 -15.0260 -13.4015 -13.2639  -8.4312  -8.3063  -3.0727  -2.6572
     0.9468   1.2579   8.4534   8.6844   9.3172   9.7002

     occupation numbers 
     1.0000   1.0000   1.0000   1.0000   1.0000   1.0000   1.0000   1.0000
     0.0000   0.0000   0.0000   0.0000   0.0000   0.0000

          k = 0.1333 0.6158 0.0000 ( 11935 PWs)   bands (ev):

   -15.1692 -15.0260 -13.4015 -13.2639  -8.4312  -8.3063  -3.0727  -2.6571
     0.9468   1.2578   8.4534   8.6845   9.3172   9.7001

     occupation numbers 
     1.0000   1.0000   1.0000   1.0000   1.0000   1.0000   1.0000   1.0000
     0.0000   0.0000   0.0000   0.0000   0.0000   0.0000

          k = 0.1333-0.4619 0.0000 ( 11927 PWs)   bands (ev):

   -16.3665 -16.2142 -11.9280 -11.7920  -8.2075  -8.0829  -4.1471  -3.5301
     2.1489   2.5257   7.4187   7.8758   8.5586   8.6872

     occupation numbers 
     1.0000   1.0000   1.0000   1.0000   1.0000   1.0000   1.0000   1.0000
     0.0000   0.0000   0.0000   0.0000   0.0000   0.0000

          k = 0.1333-0.3849 0.0000 ( 11925 PWs)   bands (ev):

   -17.4629 -17.3054 -10.3073 -10.1763  -7.7596  -7.6359  -5.3396  -4.6338
     3.8091   4.1342   5.8062   6.3209   7.2726   7.7479

     occupation numbers 
     1.0000   1.0000   1.0000   1.0000   1.0000   1.0000   1.0000   1.0000
     0.0000   0.0000   0.0000   0.0000   0.0000   0.0000

          k = 0.1333-0.3079 0.0000 ( 11929 PWs)   bands (ev):

   -18.3822 -18.2203  -8.7082  -8.5822  -7.0807  -6.9585  -6.3995  -5.6442
     4.4839   5.0289   5.5270   5.7811   6.0187   6.4697

     occupation numbers 
     1.0000   1.0000   1.0000   1.0000   1.0000   1.0000   1.0000   1.0000
     0.0000   0.0000   0.0000   0.0000   0.0000   0.0000

          k = 0.1333-0.2309 0.0000 ( 11879 PWs)   bands (ev):

   -19.1070 -18.9416  -7.3074  -7.2561  -7.1846  -6.4692  -6.1686  -6.0478
     3.4555   4.0266   5.0284   5.4655   6.6710   7.1076

     occupation numbers 
     1.0000   1.0000   1.0000   1.0000   1.0000   1.0000   1.0000   1.0000
     0.0000   0.0000   0.0000   0.0000   0.0000   0.0000

          k = 0.1333-0.1540 0.0000 ( 11832 PWs)   bands (ev):

   -19.6292 -19.4612  -7.8805  -7.0740  -6.2031  -6.0810  -5.2005  -5.0797
     2.7205   3.3065   4.3198   4.7478   5.9702   7.0396

     occupation numbers 
     1.0000   1.0000   1.0000   1.0000   1.0000   1.0000   1.0000   1.0000
     0.0000   0.0000   0.0000   0.0000   0.0000   0.0000

          k = 0.1333-0.0770 0.0000 ( 11788 PWs)   bands (ev):

   -19.9442 -19.7746  -8.2596  -7.4418  -5.3539  -5.2330  -4.5887  -4.4678
     2.2794   2.8739   3.8940   4.3166   5.5481   6.6324

     occupation numbers 
     1.0000   1.0000   1.0000   1.0000   1.0000   1.0000   1.0000   1.0000
     0.0000   0.0000   0.0000   0.0000   0.0000   0.0000

          k = 0.1333 0.0000 0.0000 ( 11813 PWs)   bands (ev):

   -20.0494 -19.8793  -8.3866  -7.5651  -4.9477  -4.8287  -4.4691  -4.3480
     2.1324   2.7297   3.7522   4.1729   5.4077   6.4975

     occupation numbers 
     1.0000   1.0000   1.0000   1.0000   1.0000   1.0000   1.0000   1.0000
     0.0000   0.0000   0.0000   0.0000   0.0000   0.0000

          k = 0.2000 0.1155 0.0000 ( 11848 PWs)   bands (ev):

   -19.4198 -19.2529  -7.6300  -6.9096  -6.8316  -6.7840  -5.3014  -5.1802
     3.0145   3.5942   4.6021   5.0337   6.2453   7.2773

     occupation numbers 
     1.0000   1.0000   1.0000   1.0000   1.0000   1.0000   1.0000   1.0000
     0.0000   0.0000   0.0000   0.0000   0.0000   0.0000

          k = 0.2000 0.1925 0.0000 ( 11880 PWs)   bands (ev):

   -19.0028 -18.8380  -7.7923  -7.6666  -7.1331  -6.3509  -5.9643  -5.8426
     3.6024   4.1694   5.1675   5.6041   6.7729   6.7957

     occupation numbers 
     1.0000   1.0000   1.0000   1.0000   1.0000   1.0000   1.0000   1.0000
     0.0000   0.0000   0.0000   0.0000   0.0000   0.0000

          k = 0.2000 0.2694 0.0000 ( 11929 PWs)   bands (ev):

   -18.3821 -18.2203  -8.7076  -8.5819  -7.0814  -6.9588  -6.3995  -5.6442
     4.4839   5.0289   5.5272   5.7813   6.0187   6.4697

     occupation numbers 
     1.0000   1.0000   1.0000   1.0000   1.0000   1.0000   1.0000   1.0000
     0.0000   0.0000   0.0000   0.0000   0.0000   0.0000

          k = 0.2000 0.3464 0.0000 ( 11953 PWs)   bands (ev):

   -17.5647 -17.4068  -9.7235  -9.5984  -8.2604  -8.1376  -5.4481  -4.7334
     4.1139   4.3734   5.6587   6.1749   7.1335   7.5993

     occupation numbers 
     1.0000   1.0000   1.0000   1.0000   1.0000   1.0000   1.0000   1.0000
     0.0000   0.0000   0.0000   0.0000   0.0000   0.0000

          k = 0.2000 0.4234 0.0000 ( 11949 PWs)   bands (ev):

   -16.5635 -16.4102 -11.0139 -10.8842  -9.0851  -8.9600  -4.3183  -3.6667
     2.6122   2.9071   7.1242   7.5891   8.4949   8.9887

     occupation numbers 
     1.0000   1.0000   1.0000   1.0000   1.0000   1.0000   1.0000   1.0000
     0.0000   0.0000   0.0000   0.0000   0.0000   0.0000

          k = 0.2000 0.5004 0.0000 ( 11953 PWs)   bands (ev):

   -15.4114 -15.2641 -12.4490 -12.3135  -9.5144  -9.3871  -3.1203  -2.5885
     1.2125   1.5221   8.8707   9.2430   9.9346  10.1612

     occupation numbers 
     1.0000   1.0000   1.0000   1.0000   1.0000   1.0000   1.0000   1.0000
     0.0000   0.0000   0.0000   0.0000   0.0000   0.0000

          k = 0.2000 0.5774 0.0000 ( 11949 PWs)   bands (ev):

   -14.4656 -14.3352 -13.4930 -13.3651  -9.6480  -9.5200  -2.3759  -2.0552
     0.5565   0.7216  10.0609  10.3226  10.5665  10.7322

     occupation numbers 
     1.0000   1.0000   1.0000   1.0000   1.0000   1.0000   1.0000   1.0000
     0.0000   0.0000   0.0000   0.0000   0.0000   0.0000

          k = 0.2000 0.6543 0.0000 ( 11953 PWs)   bands (ev):

   -15.4114 -15.2641 -12.4490 -12.3136  -9.5144  -9.3870  -3.1202  -2.5884
     1.2123   1.5219   8.8707   9.2430   9.9347  10.1612

     occupation numbers 
     1.0000   1.0000   1.0000   1.0000   1.0000   1.0000   1.0000   1.0000
     0.0000   0.0000   0.0000   0.0000   0.0000   0.0000

          k = 0.2000-0.4234 0.0000 ( 11949 PWs)   bands (ev):

   -16.5635 -16.4102 -11.0141 -10.8844  -9.0850  -8.9597  -4.3183  -3.6666
     2.6120   2.9068   7.1242   7.5891   8.4949   8.9888

     occupation numbers 
     1.0000   1.0000   1.0000   1.0000   1.0000   1.0000   1.0000   1.0000
     0.0000   0.0000   0.0000   0.0000   0.0000   0.0000

          k = 0.2000-0.3464 0.0000 ( 11953 PWs)   bands (ev):

   -17.5648 -17.4068  -9.7238  -9.5989  -8.2600  -8.1370  -5.4480  -4.7333
     4.1137   4.3731   5.6587   6.1749   7.1335   7.5993

     occupation numbers 
     1.0000   1.0000   1.0000   1.0000   1.0000   1.0000   1.0000   1.0000
     0.0000   0.0000   0.0000   0.0000   0.0000   0.0000

          k = 0.2000-0.2694 0.0000 ( 11929 PWs)   bands (ev):

   -18.3822 -18.2203  -8.7080  -8.5825  -7.0810  -6.9581  -6.3995  -5.6442
     4.4839   5.0289   5.5270   5.7811   6.0187   6.4697

     occupation numbers 
     1.0000   1.0000   1.0000   1.0000   1.0000   1.0000   1.0000   1.0000
     0.0000   0.0000   0.0000   0.0000   0.0000   0.0000

          k = 0.2000-0.1925 0.0000 ( 11880 PWs)   bands (ev):

   -19.0028 -18.8380  -7.7926  -7.6672  -7.1331  -6.3509  -5.9639  -5.8419
     3.6024   4.1694   5.1675   5.6041   6.7729   6.7955

     occupation numbers 
     1.0000   1.0000   1.0000   1.0000   1.0000   1.0000   1.0000   1.0000
     0.0000   0.0000   0.0000   0.0000   0.0000   0.0000

          k = 0.2000-0.1155 0.0000 ( 11848 PWs)   bands (ev):

   -19.4198 -19.2529  -7.6300  -6.9099  -6.8316  -6.7846  -5.3011  -5.1795
     3.0145   3.5942   4.6021   5.0338   6.2453   7.2774

     occupation numbers 
     1.0000   1.0000   1.0000   1.0000   1.0000   1.0000   1.0000   1.0000
     0.0000   0.0000   0.0000   0.0000   0.0000   0.0000

          k = 0.2000-0.0385 0.0000 ( 11832 PWs)   bands (ev):

   -19.6292 -19.4612  -7.8805  -7.0740  -6.2025  -6.0812  -5.2012  -5.0795
     2.7205   3.3065   4.3198   4.7478   5.9702   7.0396

     occupation numbers 
     1.0000   1.0000   1.0000   1.0000   1.0000   1.0000   1.0000   1.0000
     0.0000   0.0000   0.0000   0.0000   0.0000   0.0000

          k = 0.2000 0.0385 0.0000 ( 11832 PWs)   bands (ev):

   -19.6292 -19.4612  -7.8806  -7.0740  -6.2023  -6.0809  -5.2015  -5.0799
     2.7205   3.3065   4.3198   4.7478   5.9702   7.0396

     occupation numbers 
     1.0000   1.0000   1.0000   1.0000   1.0000   1.0000   1.0000   1.0000
     0.0000   0.0000   0.0000   0.0000   0.0000   0.0000

          k = 0.2667 0.1540 0.0000 ( 11876 PWs)   bands (ev):

   -18.6914 -18.5281  -8.6505  -8.5224  -6.7668  -5.9987  -5.9946  -5.8729
     4.0430   4.5966   5.5769   5.9033   6.1229   6.2936

     occupation numbers 
     1.0000   1.0000   1.0000   1.0000   1.0000   1.0000   1.0000   1.0000
     0.0000   0.0000   0.0000   0.0000   0.0000   0.0000

          k = 0.2667 0.2309 0.0000 ( 11910 PWs)   bands (ev):

   -18.1760 -18.0151  -9.5195  -9.3896  -6.6306  -6.5081  -6.1643  -5.4209
     4.7705   4.9305   5.2680   5.3481   6.2972   6.7644

     occupation numbers 
     1.0000   1.0000   1.0000   1.0000   1.0000   1.0000   1.0000   1.0000
     0.0000   0.0000   0.0000   0.0000   0.0000   0.0000

          k = 0.2667 0.3079 0.0000 ( 11925 PWs)   bands (ev):

   -17.4629 -17.3054 -10.3068 -10.1763  -7.7602  -7.6359  -5.3397  -4.6338
     3.8095   4.1344   5.8062   6.3209   7.2726   7.7479

     occupation numbers 
     1.0000   1.0000   1.0000   1.0000   1.0000   1.0000   1.0000   1.0000
     0.0000   0.0000   0.0000   0.0000   0.0000   0.0000

          k = 0.2667 0.3849 0.0000 ( 11949 PWs)   bands (ev):

   -16.5635 -16.4102 -11.0136 -10.8843  -9.0855  -8.9599  -4.3184  -3.6667
     2.6123   2.9071   7.1242   7.5891   8.4949   8.9887

     occupation numbers 
     1.0000   1.0000   1.0000   1.0000   1.0000   1.0000   1.0000   1.0000
     0.0000   0.0000   0.0000   0.0000   0.0000   0.0000

          k = 0.2667 0.4619 0.0000 ( 11961 PWs)   bands (ev):

   -15.5006 -15.3525 -11.7945 -11.6672 -10.2162 -10.0914  -3.1507  -2.5777
     1.3609   1.6520   8.7210   9.0902   9.7880  10.2621

     occupation numbers 
     1.0000   1.0000   1.0000   1.0000   1.0000   1.0000   1.0000   1.0000
     0.0000   0.0000   0.0000   0.0000   0.0000   0.0000

          k = 0.2667 0.5389 0.0000 ( 11948 PWs)   bands (ev):

   -14.3534 -14.2135 -12.8479 -12.7166 -10.7609 -10.6335  -1.9978  -1.5765
     0.2416   0.5037   9.9777  10.2162  10.6788  10.9782

     occupation numbers 
     1.0000   1.0000   1.0000   1.0000   1.0000   1.0000   1.0000   1.0000
     0.0000   0.0000   0.0000   0.0000   0.0000   0.0000

          k = 0.2667 0.6158 0.0000 ( 11948 PWs)   bands (ev):

   -14.3534 -14.2134 -12.8480 -12.7168 -10.7608 -10.6333  -1.9977  -1.5764
     0.2415   0.5035   9.9777  10.2163  10.6788  10.9782

     occupation numbers 
     1.0000   1.0000   1.0000   1.0000   1.0000   1.0000   1.0000   1.0000
     0.0000   0.0000   0.0000   0.0000   0.0000   0.0000

          k = 0.2667 0.6928 0.0000 ( 11961 PWs)   bands (ev):

   -15.5006 -15.3525 -11.7947 -11.6676 -10.2159 -10.0910  -3.1505  -2.5776
     1.3606   1.6517   8.7210   9.0903   9.7881  10.2622

     occupation numbers 
     1.0000   1.0000   1.0000   1.0000   1.0000   1.0000   1.0000   1.0000
     0.0000   0.0000   0.0000   0.0000   0.0000   0.0000

          k = 0.2667-0.3849 0.0000 ( 11949 PWs)   bands (ev):

   -16.5635 -16.4102 -11.0139 -10.8847  -9.0852  -8.9593  -4.3183  -3.6665
     2.6120   2.9067   7.1242   7.5891   8.4949   8.9888

     occupation numbers 
     1.0000   1.0000   1.0000   1.0000   1.0000   1.0000   1.0000   1.0000
     0.0000   0.0000   0.0000   0.0000   0.0000   0.0000

          k = 0.2667-0.3079 0.0000 ( 11925 PWs)   bands (ev):

   -17.4629 -17.3054 -10.3071 -10.1767  -7.7599  -7.6353  -5.3396  -4.6337
     3.8092   4.1340   5.8062   6.3209   7.2726   7.7479

     occupation numbers 
     1.0000   1.0000   1.0000   1.0000   1.0000   1.0000   1.0000   1.0000
     0.0000   0.0000   0.0000   0.0000   0.0000   0.0000

          k = 0.2667-0.2309 0.0000 ( 11910 PWs)   bands (ev):

   -18.1760 -18.0152  -9.5197  -9.3901  -6.6303  -6.5076  -6.1642  -5.4208
     4.7705   4.9303   5.2677   5.3480   6.2972   6.7643

     occupation numbers 
     1.0000   1.0000   1.0000   1.0000   1.0000   1.0000   1.0000   1.0000
     0.0000   0.0000   0.0000   0.0000   0.0000   0.0000

          k = 0.2667-0.1540 0.0000 ( 11876 PWs)   bands (ev):

   -18.6914 -18.5281  -8.6508  -8.5229  -6.7668  -5.9986  -5.9943  -5.8724
     4.0430   4.5966   5.5769   5.9032   6.1228   6.2934

     occupation numbers 
     1.0000   1.0000   1.0000   1.0000   1.0000   1.0000   1.0000   1.0000
     0.0000   0.0000   0.0000   0.0000   0.0000   0.0000

          k = 0.2667-0.0770 0.0000 ( 11880 PWs)   bands (ev):

   -19.0028 -18.8380  -7.7923  -7.6673  -7.1331  -6.3509  -5.9642  -5.8418
     3.6024   4.1694   5.1675   5.6041   6.7730   6.7957

     occupation numbers 
     1.0000   1.0000   1.0000   1.0000   1.0000   1.0000   1.0000   1.0000
     0.0000   0.0000   0.0000   0.0000   0.0000   0.0000

          k = 0.2667 0.0000 0.0000 ( 11879 PWs)   bands (ev):

   -19.1070 -18.9416  -7.3064  -7.2561  -7.1849  -6.4692  -6.1698  -6.0474
     3.4555   4.0266   5.0284   5.4655   6.6710   7.1078

     occupation numbers 
     1.0000   1.0000   1.0000   1.0000   1.0000   1.0000   1.0000   1.0000
     0.0000   0.0000   0.0000   0.0000   0.0000   0.0000

          k = 0.2667 0.0770 0.0000 ( 11880 PWs)   bands (ev):

   -19.0028 -18.8380  -7.7921  -7.6669  -7.1331  -6.3509  -5.9645  -5.8423
     3.6024   4.1694   5.1675   5.6041   6.7729   6.7957

     occupation numbers 
     1.0000   1.0000   1.0000   1.0000   1.0000   1.0000   1.0000   1.0000
     0.0000   0.0000   0.0000   0.0000   0.0000   0.0000

          k = 0.3333 0.1925 0.0000 ( 11914 PWs)   bands (ev):

   -17.7663 -17.6074 -10.4252 -10.2926  -6.5714  -6.4494  -5.6999  -4.9815
     4.0596   4.4595   5.3676   5.8978   6.8196   7.0620

     occupation numbers 
     1.0000   1.0000   1.0000   1.0000   1.0000   1.0000   1.0000   1.0000
     0.0000   0.0000   0.0000   0.0000   0.0000   0.0000

          k = 0.3333 0.2694 0.0000 ( 11938 PWs)   bands (ev):

   -17.1593 -17.0032 -11.2469 -11.1124  -7.1374  -7.0145  -5.0197  -4.3421
     3.1020   3.5127   6.2472   6.7466   7.4090   7.5332

     occupation numbers 
     1.0000   1.0000   1.0000   1.0000   1.0000   1.0000   1.0000   1.0000
     0.0000   0.0000   0.0000   0.0000   0.0000   0.0000

          k = 0.3333 0.3464 0.0000 ( 11927 PWs)   bands (ev):

   -16.3665 -16.2142 -11.9276 -11.7920  -8.2081  -8.0828  -4.1473  -3.5302
     2.1494   2.5259   7.4187   7.8758   8.5583   8.6871

     occupation numbers 
     1.0000   1.0000   1.0000   1.0000   1.0000   1.0000   1.0000   1.0000
     0.0000   0.0000   0.0000   0.0000   0.0000   0.0000

          k = 0.3333 0.4234 0.0000 ( 11953 PWs)   bands (ev):

   -15.4114 -15.2641 -12.4486 -12.3136  -9.5149  -9.3870  -3.1204  -2.5886
     1.2128   1.5221   8.8707   9.2430   9.9345  10.1610

     occupation numbers 
     1.0000   1.0000   1.0000   1.0000   1.0000   1.0000   1.0000   1.0000
     0.0000   0.0000   0.0000   0.0000   0.0000   0.0000

          k = 0.3333 0.5004 0.0000 ( 11948 PWs)   bands (ev):

   -14.3535 -14.2134 -12.8475 -12.7167 -10.7613 -10.6334  -1.9980  -1.5766
     0.2419   0.5037   9.9776  10.2162  10.6788  10.9782

     occupation numbers 
     1.0000   1.0000   1.0000   1.0000   1.0000   1.0000   1.0000   1.0000
     0.0000   0.0000   0.0000   0.0000   0.0000   0.0000

          k = 0.3333 0.5774 0.0000 ( 11919 PWs)   bands (ev):

   -13.3980 -13.3859 -13.2628 -13.2540 -11.3828 -11.2586  -0.9711  -0.7621
    -0.6211  -0.3988   9.8244  10.0332  11.9134  12.2504

     occupation numbers 
     1.0000   1.0000   1.0000   1.0000   1.0000   1.0000   0.9982   0.7685
     0.2322   0.0012   0.0000   0.0000   0.0000   0.0000

          k = 0.3333 0.6543 0.0000 ( 11948 PWs)   bands (ev):

   -14.3535 -14.2133 -12.8478 -12.7172 -10.7611 -10.6330  -1.9977  -1.5762
     0.2416   0.5032   9.9777  10.2164  10.6788  10.9782

     occupation numbers 
     1.0000   1.0000   1.0000   1.0000   1.0000   1.0000   1.0000   1.0000
     0.0000   0.0000   0.0000   0.0000   0.0000   0.0000

          k = 0.3333 0.7313 0.0000 ( 11953 PWs)   bands (ev):

   -15.4114 -15.2641 -12.4488 -12.3140  -9.5146  -9.3865  -3.1202  -2.5883
     1.2124   1.5216   8.8707   9.2431   9.9346  10.1612

     occupation numbers 
     1.0000   1.0000   1.0000   1.0000   1.0000   1.0000   1.0000   1.0000
     0.0000   0.0000   0.0000   0.0000   0.0000   0.0000

          k = 0.3333-0.3464 0.0000 ( 11927 PWs)   bands (ev):

   -16.3665 -16.2142 -11.9278 -11.7924  -8.2078  -8.0823  -4.1471  -3.5300
     2.1490   2.5255   7.4187   7.8758   8.5585   8.6873

     occupation numbers 
     1.0000   1.0000   1.0000   1.0000   1.0000   1.0000   1.0000   1.0000
     0.0000   0.0000   0.0000   0.0000   0.0000   0.0000

          k = 0.3333-0.2694 0.0000 ( 11938 PWs)   bands (ev):

   -17.1593 -17.0032 -11.2471 -11.1127  -7.1371  -7.0140  -5.0196  -4.3419
     3.1017   3.5123   6.2472   6.7466   7.4092   7.5335

     occupation numbers 
     1.0000   1.0000   1.0000   1.0000   1.0000   1.0000   1.0000   1.0000
     0.0000   0.0000   0.0000   0.0000   0.0000   0.0000

          k = 0.3333-0.1925 0.0000 ( 11914 PWs)   bands (ev):

   -17.7664 -17.6075 -10.4254 -10.2929  -6.5711  -6.4489  -5.6998  -4.9813
     4.0593   4.4592   5.3676   5.8978   6.8197   7.0622

     occupation numbers 
     1.0000   1.0000   1.0000   1.0000   1.0000   1.0000   1.0000   1.0000
     0.0000   0.0000   0.0000   0.0000   0.0000   0.0000

          k = 0.3333-0.1155 0.0000 ( 11910 PWs)   bands (ev):

   -18.1760 -18.0152  -9.5196  -9.3901  -6.6305  -6.5075  -6.1643  -5.4208
     4.7705   4.9304   5.2677   5.3480   6.2972   6.7643

     occupation numbers 
     1.0000   1.0000   1.0000   1.0000   1.0000   1.0000   1.0000   1.0000
     0.0000   0.0000   0.0000   0.0000   0.0000   0.0000

          k = 0.3333-0.0385 0.0000 ( 11929 PWs)   bands (ev):

   -18.3821 -18.2203  -8.7074  -8.5827  -7.0816  -6.9579  -6.3995  -5.6442
     4.4839   5.0289   5.5272   5.7810   6.0187   6.4697

     occupation numbers 
     1.0000   1.0000   1.0000   1.0000   1.0000   1.0000   1.0000   1.0000
     0.0000   0.0000   0.0000   0.0000   0.0000   0.0000

          k = 0.3333 0.0385 0.0000 ( 11929 PWs)   bands (ev):

   -18.3821 -18.2203  -8.7073  -8.5825  -7.0818  -6.9582  -6.3995  -5.6442
     4.4839   5.0289   5.5273   5.7811   6.0187   6.4697

     occupation numbers 
     1.0000   1.0000   1.0000   1.0000   1.0000   1.0000   1.0000   1.0000
     0.0000   0.0000   0.0000   0.0000   0.0000   0.0000

          k = 0.3333 0.1155 0.0000 ( 11910 PWs)   bands (ev):

   -18.1760 -18.0151  -9.5194  -9.3897  -6.6307  -6.5080  -6.1643  -5.4208
     4.7705   4.9305   5.2679   5.3481   6.2972   6.7644

     occupation numbers 
     1.0000   1.0000   1.0000   1.0000   1.0000   1.0000   1.0000   1.0000
     0.0000   0.0000   0.0000   0.0000   0.0000   0.0000

          k = 0.4000 0.2309 0.0000 ( 11910 PWs)   bands (ev):

   -16.6604 -16.5068 -12.1336 -11.9965  -6.9784  -6.8562  -4.5058  -3.8806
     2.2827   2.7274   6.8448   6.9830   7.0438   7.4881

     occupation numbers 
     1.0000   1.0000   1.0000   1.0000   1.0000   1.0000   1.0000   1.0000
     0.0000   0.0000   0.0000   0.0000   0.0000   0.0000

          k = 0.4000 0.3079 0.0000 ( 11920 PWs)   bands (ev):

   -15.9819 -15.8319 -12.8733 -12.7347  -7.4520  -7.3289  -3.8336  -3.2941
     1.5317   1.9467   7.2516   7.4548   8.0082   8.4663

     occupation numbers 
     1.0000   1.0000   1.0000   1.0000   1.0000   1.0000   1.0000   1.0000
     0.0000   0.0000   0.0000   0.0000   0.0000   0.0000

          k = 0.4000 0.3849 0.0000 ( 11935 PWs)   bands (ev):

   -15.1693 -15.0259 -13.4009 -13.2641  -8.4318  -8.3061  -3.0730  -2.6572
     0.9474   1.2579   8.4531   8.6844   9.3172   9.7001

     occupation numbers 
     1.0000   1.0000   1.0000   1.0000   1.0000   1.0000   1.0000   1.0000
     0.0000   0.0000   0.0000   0.0000   0.0000   0.0000

          k = 0.4000 0.4619 0.0000 ( 11949 PWs)   bands (ev):

   -14.4660 -14.3351 -13.4922 -13.3654  -9.6485  -9.5199  -2.3763  -2.0552
     0.5574   0.7214  10.0608  10.3225  10.5664  10.7321

     occupation numbers 
     1.0000   1.0000   1.0000   1.0000   1.0000   1.0000   1.0000   1.0000
     0.0000   0.0000   0.0000   0.0000   0.0000   0.0000

          k = 0.4000 0.5389 0.0000 ( 11948 PWs)   bands (ev):

   -14.3536 -14.2134 -12.8473 -12.7170 -10.7614 -10.6332  -1.9980  -1.5764
     0.2421   0.5034   9.9775  10.2163  10.6788  10.9783

     occupation numbers 
     1.0000   1.0000   1.0000   1.0000   1.0000   1.0000   1.0000   1.0000
     0.0000   0.0000   0.0000   0.0000   0.0000   0.0000

          k = 0.4000 0.6158 0.0000 ( 11948 PWs)   bands (ev):

   -14.3535 -14.2133 -12.8475 -12.7173 -10.7613 -10.6329  -1.9979  -1.5762
     0.2418   0.5032   9.9775  10.2164  10.6788  10.9783

     occupation numbers 
     1.0000   1.0000   1.0000   1.0000   1.0000   1.0000   1.0000   1.0000
     0.0000   0.0000   0.0000   0.0000   0.0000   0.0000

          k = 0.4000 0.6928 0.0000 ( 11949 PWs)   bands (ev):

   -14.4658 -14.3348 -13.4925 -13.3660  -9.6483  -9.5195  -2.3760  -2.0549
     0.5570   0.7207  10.0609  10.3226  10.5665  10.7323

     occupation numbers 
     1.0000   1.0000   1.0000   1.0000   1.0000   1.0000   1.0000   1.0000
     0.0000   0.0000   0.0000   0.0000   0.0000   0.0000

          k = 0.4000 0.7698 0.0000 ( 11935 PWs)   bands (ev):

   -15.1693 -15.0258 -13.4011 -13.2645  -8.4316  -8.3057  -3.0727  -2.6569
     0.9470   1.2573   8.4533   8.6847   9.3172   9.7001

     occupation numbers 
     1.0000   1.0000   1.0000   1.0000   1.0000   1.0000   1.0000   1.0000
     0.0000   0.0000   0.0000   0.0000   0.0000   0.0000

          k = 0.4000-0.3079 0.0000 ( 11920 PWs)   bands (ev):

   -15.9818 -15.8319 -12.8735 -12.7351  -7.4518  -7.3284  -3.8334  -3.2938
     1.5312   1.9462   7.2517   7.4551   8.0082   8.4663

     occupation numbers 
     1.0000   1.0000   1.0000   1.0000   1.0000   1.0000   1.0000   1.0000
     0.0000   0.0000   0.0000   0.0000   0.0000   0.0000

          k = 0.4000-0.2309 0.0000 ( 11910 PWs)   bands (ev):

   -16.6604 -16.5068 -12.1338 -11.9968  -6.9781  -6.8557  -4.5056  -3.8804
     2.2823   2.7270   6.8450   6.9830   7.0439   7.4881

     occupation numbers 
     1.0000   1.0000   1.0000   1.0000   1.0000   1.0000   1.0000   1.0000
     0.0000   0.0000   0.0000   0.0000   0.0000   0.0000

          k = 0.4000-0.1540 0.0000 ( 11938 PWs)   bands (ev):

   -17.1593 -17.0033 -11.2471 -11.1128  -7.1372  -7.0140  -5.0197  -4.3419
     3.1017   3.5123   6.2472   6.7466   7.4091   7.5335

     occupation numbers 
     1.0000   1.0000   1.0000   1.0000   1.0000   1.0000   1.0000   1.0000
     0.0000   0.0000   0.0000   0.0000   0.0000   0.0000

          k = 0.4000-0.0770 0.0000 ( 11925 PWs)   bands (ev):

   -17.4629 -17.3054 -10.3069 -10.1768  -7.7602  -7.6352  -5.3396  -4.6337
     3.8094   4.1340   5.8062   6.3209   7.2726   7.7479

     occupation numbers 
     1.0000   1.0000   1.0000   1.0000   1.0000   1.0000   1.0000   1.0000
     0.0000   0.0000   0.0000   0.0000   0.0000   0.0000

          k = 0.4000 0.0000 0.0000 ( 11953 PWs)   bands (ev):

   -17.5647 -17.4068  -9.7231  -9.5992  -8.2609  -8.1367  -5.4481  -4.7333
     4.1141   4.3731   5.6587   6.1749   7.1335   7.5993

     occupation numbers 
     1.0000   1.0000   1.0000   1.0000   1.0000   1.0000   1.0000   1.0000
     0.0000   0.0000   0.0000   0.0000   0.0000   0.0000

          k = 0.4000 0.0770 0.0000 ( 11925 PWs)   bands (ev):

   -17.4629 -17.3054 -10.3067 -10.1765  -7.7604  -7.6356  -5.3397  -4.6338
     3.8095   4.1342   5.8062   6.3209   7.2726   7.7479

     occupation numbers 
     1.0000   1.0000   1.0000   1.0000   1.0000   1.0000   1.0000   1.0000
     0.0000   0.0000   0.0000   0.0000   0.0000   0.0000

          k = 0.4000 0.1540 0.0000 ( 11938 PWs)   bands (ev):

   -17.1593 -17.0032 -11.2469 -11.1124  -7.1375  -7.0144  -5.0197  -4.3420
     3.1020   3.5126   6.2472   6.7466   7.4090   7.5333

     occupation numbers 
     1.0000   1.0000   1.0000   1.0000   1.0000   1.0000   1.0000   1.0000
     0.0000   0.0000   0.0000   0.0000   0.0000   0.0000

          k = 0.4667 0.2694 0.0000 ( 11924 PWs)   bands (ev):

   -15.4476 -15.3030 -13.6537 -13.5156  -7.1877  -7.0654  -3.4499  -3.0341
     1.0410   1.4205   6.7477   6.9495   8.8863   9.3112

     occupation numbers 
     1.0000   1.0000   1.0000   1.0000   1.0000   1.0000   1.0000   1.0000
     0.0000   0.0000   0.0000   0.0000   0.0000   0.0000

          k = 0.4667 0.3464 0.0000 ( 11913 PWs)   bands (ev):

   -15.0061 -14.8742 -13.9886 -13.8601  -7.5585  -7.4353  -3.1470  -2.8197
     0.8446   1.1595   7.1988   7.4069  10.0422  10.0566

     occupation numbers 
     1.0000   1.0000   1.0000   1.0000   1.0000   1.0000   1.0000   1.0000
     0.0000   0.0000   0.0000   0.0000   0.0000   0.0000

          k = 0.4667 0.4234 0.0000 ( 11935 PWs)   bands (ev):

   -15.1693 -15.0259 -13.4009 -13.2641  -8.4318  -8.3061  -3.0730  -2.6572
     0.9474   1.2578   8.4531   8.6845   9.3172   9.7002

     occupation numbers 
     1.0000   1.0000   1.0000   1.0000   1.0000   1.0000   1.0000   1.0000
     0.0000   0.0000   0.0000   0.0000   0.0000   0.0000

          k = 0.4667 0.5004 0.0000 ( 11953 PWs)   bands (ev):

   -15.4114 -15.2641 -12.4485 -12.3138  -9.5150  -9.3868  -3.1204  -2.5885
     1.2129   1.5219   8.8707   9.2430   9.9347  10.1609

     occupation numbers 
     1.0000   1.0000   1.0000   1.0000   1.0000   1.0000   1.0000   1.0000
     0.0000   0.0000   0.0000   0.0000   0.0000   0.0000

          k = 0.4667 0.5774 0.0000 ( 11961 PWs)   bands (ev):

   -15.5006 -15.3525 -11.7941 -11.6678 -10.2166 -10.0907  -3.1507  -2.5776
     1.3610   1.6517   8.7209   9.0902   9.7880  10.2623

     occupation numbers 
     1.0000   1.0000   1.0000   1.0000   1.0000   1.0000   1.0000   1.0000
     0.0000   0.0000   0.0000   0.0000   0.0000   0.0000

          k = 0.4667 0.6543 0.0000 ( 11953 PWs)   bands (ev):

   -15.4114 -15.2641 -12.4487 -12.3141  -9.5148  -9.3865  -3.1203  -2.5883
     1.2126   1.5216   8.8707   9.2430   9.9347  10.1610

     occupation numbers 
     1.0000   1.0000   1.0000   1.0000   1.0000   1.0000   1.0000   1.0000
     0.0000   0.0000   0.0000   0.0000   0.0000   0.0000

          k = 0.4667 0.7313 0.0000 ( 11935 PWs)   bands (ev):

   -15.1692 -15.0258 -13.4011 -13.2645  -8.4316  -8.3057  -3.0728  -2.6569
     0.9470   1.2573   8.4533   8.6847   9.3172   9.7002

     occupation numbers 
     1.0000   1.0000   1.0000   1.0000   1.0000   1.0000   1.0000   1.0000
     0.0000   0.0000   0.0000   0.0000   0.0000   0.0000

          k = 0.4667 0.8083 0.0000 ( 11913 PWs)   bands (ev):

   -15.0059 -14.8740 -13.9889 -13.8607  -7.5583  -7.4348  -3.1467  -2.8193
     0.8441   1.1589   7.1990   7.4071  10.0422  10.0566

     occupation numbers 
     1.0000   1.0000   1.0000   1.0000   1.0000   1.0000   1.0000   1.0000
     0.0000   0.0000   0.0000   0.0000   0.0000   0.0000

          k = 0.4667-0.2694 0.0000 ( 11924 PWs)   bands (ev):

   -15.4475 -15.3029 -13.6540 -13.5160  -7.1875  -7.0650  -3.4496  -3.0337
     1.0406   1.4199   6.7478   6.9497   8.8863   9.3112

     occupation numbers 
     1.0000   1.0000   1.0000   1.0000   1.0000   1.0000   1.0000   1.0000
     0.0000   0.0000   0.0000   0.0000   0.0000   0.0000

          k = 0.4667-0.1925 0.0000 ( 11920 PWs)   bands (ev):

   -15.9818 -15.8319 -12.8735 -12.7351  -7.4518  -7.3284  -3.8334  -3.2938
     1.5313   1.9462   7.2517   7.4551   8.0082   8.4663

     occupation numbers 
     1.0000   1.0000   1.0000   1.0000   1.0000   1.0000   1.0000   1.0000
     0.0000   0.0000   0.0000   0.0000   0.0000   0.0000

          k = 0.4667-0.1155 0.0000 ( 11927 PWs)   bands (ev):

   -16.3664 -16.2142 -11.9277 -11.7924  -8.2079  -8.0823  -4.1472  -3.5300
     2.1491   2.5255   7.4187   7.8758   8.5585   8.6873

     occupation numbers 
     1.0000   1.0000   1.0000   1.0000   1.0000   1.0000   1.0000   1.0000
     0.0000   0.0000   0.0000   0.0000   0.0000   0.0000

          k = 0.4667-0.0385 0.0000 ( 11949 PWs)   bands (ev):

   -16.5635 -16.4102 -11.0135 -10.8848  -9.0856  -8.9592  -4.3183  -3.6666
     2.6123   2.9067   7.1242   7.5891   8.4949   8.9887

     occupation numbers 
     1.0000   1.0000   1.0000   1.0000   1.0000   1.0000   1.0000   1.0000
     0.0000   0.0000   0.0000   0.0000   0.0000   0.0000

          k = 0.4667 0.0385 0.0000 ( 11949 PWs)   bands (ev):

   -16.5635 -16.4102 -11.0134 -10.8846  -9.0858  -8.9594  -4.3184  -3.6666
     2.6124   2.9068   7.1242   7.5891   8.4949   8.9887

     occupation numbers 
     1.0000   1.0000   1.0000   1.0000   1.0000   1.0000   1.0000   1.0000
     0.0000   0.0000   0.0000   0.0000   0.0000   0.0000

          k = 0.4667 0.1155 0.0000 ( 11927 PWs)   bands (ev):

   -16.3664 -16.2142 -11.9275 -11.7921  -8.2081  -8.0826  -4.1473  -3.5302
     2.1494   2.5258   7.4187   7.8758   8.5583   8.6871

     occupation numbers 
     1.0000   1.0000   1.0000   1.0000   1.0000   1.0000   1.0000   1.0000
     0.0000   0.0000   0.0000   0.0000   0.0000   0.0000

          k = 0.4667 0.1925 0.0000 ( 11920 PWs)   bands (ev):

   -15.9818 -15.8319 -12.8733 -12.7348  -7.4521  -7.3288  -3.8336  -3.2941
     1.5317   1.9467   7.2516   7.4549   8.0082   8.4663

     occupation numbers 
     1.0000   1.0000   1.0000   1.0000   1.0000   1.0000   1.0000   1.0000
     0.0000   0.0000   0.0000   0.0000   0.0000   0.0000

     the Fermi energy is    -0.6915 ev

!    total energy              =     -48.20797192 Ry
     estimated scf accuracy    <          2.0E-11 Ry
     smearing contrib. (-TS)   =      -0.00007791 Ry
     internal energy E=F+TS    =     -48.20789400 Ry

     The total energy is F=E-TS. E is the sum of the following terms:
     one-electron contribution =    -694.43009202 Ry
     hartree contribution      =     350.81586780 Ry
     xc contribution           =     -17.18481252 Ry
     ewald contribution        =     312.96131487 Ry
     DFT-D3 Dispersion         =      -0.01717129 Ry
     electric field correction =      -0.35300084 Ry

     convergence has been achieved in   8 iterations

     Forces acting on atoms (cartesian axes, Ry/au):

     atom    1 type  1   force =     0.00004337    0.00011024    0.00146091
     atom    2 type  1   force =    -0.00004341   -0.00011010   -0.00189060
     atom    3 type  1   force =     0.00007690   -0.00009066    0.00150308
     atom    4 type  1   force =    -0.00007686    0.00009052   -0.00107340
     The non-local contrib.  to forces
     atom    1 type  1   force =     0.00002942    0.00007474   -0.00175601
     atom    2 type  1   force =    -0.00002940   -0.00007458   -0.00858147
     atom    3 type  1   force =     0.00005206   -0.00006131   -0.00024088
     atom    4 type  1   force =    -0.00005208    0.00006127   -0.00542169
     The ionic contribution  to forces
     atom    1 type  1   force =     0.00014456    0.00036635  -15.13677479
     atom    2 type  1   force =    -0.00014438   -0.00036631  -15.06609317
     atom    3 type  1   force =     0.00025570   -0.00030092   15.07458942
     atom    4 type  1   force =    -0.00025588    0.00030088   15.12827854
     The local contribution  to forces
     atom    1 type  1   force =    -0.00012793   -0.00032404   15.09866874
     atom    2 type  1   force =     0.00012769    0.00032401   15.03142727
     atom    3 type  1   force =    -0.00022612    0.00026601  -15.11167995
     atom    4 type  1   force =     0.00022634   -0.00026603  -15.16278262
     The core correction contribution to forces
     atom    1 type  1   force =    -0.00000265   -0.00000672    0.00012886
     atom    2 type  1   force =     0.00000265    0.00000671    0.00017113
     atom    3 type  1   force =    -0.00000469    0.00000552    0.00001755
     atom    4 type  1   force =     0.00000469   -0.00000552    0.00004434
     The Hubbard contrib.    to forces
     atom    1 type  1   force =     0.00000000    0.00000000    0.00000000
     atom    2 type  1   force =     0.00000000    0.00000000    0.00000000
     atom    3 type  1   force =     0.00000000    0.00000000    0.00000000
     atom    4 type  1   force =     0.00000000    0.00000000    0.00000000
     The SCF correction term to forces
     atom    1 type  1   force =    -0.00000000   -0.00000001   -0.00000595
     atom    2 type  1   force =     0.00000000    0.00000000   -0.00000595
     atom    3 type  1   force =    -0.00000000    0.00000001    0.00000850
     atom    4 type  1   force =     0.00000000   -0.00000001    0.00000832

     DFT-D3 dispersion contribution to forces:
     atom    1 type  1   force =    -0.00000003   -0.00000007    0.00120011
     atom    2 type  1   force =     0.00000003    0.00000007    0.00119165
     atom    3 type  1   force =    -0.00000005    0.00000006   -0.00119151
     atom    4 type  1   force =     0.00000005   -0.00000006   -0.00120025

     Total force =     0.003029     Total SCF correction =     0.000015

     DFT-D3 dispersion Force =     0.002392
     Energy error            =      5.2E-05 Ry
     Gradient error          =      1.9E-03 Ry/Bohr

     number of scf cycles    =  11
     number of bfgs steps    =  10

     energy             old  =     -48.2079204140 Ry
     energy             new  =     -48.2079719165 Ry

     CASE: energy            _new < energy            _old

     new trust radius        =       0.0385673974 bohr
     new conv_thr            =            1.0E-10 Ry


ATOMIC_POSITIONS (angstrom)
C                0.0000176256        0.0000655710        9.9192811850
C                1.2299596218        0.7100594286        9.9216105561
C                1.2300629590        0.7100882637       13.4286519285
C               -0.0000402064        1.4203500611       13.4304563304



     Writing config-only to output data dir /home/ubuntu/projects/Graphene-Band-Structure-Quantum-Espresso/outputs/field_0.005/data/field_0.005.save/ :
     XML data file
     NEW-OLD atomic charge density approx. for the potential

     negative rho (up, down):  3.639E-06 0.000E+00

     Adding external electric field
        E field amplitude [Ha a.u.]:  5.0000E-03
        Potential amp.        0.3971 Ry
        Total length         39.7126 bohr


     total cpu time spent up to now is      337.5 secs

     Self-consistent Calculation

     iteration #  1     ecut=    90.00 Ry     beta= 0.70
     Davidson diagonalization with overlap

---- Real-time Memory Report at c_bands before calling an iterative solver
           153 MiB given to the printing process from OS
             0 MiB allocation reported by mallinfo(arena+hblkhd)
         29357 MiB available memory on the node where the printing process lives
------------------
     ethr =  1.00E-06,  avg # of iterations =  6.8

     negative rho (up, down):  1.028E-06 0.000E+00

     total cpu time spent up to now is      344.7 secs

     total energy              =     -48.20753372 Ry
     estimated scf accuracy    <       0.00123962 Ry

     iteration #  2     ecut=    90.00 Ry     beta= 0.70
     Davidson diagonalization with overlap

---- Real-time Memory Report at c_bands before calling an iterative solver
           153 MiB given to the printing process from OS
             0 MiB allocation reported by mallinfo(arena+hblkhd)
         29295 MiB available memory on the node where the printing process lives
------------------
     ethr =  7.75E-06,  avg # of iterations =  4.5

     negative rho (up, down):  6.356E-07 0.000E+00

     total cpu time spent up to now is      348.8 secs

     total energy              =     -48.20772720 Ry
     estimated scf accuracy    <       0.00114380 Ry

     iteration #  3     ecut=    90.00 Ry     beta= 0.70
     Davidson diagonalization with overlap

---- Real-time Memory Report at c_bands before calling an iterative solver
           153 MiB given to the printing process from OS
             0 MiB allocation reported by mallinfo(arena+hblkhd)
         29275 MiB available memory on the node where the printing process lives
------------------
     ethr =  7.15E-06,  avg # of iterations =  3.2

     negative rho (up, down):  9.730E-08 0.000E+00

     total cpu time spent up to now is      352.1 secs

     total energy              =     -48.20798990 Ry
     estimated scf accuracy    <       0.00001625 Ry

     iteration #  4     ecut=    90.00 Ry     beta= 0.70
     Davidson diagonalization with overlap

---- Real-time Memory Report at c_bands before calling an iterative solver
           153 MiB given to the printing process from OS
             0 MiB allocation reported by mallinfo(arena+hblkhd)
         29275 MiB available memory on the node where the printing process lives
------------------
     ethr =  1.02E-07,  avg # of iterations =  2.5

     negative rho (up, down):  6.857E-08 0.000E+00

     total cpu time spent up to now is      355.6 secs

     total energy              =     -48.20799098 Ry
     estimated scf accuracy    <       0.00001376 Ry

     iteration #  5     ecut=    90.00 Ry     beta= 0.70
     Davidson diagonalization with overlap

---- Real-time Memory Report at c_bands before calling an iterative solver
           153 MiB given to the printing process from OS
             0 MiB allocation reported by mallinfo(arena+hblkhd)
         29279 MiB available memory on the node where the printing process lives
------------------
     ethr =  8.60E-08,  avg # of iterations =  1.3

     total cpu time spent up to now is      359.1 secs

     total energy              =     -48.20799338 Ry
     estimated scf accuracy    <       0.00000027 Ry

     iteration #  6     ecut=    90.00 Ry     beta= 0.70
     Davidson diagonalization with overlap

---- Real-time Memory Report at c_bands before calling an iterative solver
           153 MiB given to the printing process from OS
             0 MiB allocation reported by mallinfo(arena+hblkhd)
         29291 MiB available memory on the node where the printing process lives
------------------
     ethr =  1.66E-09,  avg # of iterations =  2.3

     total cpu time spent up to now is      363.0 secs

     total energy              =     -48.20799345 Ry
     estimated scf accuracy    <       0.00000001 Ry

     iteration #  7     ecut=    90.00 Ry     beta= 0.70
     Davidson diagonalization with overlap

---- Real-time Memory Report at c_bands before calling an iterative solver
           153 MiB given to the printing process from OS
             0 MiB allocation reported by mallinfo(arena+hblkhd)
         29254 MiB available memory on the node where the printing process lives
------------------
     ethr =  8.17E-11,  avg # of iterations =  2.9

     total cpu time spent up to now is      367.3 secs

     total energy              =     -48.20799345 Ry
     estimated scf accuracy    <          1.2E-09 Ry

     iteration #  8     ecut=    90.00 Ry     beta= 0.70
     Davidson diagonalization with overlap

---- Real-time Memory Report at c_bands before calling an iterative solver
           153 MiB given to the printing process from OS
             0 MiB allocation reported by mallinfo(arena+hblkhd)
         29284 MiB available memory on the node where the printing process lives
------------------
     ethr =  7.42E-12,  avg # of iterations =  2.7

     total cpu time spent up to now is      370.8 secs

     End of self-consistent calculation

          k = 0.0000 0.0000 0.0000 ( 11659 PWs)   bands (ev):

   -20.3608 -20.1963  -8.7455  -7.9608  -3.7954  -3.7906  -3.6770  -3.6722
     1.6912   2.2945   3.3166   3.7428   4.9636   6.0531

     occupation numbers 
     1.0000   1.0000   1.0000   1.0000   1.0000   1.0000   1.0000   1.0000
     0.0000   0.0000   0.0000   0.0000   0.0000   0.0000

          k = 0.0000 0.0770 0.0000 ( 11791 PWs)   bands (ev):

   -20.2553 -20.0912  -8.6176  -7.8362  -4.2172  -4.1020  -4.0198  -3.8972
     1.8383   2.4388   3.4584   3.8867   5.1043   6.1894

     occupation numbers 
     1.0000   1.0000   1.0000   1.0000   1.0000   1.0000   1.0000   1.0000
     0.0000   0.0000   0.0000   0.0000   0.0000   0.0000

          k = 0.0000 0.1540 0.0000 ( 11788 PWs)   bands (ev):

   -19.9393 -19.7767  -8.2358  -7.4645  -5.3508  -5.2332  -4.5890  -4.4664
     2.2794   2.8715   3.8839   4.3184   5.5259   6.5984

     occupation numbers 
     1.0000   1.0000   1.0000   1.0000   1.0000   1.0000   1.0000   1.0000
     0.0000   0.0000   0.0000   0.0000   0.0000   0.0000

          k = 0.0000 0.2309 0.0000 ( 11848 PWs)   bands (ev):

   -19.4151 -19.2548  -7.6066  -6.9069  -6.8534  -6.7852  -5.3010  -5.1783
     3.0144   3.5916   4.5915   5.0358   6.2212   7.2484

     occupation numbers 
     1.0000   1.0000   1.0000   1.0000   1.0000   1.0000   1.0000   1.0000
     0.0000   0.0000   0.0000   0.0000   0.0000   0.0000

          k = 0.0000 0.3079 0.0000 ( 11876 PWs)   bands (ev):

   -18.6869 -18.5298  -8.6478  -8.5231  -6.7439  -6.0200  -5.9940  -5.8713
     4.0428   4.5941   5.5660   5.9111   6.1257   6.2868

     occupation numbers 
     1.0000   1.0000   1.0000   1.0000   1.0000   1.0000   1.0000   1.0000
     0.0000   0.0000   0.0000   0.0000   0.0000   0.0000

          k = 0.0000 0.3849 0.0000 ( 11914 PWs)   bands (ev):

   -17.7621 -17.6090 -10.4223 -10.2933  -6.5707  -6.4479  -5.6781  -5.0012
     4.0730   4.4496   5.3674   5.8945   6.8091   7.0662

     occupation numbers 
     1.0000   1.0000   1.0000   1.0000   1.0000   1.0000   1.0000   1.0000
     0.0000   0.0000   0.0000   0.0000   0.0000   0.0000

          k = 0.0000 0.4619 0.0000 ( 11910 PWs)   bands (ev):

   -16.6565 -16.5080 -12.1305 -11.9974  -6.9775  -6.8547  -4.4860  -3.8971
     2.2964   2.7161   6.8501   6.9829   7.0408   7.4850

     occupation numbers 
     1.0000   1.0000   1.0000   1.0000   1.0000   1.0000   1.0000   1.0000
     0.0000   0.0000   0.0000   0.0000   0.0000   0.0000

          k = 0.0000 0.5389 0.0000 ( 11924 PWs)   bands (ev):

   -15.4444 -15.3034 -13.6505 -13.5166  -7.1869  -7.0641  -3.4353  -3.0426
     1.0496   1.4113   6.7541   6.9461   8.8856   9.3075

     occupation numbers 
     1.0000   1.0000   1.0000   1.0000   1.0000   1.0000   1.0000   1.0000
     0.0000   0.0000   0.0000   0.0000   0.0000   0.0000

          k = 0.0667 0.0385 0.0000 ( 11791 PWs)   bands (ev):

   -20.2553 -20.0912  -8.6176  -7.8362  -4.2210  -4.1007  -4.0159  -3.8985
     1.8383   2.4388   3.4584   3.8867   5.1043   6.1900

     occupation numbers 
     1.0000   1.0000   1.0000   1.0000   1.0000   1.0000   1.0000   1.0000
     0.0000   0.0000   0.0000   0.0000   0.0000   0.0000

          k = 0.0667 0.1155 0.0000 ( 11813 PWs)   bands (ev):

   -20.0445 -19.8814  -8.3627  -7.5880  -4.9467  -4.8295  -4.4673  -4.3459
     2.1324   2.7273   3.7422   4.1746   5.3858   6.4636

     occupation numbers 
     1.0000   1.0000   1.0000   1.0000   1.0000   1.0000   1.0000   1.0000
     0.0000   0.0000   0.0000   0.0000   0.0000   0.0000

          k = 0.0667 0.1925 0.0000 ( 11832 PWs)   bands (ev):

   -19.6244 -19.4632  -7.8569  -7.0964  -6.2003  -6.0818  -5.2005  -5.0777
     2.7205   3.3040   4.3093   4.7497   5.9469   7.0063

     occupation numbers 
     1.0000   1.0000   1.0000   1.0000   1.0000   1.0000   1.0000   1.0000
     0.0000   0.0000   0.0000   0.0000   0.0000   0.0000

          k = 0.0667 0.2694 0.0000 ( 11880 PWs)   bands (ev):

   -18.9982 -18.8398  -7.7897  -7.6677  -7.1099  -6.3726  -5.9636  -5.8404
     3.6023   4.1668   5.1565   5.6064   6.7469   6.8049

     occupation numbers 
     1.0000   1.0000   1.0000   1.0000   1.0000   1.0000   1.0000   1.0000
     0.0000   0.0000   0.0000   0.0000   0.0000   0.0000

          k = 0.0667 0.3464 0.0000 ( 11910 PWs)   bands (ev):

   -18.1716 -18.0168  -9.5167  -9.3905  -6.6298  -6.5064  -6.1419  -5.4414
     4.7709   4.9417   5.2606   5.3443   6.2857   6.7667

     occupation numbers 
     1.0000   1.0000   1.0000   1.0000   1.0000   1.0000   1.0000   1.0000
     0.0000   0.0000   0.0000   0.0000   0.0000   0.0000

          k = 0.0667 0.4234 0.0000 ( 11938 PWs)   bands (ev):

   -17.1552 -17.0046 -11.2439 -11.1133  -7.1365  -7.0130  -4.9988  -4.3604
     3.1154   3.5024   6.2469   6.7433   7.4144   7.5272

     occupation numbers 
     1.0000   1.0000   1.0000   1.0000   1.0000   1.0000   1.0000   1.0000
     0.0000   0.0000   0.0000   0.0000   0.0000   0.0000

          k = 0.0667 0.5004 0.0000 ( 11920 PWs)   bands (ev):

   -15.9783 -15.8329 -12.8701 -12.7357  -7.4511  -7.3275  -3.8159  -3.3074
     1.5434   1.9363   7.2579   7.4516   8.0077   8.4629

     occupation numbers 
     1.0000   1.0000   1.0000   1.0000   1.0000   1.0000   1.0000   1.0000
     0.0000   0.0000   0.0000   0.0000   0.0000   0.0000

          k = 0.0667 0.5774 0.0000 ( 11913 PWs)   bands (ev):

   -15.0041 -14.8732 -13.9860 -13.8608  -7.5576  -7.4340  -3.1347  -2.8246
     0.8500   1.1526   7.2055   7.4034  10.0406  10.0560

     occupation numbers 
     1.0000   1.0000   1.0000   1.0000   1.0000   1.0000   1.0000   1.0000
     0.0000   0.0000   0.0000   0.0000   0.0000   0.0000

          k = 0.0667-0.5004 0.0000 ( 11920 PWs)   bands (ev):

   -15.9783 -15.8329 -12.8701 -12.7357  -7.4511  -7.3276  -3.8159  -3.3074
     1.5435   1.9365   7.2579   7.4514   8.0077   8.4629

     occupation numbers 
     1.0000   1.0000   1.0000   1.0000   1.0000   1.0000   1.0000   1.0000
     0.0000   0.0000   0.0000   0.0000   0.0000   0.0000

          k = 0.0667-0.4234 0.0000 ( 11938 PWs)   bands (ev):

   -17.1552 -17.0046 -11.2439 -11.1132  -7.1366  -7.0131  -4.9988  -4.3605
     3.1155   3.5026   6.2469   6.7433   7.4143   7.5270

     occupation numbers 
     1.0000   1.0000   1.0000   1.0000   1.0000   1.0000   1.0000   1.0000
     0.0000   0.0000   0.0000   0.0000   0.0000   0.0000

          k = 0.0667-0.3464 0.0000 ( 11910 PWs)   bands (ev):

   -18.1716 -18.0168  -9.5166  -9.3902  -6.6300  -6.5067  -6.1420  -5.4414
     4.7709   4.9418   5.2609   5.3444   6.2856   6.7667

     occupation numbers 
     1.0000   1.0000   1.0000   1.0000   1.0000   1.0000   1.0000   1.0000
     0.0000   0.0000   0.0000   0.0000   0.0000   0.0000

          k = 0.0667-0.2694 0.0000 ( 11880 PWs)   bands (ev):

   -18.9982 -18.8398  -7.7894  -7.6671  -7.1100  -6.3727  -5.9640  -5.8410
     3.6023   4.1668   5.1565   5.6064   6.7470   6.8051

     occupation numbers 
     1.0000   1.0000   1.0000   1.0000   1.0000   1.0000   1.0000   1.0000
     0.0000   0.0000   0.0000   0.0000   0.0000   0.0000

          k = 0.0667-0.1925 0.0000 ( 11832 PWs)   bands (ev):

   -19.6244 -19.4632  -7.8569  -7.0964  -6.1996  -6.0806  -5.2012  -5.0790
     2.7205   3.3040   4.3093   4.7497   5.9469   7.0063

     occupation numbers 
     1.0000   1.0000   1.0000   1.0000   1.0000   1.0000   1.0000   1.0000
     0.0000   0.0000   0.0000   0.0000   0.0000   0.0000

          k = 0.0667-0.1155 0.0000 ( 11813 PWs)   bands (ev):

   -20.0445 -19.8814  -8.3627  -7.5880  -4.9453  -4.8271  -4.4687  -4.3484
     2.1324   2.7273   3.7422   4.1746   5.3858   6.4635

     occupation numbers 
     1.0000   1.0000   1.0000   1.0000   1.0000   1.0000   1.0000   1.0000
     0.0000   0.0000   0.0000   0.0000   0.0000   0.0000

          k = 0.0667-0.0385 0.0000 ( 11791 PWs)   bands (ev):

   -20.2553 -20.0912  -8.6176  -7.8362  -4.2196  -4.0982  -4.0173  -3.9011
     1.8383   2.4388   3.4584   3.8867   5.1043   6.1899

     occupation numbers 
     1.0000   1.0000   1.0000   1.0000   1.0000   1.0000   1.0000   1.0000
     0.0000   0.0000   0.0000   0.0000   0.0000   0.0000

          k = 0.1333 0.0770 0.0000 ( 11788 PWs)   bands (ev):

   -19.9393 -19.7767  -8.2357  -7.4645  -5.3539  -5.2322  -4.5857  -4.4675
     2.2794   2.8715   3.8839   4.3184   5.5259   6.5990

     occupation numbers 
     1.0000   1.0000   1.0000   1.0000   1.0000   1.0000   1.0000   1.0000
     0.0000   0.0000   0.0000   0.0000   0.0000   0.0000

          k = 0.1333 0.1540 0.0000 ( 11832 PWs)   bands (ev):

   -19.6244 -19.4632  -7.8569  -7.0964  -6.2019  -6.0813  -5.1987  -5.0783
     2.7205   3.3040   4.3093   4.7497   5.9469   7.0068

     occupation numbers 
     1.0000   1.0000   1.0000   1.0000   1.0000   1.0000   1.0000   1.0000
     0.0000   0.0000   0.0000   0.0000   0.0000   0.0000

          k = 0.1333 0.2309 0.0000 ( 11879 PWs)   bands (ev):

   -19.1024 -18.9435  -7.3051  -7.2328  -7.1854  -6.4910  -6.1680  -6.0456
     3.4554   4.0240   5.0175   5.4676   6.6460   7.1153

     occupation numbers 
     1.0000   1.0000   1.0000   1.0000   1.0000   1.0000   1.0000   1.0000
     0.0000   0.0000   0.0000   0.0000   0.0000   0.0000

          k = 0.1333 0.3079 0.0000 ( 11929 PWs)   bands (ev):

   -18.3777 -18.2220  -8.7053  -8.5831  -7.0805  -6.9564  -6.3769  -5.6651
     4.4838   5.0265   5.5362   5.7762   6.0069   6.4722

     occupation numbers 
     1.0000   1.0000   1.0000   1.0000   1.0000   1.0000   1.0000   1.0000
     0.0000   0.0000   0.0000   0.0000   0.0000   0.0000

          k = 0.1333 0.3849 0.0000 ( 11925 PWs)   bands (ev):

   -17.4588 -17.3069 -10.3041 -10.1772  -7.7592  -7.6341  -5.3181  -4.6531
     3.8208   4.1269   5.8060   6.3179   7.2600   7.7509

     occupation numbers 
     1.0000   1.0000   1.0000   1.0000   1.0000   1.0000   1.0000   1.0000
     0.0000   0.0000   0.0000   0.0000   0.0000   0.0000

          k = 0.1333 0.4619 0.0000 ( 11927 PWs)   bands (ev):

   -16.3627 -16.2154 -11.9245 -11.7930  -8.2069  -8.0814  -4.1276  -3.5465
     2.1614   2.5167   7.4183   7.8726   8.5645   8.6793

     occupation numbers 
     1.0000   1.0000   1.0000   1.0000   1.0000   1.0000   1.0000   1.0000
     0.0000   0.0000   0.0000   0.0000   0.0000   0.0000

          k = 0.1333 0.5389 0.0000 ( 11935 PWs)   bands (ev):

   -15.1663 -15.0263 -13.3977 -13.2651  -8.4306  -8.3049  -3.0583  -2.6657
     0.9545   1.2509   8.4606   8.6807   9.3163   9.6972

     occupation numbers 
     1.0000   1.0000   1.0000   1.0000   1.0000   1.0000   1.0000   1.0000
     0.0000   0.0000   0.0000   0.0000   0.0000   0.0000

          k = 0.1333 0.6158 0.0000 ( 11935 PWs)   bands (ev):

   -15.1663 -15.0263 -13.3977 -13.2650  -8.4306  -8.3050  -3.0584  -2.6658
     0.9546   1.2511   8.4605   8.6805   9.3163   9.6972

     occupation numbers 
     1.0000   1.0000   1.0000   1.0000   1.0000   1.0000   1.0000   1.0000
     0.0000   0.0000   0.0000   0.0000   0.0000   0.0000

          k = 0.1333-0.4619 0.0000 ( 11927 PWs)   bands (ev):

   -16.3627 -16.2153 -11.9244 -11.7928  -8.2070  -8.0816  -4.1278  -3.5466
     2.1617   2.5171   7.4183   7.8726   8.5642   8.6789

     occupation numbers 
     1.0000   1.0000   1.0000   1.0000   1.0000   1.0000   1.0000   1.0000
     0.0000   0.0000   0.0000   0.0000   0.0000   0.0000

          k = 0.1333-0.3849 0.0000 ( 11925 PWs)   bands (ev):

   -17.4588 -17.3069 -10.3039 -10.1768  -7.7595  -7.6346  -5.3182  -4.6533
     3.8212   4.1274   5.8060   6.3179   7.2600   7.7509

     occupation numbers 
     1.0000   1.0000   1.0000   1.0000   1.0000   1.0000   1.0000   1.0000
     0.0000   0.0000   0.0000   0.0000   0.0000   0.0000

          k = 0.1333-0.3079 0.0000 ( 11929 PWs)   bands (ev):

   -18.3777 -18.2220  -8.7047  -8.5821  -7.0811  -6.9576  -6.3770  -5.6652
     4.4838   5.0265   5.5366   5.7768   6.0069   6.4722

     occupation numbers 
     1.0000   1.0000   1.0000   1.0000   1.0000   1.0000   1.0000   1.0000
     0.0000   0.0000   0.0000   0.0000   0.0000   0.0000

          k = 0.1333-0.2309 0.0000 ( 11879 PWs)   bands (ev):

   -19.1023 -18.9435  -7.3041  -7.2329  -7.1835  -6.4911  -6.1691  -6.0476
     3.4554   4.0240   5.0175   5.4676   6.6460   7.1157

     occupation numbers 
     1.0000   1.0000   1.0000   1.0000   1.0000   1.0000   1.0000   1.0000
     0.0000   0.0000   0.0000   0.0000   0.0000   0.0000

          k = 0.1333-0.1540 0.0000 ( 11832 PWs)   bands (ev):

   -19.6244 -19.4632  -7.8569  -7.0964  -6.2006  -6.0790  -5.2001  -5.0808
     2.7205   3.3040   4.3093   4.7497   5.9469   7.0067

     occupation numbers 
     1.0000   1.0000   1.0000   1.0000   1.0000   1.0000   1.0000   1.0000
     0.0000   0.0000   0.0000   0.0000   0.0000   0.0000

          k = 0.1333-0.0770 0.0000 ( 11788 PWs)   bands (ev):

   -19.9393 -19.7767  -8.2358  -7.4645  -5.3527  -5.2302  -4.5869  -4.4697
     2.2794   2.8715   3.8838   4.3184   5.5259   6.5989

     occupation numbers 
     1.0000   1.0000   1.0000   1.0000   1.0000   1.0000   1.0000   1.0000
     0.0000   0.0000   0.0000   0.0000   0.0000   0.0000

          k = 0.1333 0.0000 0.0000 ( 11813 PWs)   bands (ev):

   -20.0445 -19.8814  -8.3627  -7.5880  -4.9489  -4.8259  -4.4649  -4.3497
     2.1324   2.7273   3.7422   4.1746   5.3858   6.4636

     occupation numbers 
     1.0000   1.0000   1.0000   1.0000   1.0000   1.0000   1.0000   1.0000
     0.0000   0.0000   0.0000   0.0000   0.0000   0.0000

          k = 0.2000 0.1155 0.0000 ( 11848 PWs)   bands (ev):

   -19.4151 -19.2548  -7.6065  -6.9093  -6.8534  -6.7844  -5.2982  -5.1793
     3.0144   3.5916   4.5915   5.0358   6.2212   7.2485

     occupation numbers 
     1.0000   1.0000   1.0000   1.0000   1.0000   1.0000   1.0000   1.0000
     0.0000   0.0000   0.0000   0.0000   0.0000   0.0000

          k = 0.2000 0.1925 0.0000 ( 11880 PWs)   bands (ev):

   -18.9982 -18.8398  -7.7914  -7.6671  -7.1099  -6.3726  -5.9616  -5.8411
     3.6023   4.1668   5.1566   5.6064   6.7469   6.8045

     occupation numbers 
     1.0000   1.0000   1.0000   1.0000   1.0000   1.0000   1.0000   1.0000
     0.0000   0.0000   0.0000   0.0000   0.0000   0.0000

          k = 0.2000 0.2694 0.0000 ( 11929 PWs)   bands (ev):

   -18.3777 -18.2220  -8.7063  -8.5828  -7.0793  -6.9568  -6.3768  -5.6651
     4.4838   5.0266   5.5359   5.7762   6.0069   6.4722

     occupation numbers 
     1.0000   1.0000   1.0000   1.0000   1.0000   1.0000   1.0000   1.0000
     0.0000   0.0000   0.0000   0.0000   0.0000   0.0000

          k = 0.2000 0.3464 0.0000 ( 11953 PWs)   bands (ev):

   -17.5606 -17.4083  -9.7216  -9.5995  -8.2591  -8.1352  -5.4262  -4.7529
     4.1233   4.3682   5.6585   6.1720   7.1208   7.6024

     occupation numbers 
     1.0000   1.0000   1.0000   1.0000   1.0000   1.0000   1.0000   1.0000
     0.0000   0.0000   0.0000   0.0000   0.0000   0.0000

          k = 0.2000 0.4234 0.0000 ( 11949 PWs)   bands (ev):

   -16.5597 -16.4115 -11.0111 -10.8852  -9.0842  -8.9580  -4.2979  -3.6842
     2.6227   2.9006   7.1238   7.5863   8.4809   8.9928

     occupation numbers 
     1.0000   1.0000   1.0000   1.0000   1.0000   1.0000   1.0000   1.0000
     0.0000   0.0000   0.0000   0.0000   0.0000   0.0000

          k = 0.2000 0.5004 0.0000 ( 11953 PWs)   bands (ev):

   -15.4080 -15.2649 -12.4456 -12.3146  -9.5135  -9.3857  -3.1027  -2.6017
     1.2226   1.5150   8.8699   9.2413   9.9224  10.1660

     occupation numbers 
     1.0000   1.0000   1.0000   1.0000   1.0000   1.0000   1.0000   1.0000
     0.0000   0.0000   0.0000   0.0000   0.0000   0.0000

          k = 0.2000 0.5774 0.0000 ( 11949 PWs)   bands (ev):

   -14.4641 -14.3340 -13.4896 -13.3660  -9.6470  -9.5189  -2.3640  -2.0597
     0.5585   0.7197  10.0736  10.3212  10.5624  10.7193

     occupation numbers 
     1.0000   1.0000   1.0000   1.0000   1.0000   1.0000   1.0000   1.0000
     0.0000   0.0000   0.0000   0.0000   0.0000   0.0000

          k = 0.2000 0.6543 0.0000 ( 11953 PWs)   bands (ev):

   -15.4080 -15.2649 -12.4454 -12.3143  -9.5136  -9.3860  -3.1030  -2.6020
     1.2229   1.5156   8.8699   9.2413   9.9220  10.1658

     occupation numbers 
     1.0000   1.0000   1.0000   1.0000   1.0000   1.0000   1.0000   1.0000
     0.0000   0.0000   0.0000   0.0000   0.0000   0.0000

          k = 0.2000-0.4234 0.0000 ( 11949 PWs)   bands (ev):

   -16.5596 -16.4114 -11.0107 -10.8845  -9.0847  -8.9589  -4.2981  -3.6845
     2.6233   2.9013   7.1238   7.5863   8.4808   8.9928

     occupation numbers 
     1.0000   1.0000   1.0000   1.0000   1.0000   1.0000   1.0000   1.0000
     0.0000   0.0000   0.0000   0.0000   0.0000   0.0000

          k = 0.2000-0.3464 0.0000 ( 11953 PWs)   bands (ev):

   -17.5606 -17.4082  -9.7207  -9.5980  -8.2600  -8.1368  -5.4264  -4.7532
     4.1239   4.3691   5.6585   6.1720   7.1208   7.6024

     occupation numbers 
     1.0000   1.0000   1.0000   1.0000   1.0000   1.0000   1.0000   1.0000
     0.0000   0.0000   0.0000   0.0000   0.0000   0.0000

          k = 0.2000-0.2694 0.0000 ( 11929 PWs)   bands (ev):

   -18.3777 -18.2220  -8.7053  -8.5811  -7.0804  -6.9587  -6.3770  -5.6652
     4.4838   5.0265   5.5365   5.7771   6.0069   6.4722

     occupation numbers 
     1.0000   1.0000   1.0000   1.0000   1.0000   1.0000   1.0000   1.0000
     0.0000   0.0000   0.0000   0.0000   0.0000   0.0000

          k = 0.2000-0.1925 0.0000 ( 11880 PWs)   bands (ev):

   -18.9982 -18.8398  -7.7905  -7.6655  -7.1100  -6.3727  -5.9627  -5.8431
     3.6023   4.1668   5.1565   5.6064   6.7469   6.8050

     occupation numbers 
     1.0000   1.0000   1.0000   1.0000   1.0000   1.0000   1.0000   1.0000
     0.0000   0.0000   0.0000   0.0000   0.0000   0.0000

          k = 0.2000-0.1155 0.0000 ( 11848 PWs)   bands (ev):

   -19.4151 -19.2548  -7.6066  -6.9084  -6.8534  -6.7828  -5.2992  -5.1811
     3.0144   3.5916   4.5915   5.0358   6.2212   7.2482

     occupation numbers 
     1.0000   1.0000   1.0000   1.0000   1.0000   1.0000   1.0000   1.0000
     0.0000   0.0000   0.0000   0.0000   0.0000   0.0000

          k = 0.2000-0.0385 0.0000 ( 11832 PWs)   bands (ev):

   -19.6244 -19.4632  -7.8569  -7.0964  -6.2024  -6.0784  -5.1981  -5.0814
     2.7205   3.3040   4.3093   4.7497   5.9469   7.0067

     occupation numbers 
     1.0000   1.0000   1.0000   1.0000   1.0000   1.0000   1.0000   1.0000
     0.0000   0.0000   0.0000   0.0000   0.0000   0.0000

          k = 0.2000 0.0385 0.0000 ( 11832 PWs)   bands (ev):

   -19.6244 -19.4632  -7.8569  -7.0964  -6.2030  -6.0795  -5.1975  -5.0803
     2.7205   3.3040   4.3093   4.7497   5.9469   7.0068

     occupation numbers 
     1.0000   1.0000   1.0000   1.0000   1.0000   1.0000   1.0000   1.0000
     0.0000   0.0000   0.0000   0.0000   0.0000   0.0000

          k = 0.2667 0.1540 0.0000 ( 11876 PWs)   bands (ev):

   -18.6869 -18.5298  -8.6496  -8.5225  -6.7438  -6.0199  -5.9916  -5.8721
     4.0428   4.5941   5.5660   5.9109   6.1252   6.2868

     occupation numbers 
     1.0000   1.0000   1.0000   1.0000   1.0000   1.0000   1.0000   1.0000
     0.0000   0.0000   0.0000   0.0000   0.0000   0.0000

          k = 0.2667 0.2309 0.0000 ( 11910 PWs)   bands (ev):

   -18.1717 -18.0168  -9.5182  -9.3900  -6.6279  -6.5071  -6.1418  -5.4413
     4.7709   4.9411   5.2606   5.3442   6.2856   6.7667

     occupation numbers 
     1.0000   1.0000   1.0000   1.0000   1.0000   1.0000   1.0000   1.0000
     0.0000   0.0000   0.0000   0.0000   0.0000   0.0000

          k = 0.2667 0.3079 0.0000 ( 11925 PWs)   bands (ev):

   -17.4588 -17.3069 -10.3053 -10.1768  -7.7576  -7.6346  -5.3179  -4.6531
     3.8202   4.1269   5.8060   6.3179   7.2600   7.7509

     occupation numbers 
     1.0000   1.0000   1.0000   1.0000   1.0000   1.0000   1.0000   1.0000
     0.0000   0.0000   0.0000   0.0000   0.0000   0.0000

          k = 0.2667 0.3849 0.0000 ( 11949 PWs)   bands (ev):

   -16.5597 -16.4115 -11.0120 -10.8849  -9.0833  -8.9583  -4.2978  -3.6841
     2.6223   2.9006   7.1238   7.5863   8.4809   8.9928

     occupation numbers 
     1.0000   1.0000   1.0000   1.0000   1.0000   1.0000   1.0000   1.0000
     0.0000   0.0000   0.0000   0.0000   0.0000   0.0000

          k = 0.2667 0.4619 0.0000 ( 11961 PWs)   bands (ev):

   -15.4971 -15.3534 -11.7924 -11.6679 -10.2148 -10.0894  -3.1319  -2.5925
     1.3710   1.6454   8.7203   9.0891   9.7706  10.2502

     occupation numbers 
     1.0000   1.0000   1.0000   1.0000   1.0000   1.0000   1.0000   1.0000
     0.0000   0.0000   0.0000   0.0000   0.0000   0.0000

          k = 0.2667 0.5389 0.0000 ( 11948 PWs)   bands (ev):

   -14.3508 -14.2135 -12.8448 -12.7176 -10.7598 -10.6321  -1.9828  -1.5851
     0.2498   0.4972   9.9793  10.2103  10.6784  10.9732

     occupation numbers 
     1.0000   1.0000   1.0000   1.0000   1.0000   1.0000   1.0000   1.0000
     0.0000   0.0000   0.0000   0.0000   0.0000   0.0000

          k = 0.2667 0.6158 0.0000 ( 11948 PWs)   bands (ev):

   -14.3508 -14.2136 -12.8445 -12.7171 -10.7600 -10.6324  -1.9831  -1.5855
     0.2502   0.4979   9.9791  10.2100  10.6784  10.9732

     occupation numbers 
     1.0000   1.0000   1.0000   1.0000   1.0000   1.0000   1.0000   1.0000
     0.0000   0.0000   0.0000   0.0000   0.0000   0.0000

          k = 0.2667 0.6928 0.0000 ( 11961 PWs)   bands (ev):

   -15.4971 -15.3534 -11.7917 -11.6668 -10.2154 -10.0907  -3.1323  -2.5930
     1.3717   1.6465   8.7203   9.0890   9.7705  10.2497

     occupation numbers 
     1.0000   1.0000   1.0000   1.0000   1.0000   1.0000   1.0000   1.0000
     0.0000   0.0000   0.0000   0.0000   0.0000   0.0000

          k = 0.2667-0.3849 0.0000 ( 11949 PWs)   bands (ev):

   -16.5596 -16.4114 -11.0112 -10.8836  -9.0841  -8.9598  -4.2981  -3.6846
     2.6232   2.9017   7.1238   7.5863   8.4808   8.9928

     occupation numbers 
     1.0000   1.0000   1.0000   1.0000   1.0000   1.0000   1.0000   1.0000
     0.0000   0.0000   0.0000   0.0000   0.0000   0.0000

          k = 0.2667-0.3079 0.0000 ( 11925 PWs)   bands (ev):

   -17.4588 -17.3068 -10.3046 -10.1756  -7.7585  -7.6362  -5.3182  -4.6534
     3.8210   4.1279   5.8060   6.3179   7.2600   7.7509

     occupation numbers 
     1.0000   1.0000   1.0000   1.0000   1.0000   1.0000   1.0000   1.0000
     0.0000   0.0000   0.0000   0.0000   0.0000   0.0000

          k = 0.2667-0.2309 0.0000 ( 11910 PWs)   bands (ev):

   -18.1716 -18.0167  -9.5175  -9.3888  -6.6288  -6.5086  -6.1420  -5.4415
     4.7709   4.9417   5.2614   5.3443   6.2856   6.7667

     occupation numbers 
     1.0000   1.0000   1.0000   1.0000   1.0000   1.0000   1.0000   1.0000
     0.0000   0.0000   0.0000   0.0000   0.0000   0.0000

          k = 0.2667-0.1540 0.0000 ( 11876 PWs)   bands (ev):

   -18.6869 -18.5298  -8.6489  -8.5213  -6.7439  -6.0201  -5.9925  -5.8737
     4.0428   4.5941   5.5660   5.9111   6.1255   6.2874

     occupation numbers 
     1.0000   1.0000   1.0000   1.0000   1.0000   1.0000   1.0000   1.0000
     0.0000   0.0000   0.0000   0.0000   0.0000   0.0000

          k = 0.2667-0.0770 0.0000 ( 11880 PWs)   bands (ev):

   -18.9982 -18.8398  -7.7912  -7.6652  -7.1099  -6.3727  -5.9618  -5.8434
     3.6023   4.1668   5.1565   5.6064   6.7469   6.8046

     occupation numbers 
     1.0000   1.0000   1.0000   1.0000   1.0000   1.0000   1.0000   1.0000
     0.0000   0.0000   0.0000   0.0000   0.0000   0.0000

          k = 0.2667 0.0000 0.0000 ( 11879 PWs)   bands (ev):

   -19.1024 -18.9435  -7.3069  -7.2328  -7.1825  -6.4911  -6.1660  -6.0487
     3.4554   4.0240   5.0175   5.4676   6.6460   7.1150

     occupation numbers 
     1.0000   1.0000   1.0000   1.0000   1.0000   1.0000   1.0000   1.0000
     0.0000   0.0000   0.0000   0.0000   0.0000   0.0000

          k = 0.2667 0.0770 0.0000 ( 11880 PWs)   bands (ev):

   -18.9983 -18.8398  -7.7919  -7.6663  -7.1099  -6.3726  -5.9611  -5.8420
     3.6023   4.1668   5.1565   5.6064   6.7470   6.8043

     occupation numbers 
     1.0000   1.0000   1.0000   1.0000   1.0000   1.0000   1.0000   1.0000
     0.0000   0.0000   0.0000   0.0000   0.0000   0.0000

          k = 0.3333 0.1925 0.0000 ( 11914 PWs)   bands (ev):

   -17.7622 -17.6090 -10.4237 -10.2929  -6.5686  -6.4486  -5.6779  -5.0011
     4.0721   4.4495   5.3674   5.8945   6.8091   7.0670

     occupation numbers 
     1.0000   1.0000   1.0000   1.0000   1.0000   1.0000   1.0000   1.0000
     0.0000   0.0000   0.0000   0.0000   0.0000   0.0000

          k = 0.3333 0.2694 0.0000 ( 11938 PWs)   bands (ev):

   -17.1553 -17.0046 -11.2452 -11.1129  -7.1347  -7.0136  -4.9985  -4.3603
     3.1145   3.5023   6.2469   6.7433   7.4150   7.5273

     occupation numbers 
     1.0000   1.0000   1.0000   1.0000   1.0000   1.0000   1.0000   1.0000
     0.0000   0.0000   0.0000   0.0000   0.0000   0.0000

          k = 0.3333 0.3464 0.0000 ( 11927 PWs)   bands (ev):

   -16.3627 -16.2154 -11.9257 -11.7926  -8.2053  -8.0819  -4.1273  -3.5463
     2.1605   2.5166   7.4183   7.8726   8.5650   8.6794

     occupation numbers 
     1.0000   1.0000   1.0000   1.0000   1.0000   1.0000   1.0000   1.0000
     0.0000   0.0000   0.0000   0.0000   0.0000   0.0000

          k = 0.3333 0.4234 0.0000 ( 11953 PWs)   bands (ev):

   -15.4079 -15.2650 -12.4468 -12.3142  -9.5122  -9.3861  -3.1023  -2.6015
     1.2216   1.5150   8.8699   9.2413   9.9225  10.1664

     occupation numbers 
     1.0000   1.0000   1.0000   1.0000   1.0000   1.0000   1.0000   1.0000
     0.0000   0.0000   0.0000   0.0000   0.0000   0.0000

          k = 0.3333 0.5004 0.0000 ( 11948 PWs)   bands (ev):

   -14.3504 -14.2136 -12.8460 -12.7172 -10.7588 -10.6324  -1.9822  -1.5850
     0.2489   0.4973   9.9795  10.2102  10.6785  10.9732

     occupation numbers 
     1.0000   1.0000   1.0000   1.0000   1.0000   1.0000   1.0000   1.0000
     0.0000   0.0000   0.0000   0.0000   0.0000   0.0000

          k = 0.3333 0.5774 0.0000 ( 11919 PWs)   bands (ev):

   -13.3947 -13.3844 -13.2620 -13.2546 -11.3813 -11.2579  -0.9506  -0.7594
    -0.6187  -0.4158   9.8237  10.0333  11.9092  12.2446

     occupation numbers 
     1.0000   1.0000   1.0000   1.0000   1.0000   1.0000   0.9967   0.7681
     0.2329   0.0023   0.0000   0.0000   0.0000   0.0000

          k = 0.3333 0.6543 0.0000 ( 11948 PWs)   bands (ev):

   -14.3506 -14.2140 -12.8453 -12.7159 -10.7594 -10.6334  -1.9830  -1.5860
     0.2499   0.4987   9.9793  10.2097  10.6784  10.9732

     occupation numbers 
     1.0000   1.0000   1.0000   1.0000   1.0000   1.0000   1.0000   1.0000
     0.0000   0.0000   0.0000   0.0000   0.0000   0.0000

          k = 0.3333 0.7313 0.0000 ( 11953 PWs)   bands (ev):

   -15.4080 -15.2650 -12.4461 -12.3132  -9.5128  -9.3873  -3.1029  -2.6024
     1.2227   1.5164   8.8699   9.2413   9.9222  10.1659

     occupation numbers 
     1.0000   1.0000   1.0000   1.0000   1.0000   1.0000   1.0000   1.0000
     0.0000   0.0000   0.0000   0.0000   0.0000   0.0000

          k = 0.3333-0.3464 0.0000 ( 11927 PWs)   bands (ev):

   -16.3627 -16.2153 -11.9251 -11.7916  -8.2061  -8.0832  -4.1278  -3.5469
     2.1615   2.5179   7.4183   7.8726   8.5644   8.6788

     occupation numbers 
     1.0000   1.0000   1.0000   1.0000   1.0000   1.0000   1.0000   1.0000
     0.0000   0.0000   0.0000   0.0000   0.0000   0.0000

          k = 0.3333-0.2694 0.0000 ( 11938 PWs)   bands (ev):

   -17.1553 -17.0046 -11.2447 -11.1119  -7.1354  -7.0150  -4.9988  -4.3607
     3.1154   3.5034   6.2469   6.7433   7.4145   7.5267

     occupation numbers 
     1.0000   1.0000   1.0000   1.0000   1.0000   1.0000   1.0000   1.0000
     0.0000   0.0000   0.0000   0.0000   0.0000   0.0000

          k = 0.3333-0.1925 0.0000 ( 11914 PWs)   bands (ev):

   -17.7621 -17.6089 -10.4231 -10.2919  -6.5694  -6.4500  -5.6781  -5.0014
     4.0728   4.4504   5.3674   5.8945   6.8090   7.0665

     occupation numbers 
     1.0000   1.0000   1.0000   1.0000   1.0000   1.0000   1.0000   1.0000
     0.0000   0.0000   0.0000   0.0000   0.0000   0.0000

          k = 0.3333-0.1155 0.0000 ( 11910 PWs)   bands (ev):

   -18.1717 -18.0167  -9.5178  -9.3887  -6.6283  -6.5088  -6.1419  -5.4415
     4.7709   4.9414   5.2614   5.3443   6.2856   6.7667

     occupation numbers 
     1.0000   1.0000   1.0000   1.0000   1.0000   1.0000   1.0000   1.0000
     0.0000   0.0000   0.0000   0.0000   0.0000   0.0000

          k = 0.3333-0.0385 0.0000 ( 11929 PWs)   bands (ev):

   -18.3778 -18.2220  -8.7068  -8.5806  -7.0786  -6.9593  -6.3769  -5.6652
     4.4838   5.0266   5.5358   5.7771   6.0069   6.4722

     occupation numbers 
     1.0000   1.0000   1.0000   1.0000   1.0000   1.0000   1.0000   1.0000
     0.0000   0.0000   0.0000   0.0000   0.0000   0.0000

          k = 0.3333 0.0385 0.0000 ( 11929 PWs)   bands (ev):

   -18.3778 -18.2220  -8.7072  -8.5813  -7.0782  -6.9585  -6.3768  -5.6651
     4.4838   5.0266   5.5357   5.7769   6.0069   6.4722

     occupation numbers 
     1.0000   1.0000   1.0000   1.0000   1.0000   1.0000   1.0000   1.0000
     0.0000   0.0000   0.0000   0.0000   0.0000   0.0000

          k = 0.3333 0.1155 0.0000 ( 11910 PWs)   bands (ev):

   -18.1717 -18.0168  -9.5184  -9.3897  -6.6276  -6.5075  -6.1418  -5.4413
     4.7709   4.9410   5.2609   5.3442   6.2856   6.7667

     occupation numbers 
     1.0000   1.0000   1.0000   1.0000   1.0000   1.0000   1.0000   1.0000
     0.0000   0.0000   0.0000   0.0000   0.0000   0.0000

          k = 0.4000 0.2309 0.0000 ( 11910 PWs)   bands (ev):

   -16.6566 -16.5080 -12.1317 -11.9970  -6.9756  -6.8554  -4.4856  -3.8969
     2.2952   2.7159   6.8508   6.9829   7.0407   7.4850

     occupation numbers 
     1.0000   1.0000   1.0000   1.0000   1.0000   1.0000   1.0000   1.0000
     0.0000   0.0000   0.0000   0.0000   0.0000   0.0000

          k = 0.4000 0.3079 0.0000 ( 11920 PWs)   bands (ev):

   -15.9782 -15.8329 -12.8713 -12.7354  -7.4493  -7.3281  -3.8153  -3.3072
     1.5420   1.9361   7.2586   7.4515   8.0077   8.4629

     occupation numbers 
     1.0000   1.0000   1.0000   1.0000   1.0000   1.0000   1.0000   1.0000
     0.0000   0.0000   0.0000   0.0000   0.0000   0.0000

          k = 0.4000 0.3849 0.0000 ( 11935 PWs)   bands (ev):

   -15.1659 -15.0264 -13.3993 -13.2646  -8.4290  -8.3054  -3.0574  -2.6655
     0.9528   1.2509   8.4612   8.6806   9.3163   9.6972

     occupation numbers 
     1.0000   1.0000   1.0000   1.0000   1.0000   1.0000   1.0000   1.0000
     0.0000   0.0000   0.0000   0.0000   0.0000   0.0000

          k = 0.4000 0.4619 0.0000 ( 11949 PWs)   bands (ev):

   -14.4630 -14.3344 -13.4920 -13.3652  -9.6455  -9.5194  -2.3628  -2.0597
     0.5560   0.7205  10.0741  10.3215  10.5626  10.7195

     occupation numbers 
     1.0000   1.0000   1.0000   1.0000   1.0000   1.0000   1.0000   1.0000
     0.0000   0.0000   0.0000   0.0000   0.0000   0.0000

          k = 0.4000 0.5389 0.0000 ( 11948 PWs)   bands (ev):

   -14.3503 -14.2138 -12.8465 -12.7165 -10.7585 -10.6330  -1.9822  -1.5853
     0.2485   0.4980   9.9797  10.2099  10.6784  10.9731

     occupation numbers 
     1.0000   1.0000   1.0000   1.0000   1.0000   1.0000   1.0000   1.0000
     0.0000   0.0000   0.0000   0.0000   0.0000   0.0000

          k = 0.4000 0.6158 0.0000 ( 11948 PWs)   bands (ev):

   -14.3505 -14.2140 -12.8460 -12.7157 -10.7588 -10.6336  -1.9826  -1.5859
     0.2492   0.4987   9.9796  10.2097  10.6784  10.9731

     occupation numbers 
     1.0000   1.0000   1.0000   1.0000   1.0000   1.0000   1.0000   1.0000
     0.0000   0.0000   0.0000   0.0000   0.0000   0.0000

          k = 0.4000 0.6928 0.0000 ( 11949 PWs)   bands (ev):

   -14.4634 -14.3351 -13.4911 -13.3636  -9.6461  -9.5204  -2.3636  -2.0608
     0.5570   0.7222  10.0737  10.3212  10.5623  10.7191

     occupation numbers 
     1.0000   1.0000   1.0000   1.0000   1.0000   1.0000   1.0000   1.0000
     0.0000   0.0000   0.0000   0.0000   0.0000   0.0000

          k = 0.4000 0.7698 0.0000 ( 11935 PWs)   bands (ev):

   -15.1661 -15.0267 -13.3986 -13.2635  -8.4296  -8.3066  -3.0582  -2.6665
     0.9541   1.2526   8.4608   8.6800   9.3163   9.6972

     occupation numbers 
     1.0000   1.0000   1.0000   1.0000   1.0000   1.0000   1.0000   1.0000
     0.0000   0.0000   0.0000   0.0000   0.0000   0.0000

          k = 0.4000-0.3079 0.0000 ( 11920 PWs)   bands (ev):

   -15.9782 -15.8329 -12.8708 -12.7345  -7.4500  -7.3293  -3.8159  -3.3080
     1.5432   1.9376   7.2582   7.4509   8.0077   8.4629

     occupation numbers 
     1.0000   1.0000   1.0000   1.0000   1.0000   1.0000   1.0000   1.0000
     0.0000   0.0000   0.0000   0.0000   0.0000   0.0000

          k = 0.4000-0.2309 0.0000 ( 11910 PWs)   bands (ev):

   -16.6566 -16.5080 -12.1312 -11.9961  -6.9763  -6.8567  -4.4860  -3.8975
     2.2962   2.7170   6.8505   6.9828   7.0402   7.4850

     occupation numbers 
     1.0000   1.0000   1.0000   1.0000   1.0000   1.0000   1.0000   1.0000
     0.0000   0.0000   0.0000   0.0000   0.0000   0.0000

          k = 0.4000-0.1540 0.0000 ( 11938 PWs)   bands (ev):

   -17.1553 -17.0046 -11.2448 -11.1119  -7.1352  -7.0150  -4.9988  -4.3607
     3.1152   3.5033   6.2469   6.7433   7.4147   7.5267

     occupation numbers 
     1.0000   1.0000   1.0000   1.0000   1.0000   1.0000   1.0000   1.0000
     0.0000   0.0000   0.0000   0.0000   0.0000   0.0000

          k = 0.4000-0.0770 0.0000 ( 11925 PWs)   bands (ev):

   -17.4588 -17.3068 -10.3052 -10.1754  -7.7577  -7.6364  -5.3180  -4.6533
     3.8205   4.1278   5.8060   6.3179   7.2600   7.7509

     occupation numbers 
     1.0000   1.0000   1.0000   1.0000   1.0000   1.0000   1.0000   1.0000
     0.0000   0.0000   0.0000   0.0000   0.0000   0.0000

          k = 0.4000 0.0000 0.0000 ( 11953 PWs)   bands (ev):

   -17.5606 -17.4082  -9.7229  -9.5973  -8.2576  -8.1376  -5.4262  -4.7531
     4.1229   4.3691   5.6585   6.1720   7.1208   7.6024

     occupation numbers 
     1.0000   1.0000   1.0000   1.0000   1.0000   1.0000   1.0000   1.0000
     0.0000   0.0000   0.0000   0.0000   0.0000   0.0000

          k = 0.4000 0.0770 0.0000 ( 11925 PWs)   bands (ev):

   -17.4588 -17.3069 -10.3057 -10.1762  -7.7572  -7.6354  -5.3179  -4.6532
     3.8201   4.1274   5.8060   6.3179   7.2600   7.7509

     occupation numbers 
     1.0000   1.0000   1.0000   1.0000   1.0000   1.0000   1.0000   1.0000
     0.0000   0.0000   0.0000   0.0000   0.0000   0.0000

          k = 0.4000 0.1540 0.0000 ( 11938 PWs)   bands (ev):

   -17.1553 -17.0046 -11.2453 -11.1127  -7.1346  -7.0138  -4.9985  -4.3603
     3.1144   3.5025   6.2469   6.7433   7.4151   7.5270

     occupation numbers 
     1.0000   1.0000   1.0000   1.0000   1.0000   1.0000   1.0000   1.0000
     0.0000   0.0000   0.0000   0.0000   0.0000   0.0000

          k = 0.4667 0.2694 0.0000 ( 11924 PWs)   bands (ev):

   -15.4441 -15.3035 -13.6520 -13.5161  -7.1850  -7.0647  -3.4343  -3.0424
     1.0479   1.4112   6.7547   6.9460   8.8856   9.3074

     occupation numbers 
     1.0000   1.0000   1.0000   1.0000   1.0000   1.0000   1.0000   1.0000
     0.0000   0.0000   0.0000   0.0000   0.0000   0.0000

          k = 0.4667 0.3464 0.0000 ( 11913 PWs)   bands (ev):

   -15.0030 -14.8735 -13.9883 -13.8601  -7.5558  -7.4346  -3.1335  -2.8246
     0.8479   1.1526   7.2061   7.4033  10.0407  10.0559

     occupation numbers 
     1.0000   1.0000   1.0000   1.0000   1.0000   1.0000   1.0000   1.0000
     0.0000   0.0000   0.0000   0.0000   0.0000   0.0000

          k = 0.4667 0.4234 0.0000 ( 11935 PWs)   bands (ev):

   -15.1659 -15.0264 -13.3993 -13.2645  -8.4289  -8.3055  -3.0574  -2.6656
     0.9527   1.2511   8.4613   8.6805   9.3163   9.6971

     occupation numbers 
     1.0000   1.0000   1.0000   1.0000   1.0000   1.0000   1.0000   1.0000
     0.0000   0.0000   0.0000   0.0000   0.0000   0.0000

          k = 0.4667 0.5004 0.0000 ( 11953 PWs)   bands (ev):

   -15.4079 -15.2649 -12.4470 -12.3139  -9.5119  -9.3866  -3.1023  -2.6018
     1.2214   1.5156   8.8699   9.2413   9.9221  10.1667

     occupation numbers 
     1.0000   1.0000   1.0000   1.0000   1.0000   1.0000   1.0000   1.0000
     0.0000   0.0000   0.0000   0.0000   0.0000   0.0000

          k = 0.4667 0.5774 0.0000 ( 11961 PWs)   bands (ev):

   -15.4971 -15.3534 -11.7934 -11.6662 -10.2136 -10.0913  -3.1319  -2.5929
     1.3706   1.6465   8.7203   9.0891   9.7708  10.2497

     occupation numbers 
     1.0000   1.0000   1.0000   1.0000   1.0000   1.0000   1.0000   1.0000
     0.0000   0.0000   0.0000   0.0000   0.0000   0.0000

          k = 0.4667 0.6543 0.0000 ( 11953 PWs)   bands (ev):

   -15.4080 -15.2650 -12.4465 -12.3130  -9.5124  -9.3875  -3.1027  -2.6023
     1.2221   1.5163   8.8700   9.2413   9.9222  10.1664

     occupation numbers 
     1.0000   1.0000   1.0000   1.0000   1.0000   1.0000   1.0000   1.0000
     0.0000   0.0000   0.0000   0.0000   0.0000   0.0000

          k = 0.4667 0.7313 0.0000 ( 11935 PWs)   bands (ev):

   -15.1661 -15.0267 -13.3987 -13.2635  -8.4295  -8.3066  -3.0581  -2.6665
     0.9539   1.2526   8.4609   8.6800   9.3163   9.6971

     occupation numbers 
     1.0000   1.0000   1.0000   1.0000   1.0000   1.0000   1.0000   1.0000
     0.0000   0.0000   0.0000   0.0000   0.0000   0.0000

          k = 0.4667 0.8083 0.0000 ( 11913 PWs)   bands (ev):

   -15.0034 -14.8742 -13.9874 -13.8586  -7.5565  -7.4357  -3.1343  -2.8257
     0.8493   1.1544   7.2057   7.4028  10.0407  10.0559

     occupation numbers 
     1.0000   1.0000   1.0000   1.0000   1.0000   1.0000   1.0000   1.0000
     0.0000   0.0000   0.0000   0.0000   0.0000   0.0000

          k = 0.4667-0.2694 0.0000 ( 11924 PWs)   bands (ev):

   -15.4442 -15.3038 -13.6514 -13.5151  -7.1857  -7.0659  -3.4351  -3.0434
     1.0492   1.4128   6.7544   6.9456   8.8856   9.3074

     occupation numbers 
     1.0000   1.0000   1.0000   1.0000   1.0000   1.0000   1.0000   1.0000
     0.0000   0.0000   0.0000   0.0000   0.0000   0.0000

          k = 0.4667-0.1925 0.0000 ( 11920 PWs)   bands (ev):

   -15.9782 -15.8329 -12.8708 -12.7344  -7.4499  -7.3293  -3.8158  -3.3080
     1.5431   1.9375   7.2583   7.4508   8.0077   8.4629

     occupation numbers 
     1.0000   1.0000   1.0000   1.0000   1.0000   1.0000   1.0000   1.0000
     0.0000   0.0000   0.0000   0.0000   0.0000   0.0000

          k = 0.4667-0.1155 0.0000 ( 11927 PWs)   bands (ev):

   -16.3627 -16.2153 -11.9254 -11.7915  -8.2057  -8.0833  -4.1276  -3.5469
     2.1611   2.5178   7.4183   7.8727   8.5647   8.6789

     occupation numbers 
     1.0000   1.0000   1.0000   1.0000   1.0000   1.0000   1.0000   1.0000
     0.0000   0.0000   0.0000   0.0000   0.0000   0.0000

          k = 0.4667-0.0385 0.0000 ( 11949 PWs)   bands (ev):

   -16.5597 -16.4114 -11.0123 -10.8833  -9.0828  -8.9603  -4.2979  -3.6845
     2.6223   2.9016   7.1238   7.5863   8.4809   8.9928

     occupation numbers 
     1.0000   1.0000   1.0000   1.0000   1.0000   1.0000   1.0000   1.0000
     0.0000   0.0000   0.0000   0.0000   0.0000   0.0000

          k = 0.4667 0.0385 0.0000 ( 11949 PWs)   bands (ev):

   -16.5597 -16.4114 -11.0126 -10.8838  -9.0825  -8.9596  -4.2978  -3.6843
     2.6220   2.9014   7.1238   7.5863   8.4809   8.9928

     occupation numbers 
     1.0000   1.0000   1.0000   1.0000   1.0000   1.0000   1.0000   1.0000
     0.0000   0.0000   0.0000   0.0000   0.0000   0.0000

          k = 0.4667 0.1155 0.0000 ( 11927 PWs)   bands (ev):

   -16.3627 -16.2153 -11.9259 -11.7924  -8.2051  -8.0822  -4.1273  -3.5464
     2.1604   2.5170   7.4183   7.8727   8.5650   8.6791

     occupation numbers 
     1.0000   1.0000   1.0000   1.0000   1.0000   1.0000   1.0000   1.0000
     0.0000   0.0000   0.0000   0.0000   0.0000   0.0000

          k = 0.4667 0.1925 0.0000 ( 11920 PWs)   bands (ev):

   -15.9782 -15.8329 -12.8714 -12.7353  -7.4493  -7.3282  -3.8153  -3.3072
     1.5420   1.9363   7.2586   7.4513   8.0077   8.4629

     occupation numbers 
     1.0000   1.0000   1.0000   1.0000   1.0000   1.0000   1.0000   1.0000
     0.0000   0.0000   0.0000   0.0000   0.0000   0.0000

     the Fermi energy is    -0.6889 ev

!    total energy              =     -48.20799345 Ry
     estimated scf accuracy    <          2.0E-11 Ry
     smearing contrib. (-TS)   =      -0.00007892 Ry
     internal energy E=F+TS    =     -48.20791453 Ry

     The total energy is F=E-TS. E is the sum of the following terms:
     one-electron contribution =    -689.86837963 Ry
     hartree contribution      =     348.53533404 Ry
     xc contribution           =     -17.18424812 Ry
     ewald contribution        =     310.67937101 Ry
     DFT-D3 Dispersion         =      -0.01699100 Ry
     electric field correction =      -0.35300084 Ry

     convergence has been achieved in   8 iterations

     Forces acting on atoms (cartesian axes, Ry/au):

     atom    1 type  1   force =    -0.00012099   -0.00030717    0.00118619
     atom    2 type  1   force =     0.00012111    0.00030692   -0.00124451
     atom    3 type  1   force =    -0.00021550    0.00025301    0.00096361
     atom    4 type  1   force =     0.00021538   -0.00025276   -0.00090528
     The non-local contrib.  to forces
     atom    1 type  1   force =    -0.00008218   -0.00020851   -0.00249887
     atom    2 type  1   force =     0.00008221    0.00020835   -0.00755996
     atom    3 type  1   force =    -0.00014610    0.00017148   -0.00102060
     atom    4 type  1   force =     0.00014608   -0.00017142   -0.00487538
     The ionic contribution  to forces
     atom    1 type  1   force =    -0.00040436   -0.00102399  -15.05435379
     atom    2 type  1   force =     0.00040402    0.00102396  -15.00110840
     atom    3 type  1   force =    -0.00071826    0.00084315   15.00745928
     atom    4 type  1   force =     0.00071860   -0.00084311   15.04800291
     The local contribution  to forces
     atom    1 type  1   force =     0.00035805    0.00090634   15.01673691
     atom    2 type  1   force =    -0.00035762   -0.00090640   14.96608115
     atom    3 type  1   force =     0.00063553   -0.00074596  -15.04432309
     atom    4 type  1   force =    -0.00063595    0.00074612  -15.08291044
     The core correction contribution to forces
     atom    1 type  1   force =     0.00000742    0.00001879    0.00012915
     atom    2 type  1   force =    -0.00000741   -0.00001877    0.00015586
     atom    3 type  1   force =     0.00001318   -0.00001546    0.00003017
     atom    4 type  1   force =    -0.00001318    0.00001546    0.00004612
     The Hubbard contrib.    to forces
     atom    1 type  1   force =     0.00000000    0.00000000    0.00000000
     atom    2 type  1   force =     0.00000000    0.00000000    0.00000000
     atom    3 type  1   force =     0.00000000    0.00000000    0.00000000
     atom    4 type  1   force =     0.00000000    0.00000000    0.00000000
     The SCF correction term to forces
     atom    1 type  1   force =     0.00000001    0.00000002   -0.00000429
     atom    2 type  1   force =    -0.00000001   -0.00000003   -0.00000432
     atom    3 type  1   force =     0.00000003   -0.00000003    0.00000873
     atom    4 type  1   force =    -0.00000002    0.00000003    0.00000850

     DFT-D3 dispersion contribution to forces:
     atom    1 type  1   force =     0.00000007    0.00000019    0.00117698
     atom    2 type  1   force =    -0.00000007   -0.00000019    0.00119107
     atom    3 type  1   force =     0.00000013   -0.00000016   -0.00119097
     atom    4 type  1   force =    -0.00000013    0.00000016   -0.00117709

     Total force =     0.002268     Total SCF correction =     0.000014

     DFT-D3 dispersion Force =     0.002368
     Energy error            =      2.2E-05 Ry
     Gradient error          =      1.2E-03 Ry/Bohr

     number of scf cycles    =  12
     number of bfgs steps    =  11

     energy             old  =     -48.2079719165 Ry
     energy             new  =     -48.2079934522 Ry

     CASE: energy            _new < energy            _old

     new trust radius        =       0.0095402945 bohr
     new conv_thr            =            1.0E-10 Ry


ATOMIC_POSITIONS (angstrom)
C               -0.0000562985       -0.0001207317        9.9148689741
C                1.2300320334        0.7102445606        9.9165659649
C                1.2299335484        0.7102418093       13.4336220715
C                0.0000907167        1.4201976862       13.4349429894



     Writing config-only to output data dir /home/ubuntu/projects/Graphene-Band-Structure-Quantum-Espresso/outputs/field_0.005/data/field_0.005.save/ :
     XML data file
     NEW-OLD atomic charge density approx. for the potential

     negative rho (up, down):  8.597E-07 0.000E+00

     Adding external electric field
        E field amplitude [Ha a.u.]:  5.0000E-03
        Potential amp.        0.3971 Ry
        Total length         39.7126 bohr


     total cpu time spent up to now is      372.1 secs

     Self-consistent Calculation

     iteration #  1     ecut=    90.00 Ry     beta= 0.70
     Davidson diagonalization with overlap

---- Real-time Memory Report at c_bands before calling an iterative solver
           153 MiB given to the printing process from OS
             0 MiB allocation reported by mallinfo(arena+hblkhd)
         29387 MiB available memory on the node where the printing process lives
------------------
     ethr =  1.00E-06,  avg # of iterations =  4.5

     negative rho (up, down):  2.341E-07 0.000E+00

     total cpu time spent up to now is      378.6 secs

     total energy              =     -48.20797122 Ry
     estimated scf accuracy    <       0.00006726 Ry

     iteration #  2     ecut=    90.00 Ry     beta= 0.70
     Davidson diagonalization with overlap

---- Real-time Memory Report at c_bands before calling an iterative solver
           153 MiB given to the printing process from OS
             0 MiB allocation reported by mallinfo(arena+hblkhd)
         29283 MiB available memory on the node where the printing process lives
------------------
     ethr =  4.20E-07,  avg # of iterations =  2.2

     negative rho (up, down):  1.427E-07 0.000E+00

     total cpu time spent up to now is      382.4 secs

     total energy              =     -48.20798144 Ry
     estimated scf accuracy    <       0.00005954 Ry

     iteration #  3     ecut=    90.00 Ry     beta= 0.70
     Davidson diagonalization with overlap

---- Real-time Memory Report at c_bands before calling an iterative solver
           153 MiB given to the printing process from OS
             0 MiB allocation reported by mallinfo(arena+hblkhd)
         29294 MiB available memory on the node where the printing process lives
------------------
     ethr =  3.72E-07,  avg # of iterations =  2.1

     negative rho (up, down):  1.996E-08 0.000E+00

     total cpu time spent up to now is      386.5 secs

     total energy              =     -48.20799533 Ry
     estimated scf accuracy    <       0.00000104 Ry

     iteration #  4     ecut=    90.00 Ry     beta= 0.70
     Davidson diagonalization with overlap

---- Real-time Memory Report at c_bands before calling an iterative solver
           153 MiB given to the printing process from OS
             0 MiB allocation reported by mallinfo(arena+hblkhd)
         29284 MiB available memory on the node where the printing process lives
------------------
     ethr =  6.53E-09,  avg # of iterations =  2.0

     negative rho (up, down):  1.353E-08 0.000E+00

     total cpu time spent up to now is      389.9 secs

     total energy              =     -48.20799542 Ry
     estimated scf accuracy    <       0.00000083 Ry

     iteration #  5     ecut=    90.00 Ry     beta= 0.70
     Davidson diagonalization with overlap

---- Real-time Memory Report at c_bands before calling an iterative solver
           153 MiB given to the printing process from OS
             0 MiB allocation reported by mallinfo(arena+hblkhd)
         29283 MiB available memory on the node where the printing process lives
------------------
     ethr =  5.16E-09,  avg # of iterations =  1.0

     total cpu time spent up to now is      392.5 secs

     total energy              =     -48.20799556 Ry
     estimated scf accuracy    <       0.00000001 Ry

     iteration #  6     ecut=    90.00 Ry     beta= 0.70
     Davidson diagonalization with overlap

---- Real-time Memory Report at c_bands before calling an iterative solver
           153 MiB given to the printing process from OS
             0 MiB allocation reported by mallinfo(arena+hblkhd)
         29287 MiB available memory on the node where the printing process lives
------------------
     ethr =  7.10E-11,  avg # of iterations =  2.7

     total cpu time spent up to now is      395.9 secs

     total energy              =     -48.20799556 Ry
     estimated scf accuracy    <          7.2E-10 Ry

     iteration #  7     ecut=    90.00 Ry     beta= 0.70
     Davidson diagonalization with overlap

---- Real-time Memory Report at c_bands before calling an iterative solver
           153 MiB given to the printing process from OS
             0 MiB allocation reported by mallinfo(arena+hblkhd)
         29286 MiB available memory on the node where the printing process lives
------------------
     ethr =  4.53E-12,  avg # of iterations =  2.5

     total cpu time spent up to now is      399.3 secs

     End of self-consistent calculation

          k = 0.0000 0.0000 0.0000 ( 11659 PWs)   bands (ev):

   -20.3597 -20.1968  -8.7400  -7.9661  -3.7963  -3.7890  -3.6781  -3.6708
     1.6913   2.2940   3.3142   3.7432   4.9584   6.0443

     occupation numbers 
     1.0000   1.0000   1.0000   1.0000   1.0000   1.0000   1.0000   1.0000
     0.0000   0.0000   0.0000   0.0000   0.0000   0.0000

          k = 0.0000 0.0770 0.0000 ( 11791 PWs)   bands (ev):

   -20.2542 -20.0917  -8.6121  -7.8415  -4.2221  -4.0976  -4.0142  -3.9015
     1.8383   2.4383   3.4561   3.8872   5.0991   6.1812

     occupation numbers 
     1.0000   1.0000   1.0000   1.0000   1.0000   1.0000   1.0000   1.0000
     0.0000   0.0000   0.0000   0.0000   0.0000   0.0000

          k = 0.0000 0.1540 0.0000 ( 11788 PWs)   bands (ev):

   -19.9382 -19.7771  -8.2303  -7.4697  -5.3547  -5.2297  -4.5841  -4.4700
     2.2794   2.8710   3.8815   4.3189   5.5204   6.5905

     occupation numbers 
     1.0000   1.0000   1.0000   1.0000   1.0000   1.0000   1.0000   1.0000
     0.0000   0.0000   0.0000   0.0000   0.0000   0.0000

          k = 0.0000 0.2309 0.0000 ( 11848 PWs)   bands (ev):

   -19.4141 -19.2552  -7.6012  -6.9097  -6.8584  -6.7826  -5.2968  -5.1814
     3.0145   3.5911   4.5890   5.0363   6.2153   7.2417

     occupation numbers 
     1.0000   1.0000   1.0000   1.0000   1.0000   1.0000   1.0000   1.0000
     0.0000   0.0000   0.0000   0.0000   0.0000   0.0000

          k = 0.0000 0.3079 0.0000 ( 11876 PWs)   bands (ev):

   -18.6860 -18.5302  -8.6498  -8.5211  -6.7386  -6.0249  -5.9904  -5.8739
     4.0429   4.5936   5.5635   5.9121   6.1263   6.2857

     occupation numbers 
     1.0000   1.0000   1.0000   1.0000   1.0000   1.0000   1.0000   1.0000
     0.0000   0.0000   0.0000   0.0000   0.0000   0.0000

          k = 0.0000 0.3849 0.0000 ( 11914 PWs)   bands (ev):

   -17.7613 -17.6092 -10.4237 -10.2918  -6.5675  -6.4502  -5.6729  -5.0058
     4.0749   4.4483   5.3673   5.8937   6.8064   7.0681

     occupation numbers 
     1.0000   1.0000   1.0000   1.0000   1.0000   1.0000   1.0000   1.0000
     0.0000   0.0000   0.0000   0.0000   0.0000   0.0000

          k = 0.0000 0.4619 0.0000 ( 11910 PWs)   bands (ev):

   -16.6557 -16.5083 -12.1316 -11.9961  -6.9746  -6.8568  -4.4811  -3.9011
     2.2981   2.7145   6.8522   6.9828   7.0395   7.4843

     occupation numbers 
     1.0000   1.0000   1.0000   1.0000   1.0000   1.0000   1.0000   1.0000
     0.0000   0.0000   0.0000   0.0000   0.0000   0.0000

          k = 0.0000 0.5389 0.0000 ( 11924 PWs)   bands (ev):

   -15.4433 -15.3040 -13.6520 -13.5150  -7.1840  -7.0661  -3.4309  -3.0452
     1.0494   1.4108   6.7563   6.9448   8.8855   9.3065

     occupation numbers 
     1.0000   1.0000   1.0000   1.0000   1.0000   1.0000   1.0000   1.0000
     0.0000   0.0000   0.0000   0.0000   0.0000   0.0000

          k = 0.0667 0.0385 0.0000 ( 11791 PWs)   bands (ev):

   -20.2542 -20.0917  -8.6121  -7.8415  -4.2164  -4.0996  -4.0200  -3.8994
     1.8383   2.4383   3.4561   3.8872   5.0991   6.1813

     occupation numbers 
     1.0000   1.0000   1.0000   1.0000   1.0000   1.0000   1.0000   1.0000
     0.0000   0.0000   0.0000   0.0000   0.0000   0.0000

          k = 0.0667 0.1155 0.0000 ( 11813 PWs)   bands (ev):

   -20.0434 -19.8818  -8.3572  -7.5932  -4.9471  -4.8243  -4.4661  -4.3511
     2.1324   2.7268   3.7398   4.1751   5.3804   6.4552

     occupation numbers 
     1.0000   1.0000   1.0000   1.0000   1.0000   1.0000   1.0000   1.0000
     0.0000   0.0000   0.0000   0.0000   0.0000   0.0000

          k = 0.0667 0.1925 0.0000 ( 11832 PWs)   bands (ev):

   -19.6234 -19.4636  -7.8516  -7.1015  -6.2025  -6.0774  -5.1973  -5.0823
     2.7205   3.3034   4.3069   4.7502   5.9412   6.9987

     occupation numbers 
     1.0000   1.0000   1.0000   1.0000   1.0000   1.0000   1.0000   1.0000
     0.0000   0.0000   0.0000   0.0000   0.0000   0.0000

          k = 0.0667 0.2694 0.0000 ( 11880 PWs)   bands (ev):

   -18.9973 -18.8402  -7.7918  -7.6646  -7.1047  -6.3777  -5.9603  -5.8439
     3.6023   4.1663   5.1540   5.6070   6.7398   6.8076

     occupation numbers 
     1.0000   1.0000   1.0000   1.0000   1.0000   1.0000   1.0000   1.0000
     0.0000   0.0000   0.0000   0.0000   0.0000   0.0000

          k = 0.0667 0.3464 0.0000 ( 11910 PWs)   bands (ev):

   -18.1707 -18.0171  -9.5183  -9.3884  -6.6267  -6.5091  -6.1367  -5.4462
     4.7710   4.9436   5.2603   5.3432   6.2828   6.7673

     occupation numbers 
     1.0000   1.0000   1.0000   1.0000   1.0000   1.0000   1.0000   1.0000
     0.0000   0.0000   0.0000   0.0000   0.0000   0.0000

          k = 0.0667 0.4234 0.0000 ( 11938 PWs)   bands (ev):

   -17.1544 -17.0049 -11.2451 -11.1117  -7.1336  -7.0152  -4.9938  -4.3648
     3.1174   3.5012   6.2469   6.7425   7.4162   7.5250

     occupation numbers 
     1.0000   1.0000   1.0000   1.0000   1.0000   1.0000   1.0000   1.0000
     0.0000   0.0000   0.0000   0.0000   0.0000   0.0000

          k = 0.0667 0.5004 0.0000 ( 11920 PWs)   bands (ev):

   -15.9774 -15.8332 -12.8712 -12.7344  -7.4483  -7.3295  -3.8113  -3.3109
     1.5445   1.9354   7.2601   7.4499   8.0077   8.4621

     occupation numbers 
     1.0000   1.0000   1.0000   1.0000   1.0000   1.0000   1.0000   1.0000
     0.0000   0.0000   0.0000   0.0000   0.0000   0.0000

          k = 0.0667 0.5774 0.0000 ( 11913 PWs)   bands (ev):

   -15.0022 -14.8742 -13.9887 -13.8582  -7.5548  -7.4359  -3.1304  -2.8269
     0.8486   1.1531   7.2077   7.4020  10.0401  10.0557

     occupation numbers 
     1.0000   1.0000   1.0000   1.0000   1.0000   1.0000   1.0000   1.0000
     0.0000   0.0000   0.0000   0.0000   0.0000   0.0000

          k = 0.0667-0.5004 0.0000 ( 11920 PWs)   bands (ev):

   -15.9774 -15.8332 -12.8712 -12.7344  -7.4483  -7.3294  -3.8112  -3.3108
     1.5443   1.9351   7.2603   7.4501   8.0077   8.4621

     occupation numbers 
     1.0000   1.0000   1.0000   1.0000   1.0000   1.0000   1.0000   1.0000
     0.0000   0.0000   0.0000   0.0000   0.0000   0.0000

          k = 0.0667-0.4234 0.0000 ( 11938 PWs)   bands (ev):

   -17.1544 -17.0049 -11.2452 -11.1119  -7.1335  -7.0150  -4.9937  -4.3647
     3.1172   3.5009   6.2469   6.7425   7.4165   7.5254

     occupation numbers 
     1.0000   1.0000   1.0000   1.0000   1.0000   1.0000   1.0000   1.0000
     0.0000   0.0000   0.0000   0.0000   0.0000   0.0000

          k = 0.0667-0.3464 0.0000 ( 11910 PWs)   bands (ev):

   -18.1708 -18.0171  -9.5185  -9.3887  -6.6265  -6.5087  -6.1367  -5.4461
     4.7710   4.9433   5.2599   5.3432   6.2828   6.7673

     occupation numbers 
     1.0000   1.0000   1.0000   1.0000   1.0000   1.0000   1.0000   1.0000
     0.0000   0.0000   0.0000   0.0000   0.0000   0.0000

          k = 0.0667-0.2694 0.0000 ( 11880 PWs)   bands (ev):

   -18.9973 -18.8402  -7.7922  -7.6654  -7.1046  -6.3776  -5.9598  -5.8430
     3.6023   4.1663   5.1540   5.6070   6.7398   6.8073

     occupation numbers 
     1.0000   1.0000   1.0000   1.0000   1.0000   1.0000   1.0000   1.0000
     0.0000   0.0000   0.0000   0.0000   0.0000   0.0000

          k = 0.0667-0.1925 0.0000 ( 11832 PWs)   bands (ev):

   -19.6234 -19.4637  -7.8515  -7.1015  -6.2035  -6.0793  -5.1962  -5.0803
     2.7205   3.3034   4.3069   4.7503   5.9412   6.9987

     occupation numbers 
     1.0000   1.0000   1.0000   1.0000   1.0000   1.0000   1.0000   1.0000
     0.0000   0.0000   0.0000   0.0000   0.0000   0.0000

          k = 0.0667-0.1155 0.0000 ( 11813 PWs)   bands (ev):

   -20.0434 -19.8819  -8.3572  -7.5932  -4.9492  -4.8280  -4.4640  -4.3473
     2.1324   2.7268   3.7398   4.1751   5.3804   6.4552

     occupation numbers 
     1.0000   1.0000   1.0000   1.0000   1.0000   1.0000   1.0000   1.0000
     0.0000   0.0000   0.0000   0.0000   0.0000   0.0000

          k = 0.0667-0.0385 0.0000 ( 11791 PWs)   bands (ev):

   -20.2542 -20.0917  -8.6121  -7.8414  -4.2185  -4.1034  -4.0178  -3.8956
     1.8383   2.4383   3.4561   3.8872   5.0991   6.1813

     occupation numbers 
     1.0000   1.0000   1.0000   1.0000   1.0000   1.0000   1.0000   1.0000
     0.0000   0.0000   0.0000   0.0000   0.0000   0.0000

          k = 0.1333 0.0770 0.0000 ( 11788 PWs)   bands (ev):

   -19.9382 -19.7771  -8.2303  -7.4697  -5.3500  -5.2313  -4.5892  -4.4683
     2.2794   2.8709   3.8815   4.3189   5.5204   6.5906

     occupation numbers 
     1.0000   1.0000   1.0000   1.0000   1.0000   1.0000   1.0000   1.0000
     0.0000   0.0000   0.0000   0.0000   0.0000   0.0000

          k = 0.1333 0.1540 0.0000 ( 11832 PWs)   bands (ev):

   -19.6234 -19.4636  -7.8516  -7.1016  -6.2001  -6.0782  -5.2000  -5.0814
     2.7205   3.3034   4.3069   4.7502   5.9412   6.9987

     occupation numbers 
     1.0000   1.0000   1.0000   1.0000   1.0000   1.0000   1.0000   1.0000
     0.0000   0.0000   0.0000   0.0000   0.0000   0.0000

          k = 0.1333 0.2309 0.0000 ( 11879 PWs)   bands (ev):

   -19.1013 -18.9439  -7.3054  -7.2276  -7.1812  -6.4962  -6.1670  -6.0498
     3.4555   4.0234   5.0150   5.4682   6.6399   7.1171

     occupation numbers 
     1.0000   1.0000   1.0000   1.0000   1.0000   1.0000   1.0000   1.0000
     0.0000   0.0000   0.0000   0.0000   0.0000   0.0000

          k = 0.1333 0.3079 0.0000 ( 11929 PWs)   bands (ev):

   -18.3768 -18.2223  -8.7066  -8.5798  -7.0781  -6.9601  -6.3718  -5.6700
     4.4838   5.0261   5.5381   5.7765   6.0039   6.4728

     occupation numbers 
     1.0000   1.0000   1.0000   1.0000   1.0000   1.0000   1.0000   1.0000
     0.0000   0.0000   0.0000   0.0000   0.0000   0.0000

          k = 0.1333 0.3849 0.0000 ( 11925 PWs)   bands (ev):

   -17.4579 -17.3071 -10.3054 -10.1750  -7.7566  -7.6368  -5.3131  -4.6578
     3.8229   4.1267   5.8059   6.3172   7.2570   7.7516

     occupation numbers 
     1.0000   1.0000   1.0000   1.0000   1.0000   1.0000   1.0000   1.0000
     0.0000   0.0000   0.0000   0.0000   0.0000   0.0000

          k = 0.1333 0.4619 0.0000 ( 11927 PWs)   bands (ev):

   -16.3619 -16.2156 -11.9256 -11.7914  -8.2043  -8.0835  -4.1230  -3.5506
     2.1632   2.5162   7.4182   7.8719   8.5661   8.6766

     occupation numbers 
     1.0000   1.0000   1.0000   1.0000   1.0000   1.0000   1.0000   1.0000
     0.0000   0.0000   0.0000   0.0000   0.0000   0.0000

          k = 0.1333 0.5389 0.0000 ( 11935 PWs)   bands (ev):

   -15.1651 -15.0268 -13.3993 -13.2633  -8.4280  -8.3068  -3.0540  -2.6684
     0.9540   1.2513   8.4630   8.6790   9.3162   9.6965

     occupation numbers 
     1.0000   1.0000   1.0000   1.0000   1.0000   1.0000   1.0000   1.0000
     0.0000   0.0000   0.0000   0.0000   0.0000   0.0000

          k = 0.1333 0.6158 0.0000 ( 11935 PWs)   bands (ev):

   -15.1651 -15.0268 -13.3993 -13.2634  -8.4279  -8.3067  -3.0539  -2.6683
     0.9538   1.2510   8.4631   8.6792   9.3162   9.6964

     occupation numbers 
     1.0000   1.0000   1.0000   1.0000   1.0000   1.0000   1.0000   1.0000
     0.0000   0.0000   0.0000   0.0000   0.0000   0.0000

          k = 0.1333-0.4619 0.0000 ( 11927 PWs)   bands (ev):

   -16.3619 -16.2156 -11.9257 -11.7916  -8.2041  -8.0832  -4.1228  -3.5503
     2.1628   2.5155   7.4182   7.8719   8.5666   8.6772

     occupation numbers 
     1.0000   1.0000   1.0000   1.0000   1.0000   1.0000   1.0000   1.0000
     0.0000   0.0000   0.0000   0.0000   0.0000   0.0000

          k = 0.1333-0.3849 0.0000 ( 11925 PWs)   bands (ev):

   -17.4580 -17.3072 -10.3057 -10.1756  -7.7561  -7.6361  -5.3129  -4.6576
     3.8223   4.1258   5.8059   6.3172   7.2571   7.7517

     occupation numbers 
     1.0000   1.0000   1.0000   1.0000   1.0000   1.0000   1.0000   1.0000
     0.0000   0.0000   0.0000   0.0000   0.0000   0.0000

          k = 0.1333-0.3079 0.0000 ( 11929 PWs)   bands (ev):

   -18.3768 -18.2224  -8.7074  -8.5813  -7.0771  -6.9583  -6.3716  -5.6698
     4.4838   5.0261   5.5374   5.7756   6.0040   6.4729

     occupation numbers 
     1.0000   1.0000   1.0000   1.0000   1.0000   1.0000   1.0000   1.0000
     0.0000   0.0000   0.0000   0.0000   0.0000   0.0000

          k = 0.1333-0.2309 0.0000 ( 11879 PWs)   bands (ev):

   -19.1014 -18.9439  -7.3070  -7.2275  -7.1841  -6.4960  -6.1652  -6.0467
     3.4555   4.0234   5.0150   5.4682   6.6400   7.1164

     occupation numbers 
     1.0000   1.0000   1.0000   1.0000   1.0000   1.0000   1.0000   1.0000
     0.0000   0.0000   0.0000   0.0000   0.0000   0.0000

          k = 0.1333-0.1540 0.0000 ( 11832 PWs)   bands (ev):

   -19.6234 -19.4637  -7.8515  -7.1015  -6.2020  -6.0817  -5.1979  -5.0777
     2.7205   3.3034   4.3069   4.7503   5.9412   6.9988

     occupation numbers 
     1.0000   1.0000   1.0000   1.0000   1.0000   1.0000   1.0000   1.0000
     0.0000   0.0000   0.0000   0.0000   0.0000   0.0000

          k = 0.1333-0.0770 0.0000 ( 11788 PWs)   bands (ev):

   -19.9382 -19.7771  -8.2303  -7.4697  -5.3518  -5.2344  -4.5873  -4.4650
     2.2794   2.8709   3.8815   4.3189   5.5204   6.5906

     occupation numbers 
     1.0000   1.0000   1.0000   1.0000   1.0000   1.0000   1.0000   1.0000
     0.0000   0.0000   0.0000   0.0000   0.0000   0.0000

          k = 0.1333 0.0000 0.0000 ( 11813 PWs)   bands (ev):

   -20.0434 -19.8819  -8.3572  -7.5932  -4.9437  -4.8299  -4.4698  -4.3453
     2.1324   2.7268   3.7398   4.1751   5.3804   6.4552

     occupation numbers 
     1.0000   1.0000   1.0000   1.0000   1.0000   1.0000   1.0000   1.0000
     0.0000   0.0000   0.0000   0.0000   0.0000   0.0000

          k = 0.2000 0.1155 0.0000 ( 11848 PWs)   bands (ev):

   -19.4140 -19.2553  -7.6013  -6.9061  -6.8584  -6.7838  -5.3011  -5.1799
     3.0145   3.5911   4.5890   5.0363   6.2153   7.2415

     occupation numbers 
     1.0000   1.0000   1.0000   1.0000   1.0000   1.0000   1.0000   1.0000
     0.0000   0.0000   0.0000   0.0000   0.0000   0.0000

          k = 0.2000 0.1925 0.0000 ( 11880 PWs)   bands (ev):

   -18.9972 -18.8402  -7.7892  -7.6655  -7.1047  -6.3777  -5.9634  -5.8428
     3.6023   4.1663   5.1540   5.6070   6.7398   6.8084

     occupation numbers 
     1.0000   1.0000   1.0000   1.0000   1.0000   1.0000   1.0000   1.0000
     0.0000   0.0000   0.0000   0.0000   0.0000   0.0000

          k = 0.2000 0.2694 0.0000 ( 11929 PWs)   bands (ev):

   -18.3768 -18.2223  -8.7050  -8.5803  -7.0799  -6.9594  -6.3718  -5.6701
     4.4838   5.0261   5.5385   5.7765   6.0040   6.4729

     occupation numbers 
     1.0000   1.0000   1.0000   1.0000   1.0000   1.0000   1.0000   1.0000
     0.0000   0.0000   0.0000   0.0000   0.0000   0.0000

          k = 0.2000 0.3464 0.0000 ( 11953 PWs)   bands (ev):

   -17.5597 -17.4085  -9.7216  -9.5963  -8.2582  -8.1385  -5.4214  -4.7578
     4.1258   4.3686   5.6584   6.1713   7.1178   7.6032

     occupation numbers 
     1.0000   1.0000   1.0000   1.0000   1.0000   1.0000   1.0000   1.0000
     0.0000   0.0000   0.0000   0.0000   0.0000   0.0000

          k = 0.2000 0.4234 0.0000 ( 11949 PWs)   bands (ev):

   -16.5588 -16.4117 -11.0120 -10.8827  -9.0823  -8.9608  -4.2933  -3.6887
     2.6249   2.9008   7.1237   7.5857   8.4775   8.9937

     occupation numbers 
     1.0000   1.0000   1.0000   1.0000   1.0000   1.0000   1.0000   1.0000
     0.0000   0.0000   0.0000   0.0000   0.0000   0.0000

          k = 0.2000 0.5004 0.0000 ( 11953 PWs)   bands (ev):

   -15.4072 -15.2652 -12.4467 -12.3128  -9.5112  -9.3878  -3.0985  -2.6054
     1.2238   1.5153   8.8698   9.2409   9.9189  10.1678

     occupation numbers 
     1.0000   1.0000   1.0000   1.0000   1.0000   1.0000   1.0000   1.0000
     0.0000   0.0000   0.0000   0.0000   0.0000   0.0000

          k = 0.2000 0.5774 0.0000 ( 11949 PWs)   bands (ev):

   -14.4621 -14.3351 -13.4925 -13.3632  -9.6446  -9.5205  -2.3597  -2.0618
     0.5551   0.7225  10.0770  10.3214  10.5611  10.7164

     occupation numbers 
     1.0000   1.0000   1.0000   1.0000   1.0000   1.0000   1.0000   1.0000
     0.0000   0.0000   0.0000   0.0000   0.0000   0.0000

          k = 0.2000 0.6543 0.0000 ( 11953 PWs)   bands (ev):

   -15.4072 -15.2652 -12.4469 -12.3132  -9.5109  -9.3873  -3.0981  -2.6050
     1.2232   1.5144   8.8698   9.2409   9.9195  10.1681

     occupation numbers 
     1.0000   1.0000   1.0000   1.0000   1.0000   1.0000   1.0000   1.0000
     0.0000   0.0000   0.0000   0.0000   0.0000   0.0000

          k = 0.2000-0.4234 0.0000 ( 11949 PWs)   bands (ev):

   -16.5589 -16.4117 -11.0127 -10.8838  -9.0815  -8.9595  -4.2930  -3.6882
     2.6241   2.8996   7.1237   7.5857   8.4776   8.9938

     occupation numbers 
     1.0000   1.0000   1.0000   1.0000   1.0000   1.0000   1.0000   1.0000
     0.0000   0.0000   0.0000   0.0000   0.0000   0.0000

          k = 0.2000-0.3464 0.0000 ( 11953 PWs)   bands (ev):

   -17.5597 -17.4086  -9.7229  -9.5985  -8.2568  -8.1360  -5.4211  -4.7574
     4.1248   4.3673   5.6584   6.1714   7.1178   7.6032

     occupation numbers 
     1.0000   1.0000   1.0000   1.0000   1.0000   1.0000   1.0000   1.0000
     0.0000   0.0000   0.0000   0.0000   0.0000   0.0000

          k = 0.2000-0.2694 0.0000 ( 11929 PWs)   bands (ev):

   -18.3768 -18.2224  -8.7065  -8.5829  -7.0783  -6.9565  -6.3716  -5.6698
     4.4838   5.0261   5.5376   5.7752   6.0040   6.4729

     occupation numbers 
     1.0000   1.0000   1.0000   1.0000   1.0000   1.0000   1.0000   1.0000
     0.0000   0.0000   0.0000   0.0000   0.0000   0.0000

          k = 0.2000-0.1925 0.0000 ( 11880 PWs)   bands (ev):

   -18.9972 -18.8402  -7.7906  -7.6680  -7.1046  -6.3775  -5.9618  -5.8399
     3.6023   4.1663   5.1540   5.6070   6.7399   6.8076

     occupation numbers 
     1.0000   1.0000   1.0000   1.0000   1.0000   1.0000   1.0000   1.0000
     0.0000   0.0000   0.0000   0.0000   0.0000   0.0000

          k = 0.2000-0.1155 0.0000 ( 11848 PWs)   bands (ev):

   -19.4141 -19.2553  -7.6012  -6.9075  -6.8584  -6.7862  -5.2995  -5.1771
     3.0145   3.5911   4.5890   5.0363   6.2153   7.2417

     occupation numbers 
     1.0000   1.0000   1.0000   1.0000   1.0000   1.0000   1.0000   1.0000
     0.0000   0.0000   0.0000   0.0000   0.0000   0.0000

          k = 0.2000-0.0385 0.0000 ( 11832 PWs)   bands (ev):

   -19.6233 -19.4637  -7.8516  -7.1015  -6.1993  -6.0826  -5.2009  -5.0767
     2.7205   3.3034   4.3069   4.7503   5.9412   6.9988

     occupation numbers 
     1.0000   1.0000   1.0000   1.0000   1.0000   1.0000   1.0000   1.0000
     0.0000   0.0000   0.0000   0.0000   0.0000   0.0000

          k = 0.2000 0.0385 0.0000 ( 11832 PWs)   bands (ev):

   -19.6233 -19.4637  -7.8516  -7.1015  -6.1984  -6.0810  -5.2019  -5.0784
     2.7205   3.3034   4.3069   4.7502   5.9412   6.9988

     occupation numbers 
     1.0000   1.0000   1.0000   1.0000   1.0000   1.0000   1.0000   1.0000
     0.0000   0.0000   0.0000   0.0000   0.0000   0.0000

          k = 0.2667 0.1540 0.0000 ( 11876 PWs)   bands (ev):

   -18.6859 -18.5302  -8.6471  -8.5220  -6.7388  -6.0249  -5.9940  -5.8727
     4.0428   4.5935   5.5635   5.9125   6.1271   6.2857

     occupation numbers 
     1.0000   1.0000   1.0000   1.0000   1.0000   1.0000   1.0000   1.0000
     0.0000   0.0000   0.0000   0.0000   0.0000   0.0000

          k = 0.2667 0.2309 0.0000 ( 11910 PWs)   bands (ev):

   -18.1707 -18.0171  -9.5161  -9.3891  -6.6297  -6.5081  -6.1369  -5.4463
     4.7710   4.9444   5.2602   5.3435   6.2828   6.7673

     occupation numbers 
     1.0000   1.0000   1.0000   1.0000   1.0000   1.0000   1.0000   1.0000
     0.0000   0.0000   0.0000   0.0000   0.0000   0.0000

          k = 0.2667 0.3079 0.0000 ( 11925 PWs)   bands (ev):

   -17.4579 -17.3071 -10.3035 -10.1756  -7.7589  -7.6361  -5.3133  -4.6579
     3.8238   4.1267   5.8059   6.3172   7.2570   7.7516

     occupation numbers 
     1.0000   1.0000   1.0000   1.0000   1.0000   1.0000   1.0000   1.0000
     0.0000   0.0000   0.0000   0.0000   0.0000   0.0000

          k = 0.2667 0.3849 0.0000 ( 11949 PWs)   bands (ev):

   -16.5588 -16.4117 -11.0107 -10.8831  -9.0837  -8.9603  -4.2935  -3.6888
     2.6255   2.9008   7.1237   7.5857   8.4775   8.9938

     occupation numbers 
     1.0000   1.0000   1.0000   1.0000   1.0000   1.0000   1.0000   1.0000
     0.0000   0.0000   0.0000   0.0000   0.0000   0.0000

          k = 0.2667 0.4619 0.0000 ( 11961 PWs)   bands (ev):

   -15.4964 -15.3536 -11.7923 -11.6654 -10.2140 -10.0919  -3.1280  -2.5968
     1.3737   1.6458   8.7201   9.0888   9.7664  10.2468

     occupation numbers 
     1.0000   1.0000   1.0000   1.0000   1.0000   1.0000   1.0000   1.0000
     0.0000   0.0000   0.0000   0.0000   0.0000   0.0000

          k = 0.2667 0.5389 0.0000 ( 11948 PWs)   bands (ev):

   -14.3496 -14.2142 -12.8461 -12.7152 -10.7579 -10.6339  -1.9789  -1.5882
     0.2506   0.4979   9.9801  10.2084  10.6784  10.9719

     occupation numbers 
     1.0000   1.0000   1.0000   1.0000   1.0000   1.0000   1.0000   1.0000
     0.0000   0.0000   0.0000   0.0000   0.0000   0.0000

          k = 0.2667 0.6158 0.0000 ( 11948 PWs)   bands (ev):

   -14.3495 -14.2140 -12.8465 -12.7159 -10.7576 -10.6333  -1.9784  -1.5876
     0.2500   0.4968   9.9803  10.2089  10.6784  10.9719

     occupation numbers 
     1.0000   1.0000   1.0000   1.0000   1.0000   1.0000   1.0000   1.0000
     0.0000   0.0000   0.0000   0.0000   0.0000   0.0000

          k = 0.2667 0.6928 0.0000 ( 11961 PWs)   bands (ev):

   -15.4964 -15.3536 -11.7933 -11.6671 -10.2129 -10.0900  -3.1274  -2.5959
     1.3725   1.6442   8.7202   9.0888   9.7667  10.2475

     occupation numbers 
     1.0000   1.0000   1.0000   1.0000   1.0000   1.0000   1.0000   1.0000
     0.0000   0.0000   0.0000   0.0000   0.0000   0.0000

          k = 0.2667-0.3849 0.0000 ( 11949 PWs)   bands (ev):

   -16.5589 -16.4117 -11.0119 -10.8851  -9.0824  -8.9580  -4.2930  -3.6881
     2.6242   2.8992   7.1237   7.5857   8.4776   8.9938

     occupation numbers 
     1.0000   1.0000   1.0000   1.0000   1.0000   1.0000   1.0000   1.0000
     0.0000   0.0000   0.0000   0.0000   0.0000   0.0000

          k = 0.2667-0.3079 0.0000 ( 11925 PWs)   bands (ev):

   -17.4579 -17.3072 -10.3046 -10.1774  -7.7576  -7.6337  -5.3129  -4.6574
     3.8225   4.1251   5.8059   6.3172   7.2571   7.7517

     occupation numbers 
     1.0000   1.0000   1.0000   1.0000   1.0000   1.0000   1.0000   1.0000
     0.0000   0.0000   0.0000   0.0000   0.0000   0.0000

          k = 0.2667-0.2309 0.0000 ( 11910 PWs)   bands (ev):

   -18.1707 -18.0172  -9.5172  -9.3909  -6.6283  -6.5057  -6.1367  -5.4459
     4.7710   4.9435   5.2590   5.3432   6.2828   6.7673

     occupation numbers 
     1.0000   1.0000   1.0000   1.0000   1.0000   1.0000   1.0000   1.0000
     0.0000   0.0000   0.0000   0.0000   0.0000   0.0000

          k = 0.2667-0.1540 0.0000 ( 11876 PWs)   bands (ev):

   -18.6859 -18.5303  -8.6481  -8.5238  -6.7386  -6.0247  -5.9927  -5.8702
     4.0428   4.5935   5.5635   5.9122   6.1266   6.2848

     occupation numbers 
     1.0000   1.0000   1.0000   1.0000   1.0000   1.0000   1.0000   1.0000
     0.0000   0.0000   0.0000   0.0000   0.0000   0.0000

          k = 0.2667-0.0770 0.0000 ( 11880 PWs)   bands (ev):

   -18.9972 -18.8402  -7.7894  -7.6684  -7.1047  -6.3776  -5.9631  -5.8394
     3.6023   4.1663   5.1540   5.6070   6.7399   6.8081

     occupation numbers 
     1.0000   1.0000   1.0000   1.0000   1.0000   1.0000   1.0000   1.0000
     0.0000   0.0000   0.0000   0.0000   0.0000   0.0000

          k = 0.2667 0.0000 0.0000 ( 11879 PWs)   bands (ev):

   -19.1013 -18.9439  -7.3027  -7.2276  -7.1855  -6.4961  -6.1700  -6.0451
     3.4555   4.0234   5.0150   5.4682   6.6399   7.1175

     occupation numbers 
     1.0000   1.0000   1.0000   1.0000   1.0000   1.0000   1.0000   1.0000
     0.0000   0.0000   0.0000   0.0000   0.0000   0.0000

          k = 0.2667 0.0770 0.0000 ( 11880 PWs)   bands (ev):

   -18.9972 -18.8402  -7.7884  -7.6667  -7.1047  -6.3777  -5.9643  -5.8415
     3.6023   4.1663   5.1540   5.6070   6.7398   6.8086

     occupation numbers 
     1.0000   1.0000   1.0000   1.0000   1.0000   1.0000   1.0000   1.0000
     0.0000   0.0000   0.0000   0.0000   0.0000   0.0000

          k = 0.3333 0.1925 0.0000 ( 11914 PWs)   bands (ev):

   -17.7612 -17.6093 -10.4215 -10.2925  -6.5707  -6.4491  -5.6732  -5.0059
     4.0762   4.4484   5.3674   5.8938   6.8064   7.0669

     occupation numbers 
     1.0000   1.0000   1.0000   1.0000   1.0000   1.0000   1.0000   1.0000
     0.0000   0.0000   0.0000   0.0000   0.0000   0.0000

          k = 0.3333 0.2694 0.0000 ( 11938 PWs)   bands (ev):

   -17.1544 -17.0049 -11.2432 -11.1123  -7.1364  -7.0143  -4.9942  -4.3650
     3.1188   3.5014   6.2469   6.7425   7.4153   7.5250

     occupation numbers 
     1.0000   1.0000   1.0000   1.0000   1.0000   1.0000   1.0000   1.0000
     0.0000   0.0000   0.0000   0.0000   0.0000   0.0000

          k = 0.3333 0.3464 0.0000 ( 11927 PWs)   bands (ev):

   -16.3619 -16.2156 -11.9238 -11.7919  -8.2067  -8.0827  -4.1235  -3.5508
     2.1647   2.5162   7.4182   7.8719   8.5654   8.6763

     occupation numbers 
     1.0000   1.0000   1.0000   1.0000   1.0000   1.0000   1.0000   1.0000
     0.0000   0.0000   0.0000   0.0000   0.0000   0.0000

          k = 0.3333 0.4234 0.0000 ( 11953 PWs)   bands (ev):

   -15.4073 -15.2652 -12.4449 -12.3133  -9.5132  -9.3871  -3.0991  -2.6056
     1.2253   1.5152   8.8698   9.2409   9.9188  10.1672

     occupation numbers 
     1.0000   1.0000   1.0000   1.0000   1.0000   1.0000   1.0000   1.0000
     0.0000   0.0000   0.0000   0.0000   0.0000   0.0000

          k = 0.3333 0.5004 0.0000 ( 11948 PWs)   bands (ev):

   -14.3502 -14.2140 -12.8442 -12.7158 -10.7594 -10.6334  -1.9797  -1.5884
     0.2521   0.4977   9.9797  10.2085  10.6783  10.9719

     occupation numbers 
     1.0000   1.0000   1.0000   1.0000   1.0000   1.0000   1.0000   1.0000
     0.0000   0.0000   0.0000   0.0000   0.0000   0.0000

          k = 0.3333 0.5774 0.0000 ( 11919 PWs)   bands (ev):

   -13.3941 -13.3839 -13.2620 -13.2546 -11.3810 -11.2577  -0.9458  -0.7587
    -0.6182  -0.4198   9.8237  10.0335  11.9080  12.2429

     occupation numbers 
     1.0000   1.0000   1.0000   1.0000   1.0000   1.0000   0.9963   0.7679
     0.2332   0.0026   0.0000   0.0000   0.0000   0.0000

          k = 0.3333 0.6543 0.0000 ( 11948 PWs)   bands (ev):

   -14.3499 -14.2135 -12.8454 -12.7178 -10.7585 -10.6318  -1.9786  -1.5868
     0.2505   0.4956   9.9800  10.2092  10.6784  10.9719

     occupation numbers 
     1.0000   1.0000   1.0000   1.0000   1.0000   1.0000   1.0000   1.0000
     0.0000   0.0000   0.0000   0.0000   0.0000   0.0000

          k = 0.3333 0.7313 0.0000 ( 11953 PWs)   bands (ev):

   -15.4073 -15.2651 -12.4458 -12.3150  -9.5121  -9.3853  -3.0982  -2.6044
     1.2236   1.5131   8.8698   9.2410   9.9192  10.1679

     occupation numbers 
     1.0000   1.0000   1.0000   1.0000   1.0000   1.0000   1.0000   1.0000
     0.0000   0.0000   0.0000   0.0000   0.0000   0.0000

          k = 0.3333-0.3464 0.0000 ( 11927 PWs)   bands (ev):

   -16.3619 -16.2156 -11.9247 -11.7934  -8.2056  -8.0808  -4.1228  -3.5499
     2.1631   2.5143   7.4182   7.8719   8.5663   8.6772

     occupation numbers 
     1.0000   1.0000   1.0000   1.0000   1.0000   1.0000   1.0000   1.0000
     0.0000   0.0000   0.0000   0.0000   0.0000   0.0000

          k = 0.3333-0.2694 0.0000 ( 11938 PWs)   bands (ev):

   -17.1544 -17.0049 -11.2440 -11.1138  -7.1352  -7.0122  -4.9937  -4.3644
     3.1174   3.4997   6.2469   6.7425   7.4161   7.5259

     occupation numbers 
     1.0000   1.0000   1.0000   1.0000   1.0000   1.0000   1.0000   1.0000
     0.0000   0.0000   0.0000   0.0000   0.0000   0.0000

          k = 0.3333-0.1925 0.0000 ( 11914 PWs)   bands (ev):

   -17.7612 -17.6093 -10.4224 -10.2940  -6.5695  -6.4470  -5.6729  -5.0055
     4.0752   4.4471   5.3674   5.8938   6.8066   7.0676

     occupation numbers 
     1.0000   1.0000   1.0000   1.0000   1.0000   1.0000   1.0000   1.0000
     0.0000   0.0000   0.0000   0.0000   0.0000   0.0000

          k = 0.3333-0.1155 0.0000 ( 11910 PWs)   bands (ev):

   -18.1707 -18.0172  -9.5166  -9.3911  -6.6290  -6.5055  -6.1368  -5.4460
     4.7710   4.9439   5.2590   5.3432   6.2828   6.7673

     occupation numbers 
     1.0000   1.0000   1.0000   1.0000   1.0000   1.0000   1.0000   1.0000
     0.0000   0.0000   0.0000   0.0000   0.0000   0.0000

          k = 0.3333-0.0385 0.0000 ( 11929 PWs)   bands (ev):

   -18.3767 -18.2224  -8.7042  -8.5836  -7.0809  -6.9556  -6.3718  -5.6699
     4.4838   5.0261   5.5387   5.7752   6.0040   6.4728

     occupation numbers 
     1.0000   1.0000   1.0000   1.0000   1.0000   1.0000   1.0000   1.0000
     0.0000   0.0000   0.0000   0.0000   0.0000   0.0000

          k = 0.3333 0.0385 0.0000 ( 11929 PWs)   bands (ev):

   -18.3767 -18.2224  -8.7036  -8.5826  -7.0816  -6.9568  -6.3718  -5.6699
     4.4838   5.0261   5.5389   5.7754   6.0040   6.4729

     occupation numbers 
     1.0000   1.0000   1.0000   1.0000   1.0000   1.0000   1.0000   1.0000
     0.0000   0.0000   0.0000   0.0000   0.0000   0.0000

          k = 0.3333 0.1155 0.0000 ( 11910 PWs)   bands (ev):

   -18.1707 -18.0171  -9.5158  -9.3896  -6.6301  -6.5075  -6.1369  -5.4462
     4.7710   4.9445   5.2598   5.3434   6.2829   6.7673

     occupation numbers 
     1.0000   1.0000   1.0000   1.0000   1.0000   1.0000   1.0000   1.0000
     0.0000   0.0000   0.0000   0.0000   0.0000   0.0000

          k = 0.4000 0.2309 0.0000 ( 11910 PWs)   bands (ev):

   -16.6557 -16.5083 -12.1297 -11.9966  -6.9775  -6.8558  -4.4818  -3.9014
     2.2999   2.7147   6.8511   6.9829   7.0396   7.4843

     occupation numbers 
     1.0000   1.0000   1.0000   1.0000   1.0000   1.0000   1.0000   1.0000
     0.0000   0.0000   0.0000   0.0000   0.0000   0.0000

          k = 0.4000 0.3079 0.0000 ( 11920 PWs)   bands (ev):

   -15.9775 -15.8331 -12.8692 -12.7350  -7.4510  -7.3286  -3.8122  -3.3112
     1.5466   1.9356   7.2592   7.4501   8.0077   8.4621

     occupation numbers 
     1.0000   1.0000   1.0000   1.0000   1.0000   1.0000   1.0000   1.0000
     0.0000   0.0000   0.0000   0.0000   0.0000   0.0000

          k = 0.4000 0.3849 0.0000 ( 11935 PWs)   bands (ev):

   -15.1657 -15.0267 -13.3968 -13.2641  -8.4304  -8.3059  -3.0554  -2.6687
     0.9566   1.2513   8.4621   8.6791   9.3162   9.6964

     occupation numbers 
     1.0000   1.0000   1.0000   1.0000   1.0000   1.0000   1.0000   1.0000
     0.0000   0.0000   0.0000   0.0000   0.0000   0.0000

          k = 0.4000 0.4619 0.0000 ( 11949 PWs)   bands (ev):

   -14.4638 -14.3346 -13.4889 -13.3645  -9.6469  -9.5198  -2.3616  -2.0618
     0.5589   0.7213  10.0763  10.3208  10.5609  10.7161

     occupation numbers 
     1.0000   1.0000   1.0000   1.0000   1.0000   1.0000   1.0000   1.0000
     0.0000   0.0000   0.0000   0.0000   0.0000   0.0000

          k = 0.4000 0.5389 0.0000 ( 11948 PWs)   bands (ev):

   -14.3503 -14.2138 -12.8436 -12.7169 -10.7600 -10.6325  -1.9799  -1.5878
     0.2526   0.4966   9.9794  10.2090  10.6784  10.9721

     occupation numbers 
     1.0000   1.0000   1.0000   1.0000   1.0000   1.0000   1.0000   1.0000
     0.0000   0.0000   0.0000   0.0000   0.0000   0.0000

          k = 0.4000 0.6158 0.0000 ( 11948 PWs)   bands (ev):

   -14.3501 -14.2135 -12.8443 -12.7181 -10.7594 -10.6315  -1.9793  -1.5869
     0.2516   0.4955   9.9795  10.2093  10.6784  10.9720

     occupation numbers 
     1.0000   1.0000   1.0000   1.0000   1.0000   1.0000   1.0000   1.0000
     0.0000   0.0000   0.0000   0.0000   0.0000   0.0000

          k = 0.4000 0.6928 0.0000 ( 11949 PWs)   bands (ev):

   -14.4631 -14.3334 -13.4902 -13.3669  -9.6460  -9.5183  -2.3603  -2.0602
     0.5573   0.7187  10.0769  10.3214  10.5613  10.7166

     occupation numbers 
     1.0000   1.0000   1.0000   1.0000   1.0000   1.0000   1.0000   1.0000
     0.0000   0.0000   0.0000   0.0000   0.0000   0.0000

          k = 0.4000 0.7698 0.0000 ( 11935 PWs)   bands (ev):

   -15.1654 -15.0262 -13.3979 -13.2658  -8.4295  -8.3042  -3.0542  -2.6671
     0.9547   1.2487   8.4627   8.6800   9.3162   9.6964

     occupation numbers 
     1.0000   1.0000   1.0000   1.0000   1.0000   1.0000   1.0000   1.0000
     0.0000   0.0000   0.0000   0.0000   0.0000   0.0000

          k = 0.4000-0.3079 0.0000 ( 11920 PWs)   bands (ev):

   -15.9775 -15.8331 -12.8700 -12.7363  -7.4499  -7.3267  -3.8113  -3.3100
     1.5447   1.9334   7.2598   7.4510   8.0077   8.4621

     occupation numbers 
     1.0000   1.0000   1.0000   1.0000   1.0000   1.0000   1.0000   1.0000
     0.0000   0.0000   0.0000   0.0000   0.0000   0.0000

          k = 0.4000-0.2309 0.0000 ( 11910 PWs)   bands (ev):

   -16.6557 -16.5083 -12.1304 -11.9980  -6.9764  -6.8539  -4.4812  -3.9005
     2.2984   2.7130   6.8517   6.9829   7.0404   7.4843

     occupation numbers 
     1.0000   1.0000   1.0000   1.0000   1.0000   1.0000   1.0000   1.0000
     0.0000   0.0000   0.0000   0.0000   0.0000   0.0000

          k = 0.4000-0.1540 0.0000 ( 11938 PWs)   bands (ev):

   -17.1544 -17.0050 -11.2438 -11.1138  -7.1355  -7.0121  -4.9938  -4.3644
     3.1178   3.4998   6.2469   6.7425   7.4158   7.5259

     occupation numbers 
     1.0000   1.0000   1.0000   1.0000   1.0000   1.0000   1.0000   1.0000
     0.0000   0.0000   0.0000   0.0000   0.0000   0.0000

          k = 0.4000-0.0770 0.0000 ( 11925 PWs)   bands (ev):

   -17.4579 -17.3072 -10.3037 -10.1777  -7.7587  -7.6333  -5.3131  -4.6575
     3.8234   4.1252   5.8059   6.3171   7.2570   7.7516

     occupation numbers 
     1.0000   1.0000   1.0000   1.0000   1.0000   1.0000   1.0000   1.0000
     0.0000   0.0000   0.0000   0.0000   0.0000   0.0000

          k = 0.4000 0.0000 0.0000 ( 11953 PWs)   bands (ev):

   -17.5596 -17.4086  -9.7195  -9.5996  -8.2606  -8.1347  -5.4214  -4.7575
     4.1264   4.3672   5.6584   6.1713   7.1178   7.6032

     occupation numbers 
     1.0000   1.0000   1.0000   1.0000   1.0000   1.0000   1.0000   1.0000
     0.0000   0.0000   0.0000   0.0000   0.0000   0.0000

          k = 0.4000 0.0770 0.0000 ( 11925 PWs)   bands (ev):

   -17.4578 -17.3072 -10.3030 -10.1765  -7.7596  -7.6349  -5.3133  -4.6577
     3.8240   4.1259   5.8059   6.3172   7.2571   7.7517

     occupation numbers 
     1.0000   1.0000   1.0000   1.0000   1.0000   1.0000   1.0000   1.0000
     0.0000   0.0000   0.0000   0.0000   0.0000   0.0000

          k = 0.4000 0.1540 0.0000 ( 11938 PWs)   bands (ev):

   -17.1543 -17.0049 -11.2431 -11.1125  -7.1366  -7.0140  -4.9942  -4.3649
     3.1189   3.5011   6.2469   6.7425   7.4152   7.5254

     occupation numbers 
     1.0000   1.0000   1.0000   1.0000   1.0000   1.0000   1.0000   1.0000
     0.0000   0.0000   0.0000   0.0000   0.0000   0.0000

          k = 0.4667 0.2694 0.0000 ( 11924 PWs)   bands (ev):

   -15.4438 -15.3038 -13.6496 -13.5157  -7.1868  -7.0651  -3.4324  -3.0455
     1.0521   1.4110   6.7553   6.9449   8.8855   9.3066

     occupation numbers 
     1.0000   1.0000   1.0000   1.0000   1.0000   1.0000   1.0000   1.0000
     0.0000   0.0000   0.0000   0.0000   0.0000   0.0000

          k = 0.4667 0.3464 0.0000 ( 11913 PWs)   bands (ev):

   -15.0037 -14.8737 -13.9853 -13.8594  -7.5575  -7.4350  -3.1323  -2.8269
     0.8516   1.1531   7.2068   7.4021  10.0400  10.0558

     occupation numbers 
     1.0000   1.0000   1.0000   1.0000   1.0000   1.0000   1.0000   1.0000
     0.0000   0.0000   0.0000   0.0000   0.0000   0.0000

          k = 0.4667 0.4234 0.0000 ( 11935 PWs)   bands (ev):

   -15.1657 -15.0267 -13.3968 -13.2642  -8.4305  -8.3058  -3.0554  -2.6685
     0.9567   1.2510   8.4620   8.6793   9.3162   9.6965

     occupation numbers 
     1.0000   1.0000   1.0000   1.0000   1.0000   1.0000   1.0000   1.0000
     0.0000   0.0000   0.0000   0.0000   0.0000   0.0000

          k = 0.4667 0.5004 0.0000 ( 11953 PWs)   bands (ev):

   -15.4073 -15.2652 -12.4445 -12.3139  -9.5136  -9.3864  -3.0992  -2.6053
     1.2256   1.5143   8.8698   9.2409   9.9193  10.1668

     occupation numbers 
     1.0000   1.0000   1.0000   1.0000   1.0000   1.0000   1.0000   1.0000
     0.0000   0.0000   0.0000   0.0000   0.0000   0.0000

          k = 0.4667 0.5774 0.0000 ( 11961 PWs)   bands (ev):

   -15.4964 -15.3536 -11.7907 -11.6680 -10.2158 -10.0891  -3.1280  -2.5962
     1.3743   1.6442   8.7201   9.0888   9.7662  10.2476

     occupation numbers 
     1.0000   1.0000   1.0000   1.0000   1.0000   1.0000   1.0000   1.0000
     0.0000   0.0000   0.0000   0.0000   0.0000   0.0000

          k = 0.4667 0.6543 0.0000 ( 11953 PWs)   bands (ev):

   -15.4072 -15.2651 -12.4452 -12.3152  -9.5128  -9.3851  -3.0986  -2.6045
     1.2245   1.5131   8.8698   9.2408   9.9191  10.1672

     occupation numbers 
     1.0000   1.0000   1.0000   1.0000   1.0000   1.0000   1.0000   1.0000
     0.0000   0.0000   0.0000   0.0000   0.0000   0.0000

          k = 0.4667 0.7313 0.0000 ( 11935 PWs)   bands (ev):

   -15.1654 -15.0263 -13.3978 -13.2658  -8.4296  -8.3042  -3.0544  -2.6671
     0.9549   1.2487   8.4625   8.6800   9.3162   9.6965

     occupation numbers 
     1.0000   1.0000   1.0000   1.0000   1.0000   1.0000   1.0000   1.0000
     0.0000   0.0000   0.0000   0.0000   0.0000   0.0000

          k = 0.4667 0.8083 0.0000 ( 11913 PWs)   bands (ev):

   -15.0031 -14.8727 -13.9866 -13.8617  -7.5565  -7.4332  -3.1310  -2.8252
     0.8496   1.1503   7.2073   7.4029  10.0400  10.0558

     occupation numbers 
     1.0000   1.0000   1.0000   1.0000   1.0000   1.0000   1.0000   1.0000
     0.0000   0.0000   0.0000   0.0000   0.0000   0.0000

          k = 0.4667-0.2694 0.0000 ( 11924 PWs)   bands (ev):

   -15.4436 -15.3034 -13.6505 -13.5173  -7.1858  -7.0632  -3.4312  -3.0439
     1.0501   1.4085   6.7558   6.9457   8.8855   9.3066

     occupation numbers 
     1.0000   1.0000   1.0000   1.0000   1.0000   1.0000   1.0000   1.0000
     0.0000   0.0000   0.0000   0.0000   0.0000   0.0000

          k = 0.4667-0.1925 0.0000 ( 11920 PWs)   bands (ev):

   -15.9774 -15.8331 -12.8700 -12.7364  -7.4501  -7.3267  -3.8114  -3.3100
     1.5450   1.9334   7.2596   7.4511   8.0077   8.4621

     occupation numbers 
     1.0000   1.0000   1.0000   1.0000   1.0000   1.0000   1.0000   1.0000
     0.0000   0.0000   0.0000   0.0000   0.0000   0.0000

          k = 0.4667-0.1155 0.0000 ( 11927 PWs)   bands (ev):

   -16.3618 -16.2156 -11.9243 -11.7935  -8.2061  -8.0806  -4.1230  -3.5500
     2.1637   2.5144   7.4182   7.8718   8.5659   8.6771

     occupation numbers 
     1.0000   1.0000   1.0000   1.0000   1.0000   1.0000   1.0000   1.0000
     0.0000   0.0000   0.0000   0.0000   0.0000   0.0000

          k = 0.4667-0.0385 0.0000 ( 11949 PWs)   bands (ev):

   -16.5588 -16.4117 -11.0102 -10.8856  -9.0844  -8.9574  -4.2933  -3.6882
     2.6255   2.8991   7.1237   7.5856   8.4775   8.9938

     occupation numbers 
     1.0000   1.0000   1.0000   1.0000   1.0000   1.0000   1.0000   1.0000
     0.0000   0.0000   0.0000   0.0000   0.0000   0.0000

          k = 0.4667 0.0385 0.0000 ( 11949 PWs)   bands (ev):

   -16.5588 -16.4117 -11.0097 -10.8848  -9.0850  -8.9584  -4.2935  -3.6885
     2.6260   2.8996   7.1237   7.5857   8.4775   8.9938

     occupation numbers 
     1.0000   1.0000   1.0000   1.0000   1.0000   1.0000   1.0000   1.0000
     0.0000   0.0000   0.0000   0.0000   0.0000   0.0000

          k = 0.4667 0.1155 0.0000 ( 11927 PWs)   bands (ev):

   -16.3618 -16.2156 -11.9236 -11.7923  -8.2070  -8.0822  -4.1235  -3.5506
     2.1649   2.5156   7.4182   7.8719   8.5654   8.6769

     occupation numbers 
     1.0000   1.0000   1.0000   1.0000   1.0000   1.0000   1.0000   1.0000
     0.0000   0.0000   0.0000   0.0000   0.0000   0.0000

          k = 0.4667 0.1925 0.0000 ( 11920 PWs)   bands (ev):

   -15.9775 -15.8332 -12.8692 -12.7350  -7.4511  -7.3285  -3.8122  -3.3111
     1.5466   1.9354   7.2591   7.4503   8.0077   8.4621

     occupation numbers 
     1.0000   1.0000   1.0000   1.0000   1.0000   1.0000   1.0000   1.0000
     0.0000   0.0000   0.0000   0.0000   0.0000   0.0000

     the Fermi energy is    -0.6883 ev

!    total energy              =     -48.20799556 Ry
     estimated scf accuracy    <          6.1E-11 Ry
     smearing contrib. (-TS)   =      -0.00007924 Ry
     internal energy E=F+TS    =     -48.20791632 Ry

     The total energy is F=E-TS. E is the sum of the following terms:
     one-electron contribution =    -688.79536546 Ry
     hartree contribution      =     347.99891371 Ry
     xc contribution           =     -17.18412638 Ry
     ewald contribution        =     310.14261128 Ry
     DFT-D3 Dispersion         =      -0.01694863 Ry
     electric field correction =      -0.35300084 Ry

     convergence has been achieved in   7 iterations

     Forces acting on atoms (cartesian axes, Ry/au):

     atom    1 type  1   force =     0.00018419    0.00046954    0.00081643
     atom    2 type  1   force =    -0.00018427   -0.00046900   -0.00079718
     atom    3 type  1   force =     0.00032861   -0.00038690    0.00061028
     atom    4 type  1   force =    -0.00032853    0.00038637   -0.00062953
     The non-local contrib.  to forces
     atom    1 type  1   force =     0.00012531    0.00031929   -0.00326342
     atom    2 type  1   force =    -0.00012527   -0.00031873   -0.00674277
     atom    3 type  1   force =     0.00022321   -0.00026260   -0.00164300
     atom    4 type  1   force =    -0.00022327    0.00026233   -0.00429927
     The ionic contribution  to forces
     atom    1 type  1   force =     0.00061518    0.00156482  -15.02935604
     atom    2 type  1   force =    -0.00061460   -0.00156470  -14.99132088
     atom    3 type  1   force =     0.00109548   -0.00128889   14.99587045
     atom    4 type  1   force =    -0.00109606    0.00128878   15.02480647
     The local contribution  to forces
     atom    1 type  1   force =    -0.00054485   -0.00138553   14.99213881
     atom    2 type  1   force =     0.00054426    0.00138550   14.95594035
     atom    3 type  1   force =    -0.00096972    0.00114073  -15.03248378
     atom    4 type  1   force =     0.00097050   -0.00114083  -15.06002580
     The core correction contribution to forces
     atom    1 type  1   force =    -0.00001129   -0.00002874    0.00013590
     atom    2 type  1   force =     0.00001129    0.00002871    0.00014625
     atom    3 type  1   force =    -0.00002012    0.00002366    0.00003747
     atom    4 type  1   force =     0.00002013   -0.00002365    0.00004163
     The Hubbard contrib.    to forces
     atom    1 type  1   force =     0.00000000    0.00000000    0.00000000
     atom    2 type  1   force =     0.00000000    0.00000000    0.00000000
     atom    3 type  1   force =     0.00000000    0.00000000    0.00000000
     atom    4 type  1   force =     0.00000000    0.00000000    0.00000000
     The SCF correction term to forces
     atom    1 type  1   force =    -0.00000001    0.00000003   -0.00001099
     atom    2 type  1   force =    -0.00000002   -0.00000003   -0.00001097
     atom    3 type  1   force =    -0.00000001   -0.00000001    0.00001895
     atom    4 type  1   force =     0.00000000    0.00000002    0.00001873

     DFT-D3 dispersion contribution to forces:
     atom    1 type  1   force =    -0.00000012   -0.00000029    0.00117169
     atom    2 type  1   force =     0.00000011    0.00000029    0.00119036
     atom    3 type  1   force =    -0.00000019    0.00000024   -0.00119028
     atom    4 type  1   force =     0.00000020   -0.00000024   -0.00117176

     Total force =     0.001759     Total SCF correction =     0.000031

     DFT-D3 dispersion Force =     0.002362
     Energy error            =      2.1E-06 Ry
     Gradient error          =      8.2E-04 Ry/Bohr

     bfgs converged in  13 scf cycles and  12 bfgs steps
     (criteria: energy <  1.0E-04 Ry, force <  1.0E-03 Ry/Bohr)

     End of BFGS Geometry Optimization

     Final energy             =     -48.2079955647 Ry

     File /home/ubuntu/projects/Graphene-Band-Structure-Quantum-Espresso/outputs/field_0.005/data/field_0.005.bfgs deleted, as requested
Begin final coordinates

ATOMIC_POSITIONS (angstrom)
C               -0.0000562985       -0.0001207317        9.9148689741
C                1.2300320334        0.7102445606        9.9165659649
C                1.2299335484        0.7102418093       13.4336220715
C                0.0000907167        1.4201976862       13.4349429894
End final coordinates



     Writing all to output data dir /home/ubuntu/projects/Graphene-Band-Structure-Quantum-Espresso/outputs/field_0.005/data/field_0.005.save/ :
     XML data file, charge density, pseudopotentials, collected wavefunctions

     init_run     :      2.05s CPU      2.20s WALL (       1 calls)
     electrons    :    381.06s CPU    384.38s WALL (      13 calls)
     update_pot   :      1.18s CPU      1.58s WALL (      12 calls)
     forces       :     10.83s CPU     11.39s WALL (      13 calls)
     force_dftd3  :      1.87s CPU      1.88s WALL (      13 calls)

     Called by init_run:
     wfcinit      :      1.04s CPU      1.06s WALL (       1 calls)
     wfcinit:atom :      0.01s CPU      0.02s WALL (       8 calls)
     wfcinit:wfcr :      0.92s CPU      0.94s WALL (       8 calls)
     potinit      :      0.20s CPU      0.28s WALL (       1 calls)
     hinit0       :      0.73s CPU      0.76s WALL (       1 calls)

     Called by electrons:
     c_bands      :    331.75s CPU    333.83s WALL (      96 calls)
     sum_band     :     31.54s CPU     31.90s WALL (      96 calls)
     v_of_rho     :      7.91s CPU      8.60s WALL (     105 calls)
     v_h          :      0.47s CPU      0.55s WALL (     105 calls)
     v_xc         :      8.36s CPU      9.43s WALL (     118 calls)
     mix_rho      :      0.90s CPU      1.06s WALL (      96 calls)
     energy_dftd3 :      1.51s CPU      1.51s WALL (      13 calls)

     Called by c_bands:
     init_us_2    :      4.86s CPU      5.08s WALL (    1648 calls)
     cegterg      :    203.60s CPU    205.36s WALL (     768 calls)

     Called by sum_band:
     sum_band:wei :      0.06s CPU      0.06s WALL (      96 calls)
     sum_band:loo :     20.79s CPU     20.94s WALL (      96 calls)
     sum_band:buf :      0.30s CPU      0.31s WALL (     768 calls)
     sum_band:ini :      2.13s CPU      2.17s WALL (     768 calls)

     Called by *egterg:
     cdiaghg      :      0.71s CPU      0.71s WALL (    2909 calls)
     cegterg:over :     19.60s CPU     19.62s WALL (    2269 calls)
     cegterg:upda :     12.01s CPU     12.21s WALL (    2269 calls)
     cegterg:last :     22.28s CPU     22.31s WALL (    1660 calls)
     h_psi        :    141.06s CPU    142.25s WALL (    3045 calls)
     g_psi        :      0.92s CPU      0.93s WALL (    2269 calls)

     Called by h_psi:
     h_psi:calbec :     20.39s CPU     20.41s WALL (    3045 calls)
     vloc_psi     :     98.95s CPU     99.66s WALL (    3045 calls)
     add_vuspsi   :     21.10s CPU     21.14s WALL (    3045 calls)

     General routines
     calbec       :     24.52s CPU     24.54s WALL (    3461 calls)
     fft          :      3.92s CPU      3.92s WALL (    1196 calls)
     ffts         :      0.29s CPU      0.29s WALL (      96 calls)
     fftw         :    100.18s CPU    100.48s WALL (   66528 calls)

     Parallel routines

     PWSCF        :   6m35.86s CPU   6m40.39s WALL


   This run was terminated on:   2:30:21   5Oct2026            

=------------------------------------------------------------------------------=
   JOB DONE.
=------------------------------------------------------------------------------=
