&CONTROL
   calculation      = 'relax'
   verbosity        = 'high'
   tprnfor          = .true.
   outdir           = '/home/ubuntu/projects/Graphene-Band-Structure-Quantum-Espresso/outputs/bilayer/field_0.01Ry/coupled/data'
   prefix           = 'coupled'
   disk_io          = 'low'
   pseudo_dir       = '/home/ubuntu/projects/Graphene-Band-Structure-Quantum-Espresso/pseudo'
   tefield          = .true.
/
&SYSTEM
   nbnd             = 14
   ecutwfc          = 60.0
   ecutrho          = 400.0
   occupations      = 'smearing'
   degauss          = 0.01
   smearing         = 'gauss'
   edir             = 3
   emaxpos          = 0.9
   eopreg           = 0.1
   eamp             = 0.01
   assume_isolated  = '2D'
   ntyp             = 1
   nat              = 4
   ibrav            = 0
/
&ELECTRONS
   electron_maxstep = 200
   conv_thr         = 1e-08
   mixing_beta      = 0.7
/
&IONS
   ion_dynamics     = 'bfgs'
/
&CELL
/
&FCP
/
&RISM
/
ATOMIC_SPECIES
C 12.011 C.pbe-n-kjpaw_psl.1.0.0.UPF

K_POINTS automatic
12 12 1  0 0 0

CELL_PARAMETERS angstrom
2.46000000000000 0.00000000000000 0.00000000000000
-1.23000000000000 2.13042249330972 0.00000000000000
0.00000000000000 0.00000000000000 23.35000000000000

ATOMIC_POSITIONS angstrom
C 0.0000000000 0.0000000000 10.0000000000  
C 1.2300000000 0.7101408311 10.0000000000  
C 1.2300000000 0.7101408311 13.3500000000  
C 0.0000000000 1.4202816622 13.3500000000  

