
     Program PWSCF v.7.6 starts on  7Sep2026 at 11:25:23 

     This program is part of the open-source Quantum ESPRESSO suite
     for quantum simulation of materials; please cite
         "P. Giannozzi et al., J. Phys.:Condens. Matter 21 395502 (2009);
         "P. Giannozzi et al., J. Phys.:Condens. Matter 29 465901 (2017);
         "P. Giannozzi et al., J. Chem. Phys. 152 154105 (2020);
          URL http://www.quantum-espresso.org", 
     in publications or presentations arising from this work. More details at
     http://www.quantum-espresso.org/quote

     Parallel version (MPI), running on     4 processors

     MPI processes distributed on     1 nodes
     2776 MiB available memory on the printing compute node when the environment starts

     Waiting for input...
     Reading input from standard input
Warning: card &CELL ignored
Warning: card &FCP ignored
Warning: card &RISM ignored

     Current dimensions of program PWSCF are:
     Max number of different atomic species (ntypx) = 10
     Max number of k-points (npk) =  40000
     Max angular momentum in pseudopotentials (lmaxx) =  4
     Presently no symmetry can be used with electric field

     file C.pbe-n-kjpaw_psl.1.0.0.UPF: wavefunction(s)  2S 2P renormalized

     K-points division:     npool     =       4
     Subspace diagonalization in iterative solution of the eigenvalue problem:
     a serial algorithm will be used


     G-vector sticks info
     --------------------
     sticks:   dense  smooth     PW     G-vecs:    dense   smooth      PW
     Sum         595     361    121               111671    52021   10519

     Using Slab Decomposition



     bravais-lattice index     =            0
     lattice parameter (alat)  =       4.6487  a.u.
     unit-cell volume          =     825.8174 (a.u.)^3
     number of atoms/cell      =            4
     number of atomic types    =            1
     number of electrons       =        16.00
     number of Kohn-Sham states=           14
     kinetic-energy cutoff     =      60.0000  Ry
     charge density cutoff     =     400.0000  Ry
     scf convergence threshold =      1.0E-08
     mixing beta               =       0.7000
     number of iterations used =            8  plain     mixing
     Exchange-correlation= SLA  PW   PBX  PBC
                           (   1   4   3   4   0   0   0)

     celldm(1)=   4.648726  celldm(2)=   0.000000  celldm(3)=   0.000000
     celldm(4)=   0.000000  celldm(5)=   0.000000  celldm(6)=   0.000000

     crystal axes: (cart. coord. in units of alat)
               a(1) = (   1.000000   0.000000   0.000000 )  
               a(2) = (  -0.500000   0.866025   0.000000 )  
               a(3) = (   0.000000   0.000000   9.491870 )  

     reciprocal axes: (cart. coord. in units 2 pi/alat)
               b(1) = (  1.000000  0.577351 -0.000000 )  
               b(2) = (  0.000000  1.154701  0.000000 )  
               b(3) = (  0.000000 -0.000000  0.105353 )  


     PseudoPot. # 1 for C  read from file:
     /home/ubuntu/projects/Graphene-Band-Structure-Quantum-Espresso/pseudo/C.pbe-n-kjpaw_psl.1.0.0.UPF
     MD5 check sum: 5f16ad9a65e90284d1d834d4ab3b0f7d
     Pseudo is Projector augmented-wave + core cor, Zval =  4.0
     Generated using &quot;atomic&quot; code by A. Dal Corso  v.6.3
     Shape of augmentation charge: PSQ
     Using radial grid of 1073 points,  4 beta functions with: 
                l(1) =   0
                l(2) =   0
                l(3) =   1
                l(4) =   1
     Q(r) pseudized with 0 coefficients 


     atomic species   valence    mass     pseudopotential
     C                 4.00    12.01100     C ( 1.00)

     No symmetry found


                                    s                        frac. trans.

      isym =  1     identity                                     

 cryst.   s( 1) = (     1          0          0      )
                  (     0          1          0      )
                  (     0          0          1      )

 cart.    s( 1) = (  1.0000000  0.0000000  0.0000000 )
                  (  0.0000000  1.0000000  0.0000000 )
                  (  0.0000000  0.0000000  1.0000000 )


   Cartesian axes

     site n.     atom                  positions (alat units)
         1        C      tau(   1) = (   0.0000662  -0.0000259   3.8964454  )
         2        C      tau(   2) = (   0.4999411   0.2887090   3.8960654  )
         3        C      tau(   3) = (   0.5000406   0.2886281   5.5957664  )
         4        C      tau(   4) = (  -0.0000480   0.5773894   5.5954639  )

   Crystallographic axes

     site n.     atom                  positions (cryst. coord.)
         1        C      tau(   1) = (  0.0000513 -0.0000299  0.4105035  )
         2        C      tau(   2) = (  0.6666274  0.3333726  0.4104634  )
         3        C      tau(   3) = (  0.6666802  0.3332791  0.5895326  )
         4        C      tau(   4) = (  0.3333081  0.6667122  0.5895007  )

     number of k points=    74  Gaussian smearing, width (Ry)=  0.0100
                       cart. coord. in units 2pi/alat
        k(    1) = (   0.0000000   0.0000000   0.0000000), wk =   0.0138889
        k(    2) = (   0.0000000   0.0962251   0.0000000), wk =   0.0277778
        k(    3) = (   0.0000000   0.1924502   0.0000000), wk =   0.0277778
        k(    4) = (   0.0000000   0.2886753   0.0000000), wk =   0.0277778
        k(    5) = (   0.0000000   0.3849004   0.0000000), wk =   0.0277778
        k(    6) = (   0.0000000   0.4811254   0.0000000), wk =   0.0277778
        k(    7) = (   0.0000000  -0.5773505   0.0000000), wk =   0.0138889
        k(    8) = (   0.0833333   0.0481125   0.0000000), wk =   0.0277778
        k(    9) = (   0.0833333   0.1443376   0.0000000), wk =   0.0277778
        k(   10) = (   0.0833333   0.2405627   0.0000000), wk =   0.0277778
        k(   11) = (   0.0833333   0.3367878   0.0000000), wk =   0.0277778
        k(   12) = (   0.0833333   0.4330129   0.0000000), wk =   0.0277778
        k(   13) = (   0.0833333   0.5292380   0.0000000), wk =   0.0277778
        k(   14) = (   0.0833333  -0.5292380   0.0000000), wk =   0.0277778
        k(   15) = (   0.0833333  -0.4330129   0.0000000), wk =   0.0277778
        k(   16) = (   0.0833333  -0.3367878   0.0000000), wk =   0.0277778
        k(   17) = (   0.0833333  -0.2405627   0.0000000), wk =   0.0277778
        k(   18) = (   0.0833333  -0.1443376   0.0000000), wk =   0.0277778
        k(   19) = (   0.0833333  -0.0481125   0.0000000), wk =   0.0277778
        k(   20) = (   0.1666667   0.0962251   0.0000000), wk =   0.0277778
        k(   21) = (   0.1666667   0.1924502   0.0000000), wk =   0.0277778
        k(   22) = (   0.1666667   0.2886753   0.0000000), wk =   0.0277778
        k(   23) = (   0.1666667   0.3849004   0.0000000), wk =   0.0277778
        k(   24) = (   0.1666667   0.4811254   0.0000000), wk =   0.0277778
        k(   25) = (   0.1666667   0.5773505   0.0000000), wk =   0.0277778
        k(   26) = (   0.1666667  -0.4811254   0.0000000), wk =   0.0277778
        k(   27) = (   0.1666667  -0.3849004   0.0000000), wk =   0.0277778
        k(   28) = (   0.1666667  -0.2886753   0.0000000), wk =   0.0277778
        k(   29) = (   0.1666667  -0.1924502   0.0000000), wk =   0.0277778
        k(   30) = (   0.1666667  -0.0962251   0.0000000), wk =   0.0277778
        k(   31) = (   0.1666667  -0.0000000   0.0000000), wk =   0.0277778
        k(   32) = (   0.2500000   0.1443376   0.0000000), wk =   0.0277778
        k(   33) = (   0.2500000   0.2405627   0.0000000), wk =   0.0277778
        k(   34) = (   0.2500000   0.3367878   0.0000000), wk =   0.0277778
        k(   35) = (   0.2500000   0.4330129   0.0000000), wk =   0.0277778
        k(   36) = (   0.2500000   0.5292380   0.0000000), wk =   0.0277778
        k(   37) = (   0.2500000   0.6254631   0.0000000), wk =   0.0277778
        k(   38) = (   0.2500000  -0.4330129   0.0000000), wk =   0.0277778
        k(   39) = (   0.2500000  -0.3367878   0.0000000), wk =   0.0277778
        k(   40) = (   0.2500000  -0.2405627   0.0000000), wk =   0.0277778
        k(   41) = (   0.2500000  -0.1443376   0.0000000), wk =   0.0277778
        k(   42) = (   0.2500000  -0.0481125   0.0000000), wk =   0.0277778
        k(   43) = (   0.2500000   0.0481125   0.0000000), wk =   0.0277778
        k(   44) = (   0.3333333   0.1924502   0.0000000), wk =   0.0277778
        k(   45) = (   0.3333333   0.2886753   0.0000000), wk =   0.0277778
        k(   46) = (   0.3333333   0.3849004   0.0000000), wk =   0.0277778
        k(   47) = (   0.3333333   0.4811254   0.0000000), wk =   0.0277778
        k(   48) = (   0.3333333   0.5773505   0.0000000), wk =   0.0277778
        k(   49) = (   0.3333333   0.6735756   0.0000000), wk =   0.0277778
        k(   50) = (   0.3333333  -0.3849004   0.0000000), wk =   0.0277778
        k(   51) = (   0.3333333  -0.2886753   0.0000000), wk =   0.0277778
        k(   52) = (   0.3333333  -0.1924502   0.0000000), wk =   0.0277778
        k(   53) = (   0.3333333  -0.0962251   0.0000000), wk =   0.0277778
        k(   54) = (   0.3333333   0.0000000   0.0000000), wk =   0.0277778
        k(   55) = (   0.3333333   0.0962251   0.0000000), wk =   0.0277778
        k(   56) = (   0.4166667   0.2405627   0.0000000), wk =   0.0277778
        k(   57) = (   0.4166667   0.3367878   0.0000000), wk =   0.0277778
        k(   58) = (   0.4166667   0.4330129   0.0000000), wk =   0.0277778
        k(   59) = (   0.4166667   0.5292380   0.0000000), wk =   0.0277778
        k(   60) = (   0.4166667   0.6254631   0.0000000), wk =   0.0277778
        k(   61) = (   0.4166667   0.7216882   0.0000000), wk =   0.0277778
        k(   62) = (   0.4166667  -0.3367878   0.0000000), wk =   0.0277778
        k(   63) = (   0.4166667  -0.2405627   0.0000000), wk =   0.0277778
        k(   64) = (   0.4166667  -0.1443376   0.0000000), wk =   0.0277778
        k(   65) = (   0.4166667  -0.0481125   0.0000000), wk =   0.0277778
        k(   66) = (   0.4166667   0.0481125   0.0000000), wk =   0.0277778
        k(   67) = (   0.4166667   0.1443376   0.0000000), wk =   0.0277778
        k(   68) = (  -0.5000000  -0.2886753   0.0000000), wk =   0.0138889
        k(   69) = (  -0.5000000  -0.1924502   0.0000000), wk =   0.0277778
        k(   70) = (  -0.5000000  -0.0962251   0.0000000), wk =   0.0277778
        k(   71) = (  -0.5000000   0.0000000   0.0000000), wk =   0.0277778
        k(   72) = (  -0.5000000   0.0962251   0.0000000), wk =   0.0277778
        k(   73) = (  -0.5000000   0.1924502   0.0000000), wk =   0.0277778
        k(   74) = (  -0.5000000  -0.8660258   0.0000000), wk =   0.0138889

                       cryst. coord.
        k(    1) = (   0.0000000   0.0000000   0.0000000), wk =   0.0138889
        k(    2) = (   0.0000000   0.0833333   0.0000000), wk =   0.0277778
        k(    3) = (   0.0000000   0.1666667   0.0000000), wk =   0.0277778
        k(    4) = (   0.0000000   0.2500000   0.0000000), wk =   0.0277778
        k(    5) = (   0.0000000   0.3333333   0.0000000), wk =   0.0277778
        k(    6) = (   0.0000000   0.4166667   0.0000000), wk =   0.0277778
        k(    7) = (   0.0000000  -0.5000000   0.0000000), wk =   0.0138889
        k(    8) = (   0.0833333   0.0000000   0.0000000), wk =   0.0277778
        k(    9) = (   0.0833333   0.0833333   0.0000000), wk =   0.0277778
        k(   10) = (   0.0833333   0.1666667   0.0000000), wk =   0.0277778
        k(   11) = (   0.0833333   0.2500000   0.0000000), wk =   0.0277778
        k(   12) = (   0.0833333   0.3333333   0.0000000), wk =   0.0277778
        k(   13) = (   0.0833333   0.4166667   0.0000000), wk =   0.0277778
        k(   14) = (   0.0833333  -0.5000000   0.0000000), wk =   0.0277778
        k(   15) = (   0.0833333  -0.4166667   0.0000000), wk =   0.0277778
        k(   16) = (   0.0833333  -0.3333333   0.0000000), wk =   0.0277778
        k(   17) = (   0.0833333  -0.2500000   0.0000000), wk =   0.0277778
        k(   18) = (   0.0833333  -0.1666667   0.0000000), wk =   0.0277778
        k(   19) = (   0.0833333  -0.0833333   0.0000000), wk =   0.0277778
        k(   20) = (   0.1666667   0.0000000   0.0000000), wk =   0.0277778
        k(   21) = (   0.1666667   0.0833333   0.0000000), wk =   0.0277778
        k(   22) = (   0.1666667   0.1666667   0.0000000), wk =   0.0277778
        k(   23) = (   0.1666667   0.2500000   0.0000000), wk =   0.0277778
        k(   24) = (   0.1666667   0.3333333   0.0000000), wk =   0.0277778
        k(   25) = (   0.1666667   0.4166667   0.0000000), wk =   0.0277778
        k(   26) = (   0.1666667  -0.5000000   0.0000000), wk =   0.0277778
        k(   27) = (   0.1666667  -0.4166667   0.0000000), wk =   0.0277778
        k(   28) = (   0.1666667  -0.3333333   0.0000000), wk =   0.0277778
        k(   29) = (   0.1666667  -0.2500000   0.0000000), wk =   0.0277778
        k(   30) = (   0.1666667  -0.1666667   0.0000000), wk =   0.0277778
        k(   31) = (   0.1666667  -0.0833333   0.0000000), wk =   0.0277778
        k(   32) = (   0.2500000   0.0000000   0.0000000), wk =   0.0277778
        k(   33) = (   0.2500000   0.0833333   0.0000000), wk =   0.0277778
        k(   34) = (   0.2500000   0.1666667   0.0000000), wk =   0.0277778
        k(   35) = (   0.2500000   0.2500000   0.0000000), wk =   0.0277778
        k(   36) = (   0.2500000   0.3333333   0.0000000), wk =   0.0277778
        k(   37) = (   0.2500000   0.4166667   0.0000000), wk =   0.0277778
        k(   38) = (   0.2500000  -0.5000000   0.0000000), wk =   0.0277778
        k(   39) = (   0.2500000  -0.4166667   0.0000000), wk =   0.0277778
        k(   40) = (   0.2500000  -0.3333333   0.0000000), wk =   0.0277778
        k(   41) = (   0.2500000  -0.2500000   0.0000000), wk =   0.0277778
        k(   42) = (   0.2500000  -0.1666667   0.0000000), wk =   0.0277778
        k(   43) = (   0.2500000  -0.0833333   0.0000000), wk =   0.0277778
        k(   44) = (   0.3333333   0.0000000   0.0000000), wk =   0.0277778
        k(   45) = (   0.3333333   0.0833333   0.0000000), wk =   0.0277778
        k(   46) = (   0.3333333   0.1666667   0.0000000), wk =   0.0277778
        k(   47) = (   0.3333333   0.2500000   0.0000000), wk =   0.0277778
        k(   48) = (   0.3333333   0.3333333   0.0000000), wk =   0.0277778
        k(   49) = (   0.3333333   0.4166667   0.0000000), wk =   0.0277778
        k(   50) = (   0.3333333  -0.5000000   0.0000000), wk =   0.0277778
        k(   51) = (   0.3333333  -0.4166667   0.0000000), wk =   0.0277778
        k(   52) = (   0.3333333  -0.3333333   0.0000000), wk =   0.0277778
        k(   53) = (   0.3333333  -0.2500000   0.0000000), wk =   0.0277778
        k(   54) = (   0.3333333  -0.1666667   0.0000000), wk =   0.0277778
        k(   55) = (   0.3333333  -0.0833333   0.0000000), wk =   0.0277778
        k(   56) = (   0.4166667   0.0000000   0.0000000), wk =   0.0277778
        k(   57) = (   0.4166667   0.0833333   0.0000000), wk =   0.0277778
        k(   58) = (   0.4166667   0.1666667   0.0000000), wk =   0.0277778
        k(   59) = (   0.4166667   0.2500000   0.0000000), wk =   0.0277778
        k(   60) = (   0.4166667   0.3333333   0.0000000), wk =   0.0277778
        k(   61) = (   0.4166667   0.4166667   0.0000000), wk =   0.0277778
        k(   62) = (   0.4166667  -0.5000000   0.0000000), wk =   0.0277778
        k(   63) = (   0.4166667  -0.4166667   0.0000000), wk =   0.0277778
        k(   64) = (   0.4166667  -0.3333333   0.0000000), wk =   0.0277778
        k(   65) = (   0.4166667  -0.2500000   0.0000000), wk =   0.0277778
        k(   66) = (   0.4166667  -0.1666667   0.0000000), wk =   0.0277778
        k(   67) = (   0.4166667  -0.0833333   0.0000000), wk =   0.0277778
        k(   68) = (  -0.5000000   0.0000000   0.0000000), wk =   0.0138889
        k(   69) = (  -0.5000000   0.0833333   0.0000000), wk =   0.0277778
        k(   70) = (  -0.5000000   0.1666667   0.0000000), wk =   0.0277778
        k(   71) = (  -0.5000000   0.2500000   0.0000000), wk =   0.0277778
        k(   72) = (  -0.5000000   0.3333333   0.0000000), wk =   0.0277778
        k(   73) = (  -0.5000000   0.4166667   0.0000000), wk =   0.0277778
        k(   74) = (  -0.5000000  -0.5000000   0.0000000), wk =   0.0138889

     Dense  grid:   111671 G-vectors     FFT dimensions: (  30,  30, 288)

     Smooth grid:    52021 G-vectors     FFT dimensions: (  24,  24, 225)

     Dynamical RAM for                 wfc:       1.38 MB

     Dynamical RAM for     wfc (w. buffer):      27.69 MB

     Dynamical RAM for           str. fact:       1.70 MB

     Dynamical RAM for           local pot:       0.00 MB

     Dynamical RAM for          nlocal pot:       3.16 MB

     Dynamical RAM for                qrad:       0.46 MB

     Dynamical RAM for          rho,v,vnew:      11.04 MB

     Dynamical RAM for               rhoin:       3.68 MB

     Dynamical RAM for            rho*nmix:      27.26 MB

     Dynamical RAM for           G-vectors:       6.79 MB

     Dynamical RAM for          h,s,v(r/c):       0.04 MB

     Dynamical RAM for          <psi|beta>:       0.01 MB

     Dynamical RAM for                 psi:       2.77 MB

     Dynamical RAM for                hpsi:       2.77 MB

     Dynamical RAM for                spsi:       2.77 MB

     Dynamical RAM for      wfcinit/wfcrot:       2.77 MB

     Dynamical RAM for           addusdens:      21.30 MB

     Dynamical RAM for          addusforce:      23.43 MB

     Estimated static dynamical RAM per process >      67.83 MB

     Estimated max dynamical RAM per process >     118.52 MB

     Estimated total dynamical RAM >     392.29 MB
 ----2D----2D----2D----2D----2D----2D----2D----2D----2D----2D----2D----2D
  The code is running with the 2D cutoff
  Please refer to:
  Sohier, T., Calandra, M., & Mauri, F. (2017), 
  Density functional perturbation theory for gated two-dimensional heterostructures:
  Theoretical developments and application to flexural phonons in graphene.
  Physical Review B, 96(7), 75448. https://doi.org/10.1103/PhysRevB.96.075448
 ----2D----2D----2D----2D----2D----2D----2D----2D----2D----2D----2D----2D

     Adding external electric field
        E field amplitude [Ha a.u.]:  1.0000E-02
        Potential amp.        0.7943 Ry
        Total length         39.7126 bohr


     Check: negative core charge=   -0.000003

     Initial potential from superposition of free atoms

     starting charge      15.9998, renormalised to      16.0000

     negative rho (up, down):  1.133E-04 0.000E+00
     Starting wfcs are   16 randomized atomic wfcs
     Checking if some PAW data can be deallocated... 

     total cpu time spent up to now is        4.4 secs

     Self-consistent Calculation

     iteration #  1     ecut=    60.00 Ry     beta= 0.70
     Davidson diagonalization with overlap

---- Real-time Memory Report at c_bands before calling an iterative solver
            92 MiB given to the printing process from OS
             0 MiB allocation reported by mallinfo(arena+hblkhd)
          2615 MiB available memory on the node where the printing process lives
------------------
     ethr =  1.00E-02,  avg # of iterations =  7.7

     negative rho (up, down):  9.145E-05 0.000E+00

     total cpu time spent up to now is       13.2 secs

     total energy              =     -73.71979017 Ry
     estimated scf accuracy    <       0.38995982 Ry

     iteration #  2     ecut=    60.00 Ry     beta= 0.70
     Davidson diagonalization with overlap

---- Real-time Memory Report at c_bands before calling an iterative solver
           131 MiB given to the printing process from OS
             0 MiB allocation reported by mallinfo(arena+hblkhd)
          2467 MiB available memory on the node where the printing process lives
------------------
     ethr =  2.44E-03,  avg # of iterations =  5.7

     negative rho (up, down):  1.103E-04 0.000E+00

     total cpu time spent up to now is       21.0 secs

     total energy              =     -73.75270660 Ry
     estimated scf accuracy    <       0.03438174 Ry

     iteration #  3     ecut=    60.00 Ry     beta= 0.70
     Davidson diagonalization with overlap

---- Real-time Memory Report at c_bands before calling an iterative solver
           133 MiB given to the printing process from OS
             0 MiB allocation reported by mallinfo(arena+hblkhd)
          2508 MiB available memory on the node where the printing process lives
------------------
     ethr =  2.15E-04,  avg # of iterations = 12.1

     negative rho (up, down):  7.792E-05 0.000E+00

     total cpu time spent up to now is       30.9 secs

     total energy              =     -73.59067003 Ry
     estimated scf accuracy    <       1.01931632 Ry

     iteration #  4     ecut=    60.00 Ry     beta= 0.70
     Davidson diagonalization with overlap

---- Real-time Memory Report at c_bands before calling an iterative solver
           135 MiB given to the printing process from OS
             0 MiB allocation reported by mallinfo(arena+hblkhd)
          2515 MiB available memory on the node where the printing process lives
------------------
     ethr =  2.15E-04,  avg # of iterations = 11.5

     negative rho (up, down):  7.975E-05 0.000E+00

     total cpu time spent up to now is       42.6 secs

     total energy              =     -73.77926248 Ry
     estimated scf accuracy    <       0.01381057 Ry

     iteration #  5     ecut=    60.00 Ry     beta= 0.70
     Davidson diagonalization with overlap

---- Real-time Memory Report at c_bands before calling an iterative solver
           136 MiB given to the printing process from OS
             0 MiB allocation reported by mallinfo(arena+hblkhd)
          2511 MiB available memory on the node where the printing process lives
------------------
     ethr =  8.63E-05,  avg # of iterations =  1.8

     negative rho (up, down):  8.532E-05 0.000E+00

     total cpu time spent up to now is       47.8 secs

     total energy              =     -73.77688967 Ry
     estimated scf accuracy    <       0.01146263 Ry

     iteration #  6     ecut=    60.00 Ry     beta= 0.70
     Davidson diagonalization with overlap

---- Real-time Memory Report at c_bands before calling an iterative solver
           138 MiB given to the printing process from OS
             0 MiB allocation reported by mallinfo(arena+hblkhd)
          2501 MiB available memory on the node where the printing process lives
------------------
     ethr =  7.16E-05,  avg # of iterations =  5.6

     negative rho (up, down):  8.739E-05 0.000E+00

     total cpu time spent up to now is       53.7 secs

     total energy              =     -73.77591935 Ry
     estimated scf accuracy    <       0.00654746 Ry

     iteration #  7     ecut=    60.00 Ry     beta= 0.70
     Davidson diagonalization with overlap

---- Real-time Memory Report at c_bands before calling an iterative solver
           139 MiB given to the printing process from OS
             0 MiB allocation reported by mallinfo(arena+hblkhd)
          2495 MiB available memory on the node where the printing process lives
------------------
     ethr =  4.09E-05,  avg # of iterations =  5.8

     negative rho (up, down):  8.737E-05 0.000E+00

     total cpu time spent up to now is       60.4 secs

     total energy              =     -73.77626636 Ry
     estimated scf accuracy    <       0.00043255 Ry

     iteration #  8     ecut=    60.00 Ry     beta= 0.70
     Davidson diagonalization with overlap

---- Real-time Memory Report at c_bands before calling an iterative solver
           141 MiB given to the printing process from OS
             0 MiB allocation reported by mallinfo(arena+hblkhd)
          2491 MiB available memory on the node where the printing process lives
------------------
     c_bands:  1 eigenvalues not converged
     ethr =  2.70E-06,  avg # of iterations =  8.8

     negative rho (up, down):  9.051E-05 0.000E+00

     total cpu time spent up to now is       67.8 secs

     total energy              =     -73.77604869 Ry
     estimated scf accuracy    <       0.00043670 Ry

     iteration #  9     ecut=    60.00 Ry     beta= 0.70
     Davidson diagonalization with overlap

---- Real-time Memory Report at c_bands before calling an iterative solver
           143 MiB given to the printing process from OS
             0 MiB allocation reported by mallinfo(arena+hblkhd)
          2502 MiB available memory on the node where the printing process lives
------------------
     ethr =  2.70E-06,  avg # of iterations =  9.8

     negative rho (up, down):  2.272E-04 0.000E+00

     total cpu time spent up to now is       75.9 secs

     total energy              =     -73.77612350 Ry
     estimated scf accuracy    <       0.00049625 Ry

     iteration # 10     ecut=    60.00 Ry     beta= 0.70
     Davidson diagonalization with overlap

---- Real-time Memory Report at c_bands before calling an iterative solver
           144 MiB given to the printing process from OS
             0 MiB allocation reported by mallinfo(arena+hblkhd)
          2489 MiB available memory on the node where the printing process lives
------------------
     c_bands:  2 eigenvalues not converged
     ethr =  2.70E-06,  avg # of iterations =  8.5

     negative rho (up, down):  1.111E-04 0.000E+00

     total cpu time spent up to now is       84.8 secs

     total energy              =     -73.77617848 Ry
     estimated scf accuracy    <       0.00006172 Ry

     iteration # 11     ecut=    60.00 Ry     beta= 0.70
     Davidson diagonalization with overlap

---- Real-time Memory Report at c_bands before calling an iterative solver
           144 MiB given to the printing process from OS
             0 MiB allocation reported by mallinfo(arena+hblkhd)
          2502 MiB available memory on the node where the printing process lives
------------------
     ethr =  3.86E-07,  avg # of iterations =  2.1

     negative rho (up, down):  1.009E-04 0.000E+00

     total cpu time spent up to now is       90.0 secs

     total energy              =     -73.77616818 Ry
     estimated scf accuracy    <       0.00002370 Ry

     iteration # 12     ecut=    60.00 Ry     beta= 0.70
     Davidson diagonalization with overlap

---- Real-time Memory Report at c_bands before calling an iterative solver
           144 MiB given to the printing process from OS
             0 MiB allocation reported by mallinfo(arena+hblkhd)
          2495 MiB available memory on the node where the printing process lives
------------------
     ethr =  1.48E-07,  avg # of iterations =  2.4

     negative rho (up, down):  1.314E-04 0.000E+00

     total cpu time spent up to now is       95.7 secs

     total energy              =     -73.77617312 Ry
     estimated scf accuracy    <       0.00001384 Ry

     iteration # 13     ecut=    60.00 Ry     beta= 0.70
     Davidson diagonalization with overlap

---- Real-time Memory Report at c_bands before calling an iterative solver
           144 MiB given to the printing process from OS
             0 MiB allocation reported by mallinfo(arena+hblkhd)
          2497 MiB available memory on the node where the printing process lives
------------------
     ethr =  8.65E-08,  avg # of iterations =  2.6

     negative rho (up, down):  1.342E-04 0.000E+00

     total cpu time spent up to now is      101.7 secs

     total energy              =     -73.77617403 Ry
     estimated scf accuracy    <       0.00000073 Ry

     iteration # 14     ecut=    60.00 Ry     beta= 0.70
     Davidson diagonalization with overlap

---- Real-time Memory Report at c_bands before calling an iterative solver
           144 MiB given to the printing process from OS
             0 MiB allocation reported by mallinfo(arena+hblkhd)
          2494 MiB available memory on the node where the printing process lives
------------------
     ethr =  4.59E-09,  avg # of iterations =  1.3

     negative rho (up, down):  1.351E-04 0.000E+00

     total cpu time spent up to now is      106.7 secs

     End of self-consistent calculation

          k = 0.0000 0.0000 0.0000 (  6469 PWs)   bands (ev):

   -23.2705 -23.1626 -11.4580 -11.1433  -6.7293  -6.7190  -6.6393  -6.6301
    -1.6446  -1.2531   0.0611   0.8585   1.8464   4.1249

     occupation numbers 
     1.0000   1.0000   1.0000   1.0000   1.0000   1.0000   1.0000   1.0000
     0.0000   0.0000   0.0000   0.0000   0.0000   0.0000

          k = 0.0000 0.0962 0.0000 (  6478 PWs)   bands (ev):

   -23.1058 -22.9981 -11.2598 -10.9474  -7.3796  -7.2900  -7.0635  -6.9728
    -1.4144  -1.0261   0.2796   1.0809   2.0626   4.3374

     occupation numbers 
     1.0000   1.0000   1.0000   1.0000   1.0000   1.0000   1.0000   1.0000
     0.0000   0.0000   0.0000   0.0000   0.0000   0.0000

          k = 0.0000 0.1925 0.0000 (  6486 PWs)   bands (ev):

   -22.6134 -22.5063 -10.6702 -10.3647  -9.0242  -8.9322  -7.8630  -7.7715
    -0.7241  -0.3456   0.9349   1.7470   2.7065   4.6859

     occupation numbers 
     1.0000   1.0000   1.0000   1.0000   1.0000   1.0000   1.0000   1.0000
     0.0000   0.0000   0.0000   0.0000   0.0000   0.0000

          k = 0.0000 0.2887 0.0000 (  6494 PWs)   bands (ev):

   -21.7992 -21.6930 -11.1323 -11.0376  -9.7080  -9.4151  -8.7499  -8.6579
     0.4264   0.7861   2.0202   2.8357   3.4967   3.6722

     occupation numbers 
     1.0000   1.0000   1.0000   1.0000   1.0000   1.0000   1.0000   1.0000
     0.0000   0.0000   0.0000   0.0000   0.0000   0.0000

          k = 0.0000 0.3849 0.0000 (  6484 PWs)   bands (ev):

   -20.6751 -20.5701 -13.3462 -13.2490  -9.4890  -9.3966  -8.4219  -8.1505
     1.2185   1.3949   2.0373   2.3801   3.5251   4.0854

     occupation numbers 
     1.0000   1.0000   1.0000   1.0000   1.0000   1.0000   1.0000   1.0000
     0.0000   0.0000   0.0000   0.0000   0.0000   0.0000

          k = 0.0000 0.4811 0.0000 (  6486 PWs)   bands (ev):

   -19.2717 -19.1682 -15.4574 -15.3579  -9.9654  -9.8728  -6.9697  -6.7404
    -0.9396  -0.7430   3.8480   3.9648   4.1080   4.4120

     occupation numbers 
     1.0000   1.0000   1.0000   1.0000   1.0000   1.0000   1.0000   1.0000
     0.0000   0.0000   0.0000   0.0000   0.0000   0.0000

          k = 0.0000-0.5774 0.0000 (  6508 PWs)   bands (ev):

   -17.9939 -17.8925 -16.9784 -16.8779 -10.1290 -10.0363  -6.0865  -5.9242
    -2.0416  -1.8511   3.7724   3.8874   6.6329   6.6440

     occupation numbers 
     1.0000   1.0000   1.0000   1.0000   1.0000   1.0000   1.0000   1.0000
     0.0000   0.0000   0.0000   0.0000   0.0000   0.0000

          k = 0.0833 0.0481 0.0000 (  6478 PWs)   bands (ev):

   -23.1058 -22.9981 -11.2598 -10.9474  -7.3802  -7.2883  -7.0629  -6.9745
    -1.4144  -1.0261   0.2796   1.0809   2.0626   4.3372

     occupation numbers 
     1.0000   1.0000   1.0000   1.0000   1.0000   1.0000   1.0000   1.0000
     0.0000   0.0000   0.0000   0.0000   0.0000   0.0000

          k = 0.0833 0.1443 0.0000 (  6487 PWs)   bands (ev):

   -22.7773 -22.6699 -10.8658 -10.5579  -8.4197  -8.3274  -7.7443  -7.6541
    -0.9542  -0.5723   0.7170   1.5256   2.4936   4.7576

     occupation numbers 
     1.0000   1.0000   1.0000   1.0000   1.0000   1.0000   1.0000   1.0000
     0.0000   0.0000   0.0000   0.0000   0.0000   0.0000

          k = 0.0833 0.2406 0.0000 (  6474 PWs)   bands (ev):

   -22.1240 -22.0174 -10.1356 -10.0887 -10.0418  -9.7905  -8.7516  -8.6594
    -0.0338   0.3344   1.5902   2.4116   3.3409   4.4577

     occupation numbers 
     1.0000   1.0000   1.0000   1.0000   1.0000   1.0000   1.0000   1.0000
     0.0000   0.0000   0.0000   0.0000   0.0000   0.0000

          k = 0.0833 0.3368 0.0000 (  6487 PWs)   bands (ev):

   -21.1547 -21.0492 -12.2177 -12.1218  -9.6451  -9.5520  -8.9584  -8.6765
     1.3467   1.6836   2.2661   2.4072   2.9055   3.7470

     occupation numbers 
     1.0000   1.0000   1.0000   1.0000   1.0000   1.0000   1.0000   1.0000
     0.0000   0.0000   0.0000   0.0000   0.0000   0.0000

          k = 0.0833 0.4330 0.0000 (  6482 PWs)   bands (ev):

   -19.8880 -19.7839 -14.3510 -14.2527 -10.2845 -10.1910  -7.5564  -7.3033
     0.0232   0.2021   3.1875   3.4976   4.5362   4.7007

     occupation numbers 
     1.0000   1.0000   1.0000   1.0000   1.0000   1.0000   1.0000   1.0000
     0.0000   0.0000   0.0000   0.0000   0.0000   0.0000

          k = 0.0833 0.5292 0.0000 (  6501 PWs)   bands (ev):

   -18.3985 -18.2961 -16.3046 -16.2043 -10.6153 -10.5216  -6.2081  -6.0172
    -1.7616  -1.5741   4.5120   4.6285   5.4878   5.7386

     occupation numbers 
     1.0000   1.0000   1.0000   1.0000   1.0000   1.0000   1.0000   1.0000
     0.0000   0.0000   0.0000   0.0000   0.0000   0.0000

          k = 0.0833-0.5292 0.0000 (  6501 PWs)   bands (ev):

   -18.3985 -18.2961 -16.3045 -16.2043 -10.6154 -10.5217  -6.2083  -6.0174
    -1.7612  -1.5737   4.5117   4.6283   5.4878   5.7386

     occupation numbers 
     1.0000   1.0000   1.0000   1.0000   1.0000   1.0000   1.0000   1.0000
     0.0000   0.0000   0.0000   0.0000   0.0000   0.0000

          k = 0.0833-0.4330 0.0000 (  6482 PWs)   bands (ev):

   -19.8879 -19.7838 -14.3506 -14.2525 -10.2850 -10.1913  -7.5567  -7.3036
     0.0241   0.2028   3.1875   3.4975   4.5355   4.7000

     occupation numbers 
     1.0000   1.0000   1.0000   1.0000   1.0000   1.0000   1.0000   1.0000
     0.0000   0.0000   0.0000   0.0000   0.0000   0.0000

          k = 0.0833-0.3368 0.0000 (  6487 PWs)   bands (ev):

   -21.1546 -21.0491 -12.2167 -12.1211  -9.6462  -9.5528  -8.9586  -8.6768
     1.3467   1.6836   2.2673   2.4080   2.9054   3.7469

     occupation numbers 
     1.0000   1.0000   1.0000   1.0000   1.0000   1.0000   1.0000   1.0000
     0.0000   0.0000   0.0000   0.0000   0.0000   0.0000

          k = 0.0833-0.2406 0.0000 (  6474 PWs)   bands (ev):

   -22.1240 -22.0174 -10.1327 -10.0889 -10.0398  -9.7906  -8.7547  -8.6617
    -0.0338   0.3344   1.5902   2.4116   3.3408   4.4601

     occupation numbers 
     1.0000   1.0000   1.0000   1.0000   1.0000   1.0000   1.0000   1.0000
     0.0000   0.0000   0.0000   0.0000   0.0000   0.0000

          k = 0.0833-0.1443 0.0000 (  6487 PWs)   bands (ev):

   -22.7773 -22.6699 -10.8659 -10.5580  -8.4130  -8.3227  -7.7514  -7.6591
    -0.9542  -0.5723   0.7170   1.5256   2.4935   4.7565

     occupation numbers 
     1.0000   1.0000   1.0000   1.0000   1.0000   1.0000   1.0000   1.0000
     0.0000   0.0000   0.0000   0.0000   0.0000   0.0000

          k = 0.0833-0.0481 0.0000 (  6478 PWs)   bands (ev):

   -23.1058 -22.9981 -11.2598 -10.9474  -7.3731  -7.2832  -7.0702  -6.9797
    -1.4144  -1.0261   0.2796   1.0809   2.0626   4.3370

     occupation numbers 
     1.0000   1.0000   1.0000   1.0000   1.0000   1.0000   1.0000   1.0000
     0.0000   0.0000   0.0000   0.0000   0.0000   0.0000

          k = 0.1667 0.0962 0.0000 (  6486 PWs)   bands (ev):

   -22.6135 -22.5063 -10.6702 -10.3647  -9.0247  -8.9309  -7.8624  -7.7730
    -0.7241  -0.3456   0.9349   1.7470   2.7065   4.6889

     occupation numbers 
     1.0000   1.0000   1.0000   1.0000   1.0000   1.0000   1.0000   1.0000
     0.0000   0.0000   0.0000   0.0000   0.0000   0.0000

          k = 0.1667 0.1925 0.0000 (  6474 PWs)   bands (ev):

   -22.1240 -22.0174 -10.1358 -10.0887 -10.0411  -9.7905  -8.7513  -8.6602
    -0.0338   0.3344   1.5902   2.4116   3.3408   4.4578

     occupation numbers 
     1.0000   1.0000   1.0000   1.0000   1.0000   1.0000   1.0000   1.0000
     0.0000   0.0000   0.0000   0.0000   0.0000   0.0000

          k = 0.1667 0.2887 0.0000 (  6494 PWs)   bands (ev):

   -21.3157 -21.2100 -11.4702 -11.3750 -10.1237 -10.0301  -9.1398  -8.8547
     1.1167   1.4656   2.6781   2.7234   2.8562   3.5152

     occupation numbers 
     1.0000   1.0000   1.0000   1.0000   1.0000   1.0000   1.0000   1.0000
     0.0000   0.0000   0.0000   0.0000   0.0000   0.0000

          k = 0.1667 0.3849 0.0000 (  6484 PWs)   bands (ev):

   -20.2024 -20.0980 -13.2050 -13.1083 -11.1873 -11.0921  -7.8689  -7.6051
     0.7546   0.9020   2.7272   3.0433   4.1813   5.0374

     occupation numbers 
     1.0000   1.0000   1.0000   1.0000   1.0000   1.0000   1.0000   1.0000
     0.0000   0.0000   0.0000   0.0000   0.0000   0.0000

          k = 0.1667 0.4811 0.0000 (  6474 PWs)   bands (ev):

   -18.8190 -18.7161 -15.1264 -15.0275 -11.7663 -11.6705  -6.4142  -6.1890
    -1.1802  -1.0138   4.7974   5.0505   6.0261   6.4097

     occupation numbers 
     1.0000   1.0000   1.0000   1.0000   1.0000   1.0000   1.0000   1.0000
     0.0000   0.0000   0.0000   0.0000   0.0000   0.0000

          k = 0.1667 0.5774 0.0000 (  6478 PWs)   bands (ev):

   -17.5714 -17.4704 -16.5750 -16.4750 -11.9523 -11.8563  -5.4843  -5.3236
    -2.2497  -2.0933   6.3165   6.4485   7.3090   7.3239

     occupation numbers 
     1.0000   1.0000   1.0000   1.0000   1.0000   1.0000   1.0000   1.0000
     0.0000   0.0000   0.0000   0.0000   0.0000   0.0000

          k = 0.1667-0.4811 0.0000 (  6474 PWs)   bands (ev):

   -18.8189 -18.7160 -15.1258 -15.0271 -11.7671 -11.6711  -6.4150  -6.1896
    -1.1787  -1.0125   4.7974   5.0504   6.0254   6.4106

     occupation numbers 
     1.0000   1.0000   1.0000   1.0000   1.0000   1.0000   1.0000   1.0000
     0.0000   0.0000   0.0000   0.0000   0.0000   0.0000

          k = 0.1667-0.3849 0.0000 (  6484 PWs)   bands (ev):

   -20.2023 -20.0979 -13.2030 -13.1068 -11.1897 -11.0938  -7.8695  -7.6057
     0.7568   0.9037   2.7272   3.0432   4.1812   5.0372

     occupation numbers 
     1.0000   1.0000   1.0000   1.0000   1.0000   1.0000   1.0000   1.0000
     0.0000   0.0000   0.0000   0.0000   0.0000   0.0000

          k = 0.1667-0.2887 0.0000 (  6494 PWs)   bands (ev):

   -21.3156 -21.2099 -11.4653 -11.3715 -10.1291 -10.0340  -9.1402  -8.8551
     1.1167   1.4656   2.6781   2.7259   2.8580   3.5152

     occupation numbers 
     1.0000   1.0000   1.0000   1.0000   1.0000   1.0000   1.0000   1.0000
     0.0000   0.0000   0.0000   0.0000   0.0000   0.0000

          k = 0.1667-0.1925 0.0000 (  6474 PWs)   bands (ev):

   -22.1239 -22.0173 -10.1301 -10.0890 -10.0370  -9.7907  -8.7578  -8.6648
    -0.0338   0.3344   1.5902   2.4116   3.3406   4.4598

     occupation numbers 
     1.0000   1.0000   1.0000   1.0000   1.0000   1.0000   1.0000   1.0000
     0.0000   0.0000   0.0000   0.0000   0.0000   0.0000

          k = 0.1667-0.0962 0.0000 (  6486 PWs)   bands (ev):

   -22.6134 -22.5063 -10.6704 -10.3648  -9.0193  -8.9271  -7.8684  -7.7772
    -0.7241  -0.3456   0.9349   1.7470   2.7064   4.6839

     occupation numbers 
     1.0000   1.0000   1.0000   1.0000   1.0000   1.0000   1.0000   1.0000
     0.0000   0.0000   0.0000   0.0000   0.0000   0.0000

          k = 0.1667-0.0000 0.0000 (  6487 PWs)   bands (ev):

   -22.7773 -22.6699 -10.8659 -10.5580  -8.4136  -8.3210  -7.7508  -7.6608
    -0.9542  -0.5723   0.7170   1.5255   2.4935   4.7564

     occupation numbers 
     1.0000   1.0000   1.0000   1.0000   1.0000   1.0000   1.0000   1.0000
     0.0000   0.0000   0.0000   0.0000   0.0000   0.0000

          k = 0.2500 0.1443 0.0000 (  6494 PWs)   bands (ev):

   -21.7992 -21.6929 -11.1326 -11.0366  -9.7080  -9.4152  -8.7495  -8.6591
     0.4264   0.7861   2.0202   2.8357   3.4967   3.6722

     occupation numbers 
     1.0000   1.0000   1.0000   1.0000   1.0000   1.0000   1.0000   1.0000
     0.0000   0.0000   0.0000   0.0000   0.0000   0.0000

          k = 0.2500 0.2406 0.0000 (  6487 PWs)   bands (ev):

   -21.1547 -21.0492 -12.2180 -12.1211  -9.6447  -9.5529  -8.9584  -8.6766
     1.3467   1.6836   2.2660   2.4075   2.9055   3.7470

     occupation numbers 
     1.0000   1.0000   1.0000   1.0000   1.0000   1.0000   1.0000   1.0000
     0.0000   0.0000   0.0000   0.0000   0.0000   0.0000

          k = 0.2500 0.3368 0.0000 (  6484 PWs)   bands (ev):

   -20.2024 -20.0980 -13.2052 -13.1078 -11.1871 -11.0926  -7.8689  -7.6052
     0.7545   0.9023   2.7272   3.0433   4.1814   5.0374

     occupation numbers 
     1.0000   1.0000   1.0000   1.0000   1.0000   1.0000   1.0000   1.0000
     0.0000   0.0000   0.0000   0.0000   0.0000   0.0000

          k = 0.2500 0.4330 0.0000 (  6442 PWs)   bands (ev):

   -18.9678 -18.8647 -14.2417 -14.1439 -12.6823 -12.5854  -6.5045  -6.2680
    -0.8695  -0.7224   4.5672   4.8194   5.8070   6.6576

     occupation numbers 
     1.0000   1.0000   1.0000   1.0000   1.0000   1.0000   1.0000   1.0000
     0.0000   0.0000   0.0000   0.0000   0.0000   0.0000

          k = 0.2500 0.5292 0.0000 (  6455 PWs)   bands (ev):

   -17.5360 -17.4347 -15.6720 -15.5730 -13.3941 -13.2960  -5.0865  -4.8975
    -2.4000  -2.2509   6.8038   6.8884   7.0779   7.6331

     occupation numbers 
     1.0000   1.0000   1.0000   1.0000   1.0000   1.0000   1.0000   1.0000
     0.0000   0.0000   0.0000   0.0000   0.0000   0.0000

          k = 0.2500 0.6255 0.0000 (  6455 PWs)   bands (ev):

   -17.5362 -17.4348 -15.6708 -15.5721 -13.3952 -13.2968  -5.0878  -4.8986
    -2.3981  -2.2494   6.8034   6.8882   7.0771   7.6329

     occupation numbers 
     1.0000   1.0000   1.0000   1.0000   1.0000   1.0000   1.0000   1.0000
     0.0000   0.0000   0.0000   0.0000   0.0000   0.0000

          k = 0.2500-0.4330 0.0000 (  6442 PWs)   bands (ev):

   -18.9677 -18.8647 -14.2381 -14.1414 -12.6862 -12.5882  -6.5059  -6.2691
    -0.8663  -0.7201   4.5672   4.8193   5.8067   6.6572

     occupation numbers 
     1.0000   1.0000   1.0000   1.0000   1.0000   1.0000   1.0000   1.0000
     0.0000   0.0000   0.0000   0.0000   0.0000   0.0000

          k = 0.2500-0.3368 0.0000 (  6484 PWs)   bands (ev):

   -20.2023 -20.0978 -13.2011 -13.1049 -11.1919 -11.0960  -7.8699  -7.6060
     0.7579   0.9047   2.7272   3.0432   4.1813   5.0372

     occupation numbers 
     1.0000   1.0000   1.0000   1.0000   1.0000   1.0000   1.0000   1.0000
     0.0000   0.0000   0.0000   0.0000   0.0000   0.0000

          k = 0.2500-0.2406 0.0000 (  6487 PWs)   bands (ev):

   -21.1546 -21.0491 -12.2141 -12.1183  -9.6496  -9.5563  -8.9590  -8.6772
     1.3467   1.6835   2.2688   2.4095   2.9056   3.7470

     occupation numbers 
     1.0000   1.0000   1.0000   1.0000   1.0000   1.0000   1.0000   1.0000
     0.0000   0.0000   0.0000   0.0000   0.0000   0.0000

          k = 0.2500-0.1443 0.0000 (  6494 PWs)   bands (ev):

   -21.7991 -21.6929 -11.1287 -11.0339  -9.7084  -9.4155  -8.7544  -8.6626
     0.4264   0.7860   2.0201   2.8355   3.4970   3.6741

     occupation numbers 
     1.0000   1.0000   1.0000   1.0000   1.0000   1.0000   1.0000   1.0000
     0.0000   0.0000   0.0000   0.0000   0.0000   0.0000

          k = 0.2500-0.0481 0.0000 (  6474 PWs)   bands (ev):

   -22.1239 -22.0173 -10.1303 -10.0890 -10.0363  -9.7908  -8.7575  -8.6656
    -0.0338   0.3344   1.5902   2.4116   3.3406   4.4607

     occupation numbers 
     1.0000   1.0000   1.0000   1.0000   1.0000   1.0000   1.0000   1.0000
     0.0000   0.0000   0.0000   0.0000   0.0000   0.0000

          k = 0.2500 0.0481 0.0000 (  6474 PWs)   bands (ev):

   -22.1240 -22.0174 -10.1332 -10.0889 -10.0384  -9.7907  -8.7542  -8.6632
    -0.0338   0.3344   1.5902   2.4116   3.3408   4.4598

     occupation numbers 
     1.0000   1.0000   1.0000   1.0000   1.0000   1.0000   1.0000   1.0000
     0.0000   0.0000   0.0000   0.0000   0.0000   0.0000

          k = 0.3333 0.1925 0.0000 (  6484 PWs)   bands (ev):

   -20.6751 -20.5701 -13.3464 -13.2482  -9.4886  -9.3976  -8.4219  -8.1506
     1.2183   1.3955   2.0373   2.3801   3.5250   4.0855

     occupation numbers 
     1.0000   1.0000   1.0000   1.0000   1.0000   1.0000   1.0000   1.0000
     0.0000   0.0000   0.0000   0.0000   0.0000   0.0000

          k = 0.3333 0.2887 0.0000 (  6482 PWs)   bands (ev):

   -19.8880 -19.7839 -14.3512 -14.2521 -10.2842 -10.1919  -7.5564  -7.3036
     0.0231   0.2027   3.1875   3.4976   4.5362   4.7007

     occupation numbers 
     1.0000   1.0000   1.0000   1.0000   1.0000   1.0000   1.0000   1.0000
     0.0000   0.0000   0.0000   0.0000   0.0000   0.0000

          k = 0.3333 0.3849 0.0000 (  6474 PWs)   bands (ev):

   -18.8190 -18.7161 -15.1266 -15.0269 -11.7661 -11.6712  -6.4142  -6.1893
    -1.1804  -1.0132   4.7974   5.0505   6.0261   6.4100

     occupation numbers 
     1.0000   1.0000   1.0000   1.0000   1.0000   1.0000   1.0000   1.0000
     0.0000   0.0000   0.0000   0.0000   0.0000   0.0000

          k = 0.3333 0.4811 0.0000 (  6455 PWs)   bands (ev):

   -17.5360 -17.4348 -15.6723 -15.5724 -13.3939 -13.2965  -5.0864  -4.8979
    -2.4002  -2.2503   6.8038   6.8883   7.0779   7.6330

     occupation numbers 
     1.0000   1.0000   1.0000   1.0000   1.0000   1.0000   1.0000   1.0000
     0.0000   0.0000   0.0000   0.0000   0.0000   0.0000

          k = 0.3333 0.5774 0.0000 (  6450 PWs)   bands (ev):

   -16.3123 -16.3088 -16.2125 -16.2094 -14.3040 -14.2047  -3.7312  -3.6967
    -3.5618  -3.5263   6.7985   7.0802   8.8518   9.1757

     occupation numbers 
     1.0000   1.0000   1.0000   1.0000   1.0000   1.0000   0.8558   0.7591
     0.2423   0.1429   0.0000   0.0000   0.0000   0.0000

          k = 0.3333 0.6736 0.0000 (  6455 PWs)   bands (ev):

   -17.5367 -17.4354 -15.6685 -15.5697 -13.3972 -13.2989  -5.0895  -4.9003
    -2.3956  -2.2469   6.8032   6.8882   7.0768   7.6323

     occupation numbers 
     1.0000   1.0000   1.0000   1.0000   1.0000   1.0000   1.0000   1.0000
     0.0000   0.0000   0.0000   0.0000   0.0000   0.0000

          k = 0.3333-0.3849 0.0000 (  6474 PWs)   bands (ev):

   -18.8190 -18.7161 -15.1235 -15.0247 -11.7697 -11.6738  -6.4163  -6.1911
    -1.1759  -1.0098   4.7974   5.0505   6.0256   6.4069

     occupation numbers 
     1.0000   1.0000   1.0000   1.0000   1.0000   1.0000   1.0000   1.0000
     0.0000   0.0000   0.0000   0.0000   0.0000   0.0000

          k = 0.3333-0.2887 0.0000 (  6482 PWs)   bands (ev):

   -19.8879 -19.7838 -14.3483 -14.2501 -10.2882 -10.1947  -7.5578  -7.3048
     0.0269   0.2056   3.1875   3.4976   4.5352   4.6985

     occupation numbers 
     1.0000   1.0000   1.0000   1.0000   1.0000   1.0000   1.0000   1.0000
     0.0000   0.0000   0.0000   0.0000   0.0000   0.0000

          k = 0.3333-0.1925 0.0000 (  6484 PWs)   bands (ev):

   -20.6750 -20.5700 -13.3435 -13.2462  -9.4928  -9.4005  -8.4228  -8.1514
     1.2211   1.3976   2.0373   2.3802   3.5250   4.0834

     occupation numbers 
     1.0000   1.0000   1.0000   1.0000   1.0000   1.0000   1.0000   1.0000
     0.0000   0.0000   0.0000   0.0000   0.0000   0.0000

          k = 0.3333-0.0962 0.0000 (  6487 PWs)   bands (ev):

   -21.1546 -21.0491 -12.2142 -12.1181  -9.6495  -9.5566  -8.9590  -8.6772
     1.3467   1.6835   2.2687   2.4099   2.9056   3.7470

     occupation numbers 
     1.0000   1.0000   1.0000   1.0000   1.0000   1.0000   1.0000   1.0000
     0.0000   0.0000   0.0000   0.0000   0.0000   0.0000

          k = 0.3333 0.0000 0.0000 (  6494 PWs)   bands (ev):

   -21.3156 -21.2098 -11.4658 -11.3703 -10.1287 -10.0353  -9.1402  -8.8552
     1.1167   1.4656   2.6781   2.7257   2.8586   3.5151

     occupation numbers 
     1.0000   1.0000   1.0000   1.0000   1.0000   1.0000   1.0000   1.0000
     0.0000   0.0000   0.0000   0.0000   0.0000   0.0000

          k = 0.3333 0.0962 0.0000 (  6487 PWs)   bands (ev):

   -21.1547 -21.0491 -12.2171 -12.1201  -9.6458  -9.5540  -8.9586  -8.6769
     1.3467   1.6836   2.2671   2.4088   2.9054   3.7469

     occupation numbers 
     1.0000   1.0000   1.0000   1.0000   1.0000   1.0000   1.0000   1.0000
     0.0000   0.0000   0.0000   0.0000   0.0000   0.0000

          k = 0.4167 0.2406 0.0000 (  6486 PWs)   bands (ev):

   -19.2717 -19.1682 -15.4576 -15.3573  -9.9651  -9.8737  -6.9697  -6.7408
    -0.9398  -0.7421   3.8482   3.9644   4.1080   4.4120

     occupation numbers 
     1.0000   1.0000   1.0000   1.0000   1.0000   1.0000   1.0000   1.0000
     0.0000   0.0000   0.0000   0.0000   0.0000   0.0000

          k = 0.4167 0.3368 0.0000 (  6501 PWs)   bands (ev):

   -18.3985 -18.2963 -16.3048 -16.2036 -10.6150 -10.5224  -6.2080  -6.0178
    -1.7618  -1.5730   4.5122   4.6281   5.4878   5.7386

     occupation numbers 
     1.0000   1.0000   1.0000   1.0000   1.0000   1.0000   1.0000   1.0000
     0.0000   0.0000   0.0000   0.0000   0.0000   0.0000

          k = 0.4167 0.4330 0.0000 (  6478 PWs)   bands (ev):

   -17.5712 -17.4709 -16.5754 -16.4739 -11.9521 -11.8571  -5.4841  -5.3244
    -2.2501  -2.0920   6.3167   6.4481   7.3089   7.3239

     occupation numbers 
     1.0000   1.0000   1.0000   1.0000   1.0000   1.0000   1.0000   1.0000
     0.0000   0.0000   0.0000   0.0000   0.0000   0.0000

          k = 0.4167 0.5292 0.0000 (  6455 PWs)   bands (ev):

   -17.5362 -17.4350 -15.6711 -15.5712 -13.3949 -13.2976  -5.0877  -4.8992
    -2.3984  -2.2483   6.8034   6.8883   7.0770   7.6326

     occupation numbers 
     1.0000   1.0000   1.0000   1.0000   1.0000   1.0000   1.0000   1.0000
     0.0000   0.0000   0.0000   0.0000   0.0000   0.0000

          k = 0.4167 0.6255 0.0000 (  6455 PWs)   bands (ev):

   -17.5367 -17.4354 -15.6686 -15.5694 -13.3971 -13.2991  -5.0894  -4.9006
    -2.3957  -2.2464   6.8032   6.8882   7.0767   7.6322

     occupation numbers 
     1.0000   1.0000   1.0000   1.0000   1.0000   1.0000   1.0000   1.0000
     0.0000   0.0000   0.0000   0.0000   0.0000   0.0000

          k = 0.4167 0.7217 0.0000 (  6478 PWs)   bands (ev):

   -17.5734 -17.4725 -16.5707 -16.4706 -11.9552 -11.8593  -5.4877  -5.3271
    -2.2445  -2.0879   6.3148   6.4468   7.3089   7.3239

     occupation numbers 
     1.0000   1.0000   1.0000   1.0000   1.0000   1.0000   1.0000   1.0000
     0.0000   0.0000   0.0000   0.0000   0.0000   0.0000

          k = 0.4167-0.3368 0.0000 (  6501 PWs)   bands (ev):

   -18.3990 -18.2966 -16.3018 -16.2015 -10.6185 -10.5249  -6.2111  -6.0203
    -1.7564  -1.5688   4.5103   4.6268   5.4878   5.7386

     occupation numbers 
     1.0000   1.0000   1.0000   1.0000   1.0000   1.0000   1.0000   1.0000
     0.0000   0.0000   0.0000   0.0000   0.0000   0.0000

          k = 0.4167-0.2406 0.0000 (  6486 PWs)   bands (ev):

   -19.2717 -19.1682 -15.4550 -15.3555  -9.9688  -9.8764  -6.9717  -6.7425
    -0.9355  -0.7388   3.8465   3.9632   4.1080   4.4121

     occupation numbers 
     1.0000   1.0000   1.0000   1.0000   1.0000   1.0000   1.0000   1.0000
     0.0000   0.0000   0.0000   0.0000   0.0000   0.0000

          k = 0.4167-0.1443 0.0000 (  6482 PWs)   bands (ev):

   -19.8879 -19.7837 -14.3483 -14.2500 -10.2881 -10.1948  -7.5578  -7.3049
     0.0269   0.2058   3.1875   3.4976   4.5352   4.6990

     occupation numbers 
     1.0000   1.0000   1.0000   1.0000   1.0000   1.0000   1.0000   1.0000
     0.0000   0.0000   0.0000   0.0000   0.0000   0.0000

          k = 0.4167-0.0481 0.0000 (  6484 PWs)   bands (ev):

   -20.2023 -20.0978 -13.2013 -13.1044 -11.1916 -11.0966  -7.8698  -7.6062
     0.7577   0.9053   2.7272   3.0432   4.1812   5.0372

     occupation numbers 
     1.0000   1.0000   1.0000   1.0000   1.0000   1.0000   1.0000   1.0000
     0.0000   0.0000   0.0000   0.0000   0.0000   0.0000

          k = 0.4167 0.0481 0.0000 (  6484 PWs)   bands (ev):

   -20.2023 -20.0978 -13.2033 -13.1058 -11.1893 -11.0950  -7.8695  -7.6059
     0.7566   0.9045   2.7272   3.0432   4.1812   5.0372

     occupation numbers 
     1.0000   1.0000   1.0000   1.0000   1.0000   1.0000   1.0000   1.0000
     0.0000   0.0000   0.0000   0.0000   0.0000   0.0000

          k = 0.4167 0.1443 0.0000 (  6482 PWs)   bands (ev):

   -19.8879 -19.7838 -14.3509 -14.2518 -10.2846 -10.1923  -7.5567  -7.3039
     0.0240   0.2036   3.1875   3.4975   4.5355   4.7002

     occupation numbers 
     1.0000   1.0000   1.0000   1.0000   1.0000   1.0000   1.0000   1.0000
     0.0000   0.0000   0.0000   0.0000   0.0000   0.0000

          k =-0.5000-0.2887 0.0000 (  6508 PWs)   bands (ev):

   -17.9938 -17.8930 -16.9788 -16.8768 -10.1287 -10.0372  -6.0863  -5.9251
    -2.0419  -1.8498   3.7725   3.8870   6.6330   6.6441

     occupation numbers 
     1.0000   1.0000   1.0000   1.0000   1.0000   1.0000   1.0000   1.0000
     0.0000   0.0000   0.0000   0.0000   0.0000   0.0000

          k =-0.5000-0.1925 0.0000 (  6501 PWs)   bands (ev):

   -18.3984 -18.2962 -16.3047 -16.2036 -10.6151 -10.5225  -6.2082  -6.0180
    -1.7614  -1.5726   4.5119   4.6279   5.4878   5.7386

     occupation numbers 
     1.0000   1.0000   1.0000   1.0000   1.0000   1.0000   1.0000   1.0000
     0.0000   0.0000   0.0000   0.0000   0.0000   0.0000

          k =-0.5000-0.0962 0.0000 (  6474 PWs)   bands (ev):

   -18.8189 -18.7160 -15.1260 -15.0263 -11.7668 -11.6720  -6.4149  -6.1900
    -1.1789  -1.0116   4.7974   5.0504   6.0253   6.4085

     occupation numbers 
     1.0000   1.0000   1.0000   1.0000   1.0000   1.0000   1.0000   1.0000
     0.0000   0.0000   0.0000   0.0000   0.0000   0.0000

          k =-0.5000 0.0000 0.0000 (  6442 PWs)   bands (ev):

   -18.9677 -18.8647 -14.2384 -14.1405 -12.6859 -12.5892  -6.5059  -6.2694
    -0.8665  -0.7194   4.5672   4.8193   5.8067   6.6571

     occupation numbers 
     1.0000   1.0000   1.0000   1.0000   1.0000   1.0000   1.0000   1.0000
     0.0000   0.0000   0.0000   0.0000   0.0000   0.0000

          k =-0.5000 0.0962 0.0000 (  6474 PWs)   bands (ev):

   -18.8190 -18.7161 -15.1236 -15.0246 -11.7697 -11.6740  -6.4163  -6.1912
    -1.1760  -1.0094   4.7974   5.0505   6.0255   6.4071

     occupation numbers 
     1.0000   1.0000   1.0000   1.0000   1.0000   1.0000   1.0000   1.0000
     0.0000   0.0000   0.0000   0.0000   0.0000   0.0000

          k =-0.5000 0.1925 0.0000 (  6501 PWs)   bands (ev):

   -18.3990 -18.2966 -16.3018 -16.2014 -10.6185 -10.5249  -6.2111  -6.0203
    -1.7565  -1.5687   4.5103   4.6267   5.4878   5.7386

     occupation numbers 
     1.0000   1.0000   1.0000   1.0000   1.0000   1.0000   1.0000   1.0000
     0.0000   0.0000   0.0000   0.0000   0.0000   0.0000

          k =-0.5000-0.8660 0.0000 (  6508 PWs)   bands (ev):

   -17.9958 -17.8944 -16.9744 -16.8737 -10.1323 -10.0398  -6.0900  -5.9278
    -2.0360  -1.8452   3.7710   3.8859   6.6330   6.6440

     occupation numbers 
     1.0000   1.0000   1.0000   1.0000   1.0000   1.0000   1.0000   1.0000
     0.0000   0.0000   0.0000   0.0000   0.0000   0.0000

     the Fermi energy is    -3.6290 ev

!    total energy              =     -73.77617411 Ry
     total all-electron energy =      -304.832563 Ry
     estimated scf accuracy    <          4.1E-09 Ry
     smearing contrib. (-TS)   =      -0.00021148 Ry
     internal energy E=F+TS    =     -73.77596262 Ry

     The total energy is F=E-TS. E is the sum of the following terms:
     one-electron contribution =   -1122.62744581 Ry
     hartree contribution      =     563.42849770 Ry
     xc contribution           =     -18.57052097 Ry
     ewald contribution        =     529.36831945 Ry
     electric field correction =      -0.70600202 Ry
     one-center paw contrib.   =     -24.66881098 Ry
      -> PAW hartree energy AE =       9.53685893 Ry
      -> PAW hartree energy PS =      -9.52817989 Ry
      -> PAW xc energy AE      =     -10.68526999 Ry
      -> PAW xc energy PS      =       4.50943606 Ry
      -> total E_H with PAW    =     563.43717674 Ry
      -> total E_XC with PAW   =     -24.74635489 Ry

     convergence has been achieved in  14 iterations

     negative rho (up, down):  1.351E-04 0.000E+00

     Forces acting on atoms (cartesian axes, Ry/au):

     atom    1 type  1   force =    -0.00058956    0.00028136   -0.00071762
     atom    2 type  1   force =     0.00058919   -0.00028167    0.00063844
     atom    3 type  1   force =    -0.00041695    0.00040614   -0.00051090
     atom    4 type  1   force =     0.00041732   -0.00040584    0.00059008
     The non-local contrib.  to forces
     atom    1 type  1   force =    -0.00061821    0.00029838   -0.00697768
     atom    2 type  1   force =     0.00061816   -0.00029607   -0.00452307
     atom    3 type  1   force =    -0.00043740    0.00042684   -0.00637607
     atom    4 type  1   force =     0.00043662   -0.00042672   -0.00444954
     The ionic contribution  to forces
     atom    1 type  1   force =    -0.00214302    0.00102931  -21.47298179
     atom    2 type  1   force =     0.00214285   -0.00102920  -21.49946330
     atom    3 type  1   force =    -0.00151736    0.00148384   21.49680569
     atom    4 type  1   force =     0.00151753   -0.00148395   21.47563940
     The local contribution  to forces
     atom    1 type  1   force =     0.00215408   -0.00103748   21.39917834
     atom    2 type  1   force =    -0.00215392    0.00103565   21.42456360
     atom    3 type  1   force =     0.00152525   -0.00149227  -21.57091668
     atom    4 type  1   force =    -0.00152440    0.00149303  -21.55057797
     The core correction contribution to forces
     atom    1 type  1   force =     0.00001782   -0.00000874    0.00012386
     atom    2 type  1   force =    -0.00001796    0.00000854    0.00012179
     atom    3 type  1   force =     0.00001276   -0.00001235    0.00000528
     atom    4 type  1   force =    -0.00001259    0.00001245    0.00000771
     The Hubbard contrib.    to forces
     atom    1 type  1   force =     0.00000000    0.00000000    0.00000000
     atom    2 type  1   force =     0.00000000    0.00000000    0.00000000
     atom    3 type  1   force =     0.00000000    0.00000000    0.00000000
     atom    4 type  1   force =     0.00000000    0.00000000    0.00000000
     The SCF correction term to forces
     atom    1 type  1   force =    -0.00000014    0.00000019   -0.00003217
     atom    2 type  1   force =     0.00000015   -0.00000030   -0.00003241
     atom    3 type  1   force =    -0.00000011    0.00000037   -0.00000093
     atom    4 type  1   force =     0.00000024   -0.00000036   -0.00000132

     Total force =     0.001750     Total SCF correction =     0.000046

     Writing all to output data dir /home/ubuntu/projects/Graphene-Band-Structure-Quantum-Espresso/outputs/bilayer/field_0.01Ry/coupled/data/coupled.save/ :
     XML data file, charge density, pseudopotentials, collected wavefunctions

     init_run     :      4.08s CPU      4.30s WALL (       1 calls)
     electrons    :    101.61s CPU    102.29s WALL (       1 calls)
     forces       :      0.78s CPU      0.81s WALL (       1 calls)

     Called by init_run:
     wfcinit      :      1.34s CPU      1.36s WALL (       1 calls)
     wfcinit:atom :      0.02s CPU      0.02s WALL (      19 calls)
     wfcinit:wfcr :      1.21s CPU      1.22s WALL (      19 calls)
     potinit      :      0.55s CPU      0.67s WALL (       1 calls)
     hinit0       :      0.95s CPU      0.99s WALL (       1 calls)

     Called by electrons:
     c_bands      :     87.24s CPU     87.68s WALL (      14 calls)
     sum_band     :      9.66s CPU      9.78s WALL (      14 calls)
     v_of_rho     :      1.89s CPU      2.08s WALL (      15 calls)
     v_h          :      0.08s CPU      0.09s WALL (      15 calls)
     v_xc         :      1.89s CPU      2.09s WALL (      16 calls)
     newd         :      0.85s CPU      0.87s WALL (      15 calls)
     PAW_pot      :      1.83s CPU      1.84s WALL (      15 calls)
     mix_rho      :      0.23s CPU      0.24s WALL (      14 calls)

     Called by c_bands:
     init_us_2    :      0.97s CPU      0.98s WALL (     570 calls)
     cegterg      :     58.18s CPU     58.51s WALL (     266 calls)

     Called by sum_band:
     sum_band:wei :      0.01s CPU      0.01s WALL (      14 calls)
     sum_band:loo :      6.74s CPU      6.78s WALL (      14 calls)
     sum_band:buf :      0.08s CPU      0.08s WALL (     266 calls)
     sum_band:ini :      0.43s CPU      0.43s WALL (     266 calls)
     sum_band:cal :      1.79s CPU      1.80s WALL (     266 calls)
     sum_band:bec :      0.00s CPU      0.00s WALL (     266 calls)
     addusdens    :      0.56s CPU      0.61s WALL (      14 calls)
     addusd:skk   :      0.01s CPU      0.01s WALL (      14 calls)

     Called by *egterg:
     cdiaghg      :      0.57s CPU      0.58s WALL (    1845 calls)
     cegterg:over :      4.91s CPU      4.94s WALL (    1579 calls)
     cegterg:upda :      3.37s CPU      3.38s WALL (    1579 calls)
     cegterg:last :      7.74s CPU      7.77s WALL (     629 calls)
     h_psi        :     35.44s CPU     35.67s WALL (    1864 calls)
     s_psi        :      5.06s CPU      5.10s WALL (    1864 calls)
     g_psi        :      0.24s CPU      0.24s WALL (    1579 calls)

     Called by h_psi:
     h_psi:calbec :      5.21s CPU      5.23s WALL (    1864 calls)
     vloc_psi     :     24.95s CPU     25.14s WALL (    1864 calls)
     add_vuspsi   :      5.10s CPU      5.12s WALL (    1864 calls)

     General routines
     calbec       :      7.41s CPU      7.44s WALL (    2206 calls)
     fft          :      1.37s CPU      1.41s WALL (     204 calls)
     ffts         :      0.32s CPU      0.32s WALL (      29 calls)
     fftw         :     25.42s CPU     25.60s WALL (   25324 calls)
     interpolate  :      0.36s CPU      0.36s WALL (      15 calls)

     Parallel routines

     PAW routines
     PAW_pot      :      1.83s CPU      1.84s WALL (      15 calls)

     PWSCF        :   1m46.77s CPU   1m47.83s WALL


   This run was terminated on:  11:27:11   7Sep2026            

=------------------------------------------------------------------------------=
   JOB DONE.
=------------------------------------------------------------------------------=
Note: The following floating-point exceptions are signalling: IEEE_DENORMAL
