
     Program PWSCF v.7.6 starts on  5Oct2026 at  7:17:42 

     This program is part of the open-source Quantum ESPRESSO suite
     for quantum simulation of materials; please cite
         "P. Giannozzi et al., J. Phys.:Condens. Matter 21 395502 (2009);
         "P. Giannozzi et al., J. Phys.:Condens. Matter 29 465901 (2017);
         "P. Giannozzi et al., J. Chem. Phys. 152 154105 (2020);
          URL http://www.quantum-espresso.org", 
     in publications or presentations arising from this work. More details at
     http://www.quantum-espresso.org/quote

     Parallel version (MPI), running on    16 processors

     MPI processes distributed on     1 nodes
     30779 MiB available memory on the printing compute node when the environment starts

     Waiting for input...
     Reading input from standard input
Warning: card &CELL ignored
Warning: card &FCP ignored
Warning: card &RISM ignored

     Current dimensions of program PWSCF are:
     Max number of different atomic species (ntypx) = 10
     Max number of k-points (npk) =  40000
     Max angular momentum in pseudopotentials (lmaxx) =  4
     Presently no symmetry can be used with electric field


     IMPORTANT: XC functional enforced from input :
     Exchange-correlation= VDW-DF2-C09
                           (   1   4  16   0   2   0   0)
     Any further DFT definition will be discarded
     Please, verify this is what you really want


     K-points division:     npool     =      16
     Subspace diagonalization in iterative solution of the eigenvalue problem:
     a serial algorithm will be used


     G-vector sticks info
     --------------------
     sticks:   dense  smooth     PW     G-vecs:    dense   smooth      PW
     Sum         535     535    163                94953    94953   17173

     Using Slab Decomposition



     bravais-lattice index     =            0
     lattice parameter (alat)  =       4.6487  a.u.
     unit-cell volume          =     825.8174 (a.u.)^3
     number of atoms/cell      =            4
     number of atomic types    =            1
     number of electrons       =        16.00
     number of Kohn-Sham states=           14
     kinetic-energy cutoff     =      90.0000  Ry
     charge density cutoff     =     360.0000  Ry
     scf convergence threshold =      1.0E-08
     mixing beta               =       0.7000
     number of iterations used =            8  plain     mixing
     Exchange-correlation= VDW-DF2-C09
                           (   1   4  16   0   2   0   0)

     celldm(1)=   4.648726  celldm(2)=   0.000000  celldm(3)=   0.000000
     celldm(4)=   0.000000  celldm(5)=   0.000000  celldm(6)=   0.000000

     crystal axes: (cart. coord. in units of alat)
               a(1) = (   1.000000   0.000000   0.000000 )  
               a(2) = (  -0.500000   0.866025   0.000000 )  
               a(3) = (   0.000000   0.000000   9.491870 )  

     reciprocal axes: (cart. coord. in units 2 pi/alat)
               b(1) = (  1.000000  0.577351 -0.000000 )  
               b(2) = (  0.000000  1.154701  0.000000 )  
               b(3) = (  0.000000 -0.000000  0.105353 )  


     PseudoPot. # 1 for C  read from file:
     /home/ubuntu/projects/Graphene-Band-Structure-Quantum-Espresso/pseudo/C.upf
     MD5 check sum: 34a24e64c0a39f27c6c36b90a16ac686
     Pseudo is Norm-conserving + core correction, Zval =  4.0
     Generated using ONCVPSP code by D. R. Hamann
     Using radial grid of 1248 points,  4 beta functions with: 
                l(1) =   0
                l(2) =   0
                l(3) =   1
                l(4) =   1

     atomic species   valence    mass     pseudopotential
     C                 4.00    12.01100     C ( 1.00)

     No symmetry found


                                    s                        frac. trans.

      isym =  1     identity                                     

 cryst.   s( 1) = (     1          0          0      )
                  (     0          1          0      )
                  (     0          0          1      )

 cart.    s( 1) = (  1.0000000  0.0000000  0.0000000 )
                  (  0.0000000  1.0000000  0.0000000 )
                  (  0.0000000  0.0000000  1.0000000 )


   Cartesian axes

     site n.     atom                  positions (alat units)
         1        C      tau(   1) = (  -0.0000229  -0.0000491   4.0304348  )
         2        C      tau(   2) = (   0.5000131   0.2887173   4.0311246  )
         3        C      tau(   3) = (   0.4999730   0.2887162   5.4608223  )
         4        C      tau(   4) = (   0.0000369   0.5773162   5.4613593  )

   Crystallographic axes

     site n.     atom                  positions (cryst. coord.)
         1        C      tau(   1) = ( -0.0000512 -0.0000567  0.4246197  )
         2        C      tau(   2) = (  0.6667042  0.3333822  0.4246924  )
         3        C      tau(   3) = (  0.6666635  0.3333809  0.5753158  )
         4        C      tau(   4) = (  0.3333507  0.6666276  0.5753723  )

     number of k points=   113  Gaussian smearing, width (Ry)=  0.0100
                       cart. coord. in units 2pi/alat
        k(    1) = (   0.0000000   0.0000000   0.0000000), wk =   0.0088889
        k(    2) = (   0.0000000   0.0769801   0.0000000), wk =   0.0177778
        k(    3) = (   0.0000000   0.1539601   0.0000000), wk =   0.0177778
        k(    4) = (   0.0000000   0.2309402   0.0000000), wk =   0.0177778
        k(    5) = (   0.0000000   0.3079203   0.0000000), wk =   0.0177778
        k(    6) = (   0.0000000   0.3849004   0.0000000), wk =   0.0177778
        k(    7) = (   0.0000000   0.4618804   0.0000000), wk =   0.0177778
        k(    8) = (   0.0000000   0.5388605   0.0000000), wk =   0.0177778
        k(    9) = (   0.0666667   0.0384900   0.0000000), wk =   0.0177778
        k(   10) = (   0.0666667   0.1154701   0.0000000), wk =   0.0177778
        k(   11) = (   0.0666667   0.1924502   0.0000000), wk =   0.0177778
        k(   12) = (   0.0666667   0.2694303   0.0000000), wk =   0.0177778
        k(   13) = (   0.0666667   0.3464103   0.0000000), wk =   0.0177778
        k(   14) = (   0.0666667   0.4233904   0.0000000), wk =   0.0177778
        k(   15) = (   0.0666667   0.5003705   0.0000000), wk =   0.0177778
        k(   16) = (   0.0666667   0.5773505   0.0000000), wk =   0.0177778
        k(   17) = (   0.0666667  -0.5003705   0.0000000), wk =   0.0177778
        k(   18) = (   0.0666667  -0.4233904   0.0000000), wk =   0.0177778
        k(   19) = (   0.0666667  -0.3464103   0.0000000), wk =   0.0177778
        k(   20) = (   0.0666667  -0.2694303   0.0000000), wk =   0.0177778
        k(   21) = (   0.0666667  -0.1924502   0.0000000), wk =   0.0177778
        k(   22) = (   0.0666667  -0.1154701   0.0000000), wk =   0.0177778
        k(   23) = (   0.0666667  -0.0384900   0.0000000), wk =   0.0177778
        k(   24) = (   0.1333333   0.0769801   0.0000000), wk =   0.0177778
        k(   25) = (   0.1333333   0.1539601   0.0000000), wk =   0.0177778
        k(   26) = (   0.1333333   0.2309402   0.0000000), wk =   0.0177778
        k(   27) = (   0.1333333   0.3079203   0.0000000), wk =   0.0177778
        k(   28) = (   0.1333333   0.3849004   0.0000000), wk =   0.0177778
        k(   29) = (   0.1333333   0.4618804   0.0000000), wk =   0.0177778
        k(   30) = (   0.1333333   0.5388605   0.0000000), wk =   0.0177778
        k(   31) = (   0.1333333   0.6158406   0.0000000), wk =   0.0177778
        k(   32) = (   0.1333333  -0.4618804   0.0000000), wk =   0.0177778
        k(   33) = (   0.1333333  -0.3849004   0.0000000), wk =   0.0177778
        k(   34) = (   0.1333333  -0.3079203   0.0000000), wk =   0.0177778
        k(   35) = (   0.1333333  -0.2309402   0.0000000), wk =   0.0177778
        k(   36) = (   0.1333333  -0.1539601   0.0000000), wk =   0.0177778
        k(   37) = (   0.1333333  -0.0769801   0.0000000), wk =   0.0177778
        k(   38) = (   0.1333333   0.0000000   0.0000000), wk =   0.0177778
        k(   39) = (   0.2000000   0.1154701   0.0000000), wk =   0.0177778
        k(   40) = (   0.2000000   0.1924502   0.0000000), wk =   0.0177778
        k(   41) = (   0.2000000   0.2694303   0.0000000), wk =   0.0177778
        k(   42) = (   0.2000000   0.3464103   0.0000000), wk =   0.0177778
        k(   43) = (   0.2000000   0.4233904   0.0000000), wk =   0.0177778
        k(   44) = (   0.2000000   0.5003705   0.0000000), wk =   0.0177778
        k(   45) = (   0.2000000   0.5773505   0.0000000), wk =   0.0177778
        k(   46) = (   0.2000000   0.6543306   0.0000000), wk =   0.0177778
        k(   47) = (   0.2000000  -0.4233904   0.0000000), wk =   0.0177778
        k(   48) = (   0.2000000  -0.3464103   0.0000000), wk =   0.0177778
        k(   49) = (   0.2000000  -0.2694303   0.0000000), wk =   0.0177778
        k(   50) = (   0.2000000  -0.1924502   0.0000000), wk =   0.0177778
        k(   51) = (   0.2000000  -0.1154701   0.0000000), wk =   0.0177778
        k(   52) = (   0.2000000  -0.0384900   0.0000000), wk =   0.0177778
        k(   53) = (   0.2000000   0.0384900   0.0000000), wk =   0.0177778
        k(   54) = (   0.2666667   0.1539601   0.0000000), wk =   0.0177778
        k(   55) = (   0.2666667   0.2309402   0.0000000), wk =   0.0177778
        k(   56) = (   0.2666667   0.3079203   0.0000000), wk =   0.0177778
        k(   57) = (   0.2666667   0.3849004   0.0000000), wk =   0.0177778
        k(   58) = (   0.2666667   0.4618804   0.0000000), wk =   0.0177778
        k(   59) = (   0.2666667   0.5388605   0.0000000), wk =   0.0177778
        k(   60) = (   0.2666667   0.6158406   0.0000000), wk =   0.0177778
        k(   61) = (   0.2666667   0.6928206   0.0000000), wk =   0.0177778
        k(   62) = (   0.2666667  -0.3849004   0.0000000), wk =   0.0177778
        k(   63) = (   0.2666667  -0.3079203   0.0000000), wk =   0.0177778
        k(   64) = (   0.2666667  -0.2309402   0.0000000), wk =   0.0177778
        k(   65) = (   0.2666667  -0.1539601   0.0000000), wk =   0.0177778
        k(   66) = (   0.2666667  -0.0769801   0.0000000), wk =   0.0177778
        k(   67) = (   0.2666667   0.0000000   0.0000000), wk =   0.0177778
        k(   68) = (   0.2666667   0.0769801   0.0000000), wk =   0.0177778
        k(   69) = (   0.3333333   0.1924502   0.0000000), wk =   0.0177778
        k(   70) = (   0.3333333   0.2694303   0.0000000), wk =   0.0177778
        k(   71) = (   0.3333333   0.3464103   0.0000000), wk =   0.0177778
        k(   72) = (   0.3333333   0.4233904   0.0000000), wk =   0.0177778
        k(   73) = (   0.3333333   0.5003705   0.0000000), wk =   0.0177778
        k(   74) = (   0.3333333   0.5773505   0.0000000), wk =   0.0177778
        k(   75) = (   0.3333333   0.6543306   0.0000000), wk =   0.0177778
        k(   76) = (   0.3333333   0.7313107   0.0000000), wk =   0.0177778
        k(   77) = (   0.3333333  -0.3464103   0.0000000), wk =   0.0177778
        k(   78) = (   0.3333333  -0.2694303   0.0000000), wk =   0.0177778
        k(   79) = (   0.3333333  -0.1924502   0.0000000), wk =   0.0177778
        k(   80) = (   0.3333333  -0.1154701   0.0000000), wk =   0.0177778
        k(   81) = (   0.3333333  -0.0384900   0.0000000), wk =   0.0177778
        k(   82) = (   0.3333333   0.0384900   0.0000000), wk =   0.0177778
        k(   83) = (   0.3333333   0.1154701   0.0000000), wk =   0.0177778
        k(   84) = (   0.4000000   0.2309402   0.0000000), wk =   0.0177778
        k(   85) = (   0.4000000   0.3079203   0.0000000), wk =   0.0177778
        k(   86) = (   0.4000000   0.3849004   0.0000000), wk =   0.0177778
        k(   87) = (   0.4000000   0.4618804   0.0000000), wk =   0.0177778
        k(   88) = (   0.4000000   0.5388605   0.0000000), wk =   0.0177778
        k(   89) = (   0.4000000   0.6158406   0.0000000), wk =   0.0177778
        k(   90) = (   0.4000000   0.6928206   0.0000000), wk =   0.0177778
        k(   91) = (   0.4000000   0.7698007   0.0000000), wk =   0.0177778
        k(   92) = (   0.4000000  -0.3079203   0.0000000), wk =   0.0177778
        k(   93) = (   0.4000000  -0.2309402   0.0000000), wk =   0.0177778
        k(   94) = (   0.4000000  -0.1539601   0.0000000), wk =   0.0177778
        k(   95) = (   0.4000000  -0.0769801   0.0000000), wk =   0.0177778
        k(   96) = (   0.4000000   0.0000000   0.0000000), wk =   0.0177778
        k(   97) = (   0.4000000   0.0769801   0.0000000), wk =   0.0177778
        k(   98) = (   0.4000000   0.1539601   0.0000000), wk =   0.0177778
        k(   99) = (   0.4666667   0.2694303   0.0000000), wk =   0.0177778
        k(  100) = (   0.4666667   0.3464103   0.0000000), wk =   0.0177778
        k(  101) = (   0.4666667   0.4233904   0.0000000), wk =   0.0177778
        k(  102) = (   0.4666667   0.5003705   0.0000000), wk =   0.0177778
        k(  103) = (   0.4666667   0.5773505   0.0000000), wk =   0.0177778
        k(  104) = (   0.4666667   0.6543306   0.0000000), wk =   0.0177778
        k(  105) = (   0.4666667   0.7313107   0.0000000), wk =   0.0177778
        k(  106) = (   0.4666667   0.8082908   0.0000000), wk =   0.0177778
        k(  107) = (   0.4666667  -0.2694303   0.0000000), wk =   0.0177778
        k(  108) = (   0.4666667  -0.1924502   0.0000000), wk =   0.0177778
        k(  109) = (   0.4666667  -0.1154701   0.0000000), wk =   0.0177778
        k(  110) = (   0.4666667  -0.0384900   0.0000000), wk =   0.0177778
        k(  111) = (   0.4666667   0.0384900   0.0000000), wk =   0.0177778
        k(  112) = (   0.4666667   0.1154701   0.0000000), wk =   0.0177778
        k(  113) = (   0.4666667   0.1924502   0.0000000), wk =   0.0177778

                       cryst. coord.
        k(    1) = (   0.0000000   0.0000000   0.0000000), wk =   0.0088889
        k(    2) = (   0.0000000   0.0666667   0.0000000), wk =   0.0177778
        k(    3) = (   0.0000000   0.1333333   0.0000000), wk =   0.0177778
        k(    4) = (   0.0000000   0.2000000   0.0000000), wk =   0.0177778
        k(    5) = (   0.0000000   0.2666667   0.0000000), wk =   0.0177778
        k(    6) = (   0.0000000   0.3333333   0.0000000), wk =   0.0177778
        k(    7) = (   0.0000000   0.4000000   0.0000000), wk =   0.0177778
        k(    8) = (   0.0000000   0.4666667   0.0000000), wk =   0.0177778
        k(    9) = (   0.0666667   0.0000000   0.0000000), wk =   0.0177778
        k(   10) = (   0.0666667   0.0666667   0.0000000), wk =   0.0177778
        k(   11) = (   0.0666667   0.1333333   0.0000000), wk =   0.0177778
        k(   12) = (   0.0666667   0.2000000   0.0000000), wk =   0.0177778
        k(   13) = (   0.0666667   0.2666667   0.0000000), wk =   0.0177778
        k(   14) = (   0.0666667   0.3333333   0.0000000), wk =   0.0177778
        k(   15) = (   0.0666667   0.4000000   0.0000000), wk =   0.0177778
        k(   16) = (   0.0666667   0.4666667   0.0000000), wk =   0.0177778
        k(   17) = (   0.0666667  -0.4666667   0.0000000), wk =   0.0177778
        k(   18) = (   0.0666667  -0.4000000   0.0000000), wk =   0.0177778
        k(   19) = (   0.0666667  -0.3333333   0.0000000), wk =   0.0177778
        k(   20) = (   0.0666667  -0.2666667   0.0000000), wk =   0.0177778
        k(   21) = (   0.0666667  -0.2000000   0.0000000), wk =   0.0177778
        k(   22) = (   0.0666667  -0.1333333   0.0000000), wk =   0.0177778
        k(   23) = (   0.0666667  -0.0666667   0.0000000), wk =   0.0177778
        k(   24) = (   0.1333333   0.0000000   0.0000000), wk =   0.0177778
        k(   25) = (   0.1333333   0.0666667   0.0000000), wk =   0.0177778
        k(   26) = (   0.1333333   0.1333333   0.0000000), wk =   0.0177778
        k(   27) = (   0.1333333   0.2000000   0.0000000), wk =   0.0177778
        k(   28) = (   0.1333333   0.2666667   0.0000000), wk =   0.0177778
        k(   29) = (   0.1333333   0.3333333   0.0000000), wk =   0.0177778
        k(   30) = (   0.1333333   0.4000000   0.0000000), wk =   0.0177778
        k(   31) = (   0.1333333   0.4666667   0.0000000), wk =   0.0177778
        k(   32) = (   0.1333333  -0.4666667   0.0000000), wk =   0.0177778
        k(   33) = (   0.1333333  -0.4000000   0.0000000), wk =   0.0177778
        k(   34) = (   0.1333333  -0.3333333   0.0000000), wk =   0.0177778
        k(   35) = (   0.1333333  -0.2666667   0.0000000), wk =   0.0177778
        k(   36) = (   0.1333333  -0.2000000   0.0000000), wk =   0.0177778
        k(   37) = (   0.1333333  -0.1333333   0.0000000), wk =   0.0177778
        k(   38) = (   0.1333333  -0.0666667   0.0000000), wk =   0.0177778
        k(   39) = (   0.2000000   0.0000000   0.0000000), wk =   0.0177778
        k(   40) = (   0.2000000   0.0666667   0.0000000), wk =   0.0177778
        k(   41) = (   0.2000000   0.1333333   0.0000000), wk =   0.0177778
        k(   42) = (   0.2000000   0.2000000   0.0000000), wk =   0.0177778
        k(   43) = (   0.2000000   0.2666667   0.0000000), wk =   0.0177778
        k(   44) = (   0.2000000   0.3333333   0.0000000), wk =   0.0177778
        k(   45) = (   0.2000000   0.4000000   0.0000000), wk =   0.0177778
        k(   46) = (   0.2000000   0.4666667   0.0000000), wk =   0.0177778
        k(   47) = (   0.2000000  -0.4666667   0.0000000), wk =   0.0177778
        k(   48) = (   0.2000000  -0.4000000   0.0000000), wk =   0.0177778
        k(   49) = (   0.2000000  -0.3333333   0.0000000), wk =   0.0177778
        k(   50) = (   0.2000000  -0.2666667   0.0000000), wk =   0.0177778
        k(   51) = (   0.2000000  -0.2000000   0.0000000), wk =   0.0177778
        k(   52) = (   0.2000000  -0.1333333   0.0000000), wk =   0.0177778
        k(   53) = (   0.2000000  -0.0666667   0.0000000), wk =   0.0177778
        k(   54) = (   0.2666667   0.0000000   0.0000000), wk =   0.0177778
        k(   55) = (   0.2666667   0.0666667   0.0000000), wk =   0.0177778
        k(   56) = (   0.2666667   0.1333333   0.0000000), wk =   0.0177778
        k(   57) = (   0.2666667   0.2000000   0.0000000), wk =   0.0177778
        k(   58) = (   0.2666667   0.2666667   0.0000000), wk =   0.0177778
        k(   59) = (   0.2666667   0.3333333   0.0000000), wk =   0.0177778
        k(   60) = (   0.2666667   0.4000000   0.0000000), wk =   0.0177778
        k(   61) = (   0.2666667   0.4666667   0.0000000), wk =   0.0177778
        k(   62) = (   0.2666667  -0.4666667   0.0000000), wk =   0.0177778
        k(   63) = (   0.2666667  -0.4000000   0.0000000), wk =   0.0177778
        k(   64) = (   0.2666667  -0.3333333   0.0000000), wk =   0.0177778
        k(   65) = (   0.2666667  -0.2666667   0.0000000), wk =   0.0177778
        k(   66) = (   0.2666667  -0.2000000   0.0000000), wk =   0.0177778
        k(   67) = (   0.2666667  -0.1333333   0.0000000), wk =   0.0177778
        k(   68) = (   0.2666667  -0.0666667   0.0000000), wk =   0.0177778
        k(   69) = (   0.3333333   0.0000000   0.0000000), wk =   0.0177778
        k(   70) = (   0.3333333   0.0666667   0.0000000), wk =   0.0177778
        k(   71) = (   0.3333333   0.1333333   0.0000000), wk =   0.0177778
        k(   72) = (   0.3333333   0.2000000   0.0000000), wk =   0.0177778
        k(   73) = (   0.3333333   0.2666667   0.0000000), wk =   0.0177778
        k(   74) = (   0.3333333   0.3333333   0.0000000), wk =   0.0177778
        k(   75) = (   0.3333333   0.4000000   0.0000000), wk =   0.0177778
        k(   76) = (   0.3333333   0.4666667   0.0000000), wk =   0.0177778
        k(   77) = (   0.3333333  -0.4666667   0.0000000), wk =   0.0177778
        k(   78) = (   0.3333333  -0.4000000   0.0000000), wk =   0.0177778
        k(   79) = (   0.3333333  -0.3333333   0.0000000), wk =   0.0177778
        k(   80) = (   0.3333333  -0.2666667   0.0000000), wk =   0.0177778
        k(   81) = (   0.3333333  -0.2000000   0.0000000), wk =   0.0177778
        k(   82) = (   0.3333333  -0.1333333   0.0000000), wk =   0.0177778
        k(   83) = (   0.3333333  -0.0666667   0.0000000), wk =   0.0177778
        k(   84) = (   0.4000000   0.0000000   0.0000000), wk =   0.0177778
        k(   85) = (   0.4000000   0.0666667   0.0000000), wk =   0.0177778
        k(   86) = (   0.4000000   0.1333333   0.0000000), wk =   0.0177778
        k(   87) = (   0.4000000   0.2000000   0.0000000), wk =   0.0177778
        k(   88) = (   0.4000000   0.2666667   0.0000000), wk =   0.0177778
        k(   89) = (   0.4000000   0.3333333   0.0000000), wk =   0.0177778
        k(   90) = (   0.4000000   0.4000000   0.0000000), wk =   0.0177778
        k(   91) = (   0.4000000   0.4666667   0.0000000), wk =   0.0177778
        k(   92) = (   0.4000000  -0.4666667   0.0000000), wk =   0.0177778
        k(   93) = (   0.4000000  -0.4000000   0.0000000), wk =   0.0177778
        k(   94) = (   0.4000000  -0.3333333   0.0000000), wk =   0.0177778
        k(   95) = (   0.4000000  -0.2666667   0.0000000), wk =   0.0177778
        k(   96) = (   0.4000000  -0.2000000   0.0000000), wk =   0.0177778
        k(   97) = (   0.4000000  -0.1333333   0.0000000), wk =   0.0177778
        k(   98) = (   0.4000000  -0.0666667   0.0000000), wk =   0.0177778
        k(   99) = (   0.4666667   0.0000000   0.0000000), wk =   0.0177778
        k(  100) = (   0.4666667   0.0666667   0.0000000), wk =   0.0177778
        k(  101) = (   0.4666667   0.1333333   0.0000000), wk =   0.0177778
        k(  102) = (   0.4666667   0.2000000   0.0000000), wk =   0.0177778
        k(  103) = (   0.4666667   0.2666667   0.0000000), wk =   0.0177778
        k(  104) = (   0.4666667   0.3333333   0.0000000), wk =   0.0177778
        k(  105) = (   0.4666667   0.4000000   0.0000000), wk =   0.0177778
        k(  106) = (   0.4666667   0.4666667   0.0000000), wk =   0.0177778
        k(  107) = (   0.4666667  -0.4666667   0.0000000), wk =   0.0177778
        k(  108) = (   0.4666667  -0.4000000   0.0000000), wk =   0.0177778
        k(  109) = (   0.4666667  -0.3333333   0.0000000), wk =   0.0177778
        k(  110) = (   0.4666667  -0.2666667   0.0000000), wk =   0.0177778
        k(  111) = (   0.4666667  -0.2000000   0.0000000), wk =   0.0177778
        k(  112) = (   0.4666667  -0.1333333   0.0000000), wk =   0.0177778
        k(  113) = (   0.4666667  -0.0666667   0.0000000), wk =   0.0177778

     Dense  grid:    94953 G-vectors     FFT dimensions: (  30,  30, 270)

     Dynamical RAM for                 wfc:       2.54 MB

     Dynamical RAM for     wfc (w. buffer):      22.89 MB

     Dynamical RAM for           str. fact:       1.45 MB

     Dynamical RAM for           local pot:       0.00 MB

     Dynamical RAM for          nlocal pot:       5.81 MB

     Dynamical RAM for                qrad:       0.44 MB

     Dynamical RAM for          rho,v,vnew:       9.91 MB

     Dynamical RAM for               rhoin:       3.30 MB

     Dynamical RAM for            rho*nmix:      23.18 MB

     Dynamical RAM for           G-vectors:       6.16 MB

     Dynamical RAM for          h,s,v(r/c):       0.04 MB

     Dynamical RAM for          <psi|beta>:       0.01 MB

     Dynamical RAM for                 psi:       5.09 MB

     Dynamical RAM for                hpsi:       5.09 MB

     Dynamical RAM for      wfcinit/wfcrot:       5.09 MB

     Estimated static dynamical RAM per process >      62.13 MB

     Estimated max dynamical RAM per process >      95.53 MB

     Estimated total dynamical RAM >       1.15 GB

     Adding external electric field
        E field amplitude [Ha a.u.]:  5.0000E-03
        Potential amp.        0.3971 Ry
        Total length         39.7126 bohr


     Initial potential from superposition of free atoms

     starting charge      15.9998, renormalised to      16.0000

     negative rho (up, down):  7.632E-06 0.000E+00


     %%%%%%%%%%%%%%%%%%%%%%%%%%%%%%%%%%%%%%%%%%%%%%%%%%%%%%%%%%%%%%%%%%%%%%%%
     %                                                                      %
     % You are using vdW-DF, which was implemented by the Thonhauser group. %
     % Please cite the following two papers that made this development      %
     % possible and the two reviews that describe the various versions:     %
     %                                                                      %
     %   T. Thonhauser et al., PRL 115, 136402 (2015).                      %
     %   T. Thonhauser et al., PRB 76,  125112 (2007).                      %
     %   K. Berland et al., Rep. Prog. Phys. 78, 066501 (2015).             %
     %   D.C. Langreth et al., J. Phys.: Condens. Matter 21, 084203 (2009). %
     %                                                                      %
     % If you are calculating stress with vdW-DF, please also cite:         %
     %                                                                      %
     %   R. Sabatini et al., J. Phys.: Condens. Matter 24, 424209 (2012).   %
     %                                                                      %
     %   And for spin-polarized stress cases also:                          %
     %   C.M. Frostenson et al., Electr. Struct. 4, 014001 (2022).          %
     %                                                                      %
     %%%%%%%%%%%%%%%%%%%%%%%%%%%%%%%%%%%%%%%%%%%%%%%%%%%%%%%%%%%%%%%%%%%%%%%%

     %%%%%%%%%%%%%%%%%%%%%%%%%%%%%%%%%%%%%%%%%%%%%%%%%%%%%%%%%%%%%%%%%%%%%%%%
     %                                                                      %
     %  vdW-DF NEWS:                                                        %
     %                                                                      %
     %  * vdW-DF3-mc is now available. DOI: 10.1103/hp9d-4kpf               %
     %    use with input_dft = 'vdW-DF3-mc'                                 %
     %  * vdW-DF3 is now available. DOI: 10.1021/acs.jctc.0c00471           %
     %    use with input_dft = 'vdW-DF3-opt1' or 'vdW-DF3-opt2'             %
     %                                                                      %
     %  * Unscreened and range-separated hybrid vdW-DF-cx functionals       %
     %    DOI: 10.1063/1.4986522 and 10.1088/1361-648X/ac2ad2               %
     %    use with input_dft = 'vdW-DF-cx0' and 'vdW-DF-ahcx'               %
     %  * Unscreened and range-separated hybrid vdW-DF2-b86r functionals    %
     %    DOI: 10.1063/1.4986522 and DOI: 10.1103/PhysRevX.12.041003        %
     %    use with input_dft = 'vdW-DF2-br0' and 'vdW-DF2-ahbr'             %
     %                                                                      %
     %%%%%%%%%%%%%%%%%%%%%%%%%%%%%%%%%%%%%%%%%%%%%%%%%%%%%%%%%%%%%%%%%%%%%%%%


     Carrying out vdW-DF run using the following parameters:
     Nqs    =  20  Npoints =  1024  r_max =  100.000
     q_mesh =  0.00001000  0.04494208  0.09755937  0.15916263
               0.23128650  0.31572767  0.41458969  0.53033537
               0.66584808  0.82450364  1.01025438  1.22772762
               1.48234092  1.78043706  2.12944203  2.53805004
               3.01644009  3.57652955  4.23227104  5.00000000


     -----------------------------------------------
     Non-local corr. energy    =       0.17278283 Ry
     -----------------------------------------------

     Starting wfcs are   16 randomized atomic wfcs

     total cpu time spent up to now is       11.4 secs

     Self-consistent Calculation

     iteration #  1     ecut=    90.00 Ry     beta= 0.70
     Davidson diagonalization with overlap

---- Real-time Memory Report at c_bands before calling an iterative solver
           225 MiB given to the printing process from OS
             0 MiB allocation reported by mallinfo(arena+hblkhd)
         27629 MiB available memory on the node where the printing process lives
------------------
     ethr =  1.00E-02,  avg # of iterations =  6.9


     -----------------------------------------------
     Non-local corr. energy    =       0.19634470 Ry
     -----------------------------------------------


     total cpu time spent up to now is       18.2 secs

     total energy              =     -48.11427368 Ry
     estimated scf accuracy    <       0.36802819 Ry

     iteration #  2     ecut=    90.00 Ry     beta= 0.70
     Davidson diagonalization with overlap

---- Real-time Memory Report at c_bands before calling an iterative solver
           279 MiB given to the printing process from OS
             0 MiB allocation reported by mallinfo(arena+hblkhd)
         27255 MiB available memory on the node where the printing process lives
------------------
     ethr =  2.30E-03,  avg # of iterations =  6.0


     -----------------------------------------------
     Non-local corr. energy    =       0.19637184 Ry
     -----------------------------------------------


     total cpu time spent up to now is       26.4 secs

     total energy              =     -48.15970305 Ry
     estimated scf accuracy    <       0.01201720 Ry

     iteration #  3     ecut=    90.00 Ry     beta= 0.70
     Davidson diagonalization with overlap

---- Real-time Memory Report at c_bands before calling an iterative solver
           282 MiB given to the printing process from OS
             0 MiB allocation reported by mallinfo(arena+hblkhd)
         27169 MiB available memory on the node where the printing process lives
------------------
     ethr =  7.51E-05,  avg # of iterations = 11.8


     -----------------------------------------------
     Non-local corr. energy    =       0.19624234 Ry
     -----------------------------------------------


     total cpu time spent up to now is       33.9 secs

     total energy              =     -48.16083627 Ry
     estimated scf accuracy    <       0.02093262 Ry

     iteration #  4     ecut=    90.00 Ry     beta= 0.70
     Davidson diagonalization with overlap

---- Real-time Memory Report at c_bands before calling an iterative solver
           285 MiB given to the printing process from OS
             0 MiB allocation reported by mallinfo(arena+hblkhd)
         27074 MiB available memory on the node where the printing process lives
------------------
     ethr =  7.51E-05,  avg # of iterations =  7.1


     -----------------------------------------------
     Non-local corr. energy    =       0.19623898 Ry
     -----------------------------------------------


     total cpu time spent up to now is       39.8 secs

     total energy              =     -48.16531280 Ry
     estimated scf accuracy    <       0.00019211 Ry

     iteration #  5     ecut=    90.00 Ry     beta= 0.70
     Davidson diagonalization with overlap

---- Real-time Memory Report at c_bands before calling an iterative solver
           288 MiB given to the printing process from OS
             0 MiB allocation reported by mallinfo(arena+hblkhd)
         26949 MiB available memory on the node where the printing process lives
------------------
     ethr =  1.20E-06,  avg # of iterations =  9.3


     -----------------------------------------------
     Non-local corr. energy    =       0.19630002 Ry
     -----------------------------------------------


     total cpu time spent up to now is       46.8 secs

     total energy              =     -48.16532635 Ry
     estimated scf accuracy    <       0.00009452 Ry

     iteration #  6     ecut=    90.00 Ry     beta= 0.70
     Davidson diagonalization with overlap

---- Real-time Memory Report at c_bands before calling an iterative solver
           290 MiB given to the printing process from OS
             0 MiB allocation reported by mallinfo(arena+hblkhd)
         27173 MiB available memory on the node where the printing process lives
------------------
     ethr =  5.91E-07,  avg # of iterations =  2.8


     -----------------------------------------------
     Non-local corr. energy    =       0.19635355 Ry
     -----------------------------------------------


     total cpu time spent up to now is       51.8 secs

     total energy              =     -48.16534461 Ry
     estimated scf accuracy    <       0.00000215 Ry

     iteration #  7     ecut=    90.00 Ry     beta= 0.70
     Davidson diagonalization with overlap

---- Real-time Memory Report at c_bands before calling an iterative solver
           293 MiB given to the printing process from OS
             0 MiB allocation reported by mallinfo(arena+hblkhd)
         27093 MiB available memory on the node where the printing process lives
------------------
     ethr =  1.34E-08,  avg # of iterations =  2.5


     -----------------------------------------------
     Non-local corr. energy    =       0.19635754 Ry
     -----------------------------------------------


     total cpu time spent up to now is       57.7 secs

     total energy              =     -48.16534524 Ry
     estimated scf accuracy    <       0.00000019 Ry

     iteration #  8     ecut=    90.00 Ry     beta= 0.70
     Davidson diagonalization with overlap

---- Real-time Memory Report at c_bands before calling an iterative solver
           297 MiB given to the printing process from OS
             0 MiB allocation reported by mallinfo(arena+hblkhd)
         27280 MiB available memory on the node where the printing process lives
------------------
     ethr =  1.21E-09,  avg # of iterations =  3.1


     -----------------------------------------------
     Non-local corr. energy    =       0.19635772 Ry
     -----------------------------------------------


     total cpu time spent up to now is       63.0 secs

     total energy              =     -48.16534531 Ry
     estimated scf accuracy    <       0.00000005 Ry

     iteration #  9     ecut=    90.00 Ry     beta= 0.70
     Davidson diagonalization with overlap

---- Real-time Memory Report at c_bands before calling an iterative solver
           299 MiB given to the printing process from OS
             0 MiB allocation reported by mallinfo(arena+hblkhd)
         27111 MiB available memory on the node where the printing process lives
------------------
     ethr =  3.03E-10,  avg # of iterations =  2.9


     -----------------------------------------------
     Non-local corr. energy    =       0.19635796 Ry
     -----------------------------------------------


     total cpu time spent up to now is       68.2 secs

     End of self-consistent calculation

          k = 0.0000 0.0000 0.0000 ( 11659 PWs)   bands (ev):

   -20.4525 -20.2869  -8.8931  -8.0876  -3.8892  -3.8819  -3.7705  -3.7632
     1.6266   2.0135   2.9887   3.5823   4.7897   5.8542

     occupation numbers 
     1.0000   1.0000   1.0000   1.0000   1.0000   1.0000   1.0000   1.0000
     0.0000   0.0000   0.0000   0.0000   0.0000   0.0000

          k = 0.0000 0.0770 0.0000 ( 11791 PWs)   bands (ev):

   -20.3469 -20.1817  -8.7648  -7.9627  -4.3144  -4.1895  -4.1069  -3.9937
     1.7727   2.1583   3.1299   3.7274   4.9281   5.9924

     occupation numbers 
     1.0000   1.0000   1.0000   1.0000   1.0000   1.0000   1.0000   1.0000
     0.0000   0.0000   0.0000   0.0000   0.0000   0.0000

          k = 0.0000 0.1540 0.0000 ( 11788 PWs)   bands (ev):

   -20.0307 -19.8670  -8.3818  -7.5901  -5.4458  -5.3203  -4.6764  -4.5619
     2.2109   2.5926   3.5536   4.1626   5.3425   6.4061

     occupation numbers 
     1.0000   1.0000   1.0000   1.0000   1.0000   1.0000   1.0000   1.0000
     0.0000   0.0000   0.0000   0.0000   0.0000   0.0000

          k = 0.0000 0.2309 0.0000 ( 11848 PWs)   bands (ev):

   -19.5062 -19.3449  -7.7506  -7.0006  -6.9766  -6.8723  -5.3888  -5.2729
     2.9405   3.3160   4.2579   4.8863   6.0238   7.0740

     occupation numbers 
     1.0000   1.0000   1.0000   1.0000   1.0000   1.0000   1.0000   1.0000
     0.0000   0.0000   0.0000   0.0000   0.0000   0.0000

          k = 0.0000 0.3079 0.0000 ( 11876 PWs)   bands (ev):

   -18.7776 -18.6195  -8.7398  -8.6103  -6.8849  -6.1415  -6.0821  -5.9650
     3.9588   4.3260   5.2243   5.8171   5.9782   6.1761

     occupation numbers 
     1.0000   1.0000   1.0000   1.0000   1.0000   1.0000   1.0000   1.0000
     0.0000   0.0000   0.0000   0.0000   0.0000   0.0000

          k = 0.0000 0.3849 0.0000 ( 11914 PWs)   bands (ev):

   -17.8522 -17.6981 -10.5138 -10.3810  -6.6589  -6.5411  -5.8144  -5.1192
     3.9523   4.3421   5.2764   5.6327   6.4944   6.9576

     occupation numbers 
     1.0000   1.0000   1.0000   1.0000   1.0000   1.0000   1.0000   1.0000
     0.0000   0.0000   0.0000   0.0000   0.0000   0.0000

          k = 0.0000 0.4619 0.0000 ( 11910 PWs)   bands (ev):

   -16.7457 -16.5964 -12.2224 -12.0858  -7.0658  -6.9476  -4.6152  -4.0105
     2.1671   2.6020   6.7314   6.8719   6.9485   7.2359

     occupation numbers 
     1.0000   1.0000   1.0000   1.0000   1.0000   1.0000   1.0000   1.0000
     0.0000   0.0000   0.0000   0.0000   0.0000   0.0000

          k = 0.0000 0.5389 0.0000 ( 11924 PWs)   bands (ev):

   -15.5307 -15.3900 -13.7449 -13.6068  -7.2752  -7.1567  -3.5533  -3.1525
     0.9110   1.2884   6.6487   6.8414   8.7306   9.0957

     occupation numbers 
     1.0000   1.0000   1.0000   1.0000   1.0000   1.0000   1.0000   1.0000
     0.0000   0.0000   0.0000   0.0000   0.0000   0.0000

          k = 0.0667 0.0385 0.0000 ( 11791 PWs)   bands (ev):

   -20.3469 -20.1817  -8.7648  -7.9627  -4.3086  -4.1915  -4.1127  -3.9917
     1.7727   2.1583   3.1299   3.7274   4.9281   5.9924

     occupation numbers 
     1.0000   1.0000   1.0000   1.0000   1.0000   1.0000   1.0000   1.0000
     0.0000   0.0000   0.0000   0.0000   0.0000   0.0000

          k = 0.0667 0.1155 0.0000 ( 11813 PWs)   bands (ev):

   -20.1360 -19.9718  -8.5092  -7.7139  -5.0385  -4.9152  -4.5587  -4.4432
     2.0649   2.4479   3.4125   4.0176   5.2049   6.2689

     occupation numbers 
     1.0000   1.0000   1.0000   1.0000   1.0000   1.0000   1.0000   1.0000
     0.0000   0.0000   0.0000   0.0000   0.0000   0.0000

          k = 0.0667 0.1925 0.0000 ( 11832 PWs)   bands (ev):

   -19.7156 -19.5534  -8.0018  -7.2210  -6.2928  -6.1672  -5.2897  -5.1742
     2.6489   3.0269   3.9771   4.5974   5.7559   6.8188

     occupation numbers 
     1.0000   1.0000   1.0000   1.0000   1.0000   1.0000   1.0000   1.0000
     0.0000   0.0000   0.0000   0.0000   0.0000   0.0000

          k = 0.0667 0.2694 0.0000 ( 11880 PWs)   bands (ev):

   -19.0891 -18.9297  -7.8815  -7.7537  -7.2523  -6.4953  -6.0524  -5.9355
     3.5234   3.8944   4.8196   5.4632   6.5368   6.7071

     occupation numbers 
     1.0000   1.0000   1.0000   1.0000   1.0000   1.0000   1.0000   1.0000
     0.0000   0.0000   0.0000   0.0000   0.0000   0.0000

          k = 0.0667 0.3464 0.0000 ( 11910 PWs)   bands (ev):

   -18.2620 -18.1062  -9.6080  -9.4773  -6.7185  -6.6004  -6.2805  -5.5611
     4.6596   4.8492   5.0663   5.1717   5.9555   6.6280

     occupation numbers 
     1.0000   1.0000   1.0000   1.0000   1.0000   1.0000   1.0000   1.0000
     0.0000   0.0000   0.0000   0.0000   0.0000   0.0000

          k = 0.0667 0.4234 0.0000 ( 11938 PWs)   bands (ev):

   -17.2449 -17.0933 -11.3353 -11.2009  -7.2252  -7.1063  -5.1317  -4.4761
     2.9939   3.3943   6.1403   6.4944   7.2594   7.3446

     occupation numbers 
     1.0000   1.0000   1.0000   1.0000   1.0000   1.0000   1.0000   1.0000
     0.0000   0.0000   0.0000   0.0000   0.0000   0.0000

          k = 0.0667 0.5004 0.0000 ( 11920 PWs)   bands (ev):

   -16.0664 -15.9205 -12.9625 -12.8246  -7.5398  -7.4205  -3.9399  -3.4183
     1.4114   1.8199   7.1509   7.3451   7.8753   8.2328

     occupation numbers 
     1.0000   1.0000   1.0000   1.0000   1.0000   1.0000   1.0000   1.0000
     0.0000   0.0000   0.0000   0.0000   0.0000   0.0000

          k = 0.0667 0.5774 0.0000 ( 11913 PWs)   bands (ev):

   -15.0868 -14.9582 -14.0836 -13.9525  -7.6463  -7.5268  -3.2486  -2.9352
     0.7122   1.0295   7.0992   7.2982   9.8156   9.8765

     occupation numbers 
     1.0000   1.0000   1.0000   1.0000   1.0000   1.0000   1.0000   1.0000
     0.0000   0.0000   0.0000   0.0000   0.0000   0.0000

          k = 0.0667-0.5004 0.0000 ( 11920 PWs)   bands (ev):

   -16.0664 -15.9205 -12.9626 -12.8247  -7.5398  -7.4204  -3.9398  -3.4182
     1.4112   1.8197   7.1510   7.3453   7.8753   8.2328

     occupation numbers 
     1.0000   1.0000   1.0000   1.0000   1.0000   1.0000   1.0000   1.0000
     0.0000   0.0000   0.0000   0.0000   0.0000   0.0000

          k = 0.0667-0.4234 0.0000 ( 11938 PWs)   bands (ev):

   -17.2449 -17.0934 -11.3354 -11.2011  -7.2251  -7.1062  -5.1316  -4.4760
     2.9937   3.3940   6.1403   6.4945   7.2597   7.3448

     occupation numbers 
     1.0000   1.0000   1.0000   1.0000   1.0000   1.0000   1.0000   1.0000
     0.0000   0.0000   0.0000   0.0000   0.0000   0.0000

          k = 0.0667-0.3464 0.0000 ( 11910 PWs)   bands (ev):

   -18.2620 -18.1062  -9.6082  -9.4776  -6.7183  -6.6000  -6.2804  -5.5610
     4.6595   4.8490   5.0663   5.1714   5.9556   6.6281

     occupation numbers 
     1.0000   1.0000   1.0000   1.0000   1.0000   1.0000   1.0000   1.0000
     0.0000   0.0000   0.0000   0.0000   0.0000   0.0000

          k = 0.0667-0.2694 0.0000 ( 11880 PWs)   bands (ev):

   -19.0891 -18.9297  -7.8819  -7.7545  -7.2523  -6.4952  -6.0519  -5.9346
     3.5234   3.8944   4.8196   5.4632   6.5368   6.7066

     occupation numbers 
     1.0000   1.0000   1.0000   1.0000   1.0000   1.0000   1.0000   1.0000
     0.0000   0.0000   0.0000   0.0000   0.0000   0.0000

          k = 0.0667-0.1925 0.0000 ( 11832 PWs)   bands (ev):

   -19.7157 -19.5534  -8.0018  -7.2210  -6.2938  -6.1690  -5.2886  -5.1722
     2.6489   3.0269   3.9772   4.5974   5.7560   6.8188

     occupation numbers 
     1.0000   1.0000   1.0000   1.0000   1.0000   1.0000   1.0000   1.0000
     0.0000   0.0000   0.0000   0.0000   0.0000   0.0000

          k = 0.0667-0.1155 0.0000 ( 11813 PWs)   bands (ev):

   -20.1360 -19.9718  -8.5091  -7.7138  -5.0405  -4.9189  -4.5565  -4.4394
     2.0649   2.4479   3.4125   4.0176   5.2049   6.2688

     occupation numbers 
     1.0000   1.0000   1.0000   1.0000   1.0000   1.0000   1.0000   1.0000
     0.0000   0.0000   0.0000   0.0000   0.0000   0.0000

          k = 0.0667-0.0385 0.0000 ( 11791 PWs)   bands (ev):

   -20.3469 -20.1817  -8.7648  -7.9627  -4.3108  -4.1952  -4.1105  -3.9878
     1.7727   2.1583   3.1299   3.7274   4.9281   5.9926

     occupation numbers 
     1.0000   1.0000   1.0000   1.0000   1.0000   1.0000   1.0000   1.0000
     0.0000   0.0000   0.0000   0.0000   0.0000   0.0000

          k = 0.1333 0.0770 0.0000 ( 11788 PWs)   bands (ev):

   -20.0307 -19.8670  -8.3819  -7.5901  -5.4411  -5.3219  -4.6815  -4.5602
     2.2109   2.5926   3.5536   4.1626   5.3425   6.4061

     occupation numbers 
     1.0000   1.0000   1.0000   1.0000   1.0000   1.0000   1.0000   1.0000
     0.0000   0.0000   0.0000   0.0000   0.0000   0.0000

          k = 0.1333 0.1540 0.0000 ( 11832 PWs)   bands (ev):

   -19.7156 -19.5534  -8.0019  -7.2210  -6.2904  -6.1680  -5.2923  -5.1733
     2.6489   3.0269   3.9771   4.5974   5.7560   6.8188

     occupation numbers 
     1.0000   1.0000   1.0000   1.0000   1.0000   1.0000   1.0000   1.0000
     0.0000   0.0000   0.0000   0.0000   0.0000   0.0000

          k = 0.1333 0.2309 0.0000 ( 11879 PWs)   bands (ev):

   -19.1932 -19.0334  -7.3945  -7.3755  -7.2698  -6.6141  -6.2598  -6.1422
     3.3781   3.7504   4.6817   5.3214   6.4414   7.0214

     occupation numbers 
     1.0000   1.0000   1.0000   1.0000   1.0000   1.0000   1.0000   1.0000
     0.0000   0.0000   0.0000   0.0000   0.0000   0.0000

          k = 0.1333 0.3079 0.0000 ( 11929 PWs)   bands (ev):

   -18.4682 -18.3115  -8.7951  -8.6678  -7.1711  -7.0525  -6.5166  -5.7857
     4.3961   4.7611   5.4292   5.6709   5.6829   6.3342

     occupation numbers 
     1.0000   1.0000   1.0000   1.0000   1.0000   1.0000   1.0000   1.0000
     0.0000   0.0000   0.0000   0.0000   0.0000   0.0000

          k = 0.1333 0.3849 0.0000 ( 11925 PWs)   bands (ev):

   -17.5486 -17.3958 -10.3944 -10.2632  -7.8493  -7.7290  -5.4532  -4.7704
     3.7110   4.0266   5.7040   6.0624   6.9140   7.6255

     occupation numbers 
     1.0000   1.0000   1.0000   1.0000   1.0000   1.0000   1.0000   1.0000
     0.0000   0.0000   0.0000   0.0000   0.0000   0.0000

          k = 0.1333 0.4619 0.0000 ( 11927 PWs)   bands (ev):

   -16.4515 -16.3035 -12.0156 -11.8804  -8.2968  -8.1754  -4.2559  -3.6593
     2.0416   2.4096   7.2861   7.6448   8.3638   8.4867

     occupation numbers 
     1.0000   1.0000   1.0000   1.0000   1.0000   1.0000   1.0000   1.0000
     0.0000   0.0000   0.0000   0.0000   0.0000   0.0000

          k = 0.1333 0.5389 0.0000 ( 11935 PWs)   bands (ev):

   -15.2524 -15.1128 -13.4915 -13.3545  -8.5204  -8.3985  -3.1759  -2.7752
     0.8253   1.1355   8.3496   8.5727   9.1304   9.5173

     occupation numbers 
     1.0000   1.0000   1.0000   1.0000   1.0000   1.0000   1.0000   1.0000
     0.0000   0.0000   0.0000   0.0000   0.0000   0.0000

          k = 0.1333 0.6158 0.0000 ( 11935 PWs)   bands (ev):

   -15.2524 -15.1128 -13.4915 -13.3545  -8.5203  -8.3984  -3.1757  -2.7751
     0.8252   1.1351   8.3497   8.5729   9.1304   9.5173

     occupation numbers 
     1.0000   1.0000   1.0000   1.0000   1.0000   1.0000   1.0000   1.0000
     0.0000   0.0000   0.0000   0.0000   0.0000   0.0000

          k = 0.1333-0.4619 0.0000 ( 11927 PWs)   bands (ev):

   -16.4516 -16.3035 -12.0158 -11.8806  -8.2966  -8.1751  -4.2557  -3.6590
     2.0412   2.4090   7.2861   7.6448   8.3642   8.4865

     occupation numbers 
     1.0000   1.0000   1.0000   1.0000   1.0000   1.0000   1.0000   1.0000
     0.0000   0.0000   0.0000   0.0000   0.0000   0.0000

          k = 0.1333-0.3849 0.0000 ( 11925 PWs)   bands (ev):

   -17.5487 -17.3959 -10.3948 -10.2639  -7.8488  -7.7282  -5.4530  -4.7702
     3.7104   4.0257   5.7040   6.0625   6.9140   7.6255

     occupation numbers 
     1.0000   1.0000   1.0000   1.0000   1.0000   1.0000   1.0000   1.0000
     0.0000   0.0000   0.0000   0.0000   0.0000   0.0000

          k = 0.1333-0.3079 0.0000 ( 11929 PWs)   bands (ev):

   -18.4682 -18.3115  -8.7960  -8.6693  -7.1701  -7.0508  -6.5165  -5.7855
     4.3961   4.7611   5.4285   5.6708   5.6822   6.3342

     occupation numbers 
     1.0000   1.0000   1.0000   1.0000   1.0000   1.0000   1.0000   1.0000
     0.0000   0.0000   0.0000   0.0000   0.0000   0.0000

          k = 0.1333-0.2309 0.0000 ( 11879 PWs)   bands (ev):

   -19.1933 -19.0334  -7.3961  -7.3754  -7.2727  -6.6140  -6.2580  -6.1390
     3.3781   3.7504   4.6818   5.3214   6.4415   7.0214

     occupation numbers 
     1.0000   1.0000   1.0000   1.0000   1.0000   1.0000   1.0000   1.0000
     0.0000   0.0000   0.0000   0.0000   0.0000   0.0000

          k = 0.1333-0.1540 0.0000 ( 11832 PWs)   bands (ev):

   -19.7156 -19.5535  -8.0018  -7.2209  -6.2923  -6.1714  -5.2902  -5.1696
     2.6489   3.0269   3.9772   4.5974   5.7560   6.8188

     occupation numbers 
     1.0000   1.0000   1.0000   1.0000   1.0000   1.0000   1.0000   1.0000
     0.0000   0.0000   0.0000   0.0000   0.0000   0.0000

          k = 0.1333-0.0770 0.0000 ( 11788 PWs)   bands (ev):

   -20.0307 -19.8671  -8.3818  -7.5900  -5.4429  -5.3250  -4.6796  -4.5568
     2.2109   2.5926   3.5536   4.1626   5.3426   6.4061

     occupation numbers 
     1.0000   1.0000   1.0000   1.0000   1.0000   1.0000   1.0000   1.0000
     0.0000   0.0000   0.0000   0.0000   0.0000   0.0000

          k = 0.1333 0.0000 0.0000 ( 11813 PWs)   bands (ev):

   -20.1360 -19.9718  -8.5092  -7.7139  -5.0350  -4.9207  -4.5623  -4.4374
     2.0649   2.4479   3.4125   4.0176   5.2049   6.2689

     occupation numbers 
     1.0000   1.0000   1.0000   1.0000   1.0000   1.0000   1.0000   1.0000
     0.0000   0.0000   0.0000   0.0000   0.0000   0.0000

          k = 0.2000 0.1155 0.0000 ( 11848 PWs)   bands (ev):

   -19.5062 -19.3449  -7.7507  -6.9972  -6.9765  -6.8735  -5.3931  -5.2714
     2.9405   3.3160   4.2579   4.8863   6.0238   7.0734

     occupation numbers 
     1.0000   1.0000   1.0000   1.0000   1.0000   1.0000   1.0000   1.0000
     0.0000   0.0000   0.0000   0.0000   0.0000   0.0000

          k = 0.2000 0.1925 0.0000 ( 11880 PWs)   bands (ev):

   -19.0890 -18.9297  -7.8789  -7.7546  -7.2524  -6.4953  -6.0555  -5.9344
     3.5234   3.8944   4.8195   5.4632   6.5368   6.7078

     occupation numbers 
     1.0000   1.0000   1.0000   1.0000   1.0000   1.0000   1.0000   1.0000
     0.0000   0.0000   0.0000   0.0000   0.0000   0.0000

          k = 0.2000 0.2694 0.0000 ( 11929 PWs)   bands (ev):

   -18.4682 -18.3115  -8.7935  -8.6683  -7.1729  -7.0519  -6.5167  -5.7857
     4.3961   4.7611   5.4295   5.6710   5.6829   6.3344

     occupation numbers 
     1.0000   1.0000   1.0000   1.0000   1.0000   1.0000   1.0000   1.0000
     0.0000   0.0000   0.0000   0.0000   0.0000   0.0000

          k = 0.2000 0.3464 0.0000 ( 11953 PWs)   bands (ev):

   -17.6505 -17.4973  -9.8088  -9.6830  -8.3527  -8.2325  -5.5622  -4.8708
     4.0218   4.2715   5.5563   5.9164   6.7703   7.4781

     occupation numbers 
     1.0000   1.0000   1.0000   1.0000   1.0000   1.0000   1.0000   1.0000
     0.0000   0.0000   0.0000   0.0000   0.0000   0.0000

          k = 0.2000 0.4234 0.0000 ( 11949 PWs)   bands (ev):

   -16.6488 -16.4998 -11.0997 -10.9696  -9.1769  -9.0548  -4.4284  -3.7983
     2.5153   2.8004   6.9934   7.3550   8.1175   8.8832

     occupation numbers 
     1.0000   1.0000   1.0000   1.0000   1.0000   1.0000   1.0000   1.0000
     0.0000   0.0000   0.0000   0.0000   0.0000   0.0000

          k = 0.2000 0.5004 0.0000 ( 11953 PWs)   bands (ev):

   -15.4957 -15.3523 -12.5361 -12.4012  -9.6053  -9.4812  -3.2253  -2.7116
     1.1069   1.4095   8.6758   9.0732   9.5675  10.0133

     occupation numbers 
     1.0000   1.0000   1.0000   1.0000   1.0000   1.0000   1.0000   1.0000
     0.0000   0.0000   0.0000   0.0000   0.0000   0.0000

          k = 0.2000 0.5774 0.0000 ( 11949 PWs)   bands (ev):

   -14.5469 -14.4193 -13.5852 -13.4554  -9.7385  -9.6138  -2.4769  -2.1694
     0.4377   0.6083   9.9145  10.1210  10.3045  10.4426

     occupation numbers 
     1.0000   1.0000   1.0000   1.0000   1.0000   1.0000   1.0000   1.0000
     0.0000   0.0000   0.0000   0.0000   0.0000   0.0000

          k = 0.2000 0.6543 0.0000 ( 11953 PWs)   bands (ev):

   -15.4958 -15.3523 -12.5364 -12.4016  -9.6050  -9.4807  -3.2250  -2.7112
     1.1063   1.4086   8.6759   9.0732   9.5679  10.0137

     occupation numbers 
     1.0000   1.0000   1.0000   1.0000   1.0000   1.0000   1.0000   1.0000
     0.0000   0.0000   0.0000   0.0000   0.0000   0.0000

          k = 0.2000-0.4234 0.0000 ( 11949 PWs)   bands (ev):

   -16.6488 -16.4999 -11.1003 -10.9707  -9.1761  -9.0535  -4.4281  -3.7978
     2.5145   2.7993   6.9934   7.3550   8.1176   8.8834

     occupation numbers 
     1.0000   1.0000   1.0000   1.0000   1.0000   1.0000   1.0000   1.0000
     0.0000   0.0000   0.0000   0.0000   0.0000   0.0000

          k = 0.2000-0.3464 0.0000 ( 11953 PWs)   bands (ev):

   -17.6505 -17.4974  -9.8101  -9.6852  -8.3513  -8.2300  -5.5620  -4.8704
     4.0208   4.2702   5.5563   5.9164   6.7704   7.4781

     occupation numbers 
     1.0000   1.0000   1.0000   1.0000   1.0000   1.0000   1.0000   1.0000
     0.0000   0.0000   0.0000   0.0000   0.0000   0.0000

          k = 0.2000-0.2694 0.0000 ( 11929 PWs)   bands (ev):

   -18.4682 -18.3116  -8.7950  -8.6709  -7.1713  -7.0490  -6.5165  -5.7855
     4.3961   4.7611   5.4287   5.6708   5.6819   6.3342

     occupation numbers 
     1.0000   1.0000   1.0000   1.0000   1.0000   1.0000   1.0000   1.0000
     0.0000   0.0000   0.0000   0.0000   0.0000   0.0000

          k = 0.2000-0.1925 0.0000 ( 11880 PWs)   bands (ev):

   -19.0891 -18.9297  -7.8803  -7.7571  -7.2523  -6.4952  -6.0538  -5.9315
     3.5234   3.8944   4.8196   5.4632   6.5368   6.7069

     occupation numbers 
     1.0000   1.0000   1.0000   1.0000   1.0000   1.0000   1.0000   1.0000
     0.0000   0.0000   0.0000   0.0000   0.0000   0.0000

          k = 0.2000-0.1155 0.0000 ( 11848 PWs)   bands (ev):

   -19.5062 -19.3450  -7.7506  -6.9984  -6.9765  -6.8759  -5.3915  -5.2686
     2.9405   3.3160   4.2579   4.8863   6.0239   7.0738

     occupation numbers 
     1.0000   1.0000   1.0000   1.0000   1.0000   1.0000   1.0000   1.0000
     0.0000   0.0000   0.0000   0.0000   0.0000   0.0000

          k = 0.2000-0.0385 0.0000 ( 11832 PWs)   bands (ev):

   -19.7156 -19.5535  -8.0018  -7.2210  -6.2895  -6.1723  -5.2932  -5.1685
     2.6489   3.0269   3.9772   4.5974   5.7559   6.8186

     occupation numbers 
     1.0000   1.0000   1.0000   1.0000   1.0000   1.0000   1.0000   1.0000
     0.0000   0.0000   0.0000   0.0000   0.0000   0.0000

          k = 0.2000 0.0385 0.0000 ( 11832 PWs)   bands (ev):

   -19.7156 -19.5534  -8.0019  -7.2210  -6.2886  -6.1708  -5.2942  -5.1703
     2.6489   3.0269   3.9772   4.5974   5.7560   6.8188

     occupation numbers 
     1.0000   1.0000   1.0000   1.0000   1.0000   1.0000   1.0000   1.0000
     0.0000   0.0000   0.0000   0.0000   0.0000   0.0000

          k = 0.2667 0.1540 0.0000 ( 11876 PWs)   bands (ev):

   -18.7775 -18.6195  -8.7370  -8.6112  -6.8850  -6.1416  -6.0857  -5.9638
     3.9588   4.3260   5.2243   5.8173   5.9791   6.1760

     occupation numbers 
     1.0000   1.0000   1.0000   1.0000   1.0000   1.0000   1.0000   1.0000
     0.0000   0.0000   0.0000   0.0000   0.0000   0.0000

          k = 0.2667 0.2309 0.0000 ( 11910 PWs)   bands (ev):

   -18.2619 -18.1062  -9.6058  -9.4780  -6.7215  -6.5994  -6.2807  -5.5612
     4.6596   4.8500   5.0664   5.1719   5.9557   6.6281

     occupation numbers 
     1.0000   1.0000   1.0000   1.0000   1.0000   1.0000   1.0000   1.0000
     0.0000   0.0000   0.0000   0.0000   0.0000   0.0000

          k = 0.2667 0.3079 0.0000 ( 11925 PWs)   bands (ev):

   -17.5486 -17.3958 -10.3926 -10.2638  -7.8516  -7.7282  -5.4534  -4.7705
     3.7119   4.0266   5.7040   6.0625   6.9140   7.6255

     occupation numbers 
     1.0000   1.0000   1.0000   1.0000   1.0000   1.0000   1.0000   1.0000
     0.0000   0.0000   0.0000   0.0000   0.0000   0.0000

          k = 0.2667 0.3849 0.0000 ( 11949 PWs)   bands (ev):

   -16.6488 -16.4998 -11.0984 -10.9700  -9.1784  -9.0543  -4.4286  -3.7984
     2.5159   2.8004   6.9934   7.3550   8.1175   8.8833

     occupation numbers 
     1.0000   1.0000   1.0000   1.0000   1.0000   1.0000   1.0000   1.0000
     0.0000   0.0000   0.0000   0.0000   0.0000   0.0000

          k = 0.2667 0.4619 0.0000 ( 11961 PWs)   bands (ev):

   -15.5853 -15.4409 -11.8783 -11.7508 -10.3111 -10.1885  -3.2566  -2.7031
     1.2636   1.5441   8.5218   8.9255   9.3962   9.9333

     occupation numbers 
     1.0000   1.0000   1.0000   1.0000   1.0000   1.0000   1.0000   1.0000
     0.0000   0.0000   0.0000   0.0000   0.0000   0.0000

          k = 0.2667 0.5389 0.0000 ( 11948 PWs)   bands (ev):

   -14.4365 -14.2999 -12.9338 -12.8020 -10.8554 -10.7306  -2.0991  -1.6931
     0.1384   0.3927   9.6718   9.8991  10.5023  10.8030

     occupation numbers 
     1.0000   1.0000   1.0000   1.0000   1.0000   1.0000   1.0000   1.0000
     0.0000   0.0000   0.0000   0.0000   0.0000   0.0000

          k = 0.2667 0.6158 0.0000 ( 11948 PWs)   bands (ev):

   -14.4364 -14.2997 -12.9342 -12.8027 -10.8551 -10.7300  -2.0986  -1.6925
     0.1378   0.3916   9.6720   9.8996  10.5023  10.8030

     occupation numbers 
     1.0000   1.0000   1.0000   1.0000   1.0000   1.0000   1.0000   1.0000
     0.0000   0.0000   0.0000   0.0000   0.0000   0.0000

          k = 0.2667 0.6928 0.0000 ( 11961 PWs)   bands (ev):

   -15.5853 -15.4409 -11.8793 -11.7525 -10.3101 -10.1866  -3.2560  -2.7023
     1.2625   1.5426   8.5218   8.9255   9.3965   9.9341

     occupation numbers 
     1.0000   1.0000   1.0000   1.0000   1.0000   1.0000   1.0000   1.0000
     0.0000   0.0000   0.0000   0.0000   0.0000   0.0000

          k = 0.2667-0.3849 0.0000 ( 11949 PWs)   bands (ev):

   -16.6488 -16.4999 -11.0995 -10.9720  -9.1771  -9.0520  -4.4281  -3.7977
     2.5146   2.7988   6.9934   7.3550   8.1176   8.8835

     occupation numbers 
     1.0000   1.0000   1.0000   1.0000   1.0000   1.0000   1.0000   1.0000
     0.0000   0.0000   0.0000   0.0000   0.0000   0.0000

          k = 0.2667-0.3079 0.0000 ( 11925 PWs)   bands (ev):

   -17.5486 -17.3959 -10.3937 -10.2657  -7.8503  -7.7259  -5.4530  -4.7700
     3.7106   4.0251   5.7040   6.0625   6.9140   7.6255

     occupation numbers 
     1.0000   1.0000   1.0000   1.0000   1.0000   1.0000   1.0000   1.0000
     0.0000   0.0000   0.0000   0.0000   0.0000   0.0000

          k = 0.2667-0.2309 0.0000 ( 11910 PWs)   bands (ev):

   -18.2620 -18.1062  -9.6069  -9.4799  -6.7202  -6.5970  -6.2804  -5.5609
     4.6595   4.8492   5.0663   5.1706   5.9556   6.6280

     occupation numbers 
     1.0000   1.0000   1.0000   1.0000   1.0000   1.0000   1.0000   1.0000
     0.0000   0.0000   0.0000   0.0000   0.0000   0.0000

          k = 0.2667-0.1540 0.0000 ( 11876 PWs)   bands (ev):

   -18.7775 -18.6196  -8.7381  -8.6131  -6.8849  -6.1413  -6.0843  -5.9614
     3.9588   4.3260   5.2243   5.8172   5.9786   6.1751

     occupation numbers 
     1.0000   1.0000   1.0000   1.0000   1.0000   1.0000   1.0000   1.0000
     0.0000   0.0000   0.0000   0.0000   0.0000   0.0000

          k = 0.2667-0.0770 0.0000 ( 11880 PWs)   bands (ev):

   -19.0890 -18.9297  -7.8791  -7.7575  -7.2523  -6.4952  -6.0552  -5.9310
     3.5234   3.8944   4.8196   5.4632   6.5369   6.7078

     occupation numbers 
     1.0000   1.0000   1.0000   1.0000   1.0000   1.0000   1.0000   1.0000
     0.0000   0.0000   0.0000   0.0000   0.0000   0.0000

          k = 0.2667 0.0000 0.0000 ( 11879 PWs)   bands (ev):

   -19.1932 -19.0335  -7.3918  -7.3755  -7.2742  -6.6140  -6.2628  -6.1374
     3.3781   3.7504   4.6817   5.3213   6.4414   7.0219

     occupation numbers 
     1.0000   1.0000   1.0000   1.0000   1.0000   1.0000   1.0000   1.0000
     0.0000   0.0000   0.0000   0.0000   0.0000   0.0000

          k = 0.2667 0.0770 0.0000 ( 11880 PWs)   bands (ev):

   -19.0890 -18.9297  -7.8781  -7.7558  -7.2524  -6.4953  -6.0564  -5.9331
     3.5234   3.8944   4.8196   5.4631   6.5364   6.7080

     occupation numbers 
     1.0000   1.0000   1.0000   1.0000   1.0000   1.0000   1.0000   1.0000
     0.0000   0.0000   0.0000   0.0000   0.0000   0.0000

          k = 0.3333 0.1925 0.0000 ( 11914 PWs)   bands (ev):

   -17.8521 -17.6981 -10.5116 -10.3817  -6.6621  -6.5400  -5.8147  -5.1194
     3.9536   4.3422   5.2764   5.6328   6.4944   6.9560

     occupation numbers 
     1.0000   1.0000   1.0000   1.0000   1.0000   1.0000   1.0000   1.0000
     0.0000   0.0000   0.0000   0.0000   0.0000   0.0000

          k = 0.3333 0.2694 0.0000 ( 11938 PWs)   bands (ev):

   -17.2448 -17.0934 -11.3334 -11.2015  -7.2280  -7.1054  -5.1321  -4.4763
     2.9953   3.3945   6.1403   6.4945   7.2592   7.3436

     occupation numbers 
     1.0000   1.0000   1.0000   1.0000   1.0000   1.0000   1.0000   1.0000
     0.0000   0.0000   0.0000   0.0000   0.0000   0.0000

          k = 0.3333 0.3464 0.0000 ( 11927 PWs)   bands (ev):

   -16.4516 -16.3035 -12.0138 -11.8809  -8.2992  -8.1746  -4.2564  -3.6595
     2.0430   2.4097   7.2861   7.6448   8.3637   8.4854

     occupation numbers 
     1.0000   1.0000   1.0000   1.0000   1.0000   1.0000   1.0000   1.0000
     0.0000   0.0000   0.0000   0.0000   0.0000   0.0000

          k = 0.3333 0.4234 0.0000 ( 11953 PWs)   bands (ev):

   -15.4959 -15.3522 -12.5343 -12.4018  -9.6073  -9.4805  -3.2259  -2.7118
     1.1084   1.4094   8.6759   9.0732   9.5673  10.0128

     occupation numbers 
     1.0000   1.0000   1.0000   1.0000   1.0000   1.0000   1.0000   1.0000
     0.0000   0.0000   0.0000   0.0000   0.0000   0.0000

          k = 0.3333 0.5004 0.0000 ( 11948 PWs)   bands (ev):

   -14.4370 -14.2997 -12.9318 -12.8026 -10.8569 -10.7301  -2.0999  -1.6933
     0.1399   0.3925   9.6715   9.8992  10.5023  10.8030

     occupation numbers 
     1.0000   1.0000   1.0000   1.0000   1.0000   1.0000   1.0000   1.0000
     0.0000   0.0000   0.0000   0.0000   0.0000   0.0000

          k = 0.3333 0.5774 0.0000 ( 11919 PWs)   bands (ev):

   -13.4796 -13.4690 -13.3466 -13.3389 -11.4820 -11.3583  -1.0649  -0.8683
    -0.7278  -0.5186   9.5287   9.7356  11.6170  11.9450

     occupation numbers 
     1.0000   1.0000   1.0000   1.0000   1.0000   1.0000   0.9972   0.7678
     0.2331   0.0018   0.0000   0.0000   0.0000   0.0000

          k = 0.3333 0.6543 0.0000 ( 11948 PWs)   bands (ev):

   -14.4367 -14.2992 -12.9330 -12.8046 -10.8560 -10.7285  -2.0988  -1.6918
     0.1383   0.3904   9.6718   9.8999  10.5024  10.8030

     occupation numbers 
     1.0000   1.0000   1.0000   1.0000   1.0000   1.0000   1.0000   1.0000
     0.0000   0.0000   0.0000   0.0000   0.0000   0.0000

          k = 0.3333 0.7313 0.0000 ( 11953 PWs)   bands (ev):

   -15.4959 -15.3521 -12.5353 -12.4034  -9.6063  -9.4787  -3.2250  -2.7106
     1.1067   1.4073   8.6759   9.0732   9.5676  10.0136

     occupation numbers 
     1.0000   1.0000   1.0000   1.0000   1.0000   1.0000   1.0000   1.0000
     0.0000   0.0000   0.0000   0.0000   0.0000   0.0000

          k = 0.3333-0.3464 0.0000 ( 11927 PWs)   bands (ev):

   -16.4516 -16.3035 -12.0147 -11.8824  -8.2981  -8.1727  -4.2558  -3.6586
     2.0414   2.4078   7.2861   7.6448   8.3642   8.4865

     occupation numbers 
     1.0000   1.0000   1.0000   1.0000   1.0000   1.0000   1.0000   1.0000
     0.0000   0.0000   0.0000   0.0000   0.0000   0.0000

          k = 0.3333-0.2694 0.0000 ( 11938 PWs)   bands (ev):

   -17.2448 -17.0934 -11.3342 -11.2030  -7.2269  -7.1033  -5.1316  -4.4757
     2.9939   3.3929   6.1403   6.4945   7.2598   7.3444

     occupation numbers 
     1.0000   1.0000   1.0000   1.0000   1.0000   1.0000   1.0000   1.0000
     0.0000   0.0000   0.0000   0.0000   0.0000   0.0000

          k = 0.3333-0.1925 0.0000 ( 11914 PWs)   bands (ev):

   -17.8521 -17.6982 -10.5125 -10.3832  -6.6609  -6.5379  -5.8144  -5.1190
     3.9526   4.3410   5.2764   5.6328   6.4945   6.9562

     occupation numbers 
     1.0000   1.0000   1.0000   1.0000   1.0000   1.0000   1.0000   1.0000
     0.0000   0.0000   0.0000   0.0000   0.0000   0.0000

          k = 0.3333-0.1155 0.0000 ( 11910 PWs)   bands (ev):

   -18.2619 -18.1063  -9.6064  -9.4800  -6.7208  -6.5968  -6.2805  -5.5609
     4.6596   4.8495   5.0663   5.1707   5.9556   6.6280

     occupation numbers 
     1.0000   1.0000   1.0000   1.0000   1.0000   1.0000   1.0000   1.0000
     0.0000   0.0000   0.0000   0.0000   0.0000   0.0000

          k = 0.3333-0.0385 0.0000 ( 11929 PWs)   bands (ev):

   -18.4681 -18.3116  -8.7927  -8.6716  -7.1739  -7.0481  -6.5166  -5.7855
     4.3961   4.7611   5.4297   5.6708   5.6818   6.3342

     occupation numbers 
     1.0000   1.0000   1.0000   1.0000   1.0000   1.0000   1.0000   1.0000
     0.0000   0.0000   0.0000   0.0000   0.0000   0.0000

          k = 0.3333 0.0385 0.0000 ( 11929 PWs)   bands (ev):

   -18.4681 -18.3116  -8.7921  -8.6706  -7.1746  -7.0493  -6.5167  -5.7856
     4.3961   4.7611   5.4299   5.6709   5.6821   6.3342

     occupation numbers 
     1.0000   1.0000   1.0000   1.0000   1.0000   1.0000   1.0000   1.0000
     0.0000   0.0000   0.0000   0.0000   0.0000   0.0000

          k = 0.3333 0.1155 0.0000 ( 11910 PWs)   bands (ev):

   -18.2619 -18.1062  -9.6055  -9.4785  -6.7219  -6.5988  -6.2807  -5.5611
     4.6596   4.8501   5.0664   5.1715   5.9557   6.6280

     occupation numbers 
     1.0000   1.0000   1.0000   1.0000   1.0000   1.0000   1.0000   1.0000
     0.0000   0.0000   0.0000   0.0000   0.0000   0.0000

          k = 0.4000 0.2309 0.0000 ( 11910 PWs)   bands (ev):

   -16.7456 -16.5964 -12.2205 -12.0864  -7.0688  -6.9466  -4.6159  -4.0108
     2.1688   2.6023   6.7304   6.8720   6.9485   7.2359

     occupation numbers 
     1.0000   1.0000   1.0000   1.0000   1.0000   1.0000   1.0000   1.0000
     0.0000   0.0000   0.0000   0.0000   0.0000   0.0000

          k = 0.4000 0.3079 0.0000 ( 11920 PWs)   bands (ev):

   -16.0665 -15.9205 -12.9606 -12.8252  -7.5425  -7.4196  -3.9408  -3.4187
     1.4134   1.8202   7.1500   7.3453   7.8753   8.2328

     occupation numbers 
     1.0000   1.0000   1.0000   1.0000   1.0000   1.0000   1.0000   1.0000
     0.0000   0.0000   0.0000   0.0000   0.0000   0.0000

          k = 0.4000 0.3849 0.0000 ( 11935 PWs)   bands (ev):

   -15.2530 -15.1126 -13.4891 -13.3552  -8.5228  -8.3977  -3.1772  -2.7755
     0.8279   1.1355   8.3487   8.5728   9.1304   9.5173

     occupation numbers 
     1.0000   1.0000   1.0000   1.0000   1.0000   1.0000   1.0000   1.0000
     0.0000   0.0000   0.0000   0.0000   0.0000   0.0000

          k = 0.4000 0.4619 0.0000 ( 11949 PWs)   bands (ev):

   -14.5486 -14.4188 -13.5816 -13.4566  -9.7408  -9.6130  -2.4787  -2.1695
     0.4415   0.6073   9.9140  10.1201  10.3044  10.4429

     occupation numbers 
     1.0000   1.0000   1.0000   1.0000   1.0000   1.0000   1.0000   1.0000
     0.0000   0.0000   0.0000   0.0000   0.0000   0.0000

          k = 0.4000 0.5389 0.0000 ( 11948 PWs)   bands (ev):

   -14.4372 -14.2995 -12.9312 -12.8037 -10.8575 -10.7293  -2.1000  -1.6928
     0.1403   0.3914   9.6711   9.8996  10.5025  10.8030

     occupation numbers 
     1.0000   1.0000   1.0000   1.0000   1.0000   1.0000   1.0000   1.0000
     0.0000   0.0000   0.0000   0.0000   0.0000   0.0000

          k = 0.4000 0.6158 0.0000 ( 11948 PWs)   bands (ev):

   -14.4369 -14.2991 -12.9319 -12.8050 -10.8569 -10.7283  -2.0995  -1.6919
     0.1393   0.3904   9.6713   9.8999  10.5025  10.8030

     occupation numbers 
     1.0000   1.0000   1.0000   1.0000   1.0000   1.0000   1.0000   1.0000
     0.0000   0.0000   0.0000   0.0000   0.0000   0.0000

          k = 0.4000 0.6928 0.0000 ( 11949 PWs)   bands (ev):

   -14.5479 -14.4176 -13.5830 -13.4590  -9.7399  -9.6115  -2.4774  -2.1678
     0.4399   0.6046   9.9145  10.1206  10.3048  10.4433

     occupation numbers 
     1.0000   1.0000   1.0000   1.0000   1.0000   1.0000   1.0000   1.0000
     0.0000   0.0000   0.0000   0.0000   0.0000   0.0000

          k = 0.4000 0.7698 0.0000 ( 11935 PWs)   bands (ev):

   -15.2528 -15.1122 -13.4901 -13.3569  -8.5218  -8.3960  -3.1760  -2.7739
     0.8259   1.1329   8.3493   8.5737   9.1303   9.5172

     occupation numbers 
     1.0000   1.0000   1.0000   1.0000   1.0000   1.0000   1.0000   1.0000
     0.0000   0.0000   0.0000   0.0000   0.0000   0.0000

          k = 0.4000-0.3079 0.0000 ( 11920 PWs)   bands (ev):

   -16.0665 -15.9204 -12.9614 -12.8265  -7.5415  -7.4177  -3.9399  -3.4174
     1.4116   1.8180   7.1506   7.3462   7.8753   8.2328

     occupation numbers 
     1.0000   1.0000   1.0000   1.0000   1.0000   1.0000   1.0000   1.0000
     0.0000   0.0000   0.0000   0.0000   0.0000   0.0000

          k = 0.4000-0.2309 0.0000 ( 11910 PWs)   bands (ev):

   -16.7456 -16.5964 -12.2212 -12.0877  -7.0676  -6.9446  -4.6152  -4.0099
     2.1673   2.6006   6.7309   6.8722   6.9492   7.2359

     occupation numbers 
     1.0000   1.0000   1.0000   1.0000   1.0000   1.0000   1.0000   1.0000
     0.0000   0.0000   0.0000   0.0000   0.0000   0.0000

          k = 0.4000-0.1540 0.0000 ( 11938 PWs)   bands (ev):

   -17.2448 -17.0935 -11.3340 -11.2030  -7.2272  -7.1032  -5.1317  -4.4757
     2.9942   3.3929   6.1403   6.4944   7.2596   7.3432

     occupation numbers 
     1.0000   1.0000   1.0000   1.0000   1.0000   1.0000   1.0000   1.0000
     0.0000   0.0000   0.0000   0.0000   0.0000   0.0000

          k = 0.4000-0.0770 0.0000 ( 11925 PWs)   bands (ev):

   -17.5486 -17.3959 -10.3927 -10.2660  -7.8515  -7.7255  -5.4532  -4.7701
     3.7115   4.0251   5.7040   6.0624   6.9140   7.6254

     occupation numbers 
     1.0000   1.0000   1.0000   1.0000   1.0000   1.0000   1.0000   1.0000
     0.0000   0.0000   0.0000   0.0000   0.0000   0.0000

          k = 0.4000 0.0000 0.0000 ( 11953 PWs)   bands (ev):

   -17.6504 -17.4974  -9.8067  -9.6863  -8.3551  -8.2287  -5.5622  -4.8705
     4.0223   4.2701   5.5563   5.9164   6.7703   7.4781

     occupation numbers 
     1.0000   1.0000   1.0000   1.0000   1.0000   1.0000   1.0000   1.0000
     0.0000   0.0000   0.0000   0.0000   0.0000   0.0000

          k = 0.4000 0.0770 0.0000 ( 11925 PWs)   bands (ev):

   -17.5485 -17.3959 -10.3920 -10.2648  -7.8523  -7.7270  -5.4534  -4.7703
     3.7121   4.0258   5.7040   6.0625   6.9140   7.6254

     occupation numbers 
     1.0000   1.0000   1.0000   1.0000   1.0000   1.0000   1.0000   1.0000
     0.0000   0.0000   0.0000   0.0000   0.0000   0.0000

          k = 0.4000 0.1540 0.0000 ( 11938 PWs)   bands (ev):

   -17.2448 -17.0934 -11.3333 -11.2017  -7.2282  -7.1051  -5.1321  -4.4763
     2.9953   3.3942   6.1403   6.4944   7.2593   7.3430

     occupation numbers 
     1.0000   1.0000   1.0000   1.0000   1.0000   1.0000   1.0000   1.0000
     0.0000   0.0000   0.0000   0.0000   0.0000   0.0000

          k = 0.4667 0.2694 0.0000 ( 11924 PWs)   bands (ev):

   -15.5312 -15.3898 -13.7426 -13.6075  -7.2780  -7.1558  -3.5547  -3.1528
     0.9136   1.2886   6.6478   6.8416   8.7306   9.0956

     occupation numbers 
     1.0000   1.0000   1.0000   1.0000   1.0000   1.0000   1.0000   1.0000
     0.0000   0.0000   0.0000   0.0000   0.0000   0.0000

          k = 0.4667 0.3464 0.0000 ( 11913 PWs)   bands (ev):

   -15.0884 -14.9577 -14.0802 -13.9537  -7.6490  -7.5259  -3.2505  -2.9353
     0.7152   1.0295   7.0982   7.2983   9.8161   9.8773

     occupation numbers 
     1.0000   1.0000   1.0000   1.0000   1.0000   1.0000   1.0000   1.0000
     0.0000   0.0000   0.0000   0.0000   0.0000   0.0000

          k = 0.4667 0.4234 0.0000 ( 11935 PWs)   bands (ev):

   -15.2530 -15.1126 -13.4891 -13.3553  -8.5229  -8.3975  -3.1772  -2.7754
     0.8280   1.1352   8.3486   8.5730   9.1304   9.5173

     occupation numbers 
     1.0000   1.0000   1.0000   1.0000   1.0000   1.0000   1.0000   1.0000
     0.0000   0.0000   0.0000   0.0000   0.0000   0.0000

          k = 0.4667 0.5004 0.0000 ( 11953 PWs)   bands (ev):

   -15.4959 -15.3523 -12.5339 -12.4024  -9.6077  -9.4798  -3.2260  -2.7115
     1.1087   1.4086   8.6758   9.0732   9.5675  10.0124

     occupation numbers 
     1.0000   1.0000   1.0000   1.0000   1.0000   1.0000   1.0000   1.0000
     0.0000   0.0000   0.0000   0.0000   0.0000   0.0000

          k = 0.4667 0.5774 0.0000 ( 11961 PWs)   bands (ev):

   -15.5853 -15.4409 -11.8766 -11.7534 -10.3129 -10.1856  -3.2567  -2.7025
     1.2642   1.5425   8.5217   8.9255   9.3960   9.9340

     occupation numbers 
     1.0000   1.0000   1.0000   1.0000   1.0000   1.0000   1.0000   1.0000
     0.0000   0.0000   0.0000   0.0000   0.0000   0.0000

          k = 0.4667 0.6543 0.0000 ( 11953 PWs)   bands (ev):

   -15.4958 -15.3521 -12.5347 -12.4036  -9.6070  -9.4785  -3.2255  -2.7107
     1.1076   1.4074   8.6758   9.0731   9.5675  10.0129

     occupation numbers 
     1.0000   1.0000   1.0000   1.0000   1.0000   1.0000   1.0000   1.0000
     0.0000   0.0000   0.0000   0.0000   0.0000   0.0000

          k = 0.4667 0.7313 0.0000 ( 11935 PWs)   bands (ev):

   -15.2527 -15.1122 -13.4900 -13.3569  -8.5220  -8.3959  -3.1762  -2.7739
     0.8262   1.1329   8.3491   8.5737   9.1304   9.5173

     occupation numbers 
     1.0000   1.0000   1.0000   1.0000   1.0000   1.0000   1.0000   1.0000
     0.0000   0.0000   0.0000   0.0000   0.0000   0.0000

          k = 0.4667 0.8083 0.0000 ( 11913 PWs)   bands (ev):

   -15.0878 -14.9567 -14.0815 -13.9559  -7.6479  -7.5241  -3.2492  -2.9336
     0.7131   1.0268   7.0988   7.2991   9.8160   9.8773

     occupation numbers 
     1.0000   1.0000   1.0000   1.0000   1.0000   1.0000   1.0000   1.0000
     0.0000   0.0000   0.0000   0.0000   0.0000   0.0000

          k = 0.4667-0.2694 0.0000 ( 11924 PWs)   bands (ev):

   -15.5310 -15.3895 -13.7435 -13.6091  -7.2770  -7.1539  -3.5536  -3.1513
     0.9116   1.2861   6.6483   6.8423   8.7306   9.0956

     occupation numbers 
     1.0000   1.0000   1.0000   1.0000   1.0000   1.0000   1.0000   1.0000
     0.0000   0.0000   0.0000   0.0000   0.0000   0.0000

          k = 0.4667-0.1925 0.0000 ( 11920 PWs)   bands (ev):

   -16.0665 -15.9205 -12.9614 -12.8266  -7.5416  -7.4177  -3.9400  -3.4175
     1.4118   1.8181   7.1504   7.3462   7.8753   8.2328

     occupation numbers 
     1.0000   1.0000   1.0000   1.0000   1.0000   1.0000   1.0000   1.0000
     0.0000   0.0000   0.0000   0.0000   0.0000   0.0000

          k = 0.4667-0.1155 0.0000 ( 11927 PWs)   bands (ev):

   -16.4515 -16.3036 -12.0143 -11.8825  -8.2986  -8.1725  -4.2560  -3.6587
     2.0420   2.4079   7.2861   7.6447   8.3642   8.4852

     occupation numbers 
     1.0000   1.0000   1.0000   1.0000   1.0000   1.0000   1.0000   1.0000
     0.0000   0.0000   0.0000   0.0000   0.0000   0.0000

          k = 0.4667-0.0385 0.0000 ( 11949 PWs)   bands (ev):

   -16.6487 -16.4999 -11.0978 -10.9726  -9.1790  -9.0514  -4.4285  -3.7979
     2.5159   2.7988   6.9933   7.3550   8.1175   8.8834

     occupation numbers 
     1.0000   1.0000   1.0000   1.0000   1.0000   1.0000   1.0000   1.0000
     0.0000   0.0000   0.0000   0.0000   0.0000   0.0000

          k = 0.4667 0.0385 0.0000 ( 11949 PWs)   bands (ev):

   -16.6487 -16.4999 -11.0973 -10.9717  -9.1796  -9.0524  -4.4286  -3.7981
     2.5163   2.7992   6.9933   7.3550   8.1175   8.8833

     occupation numbers 
     1.0000   1.0000   1.0000   1.0000   1.0000   1.0000   1.0000   1.0000
     0.0000   0.0000   0.0000   0.0000   0.0000   0.0000

          k = 0.4667 0.1155 0.0000 ( 11927 PWs)   bands (ev):

   -16.4515 -16.3036 -12.0136 -11.8813  -8.2995  -8.1741  -4.2565  -3.6593
     2.0432   2.4092   7.2861   7.6448   8.3643   8.4851

     occupation numbers 
     1.0000   1.0000   1.0000   1.0000   1.0000   1.0000   1.0000   1.0000
     0.0000   0.0000   0.0000   0.0000   0.0000   0.0000

          k = 0.4667 0.1925 0.0000 ( 11920 PWs)   bands (ev):

   -16.0665 -15.9205 -12.9606 -12.8252  -7.5426  -7.4195  -3.9408  -3.4186
     1.4135   1.8200   7.1499   7.3455   7.8753   8.2328

     occupation numbers 
     1.0000   1.0000   1.0000   1.0000   1.0000   1.0000   1.0000   1.0000
     0.0000   0.0000   0.0000   0.0000   0.0000   0.0000

     the Fermi energy is    -0.7979 ev

!    total energy              =     -48.16534532 Ry
     estimated scf accuracy    <          1.5E-09 Ry
     smearing contrib. (-TS)   =      -0.00007863 Ry
     internal energy E=F+TS    =     -48.16526669 Ry

     The total energy is F=E-TS. E is the sum of the following terms:
     one-electron contribution =    -688.66543486 Ry
     hartree contribution      =     347.84900992 Ry
     xc contribution           =     -17.13862701 Ry
     ewald contribution        =     310.14278628 Ry
     electric field correction =      -0.35300101 Ry

     convergence has been achieved in   9 iterations


     -----------------------------------------------
     Non-local corr. energy    =       0.19635796 Ry
     -----------------------------------------------


     Forces acting on atoms (cartesian axes, Ry/au):

     atom    1 type  1   force =     0.00018685    0.00047526    0.00175056
     atom    2 type  1   force =    -0.00018666   -0.00047460    0.00023519
     atom    3 type  1   force =     0.00033111   -0.00038937   -0.00041023
     atom    4 type  1   force =    -0.00033131    0.00038872   -0.00157551
     The non-local contrib.  to forces
     atom    1 type  1   force =     0.00012592    0.00032044   -0.00152741
     atom    2 type  1   force =    -0.00012602   -0.00031947   -0.00488949
     atom    3 type  1   force =     0.00022240   -0.00026176   -0.00336956
     atom    4 type  1   force =    -0.00022359    0.00026153   -0.00594192
     The ionic contribution  to forces
     atom    1 type  1   force =     0.00061572    0.00157143  -15.02936458
     atom    2 type  1   force =    -0.00061513   -0.00157132  -14.99132938
     atom    3 type  1   force =     0.00109495   -0.00128228   14.99587895
     atom    4 type  1   force =    -0.00109553    0.00128217   15.02481501
     The local contribution  to forces
     atom    1 type  1   force =    -0.00054365   -0.00138697   14.99271815
     atom    2 type  1   force =     0.00054268    0.00138664   14.95654314
     atom    3 type  1   force =    -0.00096599    0.00113054  -15.03313370
     atom    4 type  1   force =     0.00096698   -0.00113080  -15.06064832
     The core correction contribution to forces
     atom    1 type  1   force =    -0.00001157   -0.00002947   -0.00004422
     atom    2 type  1   force =     0.00001155    0.00002942   -0.00005768
     atom    3 type  1   force =    -0.00002054    0.00002407    0.00020281
     atom    4 type  1   force =     0.00002057   -0.00002407    0.00018838
     The Hubbard contrib.    to forces
     atom    1 type  1   force =     0.00000000    0.00000000    0.00000000
     atom    2 type  1   force =     0.00000000    0.00000000    0.00000000
     atom    3 type  1   force =     0.00000000    0.00000000    0.00000000
     atom    4 type  1   force =     0.00000000    0.00000000    0.00000000
     The SCF correction term to forces
     atom    1 type  1   force =     0.00000008   -0.00000019   -0.00002989
     atom    2 type  1   force =    -0.00000010    0.00000011   -0.00002993
     atom    3 type  1   force =    -0.00000006    0.00000005    0.00001276
     atom    4 type  1   force =    -0.00000010   -0.00000012    0.00001283

     Total force =     0.002610     Total SCF correction =     0.000046

     Writing all to output data dir /home/ubuntu/projects/Graphene-Band-Structure-Quantum-Espresso/outputs/field_0.005/vdw-df2-c09/coupled/data/coupled.save/ :
     XML data file, charge density, pseudopotentials, collected wavefunctions

     init_run     :     10.24s CPU     10.52s WALL (       1 calls)
     electrons    :     55.89s CPU     57.37s WALL (       1 calls)
     forces       :      1.28s CPU      1.45s WALL (       1 calls)

     Called by init_run:
     wfcinit      :      0.89s CPU      0.91s WALL (       1 calls)
     wfcinit:atom :      0.01s CPU      0.01s WALL (       8 calls)
     wfcinit:wfcr :      0.79s CPU      0.80s WALL (       8 calls)
     potinit      :      8.66s CPU      8.88s WALL (       1 calls)
     hinit0       :      0.61s CPU      0.64s WALL (       1 calls)

     Called by electrons:
     c_bands      :     42.44s CPU     42.62s WALL (       9 calls)
     sum_band     :      3.07s CPU      3.11s WALL (       9 calls)
     v_of_rho     :     15.17s CPU     16.60s WALL (      10 calls)
     v_h          :      0.05s CPU      0.05s WALL (      10 calls)
     v_xc         :     15.78s CPU     17.37s WALL (      11 calls)
     mix_rho      :      0.11s CPU      0.13s WALL (       9 calls)
     vdW_kernel   :      7.62s CPU      7.63s WALL (       1 calls)

     Called by c_bands:
     init_us_2    :      0.49s CPU      0.50s WALL (     160 calls)
     cegterg      :     24.18s CPU     24.32s WALL (      72 calls)

     Called by sum_band:
     sum_band:wei :      0.00s CPU      0.00s WALL (       9 calls)
     sum_band:loo :      2.04s CPU      2.05s WALL (       9 calls)
     sum_band:buf :      0.03s CPU      0.03s WALL (      72 calls)
     sum_band:ini :      0.21s CPU      0.21s WALL (      72 calls)

     Called by *egterg:
     cdiaghg      :      0.12s CPU      0.12s WALL (     464 calls)
     cegterg:over :      2.46s CPU      2.46s WALL (     392 calls)
     cegterg:upda :      1.63s CPU      1.65s WALL (     392 calls)
     cegterg:last :      2.91s CPU      2.92s WALL (     198 calls)
     h_psi        :     16.86s CPU     16.98s WALL (     472 calls)
     g_psi        :      0.12s CPU      0.12s WALL (     392 calls)

     Called by h_psi:
     h_psi:calbec :      2.43s CPU      2.44s WALL (     472 calls)
     vloc_psi     :     11.85s CPU     11.92s WALL (     472 calls)
     add_vuspsi   :      2.51s CPU      2.52s WALL (     472 calls)

     General routines
     calbec       :      2.72s CPU      2.73s WALL (     504 calls)
     fft          :      2.48s CPU      2.49s WALL (     660 calls)
     ffts         :      0.03s CPU      0.03s WALL (       9 calls)
     fftw         :     11.48s CPU     11.53s WALL (    7652 calls)

     Parallel routines

     PWSCF        :   1m 8.74s CPU   1m10.75s WALL


   This run was terminated on:   7:18:53   5Oct2026            

=------------------------------------------------------------------------------=
   JOB DONE.
=------------------------------------------------------------------------------=
Note: The following floating-point exceptions are signalling: IEEE_UNDERFLOW_FLAG IEEE_DENORMAL
Note: The following floating-point exceptions are signalling: IEEE_UNDERFLOW_FLAG IEEE_DENORMAL
Note: The following floating-point exceptions are signalling: IEEE_UNDERFLOW_FLAG IEEE_DENORMAL
Note: The following floating-point exceptions are signalling: IEEE_UNDERFLOW_FLAG IEEE_DENORMAL
Note: The following floating-point exceptions are signalling: IEEE_UNDERFLOW_FLAG IEEE_DENORMAL
Note: The following floating-point exceptions are signalling: IEEE_UNDERFLOW_FLAG IEEE_DENORMAL
Note: The following floating-point exceptions are signalling: IEEE_UNDERFLOW_FLAG IEEE_DENORMAL
Note: The following floating-point exceptions are signalling: IEEE_UNDERFLOW_FLAG IEEE_DENORMAL
Note: The following floating-point exceptions are signalling: IEEE_UNDERFLOW_FLAG IEEE_DENORMAL
Note: The following floating-point exceptions are signalling: IEEE_UNDERFLOW_FLAG IEEE_DENORMAL
Note: The following floating-point exceptions are signalling: IEEE_UNDERFLOW_FLAG IEEE_DENORMAL
Note: The following floating-point exceptions are signalling: IEEE_UNDERFLOW_FLAG IEEE_DENORMAL
Note: The following floating-point exceptions are signalling: IEEE_UNDERFLOW_FLAG IEEE_DENORMAL
Note: The following floating-point exceptions are signalling: IEEE_UNDERFLOW_FLAG IEEE_DENORMAL
Note: The following floating-point exceptions are signalling: IEEE_UNDERFLOW_FLAG IEEE_DENORMAL
Note: The following floating-point exceptions are signalling: IEEE_UNDERFLOW_FLAG IEEE_DENORMAL
