
     Program PWSCF v.7.6 starts on  7Sep2026 at 10:49:46 

     This program is part of the open-source Quantum ESPRESSO suite
     for quantum simulation of materials; please cite
         "P. Giannozzi et al., J. Phys.:Condens. Matter 21 395502 (2009);
         "P. Giannozzi et al., J. Phys.:Condens. Matter 29 465901 (2017);
         "P. Giannozzi et al., J. Chem. Phys. 152 154105 (2020);
          URL http://www.quantum-espresso.org", 
     in publications or presentations arising from this work. More details at
     http://www.quantum-espresso.org/quote

     Parallel version (MPI), running on     4 processors

     MPI processes distributed on     1 nodes
     3896 MiB available memory on the printing compute node when the environment starts

     Waiting for input...
     Reading input from standard input
Warning: card &CELL ignored
Warning: card &FCP ignored
Warning: card &RISM ignored

     Current dimensions of program PWSCF are:
     Max number of different atomic species (ntypx) = 10
     Max number of k-points (npk) =  40000
     Max angular momentum in pseudopotentials (lmaxx) =  4
     file C.pbe-n-kjpaw_psl.1.0.0.UPF: wavefunction(s)  2S 2P renormalized
     Message from routine setup:
     using ibrav=0 with symmetry is DISCOURAGED, use correct ibrav instead

     K-points division:     npool     =       4
     Subspace diagonalization in iterative solution of the eigenvalue problem:
     a serial algorithm will be used


     G-vector sticks info
     --------------------
     sticks:   dense  smooth     PW     G-vecs:    dense   smooth      PW
     Sum         595     361    109               111671    52021    9049

     Using Slab Decomposition



     bravais-lattice index     =            0
     lattice parameter (alat)  =       4.6487  a.u.
     unit-cell volume          =     825.8180 (a.u.)^3
     number of atoms/cell      =            4
     number of atomic types    =            1
     number of electrons       =        16.00
     number of Kohn-Sham states=           14
     kinetic-energy cutoff     =      60.0000  Ry
     charge density cutoff     =     400.0000  Ry
     scf convergence threshold =      1.0E-08
     mixing beta               =       0.7000
     number of iterations used =            8  plain     mixing
     energy convergence thresh.=      1.0E-04
     force convergence thresh. =      1.0E-03
     Exchange-correlation= SLA  PW   PBX  PBC
                           (   1   4   3   4   0   0   0)
     nstep                     =           50


     celldm(1)=   4.648726  celldm(2)=   0.000000  celldm(3)=   0.000000
     celldm(4)=   0.000000  celldm(5)=   0.000000  celldm(6)=   0.000000

     crystal axes: (cart. coord. in units of alat)
               a(1) = (   1.000000   0.000000   0.000000 )  
               a(2) = (  -0.500000   0.866025   0.000000 )  
               a(3) = (   0.000000   0.000000   9.491870 )  

     reciprocal axes: (cart. coord. in units 2 pi/alat)
               b(1) = (  1.000000  0.577350 -0.000000 )  
               b(2) = (  0.000000  1.154701  0.000000 )  
               b(3) = (  0.000000 -0.000000  0.105353 )  


     PseudoPot. # 1 for C  read from file:
     /home/ubuntu/projects/Graphene-Band-Structure-Quantum-Espresso/pseudo/C.pbe-n-kjpaw_psl.1.0.0.UPF
     MD5 check sum: 5f16ad9a65e90284d1d834d4ab3b0f7d
     Pseudo is Projector augmented-wave + core cor, Zval =  4.0
     Generated using &quot;atomic&quot; code by A. Dal Corso  v.6.3
     Shape of augmentation charge: PSQ
     Using radial grid of 1073 points,  4 beta functions with: 
                l(1) =   0
                l(2) =   0
                l(3) =   1
                l(4) =   1
     Q(r) pseudized with 0 coefficients 


     atomic species   valence    mass     pseudopotential
     C                 4.00    12.01100     C ( 1.00)

     12 Sym. Ops., with inversion, found ( 6 have fractional translation)


                                    s                        frac. trans.

      isym =  1     identity                                     

 cryst.   s( 1) = (     1          0          0      )
                  (     0          1          0      )
                  (     0          0          1      )

 cart.    s( 1) = (  1.0000000  0.0000000  0.0000000 )
                  (  0.0000000  1.0000000  0.0000000 )
                  (  0.0000000  0.0000000  1.0000000 )


      isym =  2     180 deg rotation - cart. axis [1,0,0]        

 cryst.   s( 2) = (     1          0          0      )    f =( -0.3333333 )
                  (    -1         -1          0      )       (  0.3333333 )
                  (     0          0         -1      )       (  0.0000000 )

 cart.    s( 2) = (  1.0000000  0.0000000  0.0000000 )    f =( -0.5000000 )
                  (  0.0000000 -1.0000000  0.0000000 )       (  0.2886751 )
                  (  0.0000000  0.0000000 -1.0000000 )       (  0.0000000 )


      isym =  3     120 deg rotation - cryst. axis [0,0,1]       

 cryst.   s( 3) = (     0          1          0      )
                  (    -1         -1          0      )
                  (     0          0          1      )

 cart.    s( 3) = ( -0.5000000 -0.8660254  0.0000000 )
                  (  0.8660254 -0.5000000  0.0000000 )
                  (  0.0000000  0.0000000  1.0000000 )


      isym =  4     120 deg rotation - cryst. axis [0,0,-1]      

 cryst.   s( 4) = (    -1         -1          0      )
                  (     1          0          0      )
                  (     0          0          1      )

 cart.    s( 4) = ( -0.5000000  0.8660254  0.0000000 )
                  ( -0.8660254 -0.5000000  0.0000000 )
                  (  0.0000000  0.0000000  1.0000000 )


      isym =  5     180 deg rotation - cryst. axis [0,1,0]       

 cryst.   s( 5) = (    -1         -1          0      )    f =( -0.3333333 )
                  (     0          1          0      )       (  0.3333333 )
                  (     0          0         -1      )       (  0.0000000 )

 cart.    s( 5) = ( -0.5000000 -0.8660254  0.0000000 )    f =( -0.5000000 )
                  ( -0.8660254  0.5000000  0.0000000 )       (  0.2886751 )
                  (  0.0000000  0.0000000 -1.0000000 )       (  0.0000000 )


      isym =  6     180 deg rotation - cryst. axis [1,1,0]       

 cryst.   s( 6) = (     0          1          0      )    f =( -0.3333333 )
                  (     1          0          0      )       (  0.3333333 )
                  (     0          0         -1      )       (  0.0000000 )

 cart.    s( 6) = ( -0.5000000  0.8660254  0.0000000 )    f =( -0.5000000 )
                  (  0.8660254  0.5000000  0.0000000 )       (  0.2886751 )
                  (  0.0000000  0.0000000 -1.0000000 )       (  0.0000000 )


      isym =  7     inversion                                    

 cryst.   s( 7) = (    -1          0          0      )    f =( -0.3333333 )
                  (     0         -1          0      )       (  0.3333333 )
                  (     0          0         -1      )       (  0.0000000 )

 cart.    s( 7) = ( -1.0000000  0.0000000  0.0000000 )    f =( -0.5000000 )
                  (  0.0000000 -1.0000000  0.0000000 )       (  0.2886751 )
                  (  0.0000000  0.0000000 -1.0000000 )       (  0.0000000 )


      isym =  8     inv. 180 deg rotation - cart. axis [1,0,0]   

 cryst.   s( 8) = (    -1          0          0      )
                  (     1          1          0      )
                  (     0          0          1      )

 cart.    s( 8) = ( -1.0000000  0.0000000  0.0000000 )
                  (  0.0000000  1.0000000  0.0000000 )
                  (  0.0000000  0.0000000  1.0000000 )


      isym =  9     inv. 120 deg rotation - cryst. axis [0,0,1]  

 cryst.   s( 9) = (     0         -1          0      )    f =( -0.3333333 )
                  (     1          1          0      )       (  0.3333333 )
                  (     0          0         -1      )       (  0.0000000 )

 cart.    s( 9) = (  0.5000000  0.8660254  0.0000000 )    f =( -0.5000000 )
                  ( -0.8660254  0.5000000  0.0000000 )       (  0.2886751 )
                  (  0.0000000  0.0000000 -1.0000000 )       (  0.0000000 )


      isym = 10     inv. 120 deg rotation - cryst. axis [0,0,-1] 

 cryst.   s(10) = (     1          1          0      )    f =( -0.3333333 )
                  (    -1          0          0      )       (  0.3333333 )
                  (     0          0         -1      )       (  0.0000000 )

 cart.    s(10) = (  0.5000000 -0.8660254  0.0000000 )    f =( -0.5000000 )
                  (  0.8660254  0.5000000  0.0000000 )       (  0.2886751 )
                  (  0.0000000  0.0000000 -1.0000000 )       (  0.0000000 )


      isym = 11     inv. 180 deg rotation - cryst. axis [0,1,0]  

 cryst.   s(11) = (     1          1          0      )
                  (     0         -1          0      )
                  (     0          0          1      )

 cart.    s(11) = (  0.5000000  0.8660254  0.0000000 )
                  (  0.8660254 -0.5000000  0.0000000 )
                  (  0.0000000  0.0000000  1.0000000 )


      isym = 12     inv. 180 deg rotation - cryst. axis [1,1,0]  

 cryst.   s(12) = (     0         -1          0      )
                  (    -1          0          0      )
                  (     0          0          1      )

 cart.    s(12) = (  0.5000000 -0.8660254  0.0000000 )
                  ( -0.8660254 -0.5000000  0.0000000 )
                  (  0.0000000  0.0000000  1.0000000 )


   Cartesian axes

     site n.     atom                  positions (alat units)
         1        C      tau(   1) = (   0.0000000   0.0000000   4.0650407  )
         2        C      tau(   2) = (   0.5000000   0.2886751   4.0650407  )
         3        C      tau(   3) = (   0.5000000   0.2886751   5.4268293  )
         4        C      tau(   4) = (   0.0000000   0.5773503   5.4268293  )

   Crystallographic axes

     site n.     atom                  positions (cryst. coord.)
         1        C      tau(   1) = (  0.0000000  0.0000000  0.4282655  )
         2        C      tau(   2) = (  0.6666667  0.3333333  0.4282655  )
         3        C      tau(   3) = (  0.6666667  0.3333333  0.5717345  )
         4        C      tau(   4) = (  0.3333333  0.6666667  0.5717345  )

     number of k points=    19  Gaussian smearing, width (Ry)=  0.0100
                       cart. coord. in units 2pi/alat
        k(    1) = (   0.0000000   0.0000000   0.0000000), wk =   0.0138889
        k(    2) = (   0.0000000   0.0962250   0.0000000), wk =   0.0833333
        k(    3) = (   0.0000000   0.1924501   0.0000000), wk =   0.0833333
        k(    4) = (   0.0000000   0.2886751   0.0000000), wk =   0.0833333
        k(    5) = (   0.0000000   0.3849002   0.0000000), wk =   0.0833333
        k(    6) = (   0.0000000   0.4811252   0.0000000), wk =   0.0833333
        k(    7) = (   0.0000000  -0.5773503   0.0000000), wk =   0.0416667
        k(    8) = (   0.0833333   0.1443376   0.0000000), wk =   0.0833333
        k(    9) = (   0.0833333   0.2405626   0.0000000), wk =   0.1666667
        k(   10) = (   0.0833333   0.3367877   0.0000000), wk =   0.1666667
        k(   11) = (   0.0833333   0.4330127   0.0000000), wk =   0.1666667
        k(   12) = (   0.0833333   0.5292377   0.0000000), wk =   0.1666667
        k(   13) = (   0.1666667   0.2886751   0.0000000), wk =   0.0833333
        k(   14) = (   0.1666667   0.3849002   0.0000000), wk =   0.1666667
        k(   15) = (   0.1666667   0.4811252   0.0000000), wk =   0.1666667
        k(   16) = (   0.1666667   0.5773503   0.0000000), wk =   0.0833333
        k(   17) = (   0.2500000   0.4330127   0.0000000), wk =   0.0833333
        k(   18) = (   0.2500000   0.5292377   0.0000000), wk =   0.1666667
        k(   19) = (   0.3333333   0.5773503   0.0000000), wk =   0.0277778

                       cryst. coord.
        k(    1) = (   0.0000000   0.0000000   0.0000000), wk =   0.0138889
        k(    2) = (   0.0000000   0.0833333   0.0000000), wk =   0.0833333
        k(    3) = (   0.0000000   0.1666667   0.0000000), wk =   0.0833333
        k(    4) = (   0.0000000   0.2500000   0.0000000), wk =   0.0833333
        k(    5) = (   0.0000000   0.3333333   0.0000000), wk =   0.0833333
        k(    6) = (   0.0000000   0.4166667   0.0000000), wk =   0.0833333
        k(    7) = (   0.0000000  -0.5000000   0.0000000), wk =   0.0416667
        k(    8) = (   0.0833333   0.0833333   0.0000000), wk =   0.0833333
        k(    9) = (   0.0833333   0.1666667   0.0000000), wk =   0.1666667
        k(   10) = (   0.0833333   0.2500000   0.0000000), wk =   0.1666667
        k(   11) = (   0.0833333   0.3333333   0.0000000), wk =   0.1666667
        k(   12) = (   0.0833333   0.4166667   0.0000000), wk =   0.1666667
        k(   13) = (   0.1666667   0.1666667   0.0000000), wk =   0.0833333
        k(   14) = (   0.1666667   0.2500000   0.0000000), wk =   0.1666667
        k(   15) = (   0.1666667   0.3333333   0.0000000), wk =   0.1666667
        k(   16) = (   0.1666667   0.4166667   0.0000000), wk =   0.0833333
        k(   17) = (   0.2500000   0.2500000   0.0000000), wk =   0.0833333
        k(   18) = (   0.2500000   0.3333333   0.0000000), wk =   0.1666667
        k(   19) = (   0.3333333   0.3333333   0.0000000), wk =   0.0277778

     Dense  grid:   111671 G-vectors     FFT dimensions: (  30,  30, 288)

     Smooth grid:    52021 G-vectors     FFT dimensions: (  24,  24, 225)

     Dynamical RAM for                 wfc:       1.38 MB

     Dynamical RAM for     wfc (w. buffer):       8.31 MB

     Dynamical RAM for           str. fact:       1.70 MB

     Dynamical RAM for           local pot:       0.00 MB

     Dynamical RAM for          nlocal pot:       3.16 MB

     Dynamical RAM for                qrad:       0.46 MB

     Dynamical RAM for          rho,v,vnew:      11.04 MB

     Dynamical RAM for               rhoin:       3.68 MB

     Dynamical RAM for            rho*nmix:      27.26 MB

     Dynamical RAM for           G-vectors:       6.79 MB

     Dynamical RAM for          h,s,v(r/c):       0.04 MB

     Dynamical RAM for          <psi|beta>:       0.01 MB

     Dynamical RAM for                 psi:       2.77 MB

     Dynamical RAM for                hpsi:       2.77 MB

     Dynamical RAM for                spsi:       2.77 MB

     Dynamical RAM for      wfcinit/wfcrot:       2.77 MB

     Dynamical RAM for           addusdens:      21.30 MB

     Dynamical RAM for          addusforce:      23.43 MB

     Estimated static dynamical RAM per process >      48.44 MB

     Estimated max dynamical RAM per process >      99.14 MB

     Estimated total dynamical RAM >     314.76 MB
 ----2D----2D----2D----2D----2D----2D----2D----2D----2D----2D----2D----2D
  The code is running with the 2D cutoff
  Please refer to:
  Sohier, T., Calandra, M., & Mauri, F. (2017), 
  Density functional perturbation theory for gated two-dimensional heterostructures:
  Theoretical developments and application to flexural phonons in graphene.
  Physical Review B, 96(7), 75448. https://doi.org/10.1103/PhysRevB.96.075448
 ----2D----2D----2D----2D----2D----2D----2D----2D----2D----2D----2D----2D

     Check: negative core charge=   -0.000003

     Initial potential from superposition of free atoms

     starting charge      15.9998, renormalised to      16.0000

     negative rho (up, down):  1.246E-04 0.000E+00
     Starting wfcs are   16 randomized atomic wfcs
     Checking if some PAW data can be deallocated... 

     total cpu time spent up to now is        3.1 secs

     Self-consistent Calculation

     iteration #  1     ecut=    60.00 Ry     beta= 0.70
     Davidson diagonalization with overlap

---- Real-time Memory Report at c_bands before calling an iterative solver
            97 MiB given to the printing process from OS
             0 MiB allocation reported by mallinfo(arena+hblkhd)
          3593 MiB available memory on the node where the printing process lives
------------------
     ethr =  1.00E-02,  avg # of iterations =  5.8

     negative rho (up, down):  1.042E-04 0.000E+00

     total cpu time spent up to now is        5.9 secs

     total energy              =     -73.72706925 Ry
     estimated scf accuracy    <       0.36907691 Ry

     iteration #  2     ecut=    60.00 Ry     beta= 0.70
     Davidson diagonalization with overlap

---- Real-time Memory Report at c_bands before calling an iterative solver
           119 MiB given to the printing process from OS
             0 MiB allocation reported by mallinfo(arena+hblkhd)
          3522 MiB available memory on the node where the printing process lives
------------------
     ethr =  2.31E-03,  avg # of iterations =  6.2

     negative rho (up, down):  1.241E-04 0.000E+00

     total cpu time spent up to now is        8.1 secs

     total energy              =     -73.77164482 Ry
     estimated scf accuracy    <       0.00439081 Ry

     iteration #  3     ecut=    60.00 Ry     beta= 0.70
     Davidson diagonalization with overlap

---- Real-time Memory Report at c_bands before calling an iterative solver
           121 MiB given to the printing process from OS
             0 MiB allocation reported by mallinfo(arena+hblkhd)
          3521 MiB available memory on the node where the printing process lives
------------------
     ethr =  2.74E-05,  avg # of iterations = 10.2

     negative rho (up, down):  1.378E-04 0.000E+00

     total cpu time spent up to now is       11.2 secs

     total energy              =     -73.77230261 Ry
     estimated scf accuracy    <       0.00068476 Ry

     iteration #  4     ecut=    60.00 Ry     beta= 0.70
     Davidson diagonalization with overlap

---- Real-time Memory Report at c_bands before calling an iterative solver
           123 MiB given to the printing process from OS
             0 MiB allocation reported by mallinfo(arena+hblkhd)
          3535 MiB available memory on the node where the printing process lives
------------------
     c_bands:  1 eigenvalues not converged
     ethr =  4.28E-06,  avg # of iterations =  7.6

     negative rho (up, down):  1.443E-04 0.000E+00

     total cpu time spent up to now is       13.7 secs

     total energy              =     -73.77242920 Ry
     estimated scf accuracy    <       0.00050415 Ry

     iteration #  5     ecut=    60.00 Ry     beta= 0.70
     Davidson diagonalization with overlap

---- Real-time Memory Report at c_bands before calling an iterative solver
           124 MiB given to the printing process from OS
             0 MiB allocation reported by mallinfo(arena+hblkhd)
          3565 MiB available memory on the node where the printing process lives
------------------
     ethr =  3.15E-06,  avg # of iterations =  4.2

     negative rho (up, down):  1.450E-04 0.000E+00

     total cpu time spent up to now is       15.4 secs

     total energy              =     -73.77252823 Ry
     estimated scf accuracy    <       0.00000242 Ry

     iteration #  6     ecut=    60.00 Ry     beta= 0.70
     Davidson diagonalization with overlap

---- Real-time Memory Report at c_bands before calling an iterative solver
           126 MiB given to the printing process from OS
             0 MiB allocation reported by mallinfo(arena+hblkhd)
          3540 MiB available memory on the node where the printing process lives
------------------
     ethr =  1.51E-08,  avg # of iterations =  3.2

     negative rho (up, down):  1.451E-04 0.000E+00

     total cpu time spent up to now is       16.7 secs

     total energy              =     -73.77252971 Ry
     estimated scf accuracy    <       0.00000019 Ry

     iteration #  7     ecut=    60.00 Ry     beta= 0.70
     Davidson diagonalization with overlap

---- Real-time Memory Report at c_bands before calling an iterative solver
           127 MiB given to the printing process from OS
             0 MiB allocation reported by mallinfo(arena+hblkhd)
          3507 MiB available memory on the node where the printing process lives
------------------
     ethr =  1.19E-09,  avg # of iterations =  2.1

     negative rho (up, down):  1.452E-04 0.000E+00

     total cpu time spent up to now is       18.4 secs

     total energy              =     -73.77252974 Ry
     estimated scf accuracy    <       0.00000003 Ry

     iteration #  8     ecut=    60.00 Ry     beta= 0.70
     Davidson diagonalization with overlap

---- Real-time Memory Report at c_bands before calling an iterative solver
           129 MiB given to the printing process from OS
             0 MiB allocation reported by mallinfo(arena+hblkhd)
          3536 MiB available memory on the node where the printing process lives
------------------
     ethr =  1.74E-10,  avg # of iterations =  2.1

     negative rho (up, down):  1.452E-04 0.000E+00

     total cpu time spent up to now is       20.4 secs

     End of self-consistent calculation

          k = 0.0000 0.0000 0.0000 (  6469 PWs)   bands (ev):

   -23.9050 -23.7533 -12.3927 -11.4139  -7.2921  -7.2921  -7.2829  -7.2829
    -0.8823  -0.5487   0.8592   1.3063   2.7416   4.1216

     occupation numbers 
     1.0000   1.0000   1.0000   1.0000   1.0000   1.0000   1.0000   1.0000
     0.0000   0.0000   0.0000   0.0000   0.0000   0.0000

          k = 0.0000 0.0962 0.0000 (  6478 PWs)   bands (ev):

   -23.7396 -23.5894 -12.1928 -11.2203  -7.9491  -7.9321  -7.6358  -7.6217
    -0.6599  -0.3237   1.0808   1.5310   2.9450   4.2327

     occupation numbers 
     1.0000   1.0000   1.0000   1.0000   1.0000   1.0000   1.0000   1.0000
     0.0000   0.0000   0.0000   0.0000   0.0000   0.0000

          k = 0.0000 0.1925 0.0000 (  6486 PWs)   bands (ev):

   -23.2451 -23.0994 -11.5979 -10.6453  -9.6013  -9.5689  -8.4376  -8.4173
     0.0068   0.3503   1.7451   2.2036   3.5379   4.1074

     occupation numbers 
     1.0000   1.0000   1.0000   1.0000   1.0000   1.0000   1.0000   1.0000
     0.0000   0.0000   0.0000   0.0000   0.0000   0.0000

          k = 0.0000 0.2887 0.0000 (  6494 PWs)   bands (ev):

   -22.4273 -22.2891 -11.7180 -11.6679 -10.6251  -9.7103  -9.3260  -9.3018
     1.1143   1.4607   2.8274   2.8736   3.1873   3.3430

     occupation numbers 
     1.0000   1.0000   1.0000   1.0000   1.0000   1.0000   1.0000   1.0000
     0.0000   0.0000   0.0000   0.0000   0.0000   0.0000

          k = 0.0000 0.3849 0.0000 (  6484 PWs)   bands (ev):

   -21.2983 -21.1704 -13.9401 -13.8728 -10.0657 -10.0395  -9.3186  -8.4732
     0.4633   0.9244   2.6489   3.0444   3.4715   3.6226

     occupation numbers 
     1.0000   1.0000   1.0000   1.0000   1.0000   1.0000   1.0000   1.0000
     0.0000   0.0000   0.0000   0.0000   0.0000   0.0000

          k = 0.0000 0.4811 0.0000 (  6486 PWs)   bands (ev):

   -19.8884 -19.7744 -16.0582 -15.9761 -10.5425 -10.5151  -7.8173  -7.1304
    -1.7025  -1.1953   3.2006   3.3898   4.6484   5.0539

     occupation numbers 
     1.0000   1.0000   1.0000   1.0000   1.0000   1.0000   1.0000   1.0000
     0.0000   0.0000   0.0000   0.0000   0.0000   0.0000

          k = 0.0000-0.5774 0.0000 (  6508 PWs)   bands (ev):

   -18.5852 -18.5282 -17.5572 -17.5142 -10.7062 -10.6785  -6.8239  -6.4651
    -2.7105  -2.3573   3.1158   3.3163   6.9328   7.0170

     occupation numbers 
     1.0000   1.0000   1.0000   1.0000   1.0000   1.0000   1.0000   1.0000
     0.0000   0.0000   0.0000   0.0000   0.0000   0.0000

          k = 0.0833 0.1443 0.0000 (  6487 PWs)   bands (ev):

   -23.4096 -23.2624 -11.7954 -10.8358  -8.9864  -8.9700  -8.3175  -8.3056
    -0.2151   0.1261   1.5245   1.9801   3.3524   4.4550

     occupation numbers 
     1.0000   1.0000   1.0000   1.0000   1.0000   1.0000   1.0000   1.0000
     0.0000   0.0000   0.0000   0.0000   0.0000   0.0000

          k = 0.0833 0.2406 0.0000 (  6474 PWs)   bands (ev):

   -22.7535 -22.6123 -11.0107 -10.7122 -10.6778 -10.0793  -9.3281  -9.3058
     0.6732   1.0224   2.4098   2.8737   3.7796   3.9606

     occupation numbers 
     1.0000   1.0000   1.0000   1.0000   1.0000   1.0000   1.0000   1.0000
     0.0000   0.0000   0.0000   0.0000   0.0000   0.0000

          k = 0.0833 0.3368 0.0000 (  6487 PWs)   bands (ev):

   -21.7800 -21.6477 -12.8056 -12.7500 -10.2240 -10.1942  -9.8654  -8.9854
     1.5276   1.8905   2.0055   2.3892   3.7195   4.1780

     occupation numbers 
     1.0000   1.0000   1.0000   1.0000   1.0000   1.0000   1.0000   1.0000
     0.0000   0.0000   0.0000   0.0000   0.0000   0.0000

          k = 0.0833 0.4330 0.0000 (  6482 PWs)   bands (ev):

   -20.5077 -20.3872 -14.9477 -14.8741 -10.8645 -10.8313  -8.4335  -7.6526
    -0.7350  -0.2690   3.7253   3.9989   4.1871   4.2453

     occupation numbers 
     1.0000   1.0000   1.0000   1.0000   1.0000   1.0000   1.0000   1.0000
     0.0000   0.0000   0.0000   0.0000   0.0000   0.0000

          k = 0.0833 0.5292 0.0000 (  6501 PWs)   bands (ev):

   -19.0088 -18.9088 -16.9046 -16.8231 -11.1956 -11.1611  -7.0003  -6.4850
    -2.4691  -2.0637   3.8512   4.0604   5.9233   6.3245

     occupation numbers 
     1.0000   1.0000   1.0000   1.0000   1.0000   1.0000   1.0000   1.0000
     0.0000   0.0000   0.0000   0.0000   0.0000   0.0000

          k = 0.1667 0.2887 0.0000 (  6494 PWs)   bands (ev):

   -21.9416 -21.8078 -12.0430 -12.0155 -10.6988 -10.6788 -10.0501  -9.1592
     1.7802   2.0451   2.1344   2.2909   3.5146   3.9911

     occupation numbers 
     1.0000   1.0000   1.0000   1.0000   1.0000   1.0000   1.0000   1.0000
     0.0000   0.0000   0.0000   0.0000   0.0000   0.0000

          k = 0.1667 0.3849 0.0000 (  6484 PWs)   bands (ev):

   -20.8235 -20.7000 -13.7909 -13.7383 -11.7692 -11.7328  -8.7585  -7.9373
     0.0464   0.3659   3.3188   3.6791   5.0277   5.5168

     occupation numbers 
     1.0000   1.0000   1.0000   1.0000   1.0000   1.0000   1.0000   1.0000
     0.0000   0.0000   0.0000   0.0000   0.0000   0.0000

          k = 0.1667 0.4811 0.0000 (  6474 PWs)   bands (ev):

   -19.4335 -19.3240 -15.7232 -15.6488 -12.3520 -12.3062  -7.2583  -6.5826
    -1.9038  -1.5205   5.2492   5.5433   5.7830   5.9803

     occupation numbers 
     1.0000   1.0000   1.0000   1.0000   1.0000   1.0000   1.0000   1.0000
     0.0000   0.0000   0.0000   0.0000   0.0000   0.0000

          k = 0.1667 0.5774 0.0000 (  6478 PWs)   bands (ev):

   -18.1615 -18.1069 -17.1514 -17.1135 -12.5387 -12.4907  -6.2213  -5.8683
    -2.8513  -2.6788   5.6194   5.8964   7.2591   7.4707

     occupation numbers 
     1.0000   1.0000   1.0000   1.0000   1.0000   1.0000   1.0000   1.0000
     0.0000   0.0000   0.0000   0.0000   0.0000   0.0000

          k = 0.2500 0.4330 0.0000 (  6442 PWs)   bands (ev):

   -19.5833 -19.4717 -14.8203 -14.7819 -13.2597 -13.2312  -7.3642  -6.6389
    -1.5710  -1.2667   5.0445   5.3206   6.5036   7.0979

     occupation numbers 
     1.0000   1.0000   1.0000   1.0000   1.0000   1.0000   1.0000   1.0000
     0.0000   0.0000   0.0000   0.0000   0.0000   0.0000

          k = 0.2500 0.5292 0.0000 (  6455 PWs)   bands (ev):

   -18.1424 -18.0510 -16.2623 -16.2004 -13.9804 -13.9319  -5.8807  -5.3620
    -3.0753  -2.7988   6.5110   6.7204   7.0790   7.8353

     occupation numbers 
     1.0000   1.0000   1.0000   1.0000   1.0000   1.0000   1.0000   1.0000
     0.0000   0.0000   0.0000   0.0000   0.0000   0.0000

          k = 0.3333 0.5774 0.0000 (  6450 PWs)   bands (ev):

   -16.9207 -16.8704 -16.8704 -16.8248 -14.8639 -14.8639  -4.5856  -4.2564
    -4.2564  -3.9067   6.3440   6.3441   8.3933   8.7412

     occupation numbers 
     1.0000   1.0000   1.0000   1.0000   1.0000   1.0000   0.9997   0.5001
     0.5001   0.0001   0.0000   0.0000   0.0000   0.0000

     the Fermi energy is    -4.2564 ev

!    total energy              =     -73.77252975 Ry
     total all-electron energy =      -304.828919 Ry
     estimated scf accuracy    <          1.4E-09 Ry
     smearing contrib. (-TS)   =      -0.00015705 Ry
     internal energy E=F+TS    =     -73.77237270 Ry

     The total energy is F=E-TS. E is the sum of the following terms:
     one-electron contribution =   -1258.17867687 Ry
     hartree contribution      =     630.84956710 Ry
     xc contribution           =     -18.57721776 Ry
     ewald contribution        =     596.80287104 Ry
     one-center paw contrib.   =     -24.66891620 Ry
      -> PAW hartree energy AE =       9.53490220 Ry
      -> PAW hartree energy PS =      -9.52622030 Ry
      -> PAW xc energy AE      =     -10.68486424 Ry
      -> PAW xc energy PS      =       4.50898573 Ry
      -> total E_H with PAW    =     630.85824901 Ry
      -> total E_XC with PAW   =     -24.75309626 Ry

     convergence has been achieved in   8 iterations

     negative rho (up, down):  1.452E-04 0.000E+00

     Forces acting on atoms (cartesian axes, Ry/au):

     atom    1 type  1   force =     0.00000000   -0.00000000   -0.00258298
     atom    2 type  1   force =     0.00000000    0.00000000   -0.00155487
     atom    3 type  1   force =     0.00000000    0.00000000    0.00155487
     atom    4 type  1   force =     0.00000000    0.00000000    0.00258298
     The non-local contrib.  to forces
     atom    1 type  1   force =     0.00000000    0.00000000   -0.00276638
     atom    2 type  1   force =     0.00000000   -0.00000000   -0.00104072
     atom    3 type  1   force =     0.00000000    0.00000000    0.00104072
     atom    4 type  1   force =     0.00000000    0.00000000    0.00276638
     The ionic contribution  to forces
     atom    1 type  1   force =     0.00000000   -0.00000000  -21.48298676
     atom    2 type  1   force =    -0.00000000    0.00000000  -21.48793610
     atom    3 type  1   force =    -0.00000000   -0.00000000   21.48793610
     atom    4 type  1   force =     0.00000000    0.00000000   21.48298676
     The local contribution  to forces
     atom    1 type  1   force =     0.00000000    0.00000000   21.48300188
     atom    2 type  1   force =    -0.00000000    0.00000000   21.48728257
     atom    3 type  1   force =    -0.00000000    0.00000000  -21.48728257
     atom    4 type  1   force =    -0.00000000    0.00000000  -21.48300188
     The core correction contribution to forces
     atom    1 type  1   force =     0.00000000    0.00000000    0.00011476
     atom    2 type  1   force =     0.00000000   -0.00000000    0.00008631
     atom    3 type  1   force =     0.00000000   -0.00000000   -0.00008631
     atom    4 type  1   force =    -0.00000000   -0.00000000   -0.00011476
     The Hubbard contrib.    to forces
     atom    1 type  1   force =     0.00000000    0.00000000    0.00000000
     atom    2 type  1   force =     0.00000000    0.00000000    0.00000000
     atom    3 type  1   force =     0.00000000    0.00000000    0.00000000
     atom    4 type  1   force =     0.00000000    0.00000000    0.00000000
     The SCF correction term to forces
     atom    1 type  1   force =     0.00000000    0.00000000    0.00005353
     atom    2 type  1   force =    -0.00000000   -0.00000000    0.00005307
     atom    3 type  1   force =    -0.00000000   -0.00000000   -0.00005307
     atom    4 type  1   force =     0.00000000   -0.00000000   -0.00005353

     Total force =     0.004264     Total SCF correction =     0.000107

     BFGS Geometry Optimization
     Energy error            =      1.8E-05 Ry
     Gradient error          =      2.6E-03 Ry/Bohr

     number of scf cycles    =   1
     number of bfgs steps    =   0

     energy             new  =     -73.7725297478 Ry

     new trust radius        =       0.0025829760 bohr
     new conv_thr            =       0.0000000100 Ry


ATOMIC_POSITIONS (angstrom)
C                0.0000000000       -0.0000000000        9.9986331480
C                1.2300000000        0.7101408311        9.9991771987
C                1.2300000000        0.7101408311       13.3508228013
C                0.0000000000        1.4202816622       13.3513668520



     Writing config-only to output data dir /home/ubuntu/projects/Graphene-Band-Structure-Quantum-Espresso/outputs/bilayer/field_0Ry/coupled/data/coupled.save/ :
     XML data file
     NEW-OLD atomic charge density approx. for the potential

     Check: negative core charge=   -0.000003

     negative rho (up, down):  1.448E-04 0.000E+00

     total cpu time spent up to now is       21.5 secs

     Self-consistent Calculation

     iteration #  1     ecut=    60.00 Ry     beta= 0.70
     Davidson diagonalization with overlap

---- Real-time Memory Report at c_bands before calling an iterative solver
           131 MiB given to the printing process from OS
             0 MiB allocation reported by mallinfo(arena+hblkhd)
          3534 MiB available memory on the node where the printing process lives
------------------
     ethr =  1.00E-06,  avg # of iterations =  2.0

     Threshold (ethr) on eigenvalues was too large:
     Diagonalizing with lowered threshold

     Davidson diagonalization with overlap

---- Real-time Memory Report at c_bands before calling an iterative solver
           131 MiB given to the printing process from OS
             0 MiB allocation reported by mallinfo(arena+hblkhd)
          3535 MiB available memory on the node where the printing process lives
------------------
     ethr =  1.78E-08,  avg # of iterations =  1.8

     negative rho (up, down):  1.449E-04 0.000E+00

     total cpu time spent up to now is       24.4 secs

     total energy              =     -73.77254628 Ry
     estimated scf accuracy    <       0.00000345 Ry

     iteration #  2     ecut=    60.00 Ry     beta= 0.70
     Davidson diagonalization with overlap

---- Real-time Memory Report at c_bands before calling an iterative solver
           131 MiB given to the printing process from OS
             0 MiB allocation reported by mallinfo(arena+hblkhd)
          3543 MiB available memory on the node where the printing process lives
------------------
     ethr =  2.16E-08,  avg # of iterations =  2.0

     negative rho (up, down):  1.449E-04 0.000E+00

     total cpu time spent up to now is       26.2 secs

     total energy              =     -73.77254678 Ry
     estimated scf accuracy    <       0.00000299 Ry

     iteration #  3     ecut=    60.00 Ry     beta= 0.70
     Davidson diagonalization with overlap

---- Real-time Memory Report at c_bands before calling an iterative solver
           131 MiB given to the printing process from OS
             0 MiB allocation reported by mallinfo(arena+hblkhd)
          3508 MiB available memory on the node where the printing process lives
------------------
     ethr =  1.87E-08,  avg # of iterations =  2.0

     negative rho (up, down):  1.449E-04 0.000E+00

     total cpu time spent up to now is       28.1 secs

     total energy              =     -73.77254749 Ry
     estimated scf accuracy    <       0.00000005 Ry

     iteration #  4     ecut=    60.00 Ry     beta= 0.70
     Davidson diagonalization with overlap

---- Real-time Memory Report at c_bands before calling an iterative solver
           131 MiB given to the printing process from OS
             0 MiB allocation reported by mallinfo(arena+hblkhd)
          3539 MiB available memory on the node where the printing process lives
------------------
     ethr =  3.38E-10,  avg # of iterations =  1.7

     negative rho (up, down):  1.449E-04 0.000E+00

     total cpu time spent up to now is       29.8 secs

     End of self-consistent calculation

          k = 0.0000 0.0000 0.0000 (  6469 PWs)   bands (ev):

   -23.9043 -23.7533 -12.3909 -11.4152  -7.2917  -7.2917  -7.2825  -7.2825
    -0.8824  -0.5485   0.8594   1.3078   2.7389   4.1161

     occupation numbers 
     1.0000   1.0000   1.0000   1.0000   1.0000   1.0000   1.0000   1.0000
     0.0000   0.0000   0.0000   0.0000   0.0000   0.0000

          k = 0.0000 0.0962 0.0000 (  6478 PWs)   bands (ev):

   -23.7388 -23.5894 -12.1910 -11.2216  -7.9487  -7.9318  -7.6354  -7.6213
    -0.6601  -0.3234   1.0810   1.5325   2.9423   4.2328

     occupation numbers 
     1.0000   1.0000   1.0000   1.0000   1.0000   1.0000   1.0000   1.0000
     0.0000   0.0000   0.0000   0.0000   0.0000   0.0000

          k = 0.0000 0.1925 0.0000 (  6486 PWs)   bands (ev):

   -23.2443 -23.0994 -11.5961 -10.6466  -9.6008  -9.5686  -8.4372  -8.4170
     0.0066   0.3506   1.7453   2.2051   3.5354   4.1081

     occupation numbers 
     1.0000   1.0000   1.0000   1.0000   1.0000   1.0000   1.0000   1.0000
     0.0000   0.0000   0.0000   0.0000   0.0000   0.0000

          k = 0.0000 0.2887 0.0000 (  6494 PWs)   bands (ev):

   -22.4265 -22.2891 -11.7175 -11.6677 -10.6233  -9.7115  -9.3255  -9.3015
     1.1140   1.4610   2.8285   2.8735   3.1871   3.3443

     occupation numbers 
     1.0000   1.0000   1.0000   1.0000   1.0000   1.0000   1.0000   1.0000
     0.0000   0.0000   0.0000   0.0000   0.0000   0.0000

          k = 0.0000 0.3849 0.0000 (  6484 PWs)   bands (ev):

   -21.2976 -21.1703 -13.9396 -13.8726 -10.0653 -10.0392  -9.3170  -8.4743
     0.4648   0.9236   2.6487   3.0446   3.4722   3.6226

     occupation numbers 
     1.0000   1.0000   1.0000   1.0000   1.0000   1.0000   1.0000   1.0000
     0.0000   0.0000   0.0000   0.0000   0.0000   0.0000

          k = 0.0000 0.4811 0.0000 (  6486 PWs)   bands (ev):

   -19.8877 -19.7743 -16.0576 -15.9760 -10.5421 -10.5149  -7.8159  -7.1311
    -1.7011  -1.1962   3.2014   3.3897   4.6481   5.0541

     occupation numbers 
     1.0000   1.0000   1.0000   1.0000   1.0000   1.0000   1.0000   1.0000
     0.0000   0.0000   0.0000   0.0000   0.0000   0.0000

          k = 0.0000-0.5774 0.0000 (  6508 PWs)   bands (ev):

   -18.5847 -18.5280 -17.5567 -17.5139 -10.7057 -10.6782  -6.8230  -6.4650
    -2.7093  -2.3581   3.1166   3.3162   6.9325   7.0166

     occupation numbers 
     1.0000   1.0000   1.0000   1.0000   1.0000   1.0000   1.0000   1.0000
     0.0000   0.0000   0.0000   0.0000   0.0000   0.0000

          k = 0.0833 0.1443 0.0000 (  6487 PWs)   bands (ev):

   -23.4089 -23.2624 -11.7935 -10.8372  -8.9860  -8.9697  -8.3171  -8.3052
    -0.2153   0.1263   1.5247   1.9816   3.3498   4.4557

     occupation numbers 
     1.0000   1.0000   1.0000   1.0000   1.0000   1.0000   1.0000   1.0000
     0.0000   0.0000   0.0000   0.0000   0.0000   0.0000

          k = 0.0833 0.2406 0.0000 (  6474 PWs)   bands (ev):

   -22.7527 -22.6123 -11.0089 -10.7117 -10.6776 -10.0806  -9.3276  -9.3055
     0.6730   1.0226   2.4099   2.8753   3.7806   3.9598

     occupation numbers 
     1.0000   1.0000   1.0000   1.0000   1.0000   1.0000   1.0000   1.0000
     0.0000   0.0000   0.0000   0.0000   0.0000   0.0000

          k = 0.0833 0.3368 0.0000 (  6487 PWs)   bands (ev):

   -21.7793 -21.6476 -12.8050 -12.7498 -10.2235 -10.1939  -9.8637  -8.9866
     1.5287   1.8904   2.0051   2.3895   3.7195   4.1791

     occupation numbers 
     1.0000   1.0000   1.0000   1.0000   1.0000   1.0000   1.0000   1.0000
     0.0000   0.0000   0.0000   0.0000   0.0000   0.0000

          k = 0.0833 0.4330 0.0000 (  6482 PWs)   bands (ev):

   -20.5070 -20.3871 -14.9471 -14.8740 -10.8640 -10.8311  -8.4319  -7.6535
    -0.7336  -0.2697   3.7251   3.9995   4.1875   4.2453

     occupation numbers 
     1.0000   1.0000   1.0000   1.0000   1.0000   1.0000   1.0000   1.0000
     0.0000   0.0000   0.0000   0.0000   0.0000   0.0000

          k = 0.0833 0.5292 0.0000 (  6501 PWs)   bands (ev):

   -19.0082 -18.9087 -16.9040 -16.8230 -11.1952 -11.1609  -6.9991  -6.4853
    -2.4679  -2.0644   3.8521   4.0603   5.9229   6.3247

     occupation numbers 
     1.0000   1.0000   1.0000   1.0000   1.0000   1.0000   1.0000   1.0000
     0.0000   0.0000   0.0000   0.0000   0.0000   0.0000

          k = 0.1667 0.2887 0.0000 (  6494 PWs)   bands (ev):

   -21.9409 -21.8078 -12.0426 -12.0152 -10.6984 -10.6785 -10.0484  -9.1604
     1.7796   2.0462   2.1351   2.2907   3.5145   3.9923

     occupation numbers 
     1.0000   1.0000   1.0000   1.0000   1.0000   1.0000   1.0000   1.0000
     0.0000   0.0000   0.0000   0.0000   0.0000   0.0000

          k = 0.1667 0.3849 0.0000 (  6484 PWs)   bands (ev):

   -20.8228 -20.7000 -13.7904 -13.7381 -11.7687 -11.7325  -8.7568  -7.9384
     0.0474   0.3659   3.3186   3.6793   5.0273   5.5182

     occupation numbers 
     1.0000   1.0000   1.0000   1.0000   1.0000   1.0000   1.0000   1.0000
     0.0000   0.0000   0.0000   0.0000   0.0000   0.0000

          k = 0.1667 0.4811 0.0000 (  6474 PWs)   bands (ev):

   -19.4329 -19.3239 -15.7226 -15.6487 -12.3515 -12.3060  -7.2569  -6.5834
    -1.9027  -1.5208   5.2488   5.5437   5.7836   5.9802

     occupation numbers 
     1.0000   1.0000   1.0000   1.0000   1.0000   1.0000   1.0000   1.0000
     0.0000   0.0000   0.0000   0.0000   0.0000   0.0000

          k = 0.1667 0.5774 0.0000 (  6478 PWs)   bands (ev):

   -18.1610 -18.1066 -17.1510 -17.1133 -12.5381 -12.4904  -6.2204  -5.8682
    -2.8505  -2.6792   5.6204   5.8963   7.2605   7.4676

     occupation numbers 
     1.0000   1.0000   1.0000   1.0000   1.0000   1.0000   1.0000   1.0000
     0.0000   0.0000   0.0000   0.0000   0.0000   0.0000

          k = 0.2500 0.4330 0.0000 (  6442 PWs)   bands (ev):

   -19.5827 -19.4717 -14.8198 -14.7816 -13.2592 -13.2309  -7.3627  -6.6398
    -1.5701  -1.2666   5.0442   5.3208   6.5014   7.0994

     occupation numbers 
     1.0000   1.0000   1.0000   1.0000   1.0000   1.0000   1.0000   1.0000
     0.0000   0.0000   0.0000   0.0000   0.0000   0.0000

          k = 0.2500 0.5292 0.0000 (  6455 PWs)   bands (ev):

   -18.1418 -18.0509 -16.2618 -16.2002 -13.9799 -13.9316  -5.8795  -5.3623
    -3.0745  -2.7988   6.5118   6.7189   7.0789   7.8358

     occupation numbers 
     1.0000   1.0000   1.0000   1.0000   1.0000   1.0000   1.0000   1.0000
     0.0000   0.0000   0.0000   0.0000   0.0000   0.0000

          k = 0.3333 0.5774 0.0000 (  6450 PWs)   bands (ev):

   -16.9201 -16.8701 -16.8701 -16.8247 -14.8635 -14.8635  -4.5844  -4.2559
    -4.2559  -3.9072   6.3439   6.3439   8.3936   8.7411

     occupation numbers 
     1.0000   1.0000   1.0000   1.0000   1.0000   1.0000   0.9997   0.5001
     0.5001   0.0001   0.0000   0.0000   0.0000   0.0000

     the Fermi energy is    -4.2559 ev

!    total energy              =     -73.77254750 Ry
     total all-electron energy =      -304.828936 Ry
     estimated scf accuracy    <          7.2E-10 Ry
     smearing contrib. (-TS)   =      -0.00015706 Ry
     internal energy E=F+TS    =     -73.77239044 Ry

     The total energy is F=E-TS. E is the sum of the following terms:
     one-electron contribution =   -1257.82318465 Ry
     hartree contribution      =     630.67180442 Ry
     xc contribution           =     -18.57715776 Ry
     ewald contribution        =     596.62506126 Ry
     one-center paw contrib.   =     -24.66891372 Ry
      -> PAW hartree energy AE =       9.53480788 Ry
      -> PAW hartree energy PS =      -9.52612605 Ry
      -> PAW xc energy AE      =     -10.68484151 Ry
      -> PAW xc energy PS      =       4.50896364 Ry
      -> total E_H with PAW    =     630.68048625 Ry
      -> total E_XC with PAW   =     -24.75303563 Ry

     convergence has been achieved in   4 iterations

     negative rho (up, down):  1.449E-04 0.000E+00

     Forces acting on atoms (cartesian axes, Ry/au):

     atom    1 type  1   force =     0.00000000    0.00000000   -0.00221505
     atom    2 type  1   force =     0.00000000    0.00000000   -0.00189960
     atom    3 type  1   force =     0.00000000    0.00000000    0.00189960
     atom    4 type  1   force =     0.00000000   -0.00000000    0.00221505
     The non-local contrib.  to forces
     atom    1 type  1   force =     0.00000000    0.00000000   -0.00208743
     atom    2 type  1   force =     0.00000000   -0.00000000   -0.00167129
     atom    3 type  1   force =     0.00000000    0.00000000    0.00167129
     atom    4 type  1   force =     0.00000000    0.00000000    0.00208743
     The ionic contribution  to forces
     atom    1 type  1   force =     0.00000000   -0.00000000  -21.49059194
     atom    2 type  1   force =    -0.00000000    0.00000000  -21.48034933
     atom    3 type  1   force =    -0.00000000   -0.00000000   21.48034933
     atom    4 type  1   force =     0.00000000    0.00000000   21.49059194
     The local contribution  to forces
     atom    1 type  1   force =    -0.00000000    0.00000000   21.49030229
     atom    2 type  1   force =    -0.00000000    0.00000000   21.47997924
     atom    3 type  1   force =    -0.00000000    0.00000000  -21.47997924
     atom    4 type  1   force =    -0.00000000    0.00000000  -21.49030229
     The core correction contribution to forces
     atom    1 type  1   force =     0.00000000    0.00000000    0.00011311
     atom    2 type  1   force =     0.00000000   -0.00000000    0.00009314
     atom    3 type  1   force =     0.00000000   -0.00000000   -0.00009314
     atom    4 type  1   force =     0.00000000   -0.00000000   -0.00011311
     The Hubbard contrib.    to forces
     atom    1 type  1   force =     0.00000000    0.00000000    0.00000000
     atom    2 type  1   force =     0.00000000    0.00000000    0.00000000
     atom    3 type  1   force =     0.00000000    0.00000000    0.00000000
     atom    4 type  1   force =     0.00000000    0.00000000    0.00000000
     The SCF correction term to forces
     atom    1 type  1   force =     0.00000000    0.00000000    0.00004892
     atom    2 type  1   force =     0.00000000   -0.00000000    0.00004864
     atom    3 type  1   force =     0.00000000   -0.00000000   -0.00004864
     atom    4 type  1   force =    -0.00000000    0.00000000   -0.00004892

     Total force =     0.004127     Total SCF correction =     0.000098
     Energy error            =      1.8E-05 Ry
     Gradient error          =      2.2E-03 Ry/Bohr

     number of scf cycles    =   2
     number of bfgs steps    =   1

     energy             old  =     -73.7725297478 Ry
     energy             new  =     -73.7725475010 Ry

     CASE: energy            _new < energy            _old


     WARNING: bfgs curvature condition failed, Theta= 0.838
     new trust radius        =       0.0028412736 bohr
     new conv_thr            =            1.0E-10 Ry


ATOMIC_POSITIONS (angstrom)
C                0.0000000000       -0.0000000000        9.9971296108
C                1.2300000000        0.7101408311        9.9981150434
C                1.2300000000        0.7101408311       13.3518849566
C                0.0000000000        1.4202816622       13.3528703892



     Writing config-only to output data dir /home/ubuntu/projects/Graphene-Band-Structure-Quantum-Espresso/outputs/bilayer/field_0Ry/coupled/data/coupled.save/ :
     XML data file
     NEW-OLD atomic charge density approx. for the potential

     Check: negative core charge=   -0.000003

     negative rho (up, down):  1.445E-04 0.000E+00

     total cpu time spent up to now is       31.0 secs

     Self-consistent Calculation

     iteration #  1     ecut=    60.00 Ry     beta= 0.70
     Davidson diagonalization with overlap

---- Real-time Memory Report at c_bands before calling an iterative solver
           131 MiB given to the printing process from OS
             0 MiB allocation reported by mallinfo(arena+hblkhd)
          3547 MiB available memory on the node where the printing process lives
------------------
     ethr =  1.00E-06,  avg # of iterations =  2.0

     Threshold (ethr) on eigenvalues was too large:
     Diagonalizing with lowered threshold

     Davidson diagonalization with overlap

---- Real-time Memory Report at c_bands before calling an iterative solver
           131 MiB given to the printing process from OS
             0 MiB allocation reported by mallinfo(arena+hblkhd)
          3547 MiB available memory on the node where the printing process lives
------------------
     ethr =  2.52E-08,  avg # of iterations =  1.7

     negative rho (up, down):  1.446E-04 0.000E+00

     total cpu time spent up to now is       34.5 secs

     total energy              =     -73.77256561 Ry
     estimated scf accuracy    <       0.00000475 Ry

     iteration #  2     ecut=    60.00 Ry     beta= 0.70
     Davidson diagonalization with overlap

---- Real-time Memory Report at c_bands before calling an iterative solver
           131 MiB given to the printing process from OS
             0 MiB allocation reported by mallinfo(arena+hblkhd)
          3531 MiB available memory on the node where the printing process lives
------------------
     ethr =  2.97E-08,  avg # of iterations =  2.0

     negative rho (up, down):  1.446E-04 0.000E+00

     total cpu time spent up to now is       36.4 secs

     total energy              =     -73.77256631 Ry
     estimated scf accuracy    <       0.00000413 Ry

     iteration #  3     ecut=    60.00 Ry     beta= 0.70
     Davidson diagonalization with overlap

---- Real-time Memory Report at c_bands before calling an iterative solver
           131 MiB given to the printing process from OS
             0 MiB allocation reported by mallinfo(arena+hblkhd)
          3530 MiB available memory on the node where the printing process lives
------------------
     ethr =  2.58E-08,  avg # of iterations =  2.0

     negative rho (up, down):  1.447E-04 0.000E+00

     total cpu time spent up to now is       38.3 secs

     total energy              =     -73.77256728 Ry
     estimated scf accuracy    <       0.00000007 Ry

     iteration #  4     ecut=    60.00 Ry     beta= 0.70
     Davidson diagonalization with overlap

---- Real-time Memory Report at c_bands before calling an iterative solver
           131 MiB given to the printing process from OS
             0 MiB allocation reported by mallinfo(arena+hblkhd)
          3529 MiB available memory on the node where the printing process lives
------------------
     ethr =  4.58E-10,  avg # of iterations =  1.6

     negative rho (up, down):  1.447E-04 0.000E+00

     total cpu time spent up to now is       40.0 secs

     total energy              =     -73.77256730 Ry
     estimated scf accuracy    <          9.5E-10 Ry

     iteration #  5     ecut=    60.00 Ry     beta= 0.70
     Davidson diagonalization with overlap

---- Real-time Memory Report at c_bands before calling an iterative solver
           131 MiB given to the printing process from OS
             0 MiB allocation reported by mallinfo(arena+hblkhd)
          3528 MiB available memory on the node where the printing process lives
------------------
     ethr =  5.94E-12,  avg # of iterations =  3.2

     negative rho (up, down):  1.447E-04 0.000E+00

     total cpu time spent up to now is       42.2 secs

     total energy              =     -73.77256730 Ry
     estimated scf accuracy    <          1.1E-10 Ry

     iteration #  6     ecut=    60.00 Ry     beta= 0.70
     Davidson diagonalization with overlap

---- Real-time Memory Report at c_bands before calling an iterative solver
           131 MiB given to the printing process from OS
             0 MiB allocation reported by mallinfo(arena+hblkhd)
          3534 MiB available memory on the node where the printing process lives
------------------
     ethr =  6.59E-13,  avg # of iterations =  2.0

     negative rho (up, down):  1.447E-04 0.000E+00

     total cpu time spent up to now is       44.0 secs

     End of self-consistent calculation

          k = 0.0000 0.0000 0.0000 (  6469 PWs)   bands (ev):

   -23.9038 -23.7536 -12.3891 -11.4172  -7.2917  -7.2917  -7.2826  -7.2826
    -0.8827  -0.5484   0.8594   1.3094   2.7356   4.1099

     occupation numbers 
     1.0000   1.0000   1.0000   1.0000   1.0000   1.0000   1.0000   1.0000
     0.0000   0.0000   0.0000   0.0000   0.0000   0.0000

          k = 0.0000 0.0962 0.0000 (  6478 PWs)   bands (ev):

   -23.7383 -23.5897 -12.1892 -11.2235  -7.9486  -7.9319  -7.6354  -7.6214
    -0.6604  -0.3233   1.0810   1.5340   2.9391   4.2325

     occupation numbers 
     1.0000   1.0000   1.0000   1.0000   1.0000   1.0000   1.0000   1.0000
     0.0000   0.0000   0.0000   0.0000   0.0000   0.0000

          k = 0.0000 0.1925 0.0000 (  6486 PWs)   bands (ev):

   -23.2438 -23.0998 -11.5944 -10.6485  -9.6007  -9.5687  -8.4371  -8.4171
     0.0063   0.3507   1.7452   2.2066   3.5324   4.1085

     occupation numbers 
     1.0000   1.0000   1.0000   1.0000   1.0000   1.0000   1.0000   1.0000
     0.0000   0.0000   0.0000   0.0000   0.0000   0.0000

          k = 0.0000 0.2887 0.0000 (  6494 PWs)   bands (ev):

   -22.4261 -22.2894 -11.7173 -11.6678 -10.6216  -9.7133  -9.3254  -9.3016
     1.1136   1.4611   2.8288   2.8737   3.1865   3.3456

     occupation numbers 
     1.0000   1.0000   1.0000   1.0000   1.0000   1.0000   1.0000   1.0000
     0.0000   0.0000   0.0000   0.0000   0.0000   0.0000

          k = 0.0000 0.3849 0.0000 (  6484 PWs)   bands (ev):

   -21.2972 -21.1707 -13.9393 -13.8728 -10.0652 -10.0392  -9.3153  -8.4759
     0.4661   0.9225   2.6483   3.0447   3.4727   3.6223

     occupation numbers 
     1.0000   1.0000   1.0000   1.0000   1.0000   1.0000   1.0000   1.0000
     0.0000   0.0000   0.0000   0.0000   0.0000   0.0000

          k = 0.0000 0.4811 0.0000 (  6486 PWs)   bands (ev):

   -19.8873 -19.7746 -16.0573 -15.9762 -10.5419 -10.5149  -7.8145  -7.1324
    -1.6999  -1.1974   3.2020   3.3892   4.6476   5.0541

     occupation numbers 
     1.0000   1.0000   1.0000   1.0000   1.0000   1.0000   1.0000   1.0000
     0.0000   0.0000   0.0000   0.0000   0.0000   0.0000

          k = 0.0000-0.5774 0.0000 (  6508 PWs)   bands (ev):

   -18.5844 -18.5281 -17.5565 -17.5141 -10.7056 -10.6783  -6.8222  -6.4654
    -2.7085  -2.3593   3.1173   3.3157   6.9318   7.0159

     occupation numbers 
     1.0000   1.0000   1.0000   1.0000   1.0000   1.0000   1.0000   1.0000
     0.0000   0.0000   0.0000   0.0000   0.0000   0.0000

          k = 0.0833 0.1443 0.0000 (  6487 PWs)   bands (ev):

   -23.4084 -23.2628 -11.7918 -10.8390  -8.9859  -8.9697  -8.3170  -8.3052
    -0.2156   0.1264   1.5246   1.9832   3.3466   4.4561

     occupation numbers 
     1.0000   1.0000   1.0000   1.0000   1.0000   1.0000   1.0000   1.0000
     0.0000   0.0000   0.0000   0.0000   0.0000   0.0000

          k = 0.0833 0.2406 0.0000 (  6474 PWs)   bands (ev):

   -22.7523 -22.6127 -11.0071 -10.7116 -10.6777 -10.0824  -9.3275  -9.3055
     0.6726   1.0227   2.4096   2.8768   3.7813   3.9587

     occupation numbers 
     1.0000   1.0000   1.0000   1.0000   1.0000   1.0000   1.0000   1.0000
     0.0000   0.0000   0.0000   0.0000   0.0000   0.0000

          k = 0.0833 0.3368 0.0000 (  6487 PWs)   bands (ev):

   -21.7788 -21.6480 -12.8048 -12.7499 -10.2234 -10.1940  -9.8621  -8.9883
     1.5296   1.8898   2.0045   2.3896   3.7192   4.1801

     occupation numbers 
     1.0000   1.0000   1.0000   1.0000   1.0000   1.0000   1.0000   1.0000
     0.0000   0.0000   0.0000   0.0000   0.0000   0.0000

          k = 0.0833 0.4330 0.0000 (  6482 PWs)   bands (ev):

   -20.5066 -20.3874 -14.9468 -14.8742 -10.8639 -10.8312  -8.4304  -7.6550
    -0.7324  -0.2708   3.7246   3.9998   4.1877   4.2449

     occupation numbers 
     1.0000   1.0000   1.0000   1.0000   1.0000   1.0000   1.0000   1.0000
     0.0000   0.0000   0.0000   0.0000   0.0000   0.0000

          k = 0.0833 0.5292 0.0000 (  6501 PWs)   bands (ev):

   -19.0078 -18.9089 -16.9037 -16.8232 -11.1950 -11.1610  -6.9980  -6.4861
    -2.4670  -2.0655   3.8527   4.0598   5.9223   6.3248

     occupation numbers 
     1.0000   1.0000   1.0000   1.0000   1.0000   1.0000   1.0000   1.0000
     0.0000   0.0000   0.0000   0.0000   0.0000   0.0000

          k = 0.1667 0.2887 0.0000 (  6494 PWs)   bands (ev):

   -21.9404 -21.8082 -12.0424 -12.0152 -10.6983 -10.6785 -10.0467  -9.1621
     1.7789   2.0471   2.1355   2.2901   3.5142   3.9937

     occupation numbers 
     1.0000   1.0000   1.0000   1.0000   1.0000   1.0000   1.0000   1.0000
     0.0000   0.0000   0.0000   0.0000   0.0000   0.0000

          k = 0.1667 0.3849 0.0000 (  6484 PWs)   bands (ev):

   -20.8224 -20.7003 -13.7902 -13.7382 -11.7686 -11.7326  -8.7552  -7.9399
     0.0482   0.3654   3.3181   3.6794   5.0266   5.5196

     occupation numbers 
     1.0000   1.0000   1.0000   1.0000   1.0000   1.0000   1.0000   1.0000
     0.0000   0.0000   0.0000   0.0000   0.0000   0.0000

          k = 0.1667 0.4811 0.0000 (  6474 PWs)   bands (ev):

   -19.4325 -19.3242 -15.7224 -15.6489 -12.3513 -12.3061  -7.2555  -6.5846
    -1.9018  -1.5216   5.2482   5.5441   5.7841   5.9798

     occupation numbers 
     1.0000   1.0000   1.0000   1.0000   1.0000   1.0000   1.0000   1.0000
     0.0000   0.0000   0.0000   0.0000   0.0000   0.0000

          k = 0.1667 0.5774 0.0000 (  6478 PWs)   bands (ev):

   -18.1607 -18.1068 -17.1508 -17.1134 -12.5380 -12.4906  -6.2195  -5.8685
    -2.8500  -2.6799   5.6211   5.8958   7.2614   7.4643

     occupation numbers 
     1.0000   1.0000   1.0000   1.0000   1.0000   1.0000   1.0000   1.0000
     0.0000   0.0000   0.0000   0.0000   0.0000   0.0000

          k = 0.2500 0.4330 0.0000 (  6442 PWs)   bands (ev):

   -19.5823 -19.4720 -14.8197 -14.7817 -13.2591 -13.2310  -7.3613  -6.6412
    -1.5695  -1.2670   5.0437   5.3210   6.4985   7.1009

     occupation numbers 
     1.0000   1.0000   1.0000   1.0000   1.0000   1.0000   1.0000   1.0000
     0.0000   0.0000   0.0000   0.0000   0.0000   0.0000

          k = 0.2500 0.5292 0.0000 (  6455 PWs)   bands (ev):

   -18.1414 -18.0511 -16.2616 -16.2003 -13.9797 -13.9318  -5.8784  -5.3632
    -3.0740  -2.7992   6.5124   6.7170   7.0784   7.8361

     occupation numbers 
     1.0000   1.0000   1.0000   1.0000   1.0000   1.0000   1.0000   1.0000
     0.0000   0.0000   0.0000   0.0000   0.0000   0.0000

          k = 0.3333 0.5774 0.0000 (  6450 PWs)   bands (ev):

   -16.9197 -16.8700 -16.8700 -16.8250 -14.8635 -14.8635  -4.5832  -4.2557
    -4.2557  -3.9083   6.3434   6.3434   8.3935   8.7407

     occupation numbers 
     1.0000   1.0000   1.0000   1.0000   1.0000   1.0000   0.9997   0.5001
     0.5001   0.0002   0.0000   0.0000   0.0000   0.0000

     the Fermi energy is    -4.2557 ev

!    total energy              =     -73.77256730 Ry
     total all-electron energy =      -304.828956 Ry
     estimated scf accuracy    <          3.7E-12 Ry
     smearing contrib. (-TS)   =      -0.00015707 Ry
     internal energy E=F+TS    =     -73.77241022 Ry

     The total energy is F=E-TS. E is the sum of the following terms:
     one-electron contribution =   -1257.40700698 Ry
     hartree contribution      =     630.46390699 Ry
     xc contribution           =     -18.57710224 Ry
     ewald contribution        =     596.41670480 Ry
     one-center paw contrib.   =     -24.66891279 Ry
      -> PAW hartree energy AE =       9.53473919 Ry
      -> PAW hartree energy PS =      -9.52605737 Ry
      -> PAW xc energy AE      =     -10.68482551 Ry
      -> PAW xc energy PS      =       4.50894762 Ry
      -> total E_H with PAW    =     630.47258881 Ry
      -> total E_XC with PAW   =     -24.75298013 Ry

     convergence has been achieved in   6 iterations

     negative rho (up, down):  1.447E-04 0.000E+00

     Forces acting on atoms (cartesian axes, Ry/au):

     atom    1 type  1   force =     0.00000000    0.00000000   -0.00189459
     atom    2 type  1   force =     0.00000000   -0.00000000   -0.00216006
     atom    3 type  1   force =     0.00000000   -0.00000000    0.00216006
     atom    4 type  1   force =     0.00000000   -0.00000000    0.00189459
     The non-local contrib.  to forces
     atom    1 type  1   force =     0.00000000   -0.00000000   -0.00154000
     atom    2 type  1   force =     0.00000000   -0.00000000   -0.00218399
     atom    3 type  1   force =     0.00000000    0.00000000    0.00218399
     atom    4 type  1   force =     0.00000000    0.00000000    0.00154000
     The ionic contribution  to forces
     atom    1 type  1   force =     0.00000000   -0.00000000  -21.49676935
     atom    2 type  1   force =     0.00000000    0.00000000  -21.47419046
     atom    3 type  1   force =     0.00000000   -0.00000000   21.47419046
     atom    4 type  1   force =     0.00000000    0.00000000   21.49676935
     The local contribution  to forces
     atom    1 type  1   force =    -0.00000000    0.00000000   21.49630431
     atom    2 type  1   force =    -0.00000000    0.00000000   21.47411653
     atom    3 type  1   force =    -0.00000000    0.00000000  -21.47411653
     atom    4 type  1   force =    -0.00000000    0.00000000  -21.49630431
     The core correction contribution to forces
     atom    1 type  1   force =    -0.00000000    0.00000000    0.00011237
     atom    2 type  1   force =     0.00000000   -0.00000000    0.00009977
     atom    3 type  1   force =     0.00000000   -0.00000000   -0.00009977
     atom    4 type  1   force =     0.00000000   -0.00000000   -0.00011237
     The Hubbard contrib.    to forces
     atom    1 type  1   force =     0.00000000    0.00000000    0.00000000
     atom    2 type  1   force =     0.00000000    0.00000000    0.00000000
     atom    3 type  1   force =     0.00000000    0.00000000    0.00000000
     atom    4 type  1   force =     0.00000000    0.00000000    0.00000000
     The SCF correction term to forces
     atom    1 type  1   force =     0.00000000   -0.00000000   -0.00000192
     atom    2 type  1   force =     0.00000000    0.00000000   -0.00000191
     atom    3 type  1   force =     0.00000000    0.00000000    0.00000191
     atom    4 type  1   force =    -0.00000000   -0.00000000    0.00000192

     Total force =     0.004063     Total SCF correction =     0.000004
     Energy error            =      2.0E-05 Ry
     Gradient error          =      2.2E-03 Ry/Bohr

     number of scf cycles    =   3
     number of bfgs steps    =   2

     energy             old  =     -73.7725475010 Ry
     energy             new  =     -73.7725672960 Ry

     CASE: energy            _new < energy            _old

     new trust radius        =       0.0042619103 bohr
     new conv_thr            =            1.0E-10 Ry


ATOMIC_POSITIONS (angstrom)
C                0.0000000000        0.0000000000        9.9948743049
C                1.2300000000        0.7101408311        9.9962667656
C                1.2300000000        0.7101408311       13.3537332344
C                0.0000000000        1.4202816622       13.3551256951



     Writing config-only to output data dir /home/ubuntu/projects/Graphene-Band-Structure-Quantum-Espresso/outputs/bilayer/field_0Ry/coupled/data/coupled.save/ :
     XML data file
     NEW-OLD atomic charge density approx. for the potential

     Check: negative core charge=   -0.000003

     negative rho (up, down):  1.440E-04 0.000E+00

     total cpu time spent up to now is       45.1 secs

     Self-consistent Calculation

     iteration #  1     ecut=    60.00 Ry     beta= 0.70
     Davidson diagonalization with overlap

---- Real-time Memory Report at c_bands before calling an iterative solver
           131 MiB given to the printing process from OS
             0 MiB allocation reported by mallinfo(arena+hblkhd)
          3535 MiB available memory on the node where the printing process lives
------------------
     ethr =  1.00E-06,  avg # of iterations =  2.5

     Threshold (ethr) on eigenvalues was too large:
     Diagonalizing with lowered threshold

     Davidson diagonalization with overlap

---- Real-time Memory Report at c_bands before calling an iterative solver
           131 MiB given to the printing process from OS
             0 MiB allocation reported by mallinfo(arena+hblkhd)
          3535 MiB available memory on the node where the printing process lives
------------------
     ethr =  6.91E-08,  avg # of iterations =  1.2

     negative rho (up, down):  1.442E-04 0.000E+00

     total cpu time spent up to now is       48.5 secs

     total energy              =     -73.77259350 Ry
     estimated scf accuracy    <       0.00001254 Ry

     iteration #  2     ecut=    60.00 Ry     beta= 0.70
     Davidson diagonalization with overlap

---- Real-time Memory Report at c_bands before calling an iterative solver
           131 MiB given to the printing process from OS
             0 MiB allocation reported by mallinfo(arena+hblkhd)
          3559 MiB available memory on the node where the printing process lives
------------------
     ethr =  7.84E-08,  avg # of iterations =  2.0

     negative rho (up, down):  1.442E-04 0.000E+00

     total cpu time spent up to now is       50.3 secs

     total energy              =     -73.77259541 Ry
     estimated scf accuracy    <       0.00001118 Ry

     iteration #  3     ecut=    60.00 Ry     beta= 0.70
     Davidson diagonalization with overlap

---- Real-time Memory Report at c_bands before calling an iterative solver
           131 MiB given to the printing process from OS
             0 MiB allocation reported by mallinfo(arena+hblkhd)
          3522 MiB available memory on the node where the printing process lives
------------------
     ethr =  6.99E-08,  avg # of iterations =  2.0

     negative rho (up, down):  1.443E-04 0.000E+00

     total cpu time spent up to now is       51.9 secs

     total energy              =     -73.77259802 Ry
     estimated scf accuracy    <       0.00000018 Ry

     iteration #  4     ecut=    60.00 Ry     beta= 0.70
     Davidson diagonalization with overlap

---- Real-time Memory Report at c_bands before calling an iterative solver
           131 MiB given to the printing process from OS
             0 MiB allocation reported by mallinfo(arena+hblkhd)
          3545 MiB available memory on the node where the printing process lives
------------------
     ethr =  1.12E-09,  avg # of iterations =  1.7

     negative rho (up, down):  1.443E-04 0.000E+00

     total cpu time spent up to now is       53.5 secs

     total energy              =     -73.77259805 Ry
     estimated scf accuracy    <          2.4E-09 Ry

     iteration #  5     ecut=    60.00 Ry     beta= 0.70
     Davidson diagonalization with overlap

---- Real-time Memory Report at c_bands before calling an iterative solver
           131 MiB given to the printing process from OS
             0 MiB allocation reported by mallinfo(arena+hblkhd)
          3528 MiB available memory on the node where the printing process lives
------------------
     ethr =  1.52E-11,  avg # of iterations =  3.4

     negative rho (up, down):  1.443E-04 0.000E+00

     total cpu time spent up to now is       55.5 secs

     total energy              =     -73.77259805 Ry
     estimated scf accuracy    <          2.3E-10 Ry

     iteration #  6     ecut=    60.00 Ry     beta= 0.70
     Davidson diagonalization with overlap

---- Real-time Memory Report at c_bands before calling an iterative solver
           131 MiB given to the printing process from OS
             0 MiB allocation reported by mallinfo(arena+hblkhd)
          3534 MiB available memory on the node where the printing process lives
------------------
     ethr =  1.46E-12,  avg # of iterations =  1.9

     negative rho (up, down):  1.443E-04 0.000E+00

     total cpu time spent up to now is       57.0 secs

     End of self-consistent calculation

          k = 0.0000 0.0000 0.0000 (  6469 PWs)   bands (ev):

   -23.9028 -23.7541 -12.3860 -11.4200  -7.2914  -7.2914  -7.2824  -7.2824
    -0.8831  -0.5480   0.8593   1.3116   2.7305   4.1000

     occupation numbers 
     1.0000   1.0000   1.0000   1.0000   1.0000   1.0000   1.0000   1.0000
     0.0000   0.0000   0.0000   0.0000   0.0000   0.0000

          k = 0.0000 0.0962 0.0000 (  6478 PWs)   bands (ev):

   -23.7373 -23.5902 -12.1862 -11.2263  -7.9483  -7.9317  -7.6351  -7.6212
    -0.6608  -0.3230   1.0808   1.5363   2.9340   4.2323

     occupation numbers 
     1.0000   1.0000   1.0000   1.0000   1.0000   1.0000   1.0000   1.0000
     0.0000   0.0000   0.0000   0.0000   0.0000   0.0000

          k = 0.0000 0.1925 0.0000 (  6486 PWs)   bands (ev):

   -23.2429 -23.1002 -11.5913 -10.6512  -9.6003  -9.5686  -8.4368  -8.4170
     0.0058   0.3510   1.7449   2.2088   3.5278   4.1093

     occupation numbers 
     1.0000   1.0000   1.0000   1.0000   1.0000   1.0000   1.0000   1.0000
     0.0000   0.0000   0.0000   0.0000   0.0000   0.0000

          k = 0.0000 0.2887 0.0000 (  6494 PWs)   bands (ev):

   -22.4251 -22.2898 -11.7167 -11.6679 -10.6187  -9.7159  -9.3250  -9.3015
     1.1131   1.4615   2.8286   2.8749   3.1859   3.3477

     occupation numbers 
     1.0000   1.0000   1.0000   1.0000   1.0000   1.0000   1.0000   1.0000
     0.0000   0.0000   0.0000   0.0000   0.0000   0.0000

          k = 0.0000 0.3849 0.0000 (  6484 PWs)   bands (ev):

   -21.2963 -21.1710 -13.9387 -13.8729 -10.0648 -10.0392  -9.3125  -8.4783
     0.4682   0.9210   2.6477   3.0450   3.4737   3.6219

     occupation numbers 
     1.0000   1.0000   1.0000   1.0000   1.0000   1.0000   1.0000   1.0000
     0.0000   0.0000   0.0000   0.0000   0.0000   0.0000

          k = 0.0000 0.4811 0.0000 (  6486 PWs)   bands (ev):

   -19.8865 -19.7749 -16.0567 -15.9763 -10.5416 -10.5149  -7.8120  -7.1342
    -1.6979  -1.1991   3.2031   3.3887   4.6469   5.0544

     occupation numbers 
     1.0000   1.0000   1.0000   1.0000   1.0000   1.0000   1.0000   1.0000
     0.0000   0.0000   0.0000   0.0000   0.0000   0.0000

          k = 0.0000-0.5774 0.0000 (  6508 PWs)   bands (ev):

   -18.5839 -18.5281 -17.5561 -17.5140 -10.7052 -10.6782  -6.8205  -6.4658
    -2.7073  -2.3607   3.1184   3.3151   6.9310   7.0151

     occupation numbers 
     1.0000   1.0000   1.0000   1.0000   1.0000   1.0000   1.0000   1.0000
     0.0000   0.0000   0.0000   0.0000   0.0000   0.0000

          k = 0.0833 0.1443 0.0000 (  6487 PWs)   bands (ev):

   -23.4074 -23.2632 -11.7887 -10.8418  -8.9856  -8.9696  -8.3168  -8.3051
    -0.2160   0.1268   1.5243   1.9854   3.3417   4.4569

     occupation numbers 
     1.0000   1.0000   1.0000   1.0000   1.0000   1.0000   1.0000   1.0000
     0.0000   0.0000   0.0000   0.0000   0.0000   0.0000

          k = 0.0833 0.2406 0.0000 (  6474 PWs)   bands (ev):

   -22.7513 -22.6130 -11.0041 -10.7112 -10.6777 -10.0850  -9.3272  -9.3054
     0.6722   1.0231   2.4092   2.8791   3.7826   3.9572

     occupation numbers 
     1.0000   1.0000   1.0000   1.0000   1.0000   1.0000   1.0000   1.0000
     0.0000   0.0000   0.0000   0.0000   0.0000   0.0000

          k = 0.0833 0.3368 0.0000 (  6487 PWs)   bands (ev):

   -21.7779 -21.6483 -12.8043 -12.7500 -10.2230 -10.1939  -9.8592  -8.9908
     1.5313   1.8890   2.0038   2.3899   3.7187   4.1818

     occupation numbers 
     1.0000   1.0000   1.0000   1.0000   1.0000   1.0000   1.0000   1.0000
     0.0000   0.0000   0.0000   0.0000   0.0000   0.0000

          k = 0.0833 0.4330 0.0000 (  6482 PWs)   bands (ev):

   -20.5058 -20.3878 -14.9462 -14.8743 -10.8635 -10.8311  -8.4277  -7.6572
    -0.7304  -0.2722   3.7240   4.0006   4.1881   4.2446

     occupation numbers 
     1.0000   1.0000   1.0000   1.0000   1.0000   1.0000   1.0000   1.0000
     0.0000   0.0000   0.0000   0.0000   0.0000   0.0000

          k = 0.0833 0.5292 0.0000 (  6501 PWs)   bands (ev):

   -19.0071 -18.9092 -16.9030 -16.8234 -11.1946 -11.1609  -6.9960  -6.4872
    -2.4655  -2.0669   3.8539   4.0593   5.9215   6.3251

     occupation numbers 
     1.0000   1.0000   1.0000   1.0000   1.0000   1.0000   1.0000   1.0000
     0.0000   0.0000   0.0000   0.0000   0.0000   0.0000

          k = 0.1667 0.2887 0.0000 (  6494 PWs)   bands (ev):

   -21.9395 -21.8085 -12.0420 -12.0151 -10.6980 -10.6784 -10.0438  -9.1647
     1.7780   2.0487   2.1361   2.2895   3.5136   3.9959

     occupation numbers 
     1.0000   1.0000   1.0000   1.0000   1.0000   1.0000   1.0000   1.0000
     0.0000   0.0000   0.0000   0.0000   0.0000   0.0000

          k = 0.1667 0.3849 0.0000 (  6484 PWs)   bands (ev):

   -20.8215 -20.7006 -13.7897 -13.7382 -11.7681 -11.7325  -8.7525  -7.9423
     0.0497   0.3647   3.3175   3.6797   5.0253   5.5217

     occupation numbers 
     1.0000   1.0000   1.0000   1.0000   1.0000   1.0000   1.0000   1.0000
     0.0000   0.0000   0.0000   0.0000   0.0000   0.0000

          k = 0.1667 0.4811 0.0000 (  6474 PWs)   bands (ev):

   -19.4317 -19.3245 -15.7217 -15.6490 -12.3508 -12.3061  -7.2531  -6.5864
    -1.9002  -1.5226   5.2475   5.5448   5.7849   5.9794

     occupation numbers 
     1.0000   1.0000   1.0000   1.0000   1.0000   1.0000   1.0000   1.0000
     0.0000   0.0000   0.0000   0.0000   0.0000   0.0000

          k = 0.1667 0.5774 0.0000 (  6478 PWs)   bands (ev):

   -18.1602 -18.1067 -17.1504 -17.1133 -12.5375 -12.4906  -6.2179  -5.8690
    -2.8494  -2.6805   5.6225   5.8952   7.2625   7.4604

     occupation numbers 
     1.0000   1.0000   1.0000   1.0000   1.0000   1.0000   1.0000   1.0000
     0.0000   0.0000   0.0000   0.0000   0.0000   0.0000

          k = 0.2500 0.4330 0.0000 (  6442 PWs)   bands (ev):

   -19.5815 -19.4722 -14.8192 -14.7816 -13.2587 -13.2309  -7.3587  -6.6432
    -1.5681  -1.2675   5.0430   5.3214   6.4943   7.1031

     occupation numbers 
     1.0000   1.0000   1.0000   1.0000   1.0000   1.0000   1.0000   1.0000
     0.0000   0.0000   0.0000   0.0000   0.0000   0.0000

          k = 0.2500 0.5292 0.0000 (  6455 PWs)   bands (ev):

   -18.1407 -18.0513 -16.2610 -16.2004 -13.9792 -13.9318  -5.8763  -5.3643
    -3.0728  -2.7998   6.5135   6.7147   7.0778   7.8369

     occupation numbers 
     1.0000   1.0000   1.0000   1.0000   1.0000   1.0000   1.0000   1.0000
     0.0000   0.0000   0.0000   0.0000   0.0000   0.0000

          k = 0.3333 0.5774 0.0000 (  6450 PWs)   bands (ev):

   -16.9190 -16.8698 -16.8698 -16.8252 -14.8633 -14.8633  -4.5808  -4.2553
    -4.2553  -3.9101   6.3430   6.3430   8.3933   8.7403

     occupation numbers 
     1.0000   1.0000   1.0000   1.0000   1.0000   1.0000   0.9996   0.5001
     0.5001   0.0002   0.0000   0.0000   0.0000   0.0000

     the Fermi energy is    -4.2552 ev

!    total energy              =     -73.77259805 Ry
     total all-electron energy =      -304.828987 Ry
     estimated scf accuracy    <          1.7E-11 Ry
     smearing contrib. (-TS)   =      -0.00015710 Ry
     internal energy E=F+TS    =     -73.77244095 Ry

     The total energy is F=E-TS. E is the sum of the following terms:
     one-electron contribution =   -1256.74094937 Ry
     hartree contribution      =     630.13097539 Ry
     xc contribution           =     -18.57701393 Ry
     ewald contribution        =     596.08345823 Ry
     one-center paw contrib.   =     -24.66891127 Ry
      -> PAW hartree energy AE =       9.53462331 Ry
      -> PAW hartree energy PS =      -9.52594153 Ry
      -> PAW xc energy AE      =     -10.68479844 Ry
      -> PAW xc energy PS      =       4.50892061 Ry
      -> total E_H with PAW    =     630.13965717 Ry
      -> total E_XC with PAW   =     -24.75289176 Ry

     convergence has been achieved in   6 iterations

     negative rho (up, down):  1.443E-04 0.000E+00

     Forces acting on atoms (cartesian axes, Ry/au):

     atom    1 type  1   force =     0.00000000    0.00000000   -0.00158996
     atom    2 type  1   force =     0.00000000    0.00000000   -0.00239367
     atom    3 type  1   force =     0.00000000    0.00000000    0.00239367
     atom    4 type  1   force =     0.00000000    0.00000000    0.00158996
     The non-local contrib.  to forces
     atom    1 type  1   force =    -0.00000000   -0.00000000   -0.00101363
     atom    2 type  1   force =     0.00000000    0.00000000   -0.00264468
     atom    3 type  1   force =     0.00000000   -0.00000000    0.00264468
     atom    4 type  1   force =    -0.00000000    0.00000000    0.00101363
     The ionic contribution  to forces
     atom    1 type  1   force =     0.00000000   -0.00000000  -21.50248219
     atom    2 type  1   force =     0.00000000    0.00000000  -21.46850262
     atom    3 type  1   force =     0.00000000   -0.00000000   21.46850262
     atom    4 type  1   force =     0.00000000    0.00000000   21.50248219
     The local contribution  to forces
     atom    1 type  1   force =     0.00000000    0.00000000   21.50180080
     atom    2 type  1   force =    -0.00000000    0.00000000   21.46865337
     atom    3 type  1   force =    -0.00000000    0.00000000  -21.46865337
     atom    4 type  1   force =    -0.00000000    0.00000000  -21.50180080
     The core correction contribution to forces
     atom    1 type  1   force =     0.00000000    0.00000000    0.00011103
     atom    2 type  1   force =     0.00000000   -0.00000000    0.00010620
     atom    3 type  1   force =     0.00000000   -0.00000000   -0.00010620
     atom    4 type  1   force =    -0.00000000   -0.00000000   -0.00011103
     The Hubbard contrib.    to forces
     atom    1 type  1   force =     0.00000000    0.00000000    0.00000000
     atom    2 type  1   force =     0.00000000    0.00000000    0.00000000
     atom    3 type  1   force =     0.00000000    0.00000000    0.00000000
     atom    4 type  1   force =     0.00000000    0.00000000    0.00000000
     The SCF correction term to forces
     atom    1 type  1   force =     0.00000000   -0.00000000   -0.00000598
     atom    2 type  1   force =    -0.00000000   -0.00000000   -0.00000594
     atom    3 type  1   force =    -0.00000000   -0.00000000    0.00000594
     atom    4 type  1   force =     0.00000000    0.00000000    0.00000598

     Total force =     0.004064     Total SCF correction =     0.000012
     Energy error            =      3.1E-05 Ry
     Gradient error          =      2.4E-03 Ry/Bohr

     number of scf cycles    =   4
     number of bfgs steps    =   3

     energy             old  =     -73.7725672960 Ry
     energy             new  =     -73.7725980538 Ry

     CASE: energy            _new < energy            _old

     new trust radius        =       0.0063928655 bohr
     new conv_thr            =            1.0E-10 Ry


ATOMIC_POSITIONS (angstrom)
C                0.0000000000        0.0000000000        9.9914913462
C                1.2300000000        0.7101408311        9.9932817411
C                1.2300000000        0.7101408311       13.3567182589
C                0.0000000000        1.4202816622       13.3585086538



     Writing config-only to output data dir /home/ubuntu/projects/Graphene-Band-Structure-Quantum-Espresso/outputs/bilayer/field_0Ry/coupled/data/coupled.save/ :
     XML data file
     NEW-OLD atomic charge density approx. for the potential

     Check: negative core charge=   -0.000003

     negative rho (up, down):  1.433E-04 0.000E+00

     total cpu time spent up to now is       57.7 secs

     Self-consistent Calculation

     iteration #  1     ecut=    60.00 Ry     beta= 0.70
     Davidson diagonalization with overlap

---- Real-time Memory Report at c_bands before calling an iterative solver
           131 MiB given to the printing process from OS
             0 MiB allocation reported by mallinfo(arena+hblkhd)
          3540 MiB available memory on the node where the printing process lives
------------------
     ethr =  1.00E-06,  avg # of iterations =  3.0

     negative rho (up, down):  1.436E-04 0.000E+00

     total cpu time spent up to now is       60.0 secs

     total energy              =     -73.77263448 Ry
     estimated scf accuracy    <       0.00002855 Ry

     iteration #  2     ecut=    60.00 Ry     beta= 0.70
     Davidson diagonalization with overlap

---- Real-time Memory Report at c_bands before calling an iterative solver
           131 MiB given to the printing process from OS
             0 MiB allocation reported by mallinfo(arena+hblkhd)
          3517 MiB available memory on the node where the printing process lives
------------------
     ethr =  1.78E-07,  avg # of iterations =  2.0

     negative rho (up, down):  1.437E-04 0.000E+00

     total cpu time spent up to now is       61.8 secs

     total energy              =     -73.77263876 Ry
     estimated scf accuracy    <       0.00002390 Ry

     iteration #  3     ecut=    60.00 Ry     beta= 0.70
     Davidson diagonalization with overlap

---- Real-time Memory Report at c_bands before calling an iterative solver
           131 MiB given to the printing process from OS
             0 MiB allocation reported by mallinfo(arena+hblkhd)
          3531 MiB available memory on the node where the printing process lives
------------------
     ethr =  1.49E-07,  avg # of iterations =  2.0

     negative rho (up, down):  1.438E-04 0.000E+00

     total cpu time spent up to now is       63.6 secs

     total energy              =     -73.77264450 Ry
     estimated scf accuracy    <       0.00000053 Ry

     iteration #  4     ecut=    60.00 Ry     beta= 0.70
     Davidson diagonalization with overlap

---- Real-time Memory Report at c_bands before calling an iterative solver
           131 MiB given to the printing process from OS
             0 MiB allocation reported by mallinfo(arena+hblkhd)
          3530 MiB available memory on the node where the printing process lives
------------------
     ethr =  3.33E-09,  avg # of iterations =  1.8

     negative rho (up, down):  1.438E-04 0.000E+00

     total cpu time spent up to now is       65.3 secs

     total energy              =     -73.77264459 Ry
     estimated scf accuracy    <          3.6E-09 Ry

     iteration #  5     ecut=    60.00 Ry     beta= 0.70
     Davidson diagonalization with overlap

---- Real-time Memory Report at c_bands before calling an iterative solver
           131 MiB given to the printing process from OS
             0 MiB allocation reported by mallinfo(arena+hblkhd)
          3520 MiB available memory on the node where the printing process lives
------------------
     ethr =  2.23E-11,  avg # of iterations =  3.5

     negative rho (up, down):  1.438E-04 0.000E+00

     total cpu time spent up to now is       67.2 secs

     total energy              =     -73.77264460 Ry
     estimated scf accuracy    <          4.8E-10 Ry

     iteration #  6     ecut=    60.00 Ry     beta= 0.70
     Davidson diagonalization with overlap

---- Real-time Memory Report at c_bands before calling an iterative solver
           131 MiB given to the printing process from OS
             0 MiB allocation reported by mallinfo(arena+hblkhd)
          3539 MiB available memory on the node where the printing process lives
------------------
     ethr =  3.01E-12,  avg # of iterations =  2.0

     negative rho (up, down):  1.438E-04 0.000E+00

     total cpu time spent up to now is       69.0 secs

     End of self-consistent calculation

          k = 0.0000 0.0000 0.0000 (  6469 PWs)   bands (ev):

   -23.9012 -23.7547 -12.3813 -11.4244  -7.2910  -7.2910  -7.2821  -7.2821
    -0.8840  -0.5479   0.8590   1.3151   2.7222   4.0852

     occupation numbers 
     1.0000   1.0000   1.0000   1.0000   1.0000   1.0000   1.0000   1.0000
     0.0000   0.0000   0.0000   0.0000   0.0000   0.0000

          k = 0.0000 0.0962 0.0000 (  6478 PWs)   bands (ev):

   -23.7358 -23.5908 -12.1814 -11.2307  -7.9478  -7.9315  -7.6346  -7.6210
    -0.6617  -0.3229   1.0805   1.5398   2.9259   4.2320

     occupation numbers 
     1.0000   1.0000   1.0000   1.0000   1.0000   1.0000   1.0000   1.0000
     0.0000   0.0000   0.0000   0.0000   0.0000   0.0000

          k = 0.0000 0.1925 0.0000 (  6486 PWs)   bands (ev):

   -23.2414 -23.1008 -11.5867 -10.6555  -9.5997  -9.5686  -8.4363  -8.4168
     0.0049   0.3511   1.7444   2.2123   3.5205   4.1104

     occupation numbers 
     1.0000   1.0000   1.0000   1.0000   1.0000   1.0000   1.0000   1.0000
     0.0000   0.0000   0.0000   0.0000   0.0000   0.0000

          k = 0.0000 0.2887 0.0000 (  6494 PWs)   bands (ev):

   -22.4237 -22.2904 -11.7160 -11.6679 -10.6141  -9.7200  -9.3245  -9.3014
     1.1120   1.4616   2.8276   2.8772   3.1849   3.3509

     occupation numbers 
     1.0000   1.0000   1.0000   1.0000   1.0000   1.0000   1.0000   1.0000
     0.0000   0.0000   0.0000   0.0000   0.0000   0.0000

          k = 0.0000 0.3849 0.0000 (  6484 PWs)   bands (ev):

   -21.2949 -21.1715 -13.9378 -13.8730 -10.0642 -10.0391  -9.3082  -8.4821
     0.4713   0.9188   2.6465   3.0450   3.4751   3.6213

     occupation numbers 
     1.0000   1.0000   1.0000   1.0000   1.0000   1.0000   1.0000   1.0000
     0.0000   0.0000   0.0000   0.0000   0.0000   0.0000

          k = 0.0000 0.4811 0.0000 (  6486 PWs)   bands (ev):

   -19.8852 -19.7753 -16.0557 -15.9766 -10.5410 -10.5148  -7.8082  -7.1370
    -1.6949  -1.2014   3.2049   3.3878   4.6456   5.0544

     occupation numbers 
     1.0000   1.0000   1.0000   1.0000   1.0000   1.0000   1.0000   1.0000
     0.0000   0.0000   0.0000   0.0000   0.0000   0.0000

          k = 0.0000-0.5774 0.0000 (  6508 PWs)   bands (ev):

   -18.5830 -18.5281 -17.5554 -17.5140 -10.7046 -10.6781  -6.8179  -6.4667
    -2.7058  -2.3625   3.1203   3.3142   6.9293   7.0135

     occupation numbers 
     1.0000   1.0000   1.0000   1.0000   1.0000   1.0000   1.0000   1.0000
     0.0000   0.0000   0.0000   0.0000   0.0000   0.0000

          k = 0.0833 0.1443 0.0000 (  6487 PWs)   bands (ev):

   -23.4059 -23.2638 -11.7841 -10.8461  -8.9851  -8.9694  -8.3163  -8.3049
    -0.2170   0.1269   1.5239   1.9889   3.3338   4.4579

     occupation numbers 
     1.0000   1.0000   1.0000   1.0000   1.0000   1.0000   1.0000   1.0000
     0.0000   0.0000   0.0000   0.0000   0.0000   0.0000

          k = 0.0833 0.2406 0.0000 (  6474 PWs)   bands (ev):

   -22.7499 -22.6136 -10.9995 -10.7106 -10.6776 -10.0892  -9.3266  -9.3053
     0.6711   1.0232   2.4085   2.8826   3.7847   3.9550

     occupation numbers 
     1.0000   1.0000   1.0000   1.0000   1.0000   1.0000   1.0000   1.0000
     0.0000   0.0000   0.0000   0.0000   0.0000   0.0000

          k = 0.0833 0.3368 0.0000 (  6487 PWs)   bands (ev):

   -21.7765 -21.6489 -12.8035 -12.7500 -10.2224 -10.1939  -9.8547  -8.9948
     1.5338   1.8876   2.0026   2.3901   3.7177   4.1846

     occupation numbers 
     1.0000   1.0000   1.0000   1.0000   1.0000   1.0000   1.0000   1.0000
     0.0000   0.0000   0.0000   0.0000   0.0000   0.0000

          k = 0.0833 0.4330 0.0000 (  6482 PWs)   bands (ev):

   -20.5044 -20.3882 -14.9452 -14.8745 -10.8628 -10.8311  -8.4236  -7.6606
    -0.7275  -0.2743   3.7229   4.0018   4.1883   4.2440

     occupation numbers 
     1.0000   1.0000   1.0000   1.0000   1.0000   1.0000   1.0000   1.0000
     0.0000   0.0000   0.0000   0.0000   0.0000   0.0000

          k = 0.0833 0.5292 0.0000 (  6501 PWs)   bands (ev):

   -19.0059 -18.9095 -16.9020 -16.8236 -11.1940 -11.1609  -6.9928  -6.4890
    -2.4633  -2.0689   3.8557   4.0584   5.9201   6.3251

     occupation numbers 
     1.0000   1.0000   1.0000   1.0000   1.0000   1.0000   1.0000   1.0000
     0.0000   0.0000   0.0000   0.0000   0.0000   0.0000

          k = 0.1667 0.2887 0.0000 (  6494 PWs)   bands (ev):

   -21.9381 -21.8091 -12.0414 -12.0150 -10.6975 -10.6782 -10.0393  -9.1687
     1.7766   2.0510   2.1365   2.2886   3.5125   3.9993

     occupation numbers 
     1.0000   1.0000   1.0000   1.0000   1.0000   1.0000   1.0000   1.0000
     0.0000   0.0000   0.0000   0.0000   0.0000   0.0000

          k = 0.1667 0.3849 0.0000 (  6484 PWs)   bands (ev):

   -20.8202 -20.7011 -13.7889 -13.7383 -11.7675 -11.7325  -8.7482  -7.9459
     0.0520   0.3637   3.3164   3.6797   5.0232   5.5251

     occupation numbers 
     1.0000   1.0000   1.0000   1.0000   1.0000   1.0000   1.0000   1.0000
     0.0000   0.0000   0.0000   0.0000   0.0000   0.0000

          k = 0.1667 0.4811 0.0000 (  6474 PWs)   bands (ev):

   -19.4305 -19.3249 -15.7208 -15.6492 -12.3501 -12.3061  -7.2494  -6.5892
    -1.8977  -1.5241   5.2461   5.5456   5.7861   5.9786

     occupation numbers 
     1.0000   1.0000   1.0000   1.0000   1.0000   1.0000   1.0000   1.0000
     0.0000   0.0000   0.0000   0.0000   0.0000   0.0000

          k = 0.1667 0.5774 0.0000 (  6478 PWs)   bands (ev):

   -18.1593 -18.1067 -17.1498 -17.1133 -12.5367 -12.4906  -6.2152  -5.8697
    -2.8485  -2.6813   5.6246   5.8944   7.2634   7.4552

     occupation numbers 
     1.0000   1.0000   1.0000   1.0000   1.0000   1.0000   1.0000   1.0000
     0.0000   0.0000   0.0000   0.0000   0.0000   0.0000

          k = 0.2500 0.4330 0.0000 (  6442 PWs)   bands (ev):

   -19.5802 -19.4727 -14.8185 -14.7815 -13.2581 -13.2307  -7.3548  -6.6463
    -1.5659  -1.2684   5.0416   5.3217   6.4878   7.1066

     occupation numbers 
     1.0000   1.0000   1.0000   1.0000   1.0000   1.0000   1.0000   1.0000
     0.0000   0.0000   0.0000   0.0000   0.0000   0.0000

          k = 0.2500 0.5292 0.0000 (  6455 PWs)   bands (ev):

   -18.1396 -18.0516 -16.2601 -16.2005 -13.9784 -13.9318  -5.8731  -5.3661
    -3.0710  -2.8008   6.5151   6.7114   7.0767   7.8382

     occupation numbers 
     1.0000   1.0000   1.0000   1.0000   1.0000   1.0000   1.0000   1.0000
     0.0000   0.0000   0.0000   0.0000   0.0000   0.0000

          k = 0.3333 0.5774 0.0000 (  6450 PWs)   bands (ev):

   -16.9178 -16.8694 -16.8694 -16.8255 -14.8629 -14.8629  -4.5769  -4.2545
    -4.2545  -3.9131   6.3426   6.3426   8.3929   8.7396

     occupation numbers 
     1.0000   1.0000   1.0000   1.0000   1.0000   1.0000   0.9996   0.5001
     0.5001   0.0002   0.0000   0.0000   0.0000   0.0000

     the Fermi energy is    -4.2545 ev

!    total energy              =     -73.77264460 Ry
     total all-electron energy =      -304.829033 Ry
     estimated scf accuracy    <          4.3E-11 Ry
     smearing contrib. (-TS)   =      -0.00015715 Ry
     internal energy E=F+TS    =     -73.77248745 Ry

     The total energy is F=E-TS. E is the sum of the following terms:
     one-electron contribution =   -1255.70732673 Ry
     hartree contribution      =     629.61430013 Ry
     xc contribution           =     -18.57687840 Ry
     ewald contribution        =     595.56632642 Ry
     one-center paw contrib.   =     -24.66890887 Ry
      -> PAW hartree energy AE =       9.53444806 Ry
      -> PAW hartree energy PS =      -9.52576633 Ry
      -> PAW xc energy AE      =     -10.68475751 Ry
      -> PAW xc energy PS      =       4.50887977 Ry
      -> total E_H with PAW    =     629.62298186 Ry
      -> total E_XC with PAW   =     -24.75275614 Ry

     convergence has been achieved in   6 iterations

     negative rho (up, down):  1.438E-04 0.000E+00

     Forces acting on atoms (cartesian axes, Ry/au):

     atom    1 type  1   force =     0.00000000    0.00000000   -0.00127426
     atom    2 type  1   force =     0.00000000    0.00000000   -0.00260862
     atom    3 type  1   force =     0.00000000   -0.00000000    0.00260862
     atom    4 type  1   force =     0.00000000    0.00000000    0.00127426
     The non-local contrib.  to forces
     atom    1 type  1   force =    -0.00000000   -0.00000000   -0.00048147
     atom    2 type  1   force =     0.00000000   -0.00000000   -0.00308651
     atom    3 type  1   force =     0.00000000    0.00000000    0.00308651
     atom    4 type  1   force =     0.00000000   -0.00000000    0.00048147
     The ionic contribution  to forces
     atom    1 type  1   force =     0.00000000   -0.00000000  -21.50808877
     atom    2 type  1   force =    -0.00000000    0.00000000  -21.46293084
     atom    3 type  1   force =    -0.00000000   -0.00000000   21.46293084
     atom    4 type  1   force =     0.00000000    0.00000000   21.50808877
     The local contribution  to forces
     atom    1 type  1   force =    -0.00000000    0.00000000   21.50719789
     atom    2 type  1   force =    -0.00000000    0.00000000   21.46330685
     atom    3 type  1   force =    -0.00000000    0.00000000  -21.46330685
     atom    4 type  1   force =    -0.00000000    0.00000000  -21.50719789
     The core correction contribution to forces
     atom    1 type  1   force =     0.00000000    0.00000000    0.00010680
     atom    2 type  1   force =     0.00000000   -0.00000000    0.00011054
     atom    3 type  1   force =     0.00000000   -0.00000000   -0.00011054
     atom    4 type  1   force =     0.00000000   -0.00000000   -0.00010680
     The Hubbard contrib.    to forces
     atom    1 type  1   force =     0.00000000    0.00000000    0.00000000
     atom    2 type  1   force =     0.00000000    0.00000000    0.00000000
     atom    3 type  1   force =     0.00000000    0.00000000    0.00000000
     atom    4 type  1   force =     0.00000000    0.00000000    0.00000000
     The SCF correction term to forces
     atom    1 type  1   force =    -0.00000000   -0.00000000   -0.00000870
     atom    2 type  1   force =     0.00000000    0.00000000   -0.00000866
     atom    3 type  1   force =     0.00000000    0.00000000    0.00000866
     atom    4 type  1   force =     0.00000000    0.00000000    0.00000870

     Total force =     0.004106     Total SCF correction =     0.000017
     Energy error            =      4.7E-05 Ry
     Gradient error          =      2.6E-03 Ry/Bohr

     number of scf cycles    =   5
     number of bfgs steps    =   4

     energy             old  =     -73.7725980538 Ry
     energy             new  =     -73.7726445953 Ry

     CASE: energy            _new < energy            _old

     new trust radius        =       0.0095892982 bohr
     new conv_thr            =            1.0E-10 Ry


ATOMIC_POSITIONS (angstrom)
C                0.0000000000        0.0000000000        9.9864169081
C                1.2300000000        0.7101408311        9.9885998124
C                1.2300000000        0.7101408311       13.3614001876
C                0.0000000000        1.4202816622       13.3635830919



     Writing config-only to output data dir /home/ubuntu/projects/Graphene-Band-Structure-Quantum-Espresso/outputs/bilayer/field_0Ry/coupled/data/coupled.save/ :
     XML data file
     NEW-OLD atomic charge density approx. for the potential

     Check: negative core charge=   -0.000003

     negative rho (up, down):  1.424E-04 0.000E+00

     total cpu time spent up to now is       70.1 secs

     Self-consistent Calculation

     iteration #  1     ecut=    60.00 Ry     beta= 0.70
     Davidson diagonalization with overlap

---- Real-time Memory Report at c_bands before calling an iterative solver
           131 MiB given to the printing process from OS
             0 MiB allocation reported by mallinfo(arena+hblkhd)
          3538 MiB available memory on the node where the printing process lives
------------------
     ethr =  1.00E-06,  avg # of iterations =  3.0

     negative rho (up, down):  1.429E-04 0.000E+00

     total cpu time spent up to now is       72.7 secs

     total energy              =     -73.77268850 Ry
     estimated scf accuracy    <       0.00006989 Ry

     iteration #  2     ecut=    60.00 Ry     beta= 0.70
     Davidson diagonalization with overlap

---- Real-time Memory Report at c_bands before calling an iterative solver
           131 MiB given to the printing process from OS
             0 MiB allocation reported by mallinfo(arena+hblkhd)
          3534 MiB available memory on the node where the printing process lives
------------------
     ethr =  4.37E-07,  avg # of iterations =  2.1

     negative rho (up, down):  1.430E-04 0.000E+00

     total cpu time spent up to now is       74.6 secs

     total energy              =     -73.77269924 Ry
     estimated scf accuracy    <       0.00006071 Ry

     iteration #  3     ecut=    60.00 Ry     beta= 0.70
     Davidson diagonalization with overlap

---- Real-time Memory Report at c_bands before calling an iterative solver
           131 MiB given to the printing process from OS
             0 MiB allocation reported by mallinfo(arena+hblkhd)
          3537 MiB available memory on the node where the printing process lives
------------------
     ethr =  3.79E-07,  avg # of iterations =  2.0

     negative rho (up, down):  1.431E-04 0.000E+00

     total cpu time spent up to now is       76.1 secs

     total energy              =     -73.77271361 Ry
     estimated scf accuracy    <       0.00000107 Ry

     iteration #  4     ecut=    60.00 Ry     beta= 0.70
     Davidson diagonalization with overlap

---- Real-time Memory Report at c_bands before calling an iterative solver
           131 MiB given to the printing process from OS
             0 MiB allocation reported by mallinfo(arena+hblkhd)
          3528 MiB available memory on the node where the printing process lives
------------------
     ethr =  6.71E-09,  avg # of iterations =  1.6

     negative rho (up, down):  1.431E-04 0.000E+00

     total cpu time spent up to now is       77.8 secs

     total energy              =     -73.77271379 Ry
     estimated scf accuracy    <       0.00000001 Ry

     iteration #  5     ecut=    60.00 Ry     beta= 0.70
     Davidson diagonalization with overlap

---- Real-time Memory Report at c_bands before calling an iterative solver
           131 MiB given to the printing process from OS
             0 MiB allocation reported by mallinfo(arena+hblkhd)
          3543 MiB available memory on the node where the printing process lives
------------------
     ethr =  7.93E-11,  avg # of iterations =  3.4

     negative rho (up, down):  1.431E-04 0.000E+00

     total cpu time spent up to now is       79.8 secs

     total energy              =     -73.77271380 Ry
     estimated scf accuracy    <          1.4E-09 Ry

     iteration #  6     ecut=    60.00 Ry     beta= 0.70
     Davidson diagonalization with overlap

---- Real-time Memory Report at c_bands before calling an iterative solver
           131 MiB given to the printing process from OS
             0 MiB allocation reported by mallinfo(arena+hblkhd)
          3519 MiB available memory on the node where the printing process lives
------------------
     ethr =  9.01E-12,  avg # of iterations =  1.9

     negative rho (up, down):  1.431E-04 0.000E+00

     total cpu time spent up to now is       81.5 secs

     total energy              =     -73.77271380 Ry
     estimated scf accuracy    <          1.3E-10 Ry

     iteration #  7     ecut=    60.00 Ry     beta= 0.70
     Davidson diagonalization with overlap

---- Real-time Memory Report at c_bands before calling an iterative solver
           131 MiB given to the printing process from OS
             0 MiB allocation reported by mallinfo(arena+hblkhd)
          3533 MiB available memory on the node where the printing process lives
------------------
     ethr =  8.41E-13,  avg # of iterations =  2.1

     negative rho (up, down):  1.431E-04 0.000E+00

     total cpu time spent up to now is       83.2 secs

     End of self-consistent calculation

          k = 0.0000 0.0000 0.0000 (  6469 PWs)   bands (ev):

   -23.8989 -23.7557 -12.3741 -11.4310  -7.2903  -7.2903  -7.2817  -7.2817
    -0.8851  -0.5474   0.8584   1.3200   2.7092   4.0600

     occupation numbers 
     1.0000   1.0000   1.0000   1.0000   1.0000   1.0000   1.0000   1.0000
     0.0000   0.0000   0.0000   0.0000   0.0000   0.0000

          k = 0.0000 0.0962 0.0000 (  6478 PWs)   bands (ev):

   -23.7335 -23.5917 -12.1743 -11.2373  -7.9470  -7.9312  -7.6339  -7.6207
    -0.6628  -0.3224   1.0798   1.5447   2.9131   4.2317

     occupation numbers 
     1.0000   1.0000   1.0000   1.0000   1.0000   1.0000   1.0000   1.0000
     0.0000   0.0000   0.0000   0.0000   0.0000   0.0000

          k = 0.0000 0.1925 0.0000 (  6486 PWs)   bands (ev):

   -23.2391 -23.1017 -11.5796 -10.6619  -9.5987  -9.5684  -8.4355  -8.4166
     0.0037   0.3516   1.7434   2.2172   3.5089   4.1120

     occupation numbers 
     1.0000   1.0000   1.0000   1.0000   1.0000   1.0000   1.0000   1.0000
     0.0000   0.0000   0.0000   0.0000   0.0000   0.0000

          k = 0.0000 0.2887 0.0000 (  6494 PWs)   bands (ev):

   -22.4215 -22.2912 -11.7148 -11.6680 -10.6072  -9.7262  -9.3236  -9.3012
     1.1106   1.4621   2.8256   2.8810   3.1836   3.3555

     occupation numbers 
     1.0000   1.0000   1.0000   1.0000   1.0000   1.0000   1.0000   1.0000
     0.0000   0.0000   0.0000   0.0000   0.0000   0.0000

          k = 0.0000 0.3849 0.0000 (  6484 PWs)   bands (ev):

   -21.2929 -21.1723 -13.9364 -13.8732 -10.0633 -10.0389  -9.3016  -8.4877
     0.4759   0.9156   2.6450   3.0455   3.4773   3.6204

     occupation numbers 
     1.0000   1.0000   1.0000   1.0000   1.0000   1.0000   1.0000   1.0000
     0.0000   0.0000   0.0000   0.0000   0.0000   0.0000

          k = 0.0000 0.4811 0.0000 (  6486 PWs)   bands (ev):

   -19.8833 -19.7760 -16.0541 -15.9769 -10.5401 -10.5146  -7.8024  -7.1413
    -1.6905  -1.2049   3.2075   3.3865   4.6438   5.0547

     occupation numbers 
     1.0000   1.0000   1.0000   1.0000   1.0000   1.0000   1.0000   1.0000
     0.0000   0.0000   0.0000   0.0000   0.0000   0.0000

          k = 0.0000-0.5774 0.0000 (  6508 PWs)   bands (ev):

   -18.5816 -18.5280 -17.5544 -17.5139 -10.7037 -10.6779  -6.8138  -6.4680
    -2.7035  -2.3651   3.1230   3.3129   6.9269   7.0113

     occupation numbers 
     1.0000   1.0000   1.0000   1.0000   1.0000   1.0000   1.0000   1.0000
     0.0000   0.0000   0.0000   0.0000   0.0000   0.0000

          k = 0.0833 0.1443 0.0000 (  6487 PWs)   bands (ev):

   -23.4036 -23.2648 -11.7769 -10.8526  -8.9843  -8.9691  -8.3156  -8.3045
    -0.2182   0.1273   1.5230   1.9938   3.3214   4.4594

     occupation numbers 
     1.0000   1.0000   1.0000   1.0000   1.0000   1.0000   1.0000   1.0000
     0.0000   0.0000   0.0000   0.0000   0.0000   0.0000

          k = 0.0833 0.2406 0.0000 (  6474 PWs)   bands (ev):

   -22.7477 -22.6145 -10.9925 -10.7096 -10.6775 -10.0955  -9.3258  -9.3051
     0.6698   1.0236   2.4072   2.8875   3.7878   3.9515

     occupation numbers 
     1.0000   1.0000   1.0000   1.0000   1.0000   1.0000   1.0000   1.0000
     0.0000   0.0000   0.0000   0.0000   0.0000   0.0000

          k = 0.0833 0.3368 0.0000 (  6487 PWs)   bands (ev):

   -21.7744 -21.6497 -12.8022 -12.7501 -10.2214 -10.1937  -9.8480  -9.0007
     1.5376   1.8856   2.0009   2.3906   3.7160   4.1885

     occupation numbers 
     1.0000   1.0000   1.0000   1.0000   1.0000   1.0000   1.0000   1.0000
     0.0000   0.0000   0.0000   0.0000   0.0000   0.0000

          k = 0.0833 0.4330 0.0000 (  6482 PWs)   bands (ev):

   -20.5024 -20.3889 -14.9437 -14.8748 -10.8618 -10.8309  -8.4173  -7.6657
    -0.7230  -0.2773   3.7213   4.0037   4.1889   4.2433

     occupation numbers 
     1.0000   1.0000   1.0000   1.0000   1.0000   1.0000   1.0000   1.0000
     0.0000   0.0000   0.0000   0.0000   0.0000   0.0000

          k = 0.0833 0.5292 0.0000 (  6501 PWs)   bands (ev):

   -19.0041 -18.9100 -16.9005 -16.8239 -11.1930 -11.1608  -6.9878  -6.4917
    -2.4602  -2.0716   3.8584   4.0570   5.9180   6.3255

     occupation numbers 
     1.0000   1.0000   1.0000   1.0000   1.0000   1.0000   1.0000   1.0000
     0.0000   0.0000   0.0000   0.0000   0.0000   0.0000

          k = 0.1667 0.2887 0.0000 (  6494 PWs)   bands (ev):

   -21.9360 -21.8099 -12.0405 -12.0148 -10.6967 -10.6779 -10.0325  -9.1747
     1.7749   2.0544   2.1372   2.2873   3.5107   4.0041

     occupation numbers 
     1.0000   1.0000   1.0000   1.0000   1.0000   1.0000   1.0000   1.0000
     0.0000   0.0000   0.0000   0.0000   0.0000   0.0000

          k = 0.1667 0.3849 0.0000 (  6484 PWs)   bands (ev):

   -20.8182 -20.7018 -13.7877 -13.7383 -11.7665 -11.7324  -8.7417  -7.9514
     0.0556   0.3620   3.3148   3.6801   5.0199   5.5299

     occupation numbers 
     1.0000   1.0000   1.0000   1.0000   1.0000   1.0000   1.0000   1.0000
     0.0000   0.0000   0.0000   0.0000   0.0000   0.0000

          k = 0.1667 0.4811 0.0000 (  6474 PWs)   bands (ev):

   -19.4286 -19.3255 -15.7193 -15.6495 -12.3490 -12.3061  -7.2436  -6.5934
    -1.8940  -1.5264   5.2442   5.5470   5.7880   5.9776

     occupation numbers 
     1.0000   1.0000   1.0000   1.0000   1.0000   1.0000   1.0000   1.0000
     0.0000   0.0000   0.0000   0.0000   0.0000   0.0000

          k = 0.1667 0.5774 0.0000 (  6478 PWs)   bands (ev):

   -18.1580 -18.1066 -17.1488 -17.1131 -12.5355 -12.4907  -6.2111  -5.8709
    -2.8474  -2.6824   5.6277   5.8931   7.2644   7.4482

     occupation numbers 
     1.0000   1.0000   1.0000   1.0000   1.0000   1.0000   1.0000   1.0000
     0.0000   0.0000   0.0000   0.0000   0.0000   0.0000

          k = 0.2500 0.4330 0.0000 (  6442 PWs)   bands (ev):

   -19.5783 -19.4733 -14.8174 -14.7814 -13.2572 -13.2305  -7.3488  -6.6510
    -1.5624  -1.2699   5.0398   5.3225   6.4781   7.1117

     occupation numbers 
     1.0000   1.0000   1.0000   1.0000   1.0000   1.0000   1.0000   1.0000
     0.0000   0.0000   0.0000   0.0000   0.0000   0.0000

          k = 0.2500 0.5292 0.0000 (  6455 PWs)   bands (ev):

   -18.1379 -18.0520 -16.2588 -16.2006 -13.9773 -13.9318  -5.8681  -5.3690
    -3.0682  -2.8024   6.5175   6.7067   7.0752   7.8402

     occupation numbers 
     1.0000   1.0000   1.0000   1.0000   1.0000   1.0000   1.0000   1.0000
     0.0000   0.0000   0.0000   0.0000   0.0000   0.0000

          k = 0.3333 0.5774 0.0000 (  6450 PWs)   bands (ev):

   -16.9160 -16.8688 -16.8688 -16.8260 -14.8623 -14.8623  -4.5708  -4.2535
    -4.2535  -3.9176   6.3420   6.3420   8.3921   8.7387

     occupation numbers 
     1.0000   1.0000   1.0000   1.0000   1.0000   1.0000   0.9995   0.5001
     0.5001   0.0002   0.0000   0.0000   0.0000   0.0000

     the Fermi energy is    -4.2535 ev

!    total energy              =     -73.77271380 Ry
     total all-electron energy =      -304.829103 Ry
     estimated scf accuracy    <          2.6E-12 Ry
     smearing contrib. (-TS)   =      -0.00015724 Ry
     internal energy E=F+TS    =     -73.77255656 Ry

     The total energy is F=E-TS. E is the sum of the following terms:
     one-electron contribution =   -1254.12364947 Ry
     hartree contribution      =     628.82263742 Ry
     xc contribution           =     -18.57667681 Ry
     ewald contribution        =     594.77403764 Ry
     one-center paw contrib.   =     -24.66890533 Ry
      -> PAW hartree energy AE =       9.53420080 Ry
      -> PAW hartree energy PS =      -9.52551913 Ry
      -> PAW xc energy AE      =     -10.68469996 Ry
      -> PAW xc energy PS      =       4.50882219 Ry
      -> total E_H with PAW    =     628.83131908 Ry
      -> total E_XC with PAW   =     -24.75255459 Ry

     convergence has been achieved in   7 iterations

     negative rho (up, down):  1.431E-04 0.000E+00

     Forces acting on atoms (cartesian axes, Ry/au):

     atom    1 type  1   force =     0.00000000    0.00000000   -0.00094404
     atom    2 type  1   force =     0.00000000    0.00000000   -0.00280787
     atom    3 type  1   force =     0.00000000   -0.00000000    0.00280787
     atom    4 type  1   force =     0.00000000    0.00000000    0.00094404
     The non-local contrib.  to forces
     atom    1 type  1   force =     0.00000000    0.00000000    0.00006693
     atom    2 type  1   force =     0.00000000   -0.00000000   -0.00351164
     atom    3 type  1   force =     0.00000000    0.00000000    0.00351164
     atom    4 type  1   force =     0.00000000   -0.00000000   -0.00006693
     The ionic contribution  to forces
     atom    1 type  1   force =     0.00000000   -0.00000000  -21.51364917
     atom    2 type  1   force =    -0.00000000    0.00000000  -21.45741938
     atom    3 type  1   force =    -0.00000000   -0.00000000   21.45741938
     atom    4 type  1   force =     0.00000000    0.00000000   21.51364917
     The local contribution  to forces
     atom    1 type  1   force =    -0.00000000    0.00000000   21.51254323
     atom    2 type  1   force =    -0.00000000    0.00000000   21.45801448
     atom    3 type  1   force =    -0.00000000    0.00000000  -21.45801448
     atom    4 type  1   force =    -0.00000000    0.00000000  -21.51254323
     The core correction contribution to forces
     atom    1 type  1   force =     0.00000000    0.00000000    0.00009295
     atom    2 type  1   force =     0.00000000   -0.00000000    0.00010672
     atom    3 type  1   force =     0.00000000   -0.00000000   -0.00010672
     atom    4 type  1   force =    -0.00000000   -0.00000000   -0.00009295
     The Hubbard contrib.    to forces
     atom    1 type  1   force =     0.00000000    0.00000000    0.00000000
     atom    2 type  1   force =     0.00000000    0.00000000    0.00000000
     atom    3 type  1   force =     0.00000000    0.00000000    0.00000000
     atom    4 type  1   force =     0.00000000    0.00000000    0.00000000
     The SCF correction term to forces
     atom    1 type  1   force =    -0.00000000   -0.00000000    0.00000201
     atom    2 type  1   force =    -0.00000000   -0.00000000    0.00000196
     atom    3 type  1   force =    -0.00000000   -0.00000000   -0.00000196
     atom    4 type  1   force =     0.00000000    0.00000000   -0.00000201

     Total force =     0.004189     Total SCF correction =     0.000004
     Energy error            =      6.9E-05 Ry
     Gradient error          =      2.8E-03 Ry/Bohr

     number of scf cycles    =   6
     number of bfgs steps    =   5

     energy             old  =     -73.7726445953 Ry
     energy             new  =     -73.7727137987 Ry

     CASE: energy            _new < energy            _old

     new trust radius        =       0.0143839474 bohr
     new conv_thr            =            1.0E-10 Ry


ATOMIC_POSITIONS (angstrom)
C                0.0000000000        0.0000000000        9.9788052510
C                1.2300000000        0.7101408311        9.9813686569
C                1.2300000000        0.7101408311       13.3686313431
C                0.0000000000        1.4202816622       13.3711947490



     Writing config-only to output data dir /home/ubuntu/projects/Graphene-Band-Structure-Quantum-Espresso/outputs/bilayer/field_0Ry/coupled/data/coupled.save/ :
     XML data file
     NEW-OLD atomic charge density approx. for the potential

     Check: negative core charge=   -0.000003

     negative rho (up, down):  1.410E-04 0.000E+00

     total cpu time spent up to now is       83.8 secs

     Self-consistent Calculation

     iteration #  1     ecut=    60.00 Ry     beta= 0.70
     Davidson diagonalization with overlap

---- Real-time Memory Report at c_bands before calling an iterative solver
           131 MiB given to the printing process from OS
             0 MiB allocation reported by mallinfo(arena+hblkhd)
          3527 MiB available memory on the node where the printing process lives
------------------
     ethr =  1.00E-06,  avg # of iterations =  3.3

     negative rho (up, down):  1.417E-04 0.000E+00

     total cpu time spent up to now is       86.6 secs

     total energy              =     -73.77275537 Ry
     estimated scf accuracy    <       0.00016416 Ry

     iteration #  2     ecut=    60.00 Ry     beta= 0.70
     Davidson diagonalization with overlap

---- Real-time Memory Report at c_bands before calling an iterative solver
           131 MiB given to the printing process from OS
             0 MiB allocation reported by mallinfo(arena+hblkhd)
          3542 MiB available memory on the node where the printing process lives
------------------
     ethr =  1.03E-06,  avg # of iterations =  3.3

     negative rho (up, down):  1.419E-04 0.000E+00

     total cpu time spent up to now is       88.2 secs

     total energy              =     -73.77278044 Ry
     estimated scf accuracy    <       0.00014611 Ry

     iteration #  3     ecut=    60.00 Ry     beta= 0.70
     Davidson diagonalization with overlap

---- Real-time Memory Report at c_bands before calling an iterative solver
           131 MiB given to the printing process from OS
             0 MiB allocation reported by mallinfo(arena+hblkhd)
          3534 MiB available memory on the node where the printing process lives
------------------
     ethr =  9.13E-07,  avg # of iterations =  2.2

     negative rho (up, down):  1.420E-04 0.000E+00

     total cpu time spent up to now is       90.0 secs

     total energy              =     -73.77281476 Ry
     estimated scf accuracy    <       0.00000232 Ry

     iteration #  4     ecut=    60.00 Ry     beta= 0.70
     Davidson diagonalization with overlap

---- Real-time Memory Report at c_bands before calling an iterative solver
           131 MiB given to the printing process from OS
             0 MiB allocation reported by mallinfo(arena+hblkhd)
          3530 MiB available memory on the node where the printing process lives
------------------
     ethr =  1.45E-08,  avg # of iterations =  1.6

     negative rho (up, down):  1.421E-04 0.000E+00

     total cpu time spent up to now is       91.6 secs

     total energy              =     -73.77281513 Ry
     estimated scf accuracy    <       0.00000004 Ry

     iteration #  5     ecut=    60.00 Ry     beta= 0.70
     Davidson diagonalization with overlap

---- Real-time Memory Report at c_bands before calling an iterative solver
           131 MiB given to the printing process from OS
             0 MiB allocation reported by mallinfo(arena+hblkhd)
          3537 MiB available memory on the node where the printing process lives
------------------
     ethr =  2.22E-10,  avg # of iterations =  3.2

     negative rho (up, down):  1.421E-04 0.000E+00

     total cpu time spent up to now is       93.7 secs

     total energy              =     -73.77281515 Ry
     estimated scf accuracy    <          3.9E-09 Ry

     iteration #  6     ecut=    60.00 Ry     beta= 0.70
     Davidson diagonalization with overlap

---- Real-time Memory Report at c_bands before calling an iterative solver
           131 MiB given to the printing process from OS
             0 MiB allocation reported by mallinfo(arena+hblkhd)
          3520 MiB available memory on the node where the printing process lives
------------------
     ethr =  2.42E-11,  avg # of iterations =  2.0

     negative rho (up, down):  1.421E-04 0.000E+00

     total cpu time spent up to now is       95.2 secs

     total energy              =     -73.77281515 Ry
     estimated scf accuracy    <          4.2E-10 Ry

     iteration #  7     ecut=    60.00 Ry     beta= 0.70
     Davidson diagonalization with overlap

---- Real-time Memory Report at c_bands before calling an iterative solver
           131 MiB given to the printing process from OS
             0 MiB allocation reported by mallinfo(arena+hblkhd)
          3517 MiB available memory on the node where the printing process lives
------------------
     ethr =  2.60E-12,  avg # of iterations =  2.0

     negative rho (up, down):  1.421E-04 0.000E+00

     total cpu time spent up to now is       96.4 secs

     End of self-consistent calculation

          k = 0.0000 0.0000 0.0000 (  6469 PWs)   bands (ev):

   -23.8955 -23.7571 -12.3633 -11.4409  -7.2894  -7.2894  -7.2812  -7.2812
    -0.8868  -0.5467   0.8579   1.3286   2.6901   4.0210

     occupation numbers 
     1.0000   1.0000   1.0000   1.0000   1.0000   1.0000   1.0000   1.0000
     0.0000   0.0000   0.0000   0.0000   0.0000   0.0000

          k = 0.0000 0.0962 0.0000 (  6478 PWs)   bands (ev):

   -23.7301 -23.5932 -12.1635 -11.2471  -7.9459  -7.9308  -7.6328  -7.6202
    -0.6646  -0.3217   1.0792   1.5533   2.8944   4.2311

     occupation numbers 
     1.0000   1.0000   1.0000   1.0000   1.0000   1.0000   1.0000   1.0000
     0.0000   0.0000   0.0000   0.0000   0.0000   0.0000

          k = 0.0000 0.1925 0.0000 (  6486 PWs)   bands (ev):

   -23.2358 -23.1030 -11.5689 -10.6716  -9.5973  -9.5682  -8.4343  -8.4162
     0.0018   0.3523   1.7424   2.2258   3.4920   4.1143

     occupation numbers 
     1.0000   1.0000   1.0000   1.0000   1.0000   1.0000   1.0000   1.0000
     0.0000   0.0000   0.0000   0.0000   0.0000   0.0000

          k = 0.0000 0.2887 0.0000 (  6494 PWs)   bands (ev):

   -22.4183 -22.2925 -11.7130 -11.6680 -10.5968  -9.7354  -9.3224  -9.3009
     1.1085   1.4628   2.8226   2.8869   3.1819   3.3634

     occupation numbers 
     1.0000   1.0000   1.0000   1.0000   1.0000   1.0000   1.0000   1.0000
     0.0000   0.0000   0.0000   0.0000   0.0000   0.0000

          k = 0.0000 0.3849 0.0000 (  6484 PWs)   bands (ev):

   -21.2898 -21.1734 -13.9344 -13.8736 -10.0620 -10.0386  -9.2917  -8.4962
     0.4827   0.9110   2.6425   3.0461   3.4806   3.6190

     occupation numbers 
     1.0000   1.0000   1.0000   1.0000   1.0000   1.0000   1.0000   1.0000
     0.0000   0.0000   0.0000   0.0000   0.0000   0.0000

          k = 0.0000 0.4811 0.0000 (  6486 PWs)   bands (ev):

   -19.8804 -19.7769 -16.0518 -15.9775 -10.5388 -10.5144  -7.7937  -7.1478
    -1.6841  -1.2100   3.2114   3.3845   4.6411   5.0551

     occupation numbers 
     1.0000   1.0000   1.0000   1.0000   1.0000   1.0000   1.0000   1.0000
     0.0000   0.0000   0.0000   0.0000   0.0000   0.0000

          k = 0.0000-0.5774 0.0000 (  6508 PWs)   bands (ev):

   -18.5796 -18.5279 -17.5529 -17.5139 -10.7024 -10.6777  -6.8076  -6.4701
    -2.7004  -2.3687   3.1271   3.3109   6.9232   7.0079

     occupation numbers 
     1.0000   1.0000   1.0000   1.0000   1.0000   1.0000   1.0000   1.0000
     0.0000   0.0000   0.0000   0.0000   0.0000   0.0000

          k = 0.0833 0.1443 0.0000 (  6487 PWs)   bands (ev):

   -23.4003 -23.2661 -11.7663 -10.8623  -8.9832  -8.9686  -8.3146  -8.3040
    -0.2200   0.1280   1.5222   2.0024   3.3032   4.4616

     occupation numbers 
     1.0000   1.0000   1.0000   1.0000   1.0000   1.0000   1.0000   1.0000
     0.0000   0.0000   0.0000   0.0000   0.0000   0.0000

          k = 0.0833 0.2406 0.0000 (  6474 PWs)   bands (ev):

   -22.7444 -22.6158 -10.9820 -10.7082 -10.6773 -10.1049  -9.3246  -9.3047
     0.6678   1.0243   2.4057   2.8960   3.7924   3.9461

     occupation numbers 
     1.0000   1.0000   1.0000   1.0000   1.0000   1.0000   1.0000   1.0000
     0.0000   0.0000   0.0000   0.0000   0.0000   0.0000

          k = 0.0833 0.3368 0.0000 (  6487 PWs)   bands (ev):

   -21.7713 -21.6509 -12.8004 -12.7503 -10.2201 -10.1935  -9.8378  -9.0095
     1.5433   1.8824   1.9984   2.3913   3.7139   4.1958

     occupation numbers 
     1.0000   1.0000   1.0000   1.0000   1.0000   1.0000   1.0000   1.0000
     0.0000   0.0000   0.0000   0.0000   0.0000   0.0000

          k = 0.0833 0.4330 0.0000 (  6482 PWs)   bands (ev):

   -20.4995 -20.3900 -14.9416 -14.8752 -10.8604 -10.8308  -8.4079  -7.6734
    -0.7164  -0.2818   3.7187   4.0065   4.1896   4.2422

     occupation numbers 
     1.0000   1.0000   1.0000   1.0000   1.0000   1.0000   1.0000   1.0000
     0.0000   0.0000   0.0000   0.0000   0.0000   0.0000

          k = 0.0833 0.5292 0.0000 (  6501 PWs)   bands (ev):

   -19.0015 -18.9107 -16.8982 -16.8244 -11.1915 -11.1606  -6.9804  -6.4958
    -2.4556  -2.0757   3.8625   4.0550   5.9148   6.3260

     occupation numbers 
     1.0000   1.0000   1.0000   1.0000   1.0000   1.0000   1.0000   1.0000
     0.0000   0.0000   0.0000   0.0000   0.0000   0.0000

          k = 0.1667 0.2887 0.0000 (  6494 PWs)   bands (ev):

   -21.9328 -21.8111 -12.0391 -12.0144 -10.6955 -10.6775 -10.0223  -9.1836
     1.7724   2.0593   2.1381   2.2855   3.5084   4.0126

     occupation numbers 
     1.0000   1.0000   1.0000   1.0000   1.0000   1.0000   1.0000   1.0000
     0.0000   0.0000   0.0000   0.0000   0.0000   0.0000

          k = 0.1667 0.3849 0.0000 (  6484 PWs)   bands (ev):

   -20.8152 -20.7029 -13.7859 -13.7384 -11.7650 -11.7322  -8.7320  -7.9596
     0.0610   0.3595   3.3123   3.6808   5.0152   5.5381

     occupation numbers 
     1.0000   1.0000   1.0000   1.0000   1.0000   1.0000   1.0000   1.0000
     0.0000   0.0000   0.0000   0.0000   0.0000   0.0000

          k = 0.1667 0.4811 0.0000 (  6474 PWs)   bands (ev):

   -19.4258 -19.3264 -15.7171 -15.6499 -12.3473 -12.3061  -7.2350  -6.5998
    -1.8885  -1.5298   5.2412   5.5491   5.7909   5.9760

     occupation numbers 
     1.0000   1.0000   1.0000   1.0000   1.0000   1.0000   1.0000   1.0000
     0.0000   0.0000   0.0000   0.0000   0.0000   0.0000

          k = 0.1667 0.5774 0.0000 (  6478 PWs)   bands (ev):

   -18.1560 -18.1065 -17.1474 -17.1130 -12.5338 -12.4907  -6.2049  -5.8729
    -2.8459  -2.6837   5.6324   5.8912   7.2653   7.4382

     occupation numbers 
     1.0000   1.0000   1.0000   1.0000   1.0000   1.0000   1.0000   1.0000
     0.0000   0.0000   0.0000   0.0000   0.0000   0.0000

          k = 0.2500 0.4330 0.0000 (  6442 PWs)   bands (ev):

   -19.5755 -19.4742 -14.8158 -14.7812 -13.2559 -13.2302  -7.3398  -6.6581
    -1.5572  -1.2722   5.0369   5.3237   6.4636   7.1202

     occupation numbers 
     1.0000   1.0000   1.0000   1.0000   1.0000   1.0000   1.0000   1.0000
     0.0000   0.0000   0.0000   0.0000   0.0000   0.0000

          k = 0.2500 0.5292 0.0000 (  6455 PWs)   bands (ev):

   -18.1355 -18.0527 -16.2568 -16.2008 -13.9756 -13.9318  -5.8607  -5.3732
    -3.0640  -2.8048   6.5213   6.6999   7.0728   7.8433

     occupation numbers 
     1.0000   1.0000   1.0000   1.0000   1.0000   1.0000   1.0000   1.0000
     0.0000   0.0000   0.0000   0.0000   0.0000   0.0000

          k = 0.3333 0.5774 0.0000 (  6450 PWs)   bands (ev):

   -16.9134 -16.8679 -16.8679 -16.8267 -14.8615 -14.8615  -4.5616  -4.2519
    -4.2519  -3.9247   6.3414   6.3414   8.3909   8.7372

     occupation numbers 
     1.0000   1.0000   1.0000   1.0000   1.0000   1.0000   0.9994   0.5002
     0.5002   0.0003   0.0000   0.0000   0.0000   0.0000

     the Fermi energy is    -4.2519 ev

!    total energy              =     -73.77281515 Ry
     total all-electron energy =      -304.829204 Ry
     estimated scf accuracy    <          5.6E-12 Ry
     smearing contrib. (-TS)   =      -0.00015740 Ry
     internal energy E=F+TS    =     -73.77265775 Ry

     The total energy is F=E-TS. E is the sum of the following terms:
     one-electron contribution =   -1251.71438347 Ry
     hartree contribution      =     627.61830527 Ry
     xc contribution           =     -18.57638254 Ry
     ewald contribution        =     593.56870326 Ry
     one-center paw contrib.   =     -24.66890028 Ry
      -> PAW hartree energy AE =       9.53383472 Ry
      -> PAW hartree energy PS =      -9.52515315 Ry
      -> PAW xc energy AE      =     -10.68461473 Ry
      -> PAW xc energy PS      =       4.50873694 Ry
      -> total E_H with PAW    =     627.62698684 Ry
      -> total E_XC with PAW   =     -24.75226032 Ry

     convergence has been achieved in   7 iterations

     negative rho (up, down):  1.421E-04 0.000E+00

     Forces acting on atoms (cartesian axes, Ry/au):

     atom    1 type  1   force =     0.00000000   -0.00000000   -0.00060074
     atom    2 type  1   force =     0.00000000   -0.00000000   -0.00298451
     atom    3 type  1   force =     0.00000000    0.00000000    0.00298451
     atom    4 type  1   force =     0.00000000    0.00000000    0.00060074
     The non-local contrib.  to forces
     atom    1 type  1   force =     0.00000000   -0.00000000    0.00062449
     atom    2 type  1   force =     0.00000000    0.00000000   -0.00391754
     atom    3 type  1   force =     0.00000000    0.00000000    0.00391754
     atom    4 type  1   force =     0.00000000    0.00000000   -0.00062449
     The ionic contribution  to forces
     atom    1 type  1   force =     0.00000000   -0.00000000  -21.51908362
     atom    2 type  1   force =    -0.00000000    0.00000000  -21.45205365
     atom    3 type  1   force =    -0.00000000   -0.00000000   21.45205365
     atom    4 type  1   force =     0.00000000    0.00000000   21.51908362
     The local contribution  to forces
     atom    1 type  1   force =    -0.00000000    0.00000000   21.51779691
     atom    2 type  1   force =    -0.00000000    0.00000000   21.45289596
     atom    3 type  1   force =    -0.00000000    0.00000000  -21.45289596
     atom    4 type  1   force =     0.00000000    0.00000000  -21.51779691
     The core correction contribution to forces
     atom    1 type  1   force =     0.00000000    0.00000000    0.00005865
     atom    2 type  1   force =     0.00000000   -0.00000000    0.00008796
     atom    3 type  1   force =     0.00000000   -0.00000000   -0.00008796
     atom    4 type  1   force =     0.00000000   -0.00000000   -0.00005865
     The Hubbard contrib.    to forces
     atom    1 type  1   force =     0.00000000    0.00000000    0.00000000
     atom    2 type  1   force =     0.00000000    0.00000000    0.00000000
     atom    3 type  1   force =     0.00000000    0.00000000    0.00000000
     atom    4 type  1   force =     0.00000000    0.00000000    0.00000000
     The SCF correction term to forces
     atom    1 type  1   force =    -0.00000000   -0.00000000    0.00000283
     atom    2 type  1   force =     0.00000000    0.00000000    0.00000276
     atom    3 type  1   force =     0.00000000    0.00000000   -0.00000276
     atom    4 type  1   force =    -0.00000000   -0.00000000   -0.00000283

     Total force =     0.004305     Total SCF correction =     0.000006
     Energy error            =      1.0E-04 Ry
     Gradient error          =      3.0E-03 Ry/Bohr

     number of scf cycles    =   7
     number of bfgs steps    =   6

     energy             old  =     -73.7727137987 Ry
     energy             new  =     -73.7728151494 Ry

     CASE: energy            _new < energy            _old

     new trust radius        =       0.0215759211 bohr
     new conv_thr            =       0.0000000001 Ry


ATOMIC_POSITIONS (angstrom)
C                0.0000000000       -0.0000000000        9.9673877652
C                1.2300000000        0.7101408311        9.9703042601
C                1.2300000000        0.7101408311       13.3796957399
C                0.0000000000        1.4202816622       13.3826122348



     Writing config-only to output data dir /home/ubuntu/projects/Graphene-Band-Structure-Quantum-Espresso/outputs/bilayer/field_0Ry/coupled/data/coupled.save/ :
     XML data file
     NEW-OLD atomic charge density approx. for the potential

     Check: negative core charge=   -0.000003

     negative rho (up, down):  1.389E-04 0.000E+00

     total cpu time spent up to now is       97.5 secs

     Self-consistent Calculation

     iteration #  1     ecut=    60.00 Ry     beta= 0.70
     Davidson diagonalization with overlap

---- Real-time Memory Report at c_bands before calling an iterative solver
           131 MiB given to the printing process from OS
             0 MiB allocation reported by mallinfo(arena+hblkhd)
          3533 MiB available memory on the node where the printing process lives
------------------
     ethr =  1.00E-06,  avg # of iterations =  4.2

     negative rho (up, down):  1.401E-04 0.000E+00

     total cpu time spent up to now is       99.3 secs

     total energy              =     -73.77282094 Ry
     estimated scf accuracy    <       0.00038198 Ry

     iteration #  2     ecut=    60.00 Ry     beta= 0.70
     Davidson diagonalization with overlap

---- Real-time Memory Report at c_bands before calling an iterative solver
           131 MiB given to the printing process from OS
             0 MiB allocation reported by mallinfo(arena+hblkhd)
          3539 MiB available memory on the node where the printing process lives
------------------
     ethr =  2.39E-06,  avg # of iterations =  4.7

     negative rho (up, down):  1.406E-04 0.000E+00

     total cpu time spent up to now is      101.4 secs

     total energy              =     -73.77287918 Ry
     estimated scf accuracy    <       0.00035205 Ry

     iteration #  3     ecut=    60.00 Ry     beta= 0.70
     Davidson diagonalization with overlap

---- Real-time Memory Report at c_bands before calling an iterative solver
           131 MiB given to the printing process from OS
             0 MiB allocation reported by mallinfo(arena+hblkhd)
          3538 MiB available memory on the node where the printing process lives
------------------
     ethr =  2.20E-06,  avg # of iterations =  3.4

     negative rho (up, down):  1.407E-04 0.000E+00

     total cpu time spent up to now is      103.5 secs

     total energy              =     -73.77296081 Ry
     estimated scf accuracy    <       0.00000498 Ry

     iteration #  4     ecut=    60.00 Ry     beta= 0.70
     Davidson diagonalization with overlap

---- Real-time Memory Report at c_bands before calling an iterative solver
           131 MiB given to the printing process from OS
             0 MiB allocation reported by mallinfo(arena+hblkhd)
          3529 MiB available memory on the node where the printing process lives
------------------
     ethr =  3.11E-08,  avg # of iterations =  1.8

     negative rho (up, down):  1.407E-04 0.000E+00

     total cpu time spent up to now is      105.2 secs

     total energy              =     -73.77296159 Ry
     estimated scf accuracy    <       0.00000009 Ry

     iteration #  5     ecut=    60.00 Ry     beta= 0.70
     Davidson diagonalization with overlap

---- Real-time Memory Report at c_bands before calling an iterative solver
           131 MiB given to the printing process from OS
             0 MiB allocation reported by mallinfo(arena+hblkhd)
          3521 MiB available memory on the node where the printing process lives
------------------
     ethr =  5.54E-10,  avg # of iterations =  3.1

     negative rho (up, down):  1.407E-04 0.000E+00

     total cpu time spent up to now is      107.3 secs

     total energy              =     -73.77296164 Ry
     estimated scf accuracy    <       0.00000001 Ry

     iteration #  6     ecut=    60.00 Ry     beta= 0.70
     Davidson diagonalization with overlap

---- Real-time Memory Report at c_bands before calling an iterative solver
           131 MiB given to the printing process from OS
             0 MiB allocation reported by mallinfo(arena+hblkhd)
          3551 MiB available memory on the node where the printing process lives
------------------
     ethr =  6.35E-11,  avg # of iterations =  1.9

     negative rho (up, down):  1.407E-04 0.000E+00

     total cpu time spent up to now is      109.1 secs

     total energy              =     -73.77296164 Ry
     estimated scf accuracy    <          1.1E-09 Ry

     iteration #  7     ecut=    60.00 Ry     beta= 0.70
     Davidson diagonalization with overlap

---- Real-time Memory Report at c_bands before calling an iterative solver
           131 MiB given to the printing process from OS
             0 MiB allocation reported by mallinfo(arena+hblkhd)
          3511 MiB available memory on the node where the printing process lives
------------------
     ethr =  7.11E-12,  avg # of iterations =  2.0

     negative rho (up, down):  1.407E-04 0.000E+00

     total cpu time spent up to now is      111.0 secs

     End of self-consistent calculation

          k = 0.0000 0.0000 0.0000 (  6469 PWs)   bands (ev):

   -23.8906 -23.7592 -12.3474 -11.4556  -7.2880  -7.2880  -7.2804  -7.2804
    -0.8899  -0.5462   0.8561   1.3411   2.6616   3.9660

     occupation numbers 
     1.0000   1.0000   1.0000   1.0000   1.0000   1.0000   1.0000   1.0000
     0.0000   0.0000   0.0000   0.0000   0.0000   0.0000

          k = 0.0000 0.0962 0.0000 (  6478 PWs)   bands (ev):

   -23.7252 -23.5953 -12.1477 -11.2617  -7.9443  -7.9302  -7.6313  -7.6195
    -0.6677  -0.3212   1.0772   1.5657   2.8664   4.2316

     occupation numbers 
     1.0000   1.0000   1.0000   1.0000   1.0000   1.0000   1.0000   1.0000
     0.0000   0.0000   0.0000   0.0000   0.0000   0.0000

          k = 0.0000 0.1925 0.0000 (  6486 PWs)   bands (ev):

   -23.2310 -23.1051 -11.5533 -10.6859  -9.5953  -9.5680  -8.4326  -8.4157
    -0.0015   0.3527   1.7398   2.2381   3.4668   4.1175

     occupation numbers 
     1.0000   1.0000   1.0000   1.0000   1.0000   1.0000   1.0000   1.0000
     0.0000   0.0000   0.0000   0.0000   0.0000   0.0000

          k = 0.0000 0.2887 0.0000 (  6494 PWs)   bands (ev):

   -22.4137 -22.2944 -11.7106 -11.6682 -10.5815  -9.7491  -9.3206  -9.3005
     1.1048   1.4633   2.8170   2.8954   3.1794   3.3747

     occupation numbers 
     1.0000   1.0000   1.0000   1.0000   1.0000   1.0000   1.0000   1.0000
     0.0000   0.0000   0.0000   0.0000   0.0000   0.0000

          k = 0.0000 0.3849 0.0000 (  6484 PWs)   bands (ev):

   -21.2854 -21.1751 -13.9315 -13.8741 -10.0602 -10.0382  -9.2771  -8.5087
     0.4925   0.9042   2.6383   3.0465   3.4854   3.6169

     occupation numbers 
     1.0000   1.0000   1.0000   1.0000   1.0000   1.0000   1.0000   1.0000
     0.0000   0.0000   0.0000   0.0000   0.0000   0.0000

          k = 0.0000 0.4811 0.0000 (  6486 PWs)   bands (ev):

   -19.8764 -19.7783 -16.0485 -15.9783 -10.5369 -10.5140  -7.7809  -7.1574
    -1.6747  -1.2174   3.2170   3.3816   4.6366   5.0553

     occupation numbers 
     1.0000   1.0000   1.0000   1.0000   1.0000   1.0000   1.0000   1.0000
     0.0000   0.0000   0.0000   0.0000   0.0000   0.0000

          k = 0.0000-0.5774 0.0000 (  6508 PWs)   bands (ev):

   -18.5768 -18.5279 -17.5508 -17.5138 -10.7005 -10.6774  -6.7986  -6.4734
    -2.6959  -2.3739   3.1329   3.3079   6.9173   7.0025

     occupation numbers 
     1.0000   1.0000   1.0000   1.0000   1.0000   1.0000   1.0000   1.0000
     0.0000   0.0000   0.0000   0.0000   0.0000   0.0000

          k = 0.0833 0.1443 0.0000 (  6487 PWs)   bands (ev):

   -23.3955 -23.2682 -11.7506 -10.8767  -8.9816  -8.9679  -8.3132  -8.3032
    -0.2233   0.1285   1.5198   2.0147   3.2762   4.4646

     occupation numbers 
     1.0000   1.0000   1.0000   1.0000   1.0000   1.0000   1.0000   1.0000
     0.0000   0.0000   0.0000   0.0000   0.0000   0.0000

          k = 0.0833 0.2406 0.0000 (  6474 PWs)   bands (ev):

   -22.7397 -22.6177 -10.9665 -10.7061 -10.6771 -10.1188  -9.3229  -9.3042
     0.6643   1.0247   2.4023   2.9083   3.7992   3.9375

     occupation numbers 
     1.0000   1.0000   1.0000   1.0000   1.0000   1.0000   1.0000   1.0000
     0.0000   0.0000   0.0000   0.0000   0.0000   0.0000

          k = 0.0833 0.3368 0.0000 (  6487 PWs)   bands (ev):

   -21.7668 -21.6526 -12.7978 -12.7505 -10.2181 -10.1932  -9.8229  -9.0226
     1.5517   1.8777   1.9943   2.3918   3.7095   4.2050

     occupation numbers 
     1.0000   1.0000   1.0000   1.0000   1.0000   1.0000   1.0000   1.0000
     0.0000   0.0000   0.0000   0.0000   0.0000   0.0000

          k = 0.0833 0.4330 0.0000 (  6482 PWs)   bands (ev):

   -20.4953 -20.3915 -14.9385 -14.8758 -10.8584 -10.8305  -8.3940  -7.6848
    -0.7068  -0.2884   3.7146   4.0104   4.1904   4.2406

     occupation numbers 
     1.0000   1.0000   1.0000   1.0000   1.0000   1.0000   1.0000   1.0000
     0.0000   0.0000   0.0000   0.0000   0.0000   0.0000

          k = 0.0833 0.5292 0.0000 (  6501 PWs)   bands (ev):

   -18.9978 -18.9118 -16.8950 -16.8252 -11.1894 -11.1604  -6.9696  -6.5021
    -2.4490  -2.0815   3.8684   4.0521   5.9097   6.3263

     occupation numbers 
     1.0000   1.0000   1.0000   1.0000   1.0000   1.0000   1.0000   1.0000
     0.0000   0.0000   0.0000   0.0000   0.0000   0.0000

          k = 0.1667 0.2887 0.0000 (  6494 PWs)   bands (ev):

   -21.9283 -21.8129 -12.0372 -12.0140 -10.6938 -10.6769 -10.0073  -9.1969
     1.7684   2.0663   2.1388   2.2827   3.5036   4.0248

     occupation numbers 
     1.0000   1.0000   1.0000   1.0000   1.0000   1.0000   1.0000   1.0000
     0.0000   0.0000   0.0000   0.0000   0.0000   0.0000

          k = 0.1667 0.3849 0.0000 (  6484 PWs)   bands (ev):

   -20.8109 -20.7045 -13.7833 -13.7385 -11.7629 -11.7320  -8.7177  -7.9717
     0.0688   0.3557   3.3081   3.6812   5.0068   5.5500

     occupation numbers 
     1.0000   1.0000   1.0000   1.0000   1.0000   1.0000   1.0000   1.0000
     0.0000   0.0000   0.0000   0.0000   0.0000   0.0000

          k = 0.1667 0.4811 0.0000 (  6474 PWs)   bands (ev):

   -19.4219 -19.3277 -15.7140 -15.6505 -12.3449 -12.3062  -7.2223  -6.6094
    -1.8804  -1.5348   5.2363   5.5518   5.7951   5.9736

     occupation numbers 
     1.0000   1.0000   1.0000   1.0000   1.0000   1.0000   1.0000   1.0000
     0.0000   0.0000   0.0000   0.0000   0.0000   0.0000

          k = 0.1667 0.5774 0.0000 (  6478 PWs)   bands (ev):

   -18.1532 -18.1065 -17.1454 -17.1128 -12.5314 -12.4908  -6.1958  -5.8760
    -2.8439  -2.6856   5.6393   5.8883   7.2661   7.4240

     occupation numbers 
     1.0000   1.0000   1.0000   1.0000   1.0000   1.0000   1.0000   1.0000
     0.0000   0.0000   0.0000   0.0000   0.0000   0.0000

          k = 0.2500 0.4330 0.0000 (  6442 PWs)   bands (ev):

   -19.5715 -19.4756 -14.8136 -14.7809 -13.2540 -13.2298  -7.3265  -6.6686
    -1.5496  -1.2757   5.0321   5.3250   6.4415   7.1326

     occupation numbers 
     1.0000   1.0000   1.0000   1.0000   1.0000   1.0000   1.0000   1.0000
     0.0000   0.0000   0.0000   0.0000   0.0000   0.0000

          k = 0.2500 0.5292 0.0000 (  6455 PWs)   bands (ev):

   -18.1319 -18.0536 -16.2540 -16.2011 -13.9731 -13.9318  -5.8497  -5.3797
    -3.0578  -2.8084   6.5267   6.6901   7.0691   7.8478

     occupation numbers 
     1.0000   1.0000   1.0000   1.0000   1.0000   1.0000   1.0000   1.0000
     0.0000   0.0000   0.0000   0.0000   0.0000   0.0000

          k = 0.3333 0.5774 0.0000 (  6450 PWs)   bands (ev):

   -16.9096 -16.8667 -16.8667 -16.8277 -14.8603 -14.8603  -4.5480  -4.2497
    -4.2497  -3.9352   6.3407   6.3407   8.3889   8.7349

     occupation numbers 
     1.0000   1.0000   1.0000   1.0000   1.0000   1.0000   0.9990   0.5002
     0.5002   0.0005   0.0000   0.0000   0.0000   0.0000

     the Fermi energy is    -4.2497 ev

!    total energy              =     -73.77296164 Ry
     total all-electron energy =      -304.829351 Ry
     estimated scf accuracy    <          1.5E-11 Ry
     smearing contrib. (-TS)   =      -0.00015773 Ry
     internal energy E=F+TS    =     -73.77280391 Ry

     The total energy is F=E-TS. E is the sum of the following terms:
     one-electron contribution =   -1248.06503949 Ry
     hartree contribution      =     625.79405311 Ry
     xc contribution           =     -18.57596527 Ry
     ewald contribution        =     591.74304150 Ry
     one-center paw contrib.   =     -24.66889376 Ry
      -> PAW hartree energy AE =       9.53333216 Ry
      -> PAW hartree energy PS =      -9.52465070 Ry
      -> PAW xc energy AE      =     -10.68449805 Ry
      -> PAW xc energy PS      =       4.50862001 Ry
      -> total E_H with PAW    =     625.80273457 Ry
      -> total E_XC with PAW   =     -24.75184331 Ry

     convergence has been achieved in   7 iterations

     negative rho (up, down):  1.407E-04 0.000E+00

     Forces acting on atoms (cartesian axes, Ry/au):

     atom    1 type  1   force =     0.00000000    0.00000000   -0.00025660
     atom    2 type  1   force =     0.00000000   -0.00000000   -0.00313959
     atom    3 type  1   force =     0.00000000   -0.00000000    0.00313959
     atom    4 type  1   force =     0.00000000   -0.00000000    0.00025660
     The non-local contrib.  to forces
     atom    1 type  1   force =    -0.00000000    0.00000000    0.00118255
     atom    2 type  1   force =     0.00000000   -0.00000000   -0.00428760
     atom    3 type  1   force =     0.00000000    0.00000000    0.00428760
     atom    4 type  1   force =     0.00000000   -0.00000000   -0.00118255
     The ionic contribution  to forces
     atom    1 type  1   force =     0.00000000   -0.00000000  -21.52419238
     atom    2 type  1   force =    -0.00000000    0.00000000  -21.44704031
     atom    3 type  1   force =    -0.00000000   -0.00000000   21.44704031
     atom    4 type  1   force =     0.00000000    0.00000000   21.52419238
     The local contribution  to forces
     atom    1 type  1   force =     0.00000000    0.00000000   21.52276062
     atom    2 type  1   force =    -0.00000000    0.00000000   21.44815088
     atom    3 type  1   force =    -0.00000000    0.00000000  -21.44815088
     atom    4 type  1   force =    -0.00000000    0.00000000  -21.52276062
     The core correction contribution to forces
     atom    1 type  1   force =     0.00000000    0.00000000   -0.00001304
     atom    2 type  1   force =     0.00000000   -0.00000000    0.00003182
     atom    3 type  1   force =     0.00000000   -0.00000000   -0.00003182
     atom    4 type  1   force =    -0.00000000   -0.00000000    0.00001304
     The Hubbard contrib.    to forces
     atom    1 type  1   force =     0.00000000    0.00000000    0.00000000
     atom    2 type  1   force =     0.00000000    0.00000000    0.00000000
     atom    3 type  1   force =     0.00000000    0.00000000    0.00000000
     atom    4 type  1   force =     0.00000000    0.00000000    0.00000000
     The SCF correction term to forces
     atom    1 type  1   force =     0.00000000    0.00000000    0.00000566
     atom    2 type  1   force =    -0.00000000    0.00000000    0.00000562
     atom    3 type  1   force =    -0.00000000    0.00000000   -0.00000562
     atom    4 type  1   force =    -0.00000000   -0.00000000   -0.00000566

     Total force =     0.004455     Total SCF correction =     0.000011
     Energy error            =      1.5E-04 Ry
     Gradient error          =      3.1E-03 Ry/Bohr

     number of scf cycles    =   8
     number of bfgs steps    =   7

     energy             old  =     -73.7728151494 Ry
     energy             new  =     -73.7729616415 Ry

     CASE: energy            _new < energy            _old

     new trust radius        =       0.0323638816 bohr
     new conv_thr            =       0.0000000001 Ry


ATOMIC_POSITIONS (angstrom)
C                0.0000000000       -0.0000000000        9.9502615367
C                1.2300000000        0.7101408311        9.9534817531
C                1.2300000000        0.7101408311       13.3965182469
C                0.0000000000        1.4202816622       13.3997384633



     Writing config-only to output data dir /home/ubuntu/projects/Graphene-Band-Structure-Quantum-Espresso/outputs/bilayer/field_0Ry/coupled/data/coupled.save/ :
     XML data file
     NEW-OLD atomic charge density approx. for the potential

     Check: negative core charge=   -0.000003

     negative rho (up, down):  1.393E-04 0.000E+00

     total cpu time spent up to now is      112.2 secs

     Self-consistent Calculation

     iteration #  1     ecut=    60.00 Ry     beta= 0.70
     Davidson diagonalization with overlap

---- Real-time Memory Report at c_bands before calling an iterative solver
           131 MiB given to the printing process from OS
             0 MiB allocation reported by mallinfo(arena+hblkhd)
          3538 MiB available memory on the node where the printing process lives
------------------
     ethr =  1.00E-06,  avg # of iterations =  4.9

     negative rho (up, down):  1.409E-04 0.000E+00

     total cpu time spent up to now is      115.7 secs

     total energy              =     -73.77285321 Ry
     estimated scf accuracy    <       0.00086719 Ry

     iteration #  2     ecut=    60.00 Ry     beta= 0.70
     Davidson diagonalization with overlap

---- Real-time Memory Report at c_bands before calling an iterative solver
           131 MiB given to the printing process from OS
             0 MiB allocation reported by mallinfo(arena+hblkhd)
          3550 MiB available memory on the node where the printing process lives
------------------
     ethr =  5.42E-06,  avg # of iterations =  5.1

     negative rho (up, down):  1.418E-04 0.000E+00

     total cpu time spent up to now is      117.9 secs

     total energy              =     -73.77298183 Ry
     estimated scf accuracy    <       0.00079356 Ry

     iteration #  3     ecut=    60.00 Ry     beta= 0.70
     Davidson diagonalization with overlap

---- Real-time Memory Report at c_bands before calling an iterative solver
           131 MiB given to the printing process from OS
             0 MiB allocation reported by mallinfo(arena+hblkhd)
          3533 MiB available memory on the node where the printing process lives
------------------
     ethr =  4.96E-06,  avg # of iterations =  3.8

     negative rho (up, down):  1.417E-04 0.000E+00

     total cpu time spent up to now is      120.1 secs

     total energy              =     -73.77316680 Ry
     estimated scf accuracy    <       0.00001185 Ry

     iteration #  4     ecut=    60.00 Ry     beta= 0.70
     Davidson diagonalization with overlap

---- Real-time Memory Report at c_bands before calling an iterative solver
           131 MiB given to the printing process from OS
             0 MiB allocation reported by mallinfo(arena+hblkhd)
          3540 MiB available memory on the node where the printing process lives
------------------
     ethr =  7.41E-08,  avg # of iterations =  1.8

     negative rho (up, down):  1.418E-04 0.000E+00

     total cpu time spent up to now is      121.9 secs

     total energy              =     -73.77316871 Ry
     estimated scf accuracy    <       0.00000020 Ry

     iteration #  5     ecut=    60.00 Ry     beta= 0.70
     Davidson diagonalization with overlap

---- Real-time Memory Report at c_bands before calling an iterative solver
           131 MiB given to the printing process from OS
             0 MiB allocation reported by mallinfo(arena+hblkhd)
          3515 MiB available memory on the node where the printing process lives
------------------
     ethr =  1.24E-09,  avg # of iterations =  3.1

     negative rho (up, down):  1.418E-04 0.000E+00

     total cpu time spent up to now is      124.0 secs

     total energy              =     -73.77316884 Ry
     estimated scf accuracy    <       0.00000003 Ry

     iteration #  6     ecut=    60.00 Ry     beta= 0.70
     Davidson diagonalization with overlap

---- Real-time Memory Report at c_bands before calling an iterative solver
           131 MiB given to the printing process from OS
             0 MiB allocation reported by mallinfo(arena+hblkhd)
          3522 MiB available memory on the node where the printing process lives
------------------
     ethr =  1.86E-10,  avg # of iterations =  1.8

     negative rho (up, down):  1.418E-04 0.000E+00

     total cpu time spent up to now is      125.8 secs

     total energy              =     -73.77316884 Ry
     estimated scf accuracy    <          2.8E-09 Ry

     iteration #  7     ecut=    60.00 Ry     beta= 0.70
     Davidson diagonalization with overlap

---- Real-time Memory Report at c_bands before calling an iterative solver
           131 MiB given to the printing process from OS
             0 MiB allocation reported by mallinfo(arena+hblkhd)
          3520 MiB available memory on the node where the printing process lives
------------------
     ethr =  1.77E-11,  avg # of iterations =  2.1

     negative rho (up, down):  1.418E-04 0.000E+00

     total cpu time spent up to now is      127.7 secs

     End of self-consistent calculation

          k = 0.0000 0.0000 0.0000 (  6469 PWs)   bands (ev):

   -23.8837 -23.7624 -12.3245 -11.4770  -7.2861  -7.2861  -7.2793  -7.2793
    -0.8975  -0.5497   0.8484   1.3562   2.6169   3.8831

     occupation numbers 
     1.0000   1.0000   1.0000   1.0000   1.0000   1.0000   1.0000   1.0000
     0.0000   0.0000   0.0000   0.0000   0.0000   0.0000

          k = 0.0000 0.0962 0.0000 (  6478 PWs)   bands (ev):

   -23.7184 -23.5983 -12.1248 -11.2830  -7.9422  -7.9294  -7.6293  -7.6186
    -0.6754  -0.3247   1.0692   1.5807   2.8226   4.2028

     occupation numbers 
     1.0000   1.0000   1.0000   1.0000   1.0000   1.0000   1.0000   1.0000
     0.0000   0.0000   0.0000   0.0000   0.0000   0.0000

          k = 0.0000 0.1925 0.0000 (  6486 PWs)   bands (ev):

   -23.2244 -23.1080 -11.5307 -10.7066  -9.5926  -9.5677  -8.4303  -8.4150
    -0.0094   0.3492   1.7307   2.2530   3.4271   4.1219

     occupation numbers 
     1.0000   1.0000   1.0000   1.0000   1.0000   1.0000   1.0000   1.0000
     0.0000   0.0000   0.0000   0.0000   0.0000   0.0000

          k = 0.0000 0.2887 0.0000 (  6494 PWs)   bands (ev):

   -22.4073 -22.2971 -11.7072 -11.6684 -10.5595  -9.7690  -9.3181  -9.2999
     1.0967   1.4600   2.8037   2.9073   3.1754   3.3883

     occupation numbers 
     1.0000   1.0000   1.0000   1.0000   1.0000   1.0000   1.0000   1.0000
     0.0000   0.0000   0.0000   0.0000   0.0000   0.0000

          k = 0.0000 0.3849 0.0000 (  6484 PWs)   bands (ev):

   -21.2794 -21.1776 -13.9274 -13.8748 -10.0576 -10.0378  -9.2561  -8.5270
     0.5064   0.8943   2.6296   3.0432   3.4917   3.6135

     occupation numbers 
     1.0000   1.0000   1.0000   1.0000   1.0000   1.0000   1.0000   1.0000
     0.0000   0.0000   0.0000   0.0000   0.0000   0.0000

          k = 0.0000 0.4811 0.0000 (  6486 PWs)   bands (ev):

   -19.8708 -19.7804 -16.0440 -15.9795 -10.5343 -10.5136  -7.7625  -7.1715
    -1.6613  -1.2281   3.2249   3.3773   4.6275   5.0517

     occupation numbers 
     1.0000   1.0000   1.0000   1.0000   1.0000   1.0000   1.0000   1.0000
     0.0000   0.0000   0.0000   0.0000   0.0000   0.0000

          k = 0.0000-0.5774 0.0000 (  6508 PWs)   bands (ev):

   -18.5729 -18.5280 -17.5478 -17.5137 -10.6979 -10.6769  -6.7856  -6.4784
    -2.6895  -2.3812   3.1411   3.3035   6.9063   6.9927

     occupation numbers 
     1.0000   1.0000   1.0000   1.0000   1.0000   1.0000   1.0000   1.0000
     0.0000   0.0000   0.0000   0.0000   0.0000   0.0000

          k = 0.0833 0.1443 0.0000 (  6487 PWs)   bands (ev):

   -23.3888 -23.2712 -11.7279 -10.8976  -8.9795  -8.9670  -8.3112  -8.3022
    -0.2311   0.1249   1.5111   2.0297   3.2339   4.4685

     occupation numbers 
     1.0000   1.0000   1.0000   1.0000   1.0000   1.0000   1.0000   1.0000
     0.0000   0.0000   0.0000   0.0000   0.0000   0.0000

          k = 0.0833 0.2406 0.0000 (  6474 PWs)   bands (ev):

   -22.7332 -22.6206 -10.9442 -10.7033 -10.6768 -10.1391  -9.3205  -9.3036
     0.6563   1.0212   2.3921   2.9231   3.8086   3.9206

     occupation numbers 
     1.0000   1.0000   1.0000   1.0000   1.0000   1.0000   1.0000   1.0000
     0.0000   0.0000   0.0000   0.0000   0.0000   0.0000

          k = 0.0833 0.3368 0.0000 (  6487 PWs)   bands (ev):

   -21.7606 -21.6553 -12.7941 -12.7509 -10.2155 -10.1928  -9.8013  -9.0418
     1.5635   1.8705   1.9856   2.3885   3.6980   4.2165

     occupation numbers 
     1.0000   1.0000   1.0000   1.0000   1.0000   1.0000   1.0000   1.0000
     0.0000   0.0000   0.0000   0.0000   0.0000   0.0000

          k = 0.0833 0.4330 0.0000 (  6482 PWs)   bands (ev):

   -20.4895 -20.3938 -14.9343 -14.8767 -10.8556 -10.8303  -8.3740  -7.7015
    -0.6932  -0.2980   3.7061   4.0149   4.1888   4.2375

     occupation numbers 
     1.0000   1.0000   1.0000   1.0000   1.0000   1.0000   1.0000   1.0000
     0.0000   0.0000   0.0000   0.0000   0.0000   0.0000

          k = 0.0833 0.5292 0.0000 (  6501 PWs)   bands (ev):

   -18.9926 -18.9135 -16.8905 -16.8263 -11.1866 -11.1602  -6.9539  -6.5114
    -2.4395  -2.0899   3.8766   4.0477   5.8999   6.3233

     occupation numbers 
     1.0000   1.0000   1.0000   1.0000   1.0000   1.0000   1.0000   1.0000
     0.0000   0.0000   0.0000   0.0000   0.0000   0.0000

          k = 0.1667 0.2887 0.0000 (  6494 PWs)   bands (ev):

   -21.9221 -21.8156 -12.0346 -12.0134 -10.6916 -10.6761  -9.9855  -9.2163
     1.7601   2.0759   2.1356   2.2785   3.4912   4.0394

     occupation numbers 
     1.0000   1.0000   1.0000   1.0000   1.0000   1.0000   1.0000   1.0000
     0.0000   0.0000   0.0000   0.0000   0.0000   0.0000

          k = 0.1667 0.3849 0.0000 (  6484 PWs)   bands (ev):

   -20.8050 -20.7069 -13.7798 -13.7388 -11.7600 -11.7318  -8.6970  -7.9895
     0.0800   0.3500   3.2993   3.6780   4.9892   5.5642

     occupation numbers 
     1.0000   1.0000   1.0000   1.0000   1.0000   1.0000   1.0000   1.0000
     0.0000   0.0000   0.0000   0.0000   0.0000   0.0000

          k = 0.1667 0.4811 0.0000 (  6474 PWs)   bands (ev):

   -19.4164 -19.3297 -15.7097 -15.6514 -12.3417 -12.3063  -7.2040  -6.6233
    -1.8689  -1.5421   5.2270   5.5530   5.8003   5.9699

     occupation numbers 
     1.0000   1.0000   1.0000   1.0000   1.0000   1.0000   1.0000   1.0000
     0.0000   0.0000   0.0000   0.0000   0.0000   0.0000

          k = 0.1667 0.5774 0.0000 (  6478 PWs)   bands (ev):

   -18.1494 -18.1065 -17.1426 -17.1125 -12.5281 -12.4909  -6.1828  -5.8808
    -2.8411  -2.6884   5.6490   5.8840   7.2646   7.4033

     occupation numbers 
     1.0000   1.0000   1.0000   1.0000   1.0000   1.0000   1.0000   1.0000
     0.0000   0.0000   0.0000   0.0000   0.0000   0.0000

          k = 0.2500 0.4330 0.0000 (  6442 PWs)   bands (ev):

   -19.5660 -19.4776 -14.8105 -14.7806 -13.2514 -13.2292  -7.3074  -6.6841
    -1.5388  -1.2809   5.0227   5.3239   6.4067   7.1471

     occupation numbers 
     1.0000   1.0000   1.0000   1.0000   1.0000   1.0000   1.0000   1.0000
     0.0000   0.0000   0.0000   0.0000   0.0000   0.0000

          k = 0.2500 0.5292 0.0000 (  6455 PWs)   bands (ev):

   -18.1271 -18.0550 -16.2502 -16.2016 -13.9698 -13.9319  -5.8339  -5.3893
    -3.0490  -2.8138   6.5342   6.6759   7.0621   7.8540

     occupation numbers 
     1.0000   1.0000   1.0000   1.0000   1.0000   1.0000   1.0000   1.0000
     0.0000   0.0000   0.0000   0.0000   0.0000   0.0000

          k = 0.3333 0.5774 0.0000 (  6450 PWs)   bands (ev):

   -16.9044 -16.8651 -16.8651 -16.8293 -14.8587 -14.8587  -4.5283  -4.2467
    -4.2467  -3.9508   6.3399   6.3399   8.3855   8.7311

     occupation numbers 
     1.0000   1.0000   1.0000   1.0000   1.0000   1.0000   0.9983   0.5003
     0.5003   0.0011   0.0000   0.0000   0.0000   0.0000

     the Fermi energy is    -4.2466 ev

!    total energy              =     -73.77316884 Ry
     total all-electron energy =      -304.829558 Ry
     estimated scf accuracy    <          6.8E-11 Ry
     smearing contrib. (-TS)   =      -0.00015849 Ry
     internal energy E=F+TS    =     -73.77301035 Ry

     The total energy is F=E-TS. E is the sum of the following terms:
     one-electron contribution =   -1242.55408142 Ry
     hartree contribution      =     623.03913258 Ry
     xc contribution           =     -18.57539704 Ry
     ewald contribution        =     588.98622204 Ry
     one-center paw contrib.   =     -24.66888651 Ry
      -> PAW hartree energy AE =       9.53267393 Ry
      -> PAW hartree energy PS =      -9.52399260 Ry
      -> PAW xc energy AE      =     -10.68434589 Ry
      -> PAW xc energy PS      =       4.50846705 Ry
      -> total E_H with PAW    =     623.04781391 Ry
      -> total E_XC with PAW   =     -24.75127589 Ry

     convergence has been achieved in   7 iterations

     negative rho (up, down):  1.418E-04 0.000E+00

     Forces acting on atoms (cartesian axes, Ry/au):

     atom    1 type  1   force =     0.00000000    0.00000000    0.00013058
     atom    2 type  1   force =     0.00000000    0.00000000   -0.00322105
     atom    3 type  1   force =     0.00000000    0.00000000    0.00322105
     atom    4 type  1   force =     0.00000000   -0.00000000   -0.00013058
     The non-local contrib.  to forces
     atom    1 type  1   force =     0.00000000   -0.00000000    0.00175624
     atom    2 type  1   force =     0.00000000   -0.00000000   -0.00457286
     atom    3 type  1   force =     0.00000000   -0.00000000    0.00457286
     atom    4 type  1   force =     0.00000000    0.00000000   -0.00175624
     The ionic contribution  to forces
     atom    1 type  1   force =     0.00000000   -0.00000000  -21.52868572
     atom    2 type  1   force =    -0.00000000    0.00000000  -21.44267664
     atom    3 type  1   force =    -0.00000000   -0.00000000   21.44267664
     atom    4 type  1   force =     0.00000000    0.00000000   21.52868572
     The local contribution  to forces
     atom    1 type  1   force =     0.00000000    0.00000000   21.52712051
     atom    2 type  1   force =    -0.00000000    0.00000000   21.44404456
     atom    3 type  1   force =    -0.00000000    0.00000000  -21.44404456
     atom    4 type  1   force =     0.00000000    0.00000000  -21.52712051
     The core correction contribution to forces
     atom    1 type  1   force =     0.00000000   -0.00000000   -0.00007571
     atom    2 type  1   force =     0.00000000   -0.00000000   -0.00003137
     atom    3 type  1   force =     0.00000000   -0.00000000    0.00003137
     atom    4 type  1   force =    -0.00000000   -0.00000000    0.00007571
     The Hubbard contrib.    to forces
     atom    1 type  1   force =     0.00000000    0.00000000    0.00000000
     atom    2 type  1   force =     0.00000000    0.00000000    0.00000000
     atom    3 type  1   force =     0.00000000    0.00000000    0.00000000
     atom    4 type  1   force =     0.00000000    0.00000000    0.00000000
     The SCF correction term to forces
     atom    1 type  1   force =     0.00000000    0.00000000    0.00001527
     atom    2 type  1   force =    -0.00000000   -0.00000000    0.00001525
     atom    3 type  1   force =    -0.00000000   -0.00000000   -0.00001525
     atom    4 type  1   force =     0.00000000    0.00000000   -0.00001527

     Total force =     0.004559     Total SCF correction =     0.000031
     Energy error            =      2.1E-04 Ry
     Gradient error          =      3.2E-03 Ry/Bohr

     number of scf cycles    =   9
     number of bfgs steps    =   8

     energy             old  =     -73.7729616415 Ry
     energy             new  =     -73.7731688414 Ry

     CASE: energy            _new < energy            _old

     new trust radius        =       0.0485458224 bohr
     new conv_thr            =       0.0000000002 Ry


ATOMIC_POSITIONS (angstrom)
C                0.0000000000        0.0000000000        9.9245721938
C                1.2300000000        0.7101408311        9.9279741671
C                1.2300000000        0.7101408311       13.4220258329
C                0.0000000000        1.4202816622       13.4254278062



     Writing config-only to output data dir /home/ubuntu/projects/Graphene-Band-Structure-Quantum-Espresso/outputs/bilayer/field_0Ry/coupled/data/coupled.save/ :
     XML data file
     NEW-OLD atomic charge density approx. for the potential

     Check: negative core charge=   -0.000003

     negative rho (up, down):  1.477E-04 0.000E+00

     total cpu time spent up to now is      128.9 secs

     Self-consistent Calculation

     iteration #  1     ecut=    60.00 Ry     beta= 0.70
     Davidson diagonalization with overlap

---- Real-time Memory Report at c_bands before calling an iterative solver
           131 MiB given to the printing process from OS
             0 MiB allocation reported by mallinfo(arena+hblkhd)
          3517 MiB available memory on the node where the printing process lives
------------------
     ethr =  1.00E-06,  avg # of iterations =  5.4

     negative rho (up, down):  1.496E-04 0.000E+00

     total cpu time spent up to now is      131.6 secs

     total energy              =     -73.77270806 Ry
     estimated scf accuracy    <       0.00198416 Ry

     iteration #  2     ecut=    60.00 Ry     beta= 0.70
     Davidson diagonalization with overlap

---- Real-time Memory Report at c_bands before calling an iterative solver
           131 MiB given to the printing process from OS
             0 MiB allocation reported by mallinfo(arena+hblkhd)
          3541 MiB available memory on the node where the printing process lives
------------------
     ethr =  1.24E-05,  avg # of iterations =  4.2

     negative rho (up, down):  1.510E-04 0.000E+00

     total cpu time spent up to now is      133.9 secs

     total energy              =     -73.77300325 Ry
     estimated scf accuracy    <       0.00183925 Ry

     iteration #  3     ecut=    60.00 Ry     beta= 0.70
     Davidson diagonalization with overlap

---- Real-time Memory Report at c_bands before calling an iterative solver
           131 MiB given to the printing process from OS
             0 MiB allocation reported by mallinfo(arena+hblkhd)
          3534 MiB available memory on the node where the printing process lives
------------------
     ethr =  1.15E-05,  avg # of iterations =  3.6

     negative rho (up, down):  1.507E-04 0.000E+00

     total cpu time spent up to now is      135.9 secs

     total energy              =     -73.77342896 Ry
     estimated scf accuracy    <       0.00002676 Ry

     iteration #  4     ecut=    60.00 Ry     beta= 0.70
     Davidson diagonalization with overlap

---- Real-time Memory Report at c_bands before calling an iterative solver
           131 MiB given to the printing process from OS
             0 MiB allocation reported by mallinfo(arena+hblkhd)
          3539 MiB available memory on the node where the printing process lives
------------------
     ethr =  1.67E-07,  avg # of iterations =  2.4

     negative rho (up, down):  1.508E-04 0.000E+00

     total cpu time spent up to now is      137.7 secs

     total energy              =     -73.77343336 Ry
     estimated scf accuracy    <       0.00000039 Ry

     iteration #  5     ecut=    60.00 Ry     beta= 0.70
     Davidson diagonalization with overlap

---- Real-time Memory Report at c_bands before calling an iterative solver
           131 MiB given to the printing process from OS
             0 MiB allocation reported by mallinfo(arena+hblkhd)
          3530 MiB available memory on the node where the printing process lives
------------------
     ethr =  2.41E-09,  avg # of iterations =  2.6

     negative rho (up, down):  1.507E-04 0.000E+00

     total cpu time spent up to now is      139.7 secs

     total energy              =     -73.77343355 Ry
     estimated scf accuracy    <       0.00000003 Ry

     iteration #  6     ecut=    60.00 Ry     beta= 0.70
     Davidson diagonalization with overlap

---- Real-time Memory Report at c_bands before calling an iterative solver
           131 MiB given to the printing process from OS
             0 MiB allocation reported by mallinfo(arena+hblkhd)
          3536 MiB available memory on the node where the printing process lives
------------------
     ethr =  2.11E-10,  avg # of iterations =  1.9

     negative rho (up, down):  1.507E-04 0.000E+00

     total cpu time spent up to now is      141.4 secs

     total energy              =     -73.77343356 Ry
     estimated scf accuracy    <          5.5E-09 Ry

     iteration #  7     ecut=    60.00 Ry     beta= 0.70
     Davidson diagonalization with overlap

---- Real-time Memory Report at c_bands before calling an iterative solver
           131 MiB given to the printing process from OS
             0 MiB allocation reported by mallinfo(arena+hblkhd)
          3511 MiB available memory on the node where the printing process lives
------------------
     ethr =  3.42E-11,  avg # of iterations =  2.0

     negative rho (up, down):  1.507E-04 0.000E+00

     total cpu time spent up to now is      143.1 secs

     End of self-consistent calculation

          k = 0.0000 0.0000 0.0000 (  6469 PWs)   bands (ev):

   -23.8745 -23.7668 -12.2920 -11.5074  -7.2838  -7.2838  -7.2779  -7.2779
    -0.9090  -0.5550   0.8317   1.3747   2.5517   3.7512

     occupation numbers 
     1.0000   1.0000   1.0000   1.0000   1.0000   1.0000   1.0000   1.0000
     0.0000   0.0000   0.0000   0.0000   0.0000   0.0000

          k = 0.0000 0.0962 0.0000 (  6478 PWs)   bands (ev):

   -23.7093 -23.6027 -12.0924 -11.3132  -7.9394  -7.9284  -7.6266  -7.6175
    -0.6870  -0.3300   1.0520   1.5992   2.7588   4.2046

     occupation numbers 
     1.0000   1.0000   1.0000   1.0000   1.0000   1.0000   1.0000   1.0000
     0.0000   0.0000   0.0000   0.0000   0.0000   0.0000

          k = 0.0000 0.1925 0.0000 (  6486 PWs)   bands (ev):

   -23.2154 -23.1123 -11.4987 -10.7362  -9.5890  -9.5674  -8.4274  -8.4142
    -0.0213   0.3438   1.7122   2.2713   3.3690   4.1276

     occupation numbers 
     1.0000   1.0000   1.0000   1.0000   1.0000   1.0000   1.0000   1.0000
     0.0000   0.0000   0.0000   0.0000   0.0000   0.0000

          k = 0.0000 0.2887 0.0000 (  6494 PWs)   bands (ev):

   -22.3987 -22.3011 -11.7027 -11.6689 -10.5282  -9.7974  -9.3150  -9.2993
     1.0844   1.4549   2.7794   2.9236   3.1699   3.4049

     occupation numbers 
     1.0000   1.0000   1.0000   1.0000   1.0000   1.0000   1.0000   1.0000
     0.0000   0.0000   0.0000   0.0000   0.0000   0.0000

          k = 0.0000 0.3849 0.0000 (  6484 PWs)   bands (ev):

   -21.2712 -21.1812 -13.9221 -13.8760 -10.0544 -10.0372  -9.2264  -8.5531
     0.5258   0.8804   2.6164   3.0381   3.5004   3.6087

     occupation numbers 
     1.0000   1.0000   1.0000   1.0000   1.0000   1.0000   1.0000   1.0000
     0.0000   0.0000   0.0000   0.0000   0.0000   0.0000

          k = 0.0000 0.4811 0.0000 (  6486 PWs)   bands (ev):

   -19.8633 -19.7835 -16.0379 -15.9812 -10.5310 -10.5131  -7.7365  -7.1918
    -1.6426  -1.2432   3.2355   3.3712   4.6138   5.0463

     occupation numbers 
     1.0000   1.0000   1.0000   1.0000   1.0000   1.0000   1.0000   1.0000
     0.0000   0.0000   0.0000   0.0000   0.0000   0.0000

          k = 0.0000-0.5774 0.0000 (  6508 PWs)   bands (ev):

   -18.5677 -18.5282 -17.5439 -17.5138 -10.6946 -10.6765  -6.7675  -6.4860
    -2.6804  -2.3915   3.1522   3.2972   6.8903   6.9775

     occupation numbers 
     1.0000   1.0000   1.0000   1.0000   1.0000   1.0000   1.0000   1.0000
     0.0000   0.0000   0.0000   0.0000   0.0000   0.0000

          k = 0.0833 0.1443 0.0000 (  6487 PWs)   bands (ev):

   -23.3798 -23.2755 -11.6957 -10.9274  -8.9767  -8.9659  -8.3087  -8.3010
    -0.2429   0.1196   1.4930   2.0481   3.1724   4.4735

     occupation numbers 
     1.0000   1.0000   1.0000   1.0000   1.0000   1.0000   1.0000   1.0000
     0.0000   0.0000   0.0000   0.0000   0.0000   0.0000

          k = 0.0833 0.2406 0.0000 (  6474 PWs)   bands (ev):

   -22.7245 -22.6247 -10.9126 -10.6996 -10.6766 -10.1680  -9.3174  -9.3028
     0.6441   1.0158   2.3719   2.9413   3.8213   3.8924

     occupation numbers 
     1.0000   1.0000   1.0000   1.0000   1.0000   1.0000   1.0000   1.0000
     0.0000   0.0000   0.0000   0.0000   0.0000   0.0000

          k = 0.0833 0.3368 0.0000 (  6487 PWs)   bands (ev):

   -21.7522 -21.6590 -12.7894 -12.7516 -10.2120 -10.1924  -9.7708  -9.0690
     1.5799   1.8602   1.9724   2.3836   3.6763   4.2304

     occupation numbers 
     1.0000   1.0000   1.0000   1.0000   1.0000   1.0000   1.0000   1.0000
     0.0000   0.0000   0.0000   0.0000   0.0000   0.0000

          k = 0.0833 0.4330 0.0000 (  6482 PWs)   bands (ev):

   -20.4817 -20.3971 -14.9287 -14.8782 -10.8520 -10.8300  -8.3458  -7.7253
    -0.6742  -0.3116   3.6932   4.0205   4.1866   4.2331

     occupation numbers 
     1.0000   1.0000   1.0000   1.0000   1.0000   1.0000   1.0000   1.0000
     0.0000   0.0000   0.0000   0.0000   0.0000   0.0000

          k = 0.0833 0.5292 0.0000 (  6501 PWs)   bands (ev):

   -18.9857 -18.9160 -16.8845 -16.8280 -11.1829 -11.1600  -6.9321  -6.5250
    -2.4262  -2.1018   3.8878   4.0414   5.8853   6.3188

     occupation numbers 
     1.0000   1.0000   1.0000   1.0000   1.0000   1.0000   1.0000   1.0000
     0.0000   0.0000   0.0000   0.0000   0.0000   0.0000

          k = 0.1667 0.2887 0.0000 (  6494 PWs)   bands (ev):

   -21.9137 -21.8193 -12.0312 -12.0127 -10.6886 -10.6752  -9.9548  -9.2439
     1.7477   2.0890   2.1306   2.2725   3.4678   4.0574

     occupation numbers 
     1.0000   1.0000   1.0000   1.0000   1.0000   1.0000   1.0000   1.0000
     0.0000   0.0000   0.0000   0.0000   0.0000   0.0000

          k = 0.1667 0.3849 0.0000 (  6484 PWs)   bands (ev):

   -20.7971 -20.7103 -13.7752 -13.7393 -11.7562 -11.7316  -8.6678  -8.0148
     0.0954   0.3417   3.2860   3.6733   4.9587   5.5816

     occupation numbers 
     1.0000   1.0000   1.0000   1.0000   1.0000   1.0000   1.0000   1.0000
     0.0000   0.0000   0.0000   0.0000   0.0000   0.0000

          k = 0.1667 0.4811 0.0000 (  6474 PWs)   bands (ev):

   -19.4091 -19.3326 -15.7041 -15.6529 -12.3374 -12.3065  -7.1783  -6.6433
    -1.8529  -1.5527   5.2128   5.5541   5.8077   5.9645

     occupation numbers 
     1.0000   1.0000   1.0000   1.0000   1.0000   1.0000   1.0000   1.0000
     0.0000   0.0000   0.0000   0.0000   0.0000   0.0000

          k = 0.1667 0.5774 0.0000 (  6478 PWs)   bands (ev):

   -18.1444 -18.1067 -17.1389 -17.1123 -12.5237 -12.4913  -6.1647  -5.8879
    -2.8370  -2.6922   5.6623   5.8777   7.2607   7.3745

     occupation numbers 
     1.0000   1.0000   1.0000   1.0000   1.0000   1.0000   1.0000   1.0000
     0.0000   0.0000   0.0000   0.0000   0.0000   0.0000

          k = 0.2500 0.4330 0.0000 (  6442 PWs)   bands (ev):

   -19.5586 -19.4806 -14.8065 -14.7804 -13.2481 -13.2286  -7.2806  -6.7061
    -1.5237  -1.2887   5.0085   5.3221   6.3555   7.1660

     occupation numbers 
     1.0000   1.0000   1.0000   1.0000   1.0000   1.0000   1.0000   1.0000
     0.0000   0.0000   0.0000   0.0000   0.0000   0.0000

          k = 0.2500 0.5292 0.0000 (  6455 PWs)   bands (ev):

   -18.1206 -18.0571 -16.2451 -16.2024 -13.9654 -13.9322  -5.8119  -5.4031
    -3.0366  -2.8216   6.5448   6.6556   7.0522   7.8629

     occupation numbers 
     1.0000   1.0000   1.0000   1.0000   1.0000   1.0000   1.0000   1.0000
     0.0000   0.0000   0.0000   0.0000   0.0000   0.0000

          k = 0.3333 0.5774 0.0000 (  6450 PWs)   bands (ev):

   -16.8976 -16.8630 -16.8630 -16.8316 -14.8567 -14.8567  -4.5007  -4.2428
    -4.2428  -3.9729   6.3393   6.3393   8.3807   8.7251

     occupation numbers 
     1.0000   1.0000   1.0000   1.0000   1.0000   1.0000   0.9963   0.5006
     0.5006   0.0025   0.0000   0.0000   0.0000   0.0000

     the Fermi energy is    -4.2426 ev

!    total energy              =     -73.77343356 Ry
     total all-electron energy =      -304.829822 Ry
     estimated scf accuracy    <          1.1E-10 Ry
     smearing contrib. (-TS)   =      -0.00016040 Ry
     internal energy E=F+TS    =     -73.77327316 Ry

     The total energy is F=E-TS. E is the sum of the following terms:
     one-electron contribution =   -1234.24299365 Ry
     hartree contribution      =     618.88445348 Ry
     xc contribution           =     -18.57463941 Ry
     ewald contribution        =     584.82878228 Ry
     one-center paw contrib.   =     -24.66887586 Ry
      -> PAW hartree energy AE =       9.53181285 Ry
      -> PAW hartree energy PS =      -9.52313171 Ry
      -> PAW xc energy AE      =     -10.68414635 Ry
      -> PAW xc energy PS      =       4.50826682 Ry
      -> total E_H with PAW    =     618.89313462 Ry
      -> total E_XC with PAW   =     -24.75051893 Ry

     convergence has been achieved in   7 iterations

     negative rho (up, down):  1.507E-04 0.000E+00

     Forces acting on atoms (cartesian axes, Ry/au):

     atom    1 type  1   force =     0.00000000   -0.00000000    0.00066829
     atom    2 type  1   force =     0.00000000   -0.00000000   -0.00302341
     atom    3 type  1   force =     0.00000000    0.00000000    0.00302341
     atom    4 type  1   force =     0.00000000    0.00000000   -0.00066829
     The non-local contrib.  to forces
     atom    1 type  1   force =     0.00000000   -0.00000000    0.00233046
     atom    2 type  1   force =     0.00000000    0.00000000   -0.00460578
     atom    3 type  1   force =     0.00000000    0.00000000    0.00460578
     atom    4 type  1   force =     0.00000000    0.00000000   -0.00233046
     The ionic contribution  to forces
     atom    1 type  1   force =     0.00000000   -0.00000000  -21.53156487
     atom    2 type  1   force =    -0.00000000    0.00000000  -21.43996698
     atom    3 type  1   force =    -0.00000000   -0.00000000   21.43996698
     atom    4 type  1   force =     0.00000000    0.00000000   21.53156487
     The local contribution  to forces
     atom    1 type  1   force =    -0.00000000    0.00000000   21.52989037
     atom    2 type  1   force =    -0.00000000    0.00000000   21.44150336
     atom    3 type  1   force =    -0.00000000    0.00000000  -21.44150336
     atom    4 type  1   force =    -0.00000000    0.00000000  -21.52989037
     The core correction contribution to forces
     atom    1 type  1   force =     0.00000000   -0.00000000    0.00003073
     atom    2 type  1   force =     0.00000000   -0.00000000    0.00006425
     atom    3 type  1   force =     0.00000000   -0.00000000   -0.00006425
     atom    4 type  1   force =     0.00000000   -0.00000000   -0.00003073
     The Hubbard contrib.    to forces
     atom    1 type  1   force =     0.00000000    0.00000000    0.00000000
     atom    2 type  1   force =     0.00000000    0.00000000    0.00000000
     atom    3 type  1   force =     0.00000000    0.00000000    0.00000000
     atom    4 type  1   force =     0.00000000    0.00000000    0.00000000
     The SCF correction term to forces
     atom    1 type  1   force =     0.00000000    0.00000000   -0.00001841
     atom    2 type  1   force =     0.00000000    0.00000000   -0.00001826
     atom    3 type  1   force =     0.00000000    0.00000000    0.00001826
     atom    4 type  1   force =    -0.00000000   -0.00000000    0.00001841

     Total force =     0.004379     Total SCF correction =     0.000037
     Energy error            =      2.6E-04 Ry
     Gradient error          =      3.0E-03 Ry/Bohr

     number of scf cycles    =  10
     number of bfgs steps    =   9

     energy             old  =     -73.7731688414 Ry
     energy             new  =     -73.7734335590 Ry

     CASE: energy            _new < energy            _old

     new trust radius        =       0.0728187336 bohr
     new conv_thr            =       0.0000000003 Ry


ATOMIC_POSITIONS (angstrom)
C                0.0000000000       -0.0000000000        9.8862775863
C                1.2300000000        0.7101408311        9.8894401528
C                1.2300000000        0.7101408311       13.4605598472
C                0.0000000000        1.4202816622       13.4637224137



     Writing config-only to output data dir /home/ubuntu/projects/Graphene-Band-Structure-Quantum-Espresso/outputs/bilayer/field_0Ry/coupled/data/coupled.save/ :
     XML data file
     NEW-OLD atomic charge density approx. for the potential

     Check: negative core charge=   -0.000003

     negative rho (up, down):  1.603E-04 0.000E+00

     total cpu time spent up to now is      144.2 secs

     Self-consistent Calculation

     iteration #  1     ecut=    60.00 Ry     beta= 0.70
     Davidson diagonalization with overlap

---- Real-time Memory Report at c_bands before calling an iterative solver
           131 MiB given to the printing process from OS
             0 MiB allocation reported by mallinfo(arena+hblkhd)
          3520 MiB available memory on the node where the printing process lives
------------------
     c_bands:  1 eigenvalues not converged
     ethr =  1.00E-06,  avg # of iterations =  7.3

     negative rho (up, down):  1.623E-04 0.000E+00

     total cpu time spent up to now is      148.0 secs

     total energy              =     -73.77209504 Ry
     estimated scf accuracy    <       0.00446005 Ry

     iteration #  2     ecut=    60.00 Ry     beta= 0.70
     Davidson diagonalization with overlap

---- Real-time Memory Report at c_bands before calling an iterative solver
           131 MiB given to the printing process from OS
             0 MiB allocation reported by mallinfo(arena+hblkhd)
          3566 MiB available memory on the node where the printing process lives
------------------
     ethr =  2.79E-05,  avg # of iterations =  4.0

     negative rho (up, down):  1.640E-04 0.000E+00

     total cpu time spent up to now is      150.3 secs

     total energy              =     -73.77275306 Ry
     estimated scf accuracy    <       0.00414848 Ry

     iteration #  3     ecut=    60.00 Ry     beta= 0.70
     Davidson diagonalization with overlap

---- Real-time Memory Report at c_bands before calling an iterative solver
           131 MiB given to the printing process from OS
             0 MiB allocation reported by mallinfo(arena+hblkhd)
          3511 MiB available memory on the node where the printing process lives
------------------
     ethr =  2.59E-05,  avg # of iterations =  3.6

     negative rho (up, down):  1.638E-04 0.000E+00

     total cpu time spent up to now is      152.2 secs

     total energy              =     -73.77371429 Ry
     estimated scf accuracy    <       0.00006082 Ry

     iteration #  4     ecut=    60.00 Ry     beta= 0.70
     Davidson diagonalization with overlap

---- Real-time Memory Report at c_bands before calling an iterative solver
           131 MiB given to the printing process from OS
             0 MiB allocation reported by mallinfo(arena+hblkhd)
          3534 MiB available memory on the node where the printing process lives
------------------
     ethr =  3.80E-07,  avg # of iterations =  4.4

     negative rho (up, down):  1.639E-04 0.000E+00

     total cpu time spent up to now is      154.2 secs

     total energy              =     -73.77372435 Ry
     estimated scf accuracy    <       0.00000086 Ry

     iteration #  5     ecut=    60.00 Ry     beta= 0.70
     Davidson diagonalization with overlap

---- Real-time Memory Report at c_bands before calling an iterative solver
           131 MiB given to the printing process from OS
             0 MiB allocation reported by mallinfo(arena+hblkhd)
          3517 MiB available memory on the node where the printing process lives
------------------
     ethr =  5.37E-09,  avg # of iterations =  2.6

     negative rho (up, down):  1.639E-04 0.000E+00

     total cpu time spent up to now is      156.1 secs

     total energy              =     -73.77372477 Ry
     estimated scf accuracy    <       0.00000007 Ry

     iteration #  6     ecut=    60.00 Ry     beta= 0.70
     Davidson diagonalization with overlap

---- Real-time Memory Report at c_bands before calling an iterative solver
           131 MiB given to the printing process from OS
             0 MiB allocation reported by mallinfo(arena+hblkhd)
          3530 MiB available memory on the node where the printing process lives
------------------
     ethr =  4.64E-10,  avg # of iterations =  1.9

     negative rho (up, down):  1.639E-04 0.000E+00

     total cpu time spent up to now is      157.9 secs

     total energy              =     -73.77372478 Ry
     estimated scf accuracy    <       0.00000001 Ry

     iteration #  7     ecut=    60.00 Ry     beta= 0.70
     Davidson diagonalization with overlap

---- Real-time Memory Report at c_bands before calling an iterative solver
           131 MiB given to the printing process from OS
             0 MiB allocation reported by mallinfo(arena+hblkhd)
          3521 MiB available memory on the node where the printing process lives
------------------
     ethr =  7.86E-11,  avg # of iterations =  2.0

     negative rho (up, down):  1.639E-04 0.000E+00

     total cpu time spent up to now is      159.7 secs

     total energy              =     -73.77372478 Ry
     estimated scf accuracy    <          2.9E-10 Ry

     iteration #  8     ecut=    60.00 Ry     beta= 0.70
     Davidson diagonalization with overlap

---- Real-time Memory Report at c_bands before calling an iterative solver
           131 MiB given to the printing process from OS
             0 MiB allocation reported by mallinfo(arena+hblkhd)
          3520 MiB available memory on the node where the printing process lives
------------------
     ethr =  1.80E-12,  avg # of iterations =  3.7

     negative rho (up, down):  1.639E-04 0.000E+00

     total cpu time spent up to now is      161.9 secs

     End of self-consistent calculation

          k = 0.0000 0.0000 0.0000 (  6469 PWs)   bands (ev):

   -23.8626 -23.7726 -12.2473 -11.5490  -7.2808  -7.2808  -7.2762  -7.2762
    -0.9245  -0.5607   0.8027   1.4046   2.4639   3.5523

     occupation numbers 
     1.0000   1.0000   1.0000   1.0000   1.0000   1.0000   1.0000   1.0000
     0.0000   0.0000   0.0000   0.0000   0.0000   0.0000

          k = 0.0000 0.0962 0.0000 (  6478 PWs)   bands (ev):

   -23.6975 -23.6084 -12.0479 -11.3545  -7.9359  -7.9271  -7.6234  -7.6161
    -0.7027  -0.3357   1.0225   1.6290   2.6729   3.7814

     occupation numbers 
     1.0000   1.0000   1.0000   1.0000   1.0000   1.0000   1.0000   1.0000
     0.0000   0.0000   0.0000   0.0000   0.0000   0.0000

          k = 0.0000 0.1925 0.0000 (  6486 PWs)   bands (ev):

   -23.2038 -23.1177 -11.4547 -10.7766  -9.5845  -9.5670  -8.4237  -8.4132
    -0.0374   0.3381   1.6806   2.3006   3.2909   4.1348

     occupation numbers 
     1.0000   1.0000   1.0000   1.0000   1.0000   1.0000   1.0000   1.0000
     0.0000   0.0000   0.0000   0.0000   0.0000   0.0000

          k = 0.0000 0.2887 0.0000 (  6494 PWs)   bands (ev):

   -22.3876 -22.3062 -11.6970 -11.6695 -10.4854  -9.8361  -9.3110  -9.2985
     1.0677   1.4495   2.7395   2.9458   3.1620   3.4308

     occupation numbers 
     1.0000   1.0000   1.0000   1.0000   1.0000   1.0000   1.0000   1.0000
     0.0000   0.0000   0.0000   0.0000   0.0000   0.0000

          k = 0.0000 0.3849 0.0000 (  6484 PWs)   bands (ev):

   -21.2607 -21.1858 -13.9153 -13.8775 -10.0503 -10.0366  -9.1857  -8.5886
     0.5518   0.8617   2.5983   3.0325   3.5119   3.6026

     occupation numbers 
     1.0000   1.0000   1.0000   1.0000   1.0000   1.0000   1.0000   1.0000
     0.0000   0.0000   0.0000   0.0000   0.0000   0.0000

          k = 0.0000 0.4811 0.0000 (  6486 PWs)   bands (ev):

   -19.8536 -19.7874 -16.0302 -15.9835 -10.5268 -10.5125  -7.7012  -7.2195
    -1.6172  -1.2636   3.2495   3.3633   4.5948   5.0404

     occupation numbers 
     1.0000   1.0000   1.0000   1.0000   1.0000   1.0000   1.0000   1.0000
     0.0000   0.0000   0.0000   0.0000   0.0000   0.0000

          k = 0.0000-0.5774 0.0000 (  6508 PWs)   bands (ev):

   -18.5612 -18.5285 -17.5388 -17.5138 -10.6904 -10.6759  -6.7432  -6.4969
    -2.6674  -2.4052   3.1667   3.2891   6.8676   6.9569

     occupation numbers 
     1.0000   1.0000   1.0000   1.0000   1.0000   1.0000   1.0000   1.0000
     0.0000   0.0000   0.0000   0.0000   0.0000   0.0000

          k = 0.0833 0.1443 0.0000 (  6487 PWs)   bands (ev):

   -23.3681 -23.2810 -11.6515 -10.9682  -8.9732  -8.9646  -8.3056  -8.2995
    -0.2588   0.1139   1.4622   2.0776   3.0902   4.2394

     occupation numbers 
     1.0000   1.0000   1.0000   1.0000   1.0000   1.0000   1.0000   1.0000
     0.0000   0.0000   0.0000   0.0000   0.0000   0.0000

          k = 0.0833 0.2406 0.0000 (  6474 PWs)   bands (ev):

   -22.7132 -22.6299 -10.8692 -10.6949 -10.6762 -10.2075  -9.3136  -9.3019
     0.6276   1.0101   2.3380   2.9703   3.8310   3.8540

     occupation numbers 
     1.0000   1.0000   1.0000   1.0000   1.0000   1.0000   1.0000   1.0000
     0.0000   0.0000   0.0000   0.0000   0.0000   0.0000

          k = 0.0833 0.3368 0.0000 (  6487 PWs)   bands (ev):

   -21.7415 -21.6638 -12.7834 -12.7525 -10.2077 -10.1919  -9.7290  -9.1062
     1.6022   1.8462   1.9541   2.3781   3.6406   4.2513

     occupation numbers 
     1.0000   1.0000   1.0000   1.0000   1.0000   1.0000   1.0000   1.0000
     0.0000   0.0000   0.0000   0.0000   0.0000   0.0000

          k = 0.0833 0.4330 0.0000 (  6482 PWs)   bands (ev):

   -20.4716 -20.4013 -14.9215 -14.8800 -10.8474 -10.8297  -8.3073  -7.7579
    -0.6486  -0.3299   3.6752   4.0275   4.1852   4.2279

     occupation numbers 
     1.0000   1.0000   1.0000   1.0000   1.0000   1.0000   1.0000   1.0000
     0.0000   0.0000   0.0000   0.0000   0.0000   0.0000

          k = 0.0833 0.5292 0.0000 (  6501 PWs)   bands (ev):

   -18.9768 -18.9190 -16.8768 -16.8302 -11.1782 -11.1598  -6.9025  -6.5438
    -2.4078  -2.1177   3.9026   4.0332   5.8648   6.3140

     occupation numbers 
     1.0000   1.0000   1.0000   1.0000   1.0000   1.0000   1.0000   1.0000
     0.0000   0.0000   0.0000   0.0000   0.0000   0.0000

          k = 0.1667 0.2887 0.0000 (  6494 PWs)   bands (ev):

   -21.9028 -21.8242 -12.0269 -12.0119 -10.6849 -10.6741  -9.9126  -9.2816
     1.7311   2.1062   2.1251   2.2644   3.4289   4.0861

     occupation numbers 
     1.0000   1.0000   1.0000   1.0000   1.0000   1.0000   1.0000   1.0000
     0.0000   0.0000   0.0000   0.0000   0.0000   0.0000

          k = 0.1667 0.3849 0.0000 (  6484 PWs)   bands (ev):

   -20.7868 -20.7147 -13.7693 -13.7399 -11.7514 -11.7314  -8.6280  -8.0493
     0.1162   0.3304   3.2676   3.6683   4.9097   5.6090

     occupation numbers 
     1.0000   1.0000   1.0000   1.0000   1.0000   1.0000   1.0000   1.0000
     0.0000   0.0000   0.0000   0.0000   0.0000   0.0000

          k = 0.1667 0.4811 0.0000 (  6474 PWs)   bands (ev):

   -19.3997 -19.3362 -15.6969 -15.6547 -12.3320 -12.3069  -7.1434  -6.6707
    -1.8312  -1.5671   5.1929   5.5560   5.8186   5.9574

     occupation numbers 
     1.0000   1.0000   1.0000   1.0000   1.0000   1.0000   1.0000   1.0000
     0.0000   0.0000   0.0000   0.0000   0.0000   0.0000

          k = 0.1667 0.5774 0.0000 (  6478 PWs)   bands (ev):

   -18.1380 -18.1069 -17.1341 -17.1121 -12.5182 -12.4918  -6.1404  -5.8982
    -2.8311  -2.6972   5.6802   5.8692   7.2526   7.3363

     occupation numbers 
     1.0000   1.0000   1.0000   1.0000   1.0000   1.0000   1.0000   1.0000
     0.0000   0.0000   0.0000   0.0000   0.0000   0.0000

          k = 0.2500 0.4330 0.0000 (  6442 PWs)   bands (ev):

   -19.5491 -19.4843 -14.8014 -14.7800 -13.2438 -13.2278  -7.2439  -6.7362
    -1.5034  -1.2993   4.9886   5.3212   6.2835   7.1949

     occupation numbers 
     1.0000   1.0000   1.0000   1.0000   1.0000   1.0000   1.0000   1.0000
     0.0000   0.0000   0.0000   0.0000   0.0000   0.0000

          k = 0.2500 0.5292 0.0000 (  6455 PWs)   bands (ev):

   -18.1122 -18.0598 -16.2386 -16.2034 -13.9598 -13.9326  -5.7821  -5.4223
    -3.0198  -2.8322   6.5605   6.6280   7.0397   7.8759

     occupation numbers 
     1.0000   1.0000   1.0000   1.0000   1.0000   1.0000   1.0000   1.0000
     0.0000   0.0000   0.0000   0.0000   0.0000   0.0000

          k = 0.3333 0.5774 0.0000 (  6450 PWs)   bands (ev):

   -16.8887 -16.8604 -16.8604 -16.8345 -14.8541 -14.8541  -4.4632  -4.2376
    -4.2376  -4.0030   6.3399   6.3399   8.3745   8.7174

     occupation numbers 
     1.0000   1.0000   1.0000   1.0000   1.0000   1.0000   0.9905   0.5010
     0.5010   0.0074   0.0000   0.0000   0.0000   0.0000

     the Fermi energy is    -4.2374 ev

!    total energy              =     -73.77372478 Ry
     total all-electron energy =      -304.830114 Ry
     estimated scf accuracy    <          8.5E-11 Ry
     smearing contrib. (-TS)   =      -0.00016573 Ry
     internal energy E=F+TS    =     -73.77355905 Ry

     The total energy is F=E-TS. E is the sum of the following terms:
     one-electron contribution =   -1221.76954061 Ry
     hartree contribution      =     612.64853375 Ry
     xc contribution           =     -18.57367729 Ry
     ewald contribution        =     578.58998264 Ry
     one-center paw contrib.   =     -24.66885755 Ry
      -> PAW hartree energy AE =       9.53077852 Ry
      -> PAW hartree energy PS =      -9.52209769 Ry
      -> PAW xc energy AE      =     -10.68390511 Ry
      -> PAW xc energy PS      =       4.50802594 Ry
      -> total E_H with PAW    =     612.65721458 Ry
      -> total E_XC with PAW   =     -24.74955646 Ry

     convergence has been achieved in   8 iterations

     negative rho (up, down):  1.639E-04 0.000E+00

     Forces acting on atoms (cartesian axes, Ry/au):

     atom    1 type  1   force =     0.00000000   -0.00000000    0.00083757
     atom    2 type  1   force =     0.00000000    0.00000000   -0.00264081
     atom    3 type  1   force =     0.00000000    0.00000000    0.00264081
     atom    4 type  1   force =     0.00000000    0.00000000   -0.00083757
     The non-local contrib.  to forces
     atom    1 type  1   force =    -0.00000000   -0.00000000    0.00236625
     atom    2 type  1   force =     0.00000000    0.00000000   -0.00417871
     atom    3 type  1   force =    -0.00000000   -0.00000000    0.00417871
     atom    4 type  1   force =     0.00000000    0.00000000   -0.00236625
     The ionic contribution  to forces
     atom    1 type  1   force =     0.00000000   -0.00000000  -21.52865837
     atom    2 type  1   force =    -0.00000000    0.00000000  -21.44308021
     atom    3 type  1   force =    -0.00000000   -0.00000000   21.44308021
     atom    4 type  1   force =     0.00000000    0.00000000   21.52865837
     The local contribution  to forces
     atom    1 type  1   force =     0.00000000    0.00000000   21.52712913
     atom    2 type  1   force =    -0.00000000    0.00000000   21.44456862
     atom    3 type  1   force =    -0.00000000    0.00000000  -21.44456862
     atom    4 type  1   force =     0.00000000    0.00000000  -21.52712913
     The core correction contribution to forces
     atom    1 type  1   force =     0.00000000   -0.00000000   -0.00001900
     atom    2 type  1   force =     0.00000000   -0.00000000    0.00002988
     atom    3 type  1   force =     0.00000000   -0.00000000   -0.00002988
     atom    4 type  1   force =     0.00000000   -0.00000000    0.00001900
     The Hubbard contrib.    to forces
     atom    1 type  1   force =     0.00000000    0.00000000    0.00000000
     atom    2 type  1   force =     0.00000000    0.00000000    0.00000000
     atom    3 type  1   force =     0.00000000    0.00000000    0.00000000
     atom    4 type  1   force =     0.00000000    0.00000000    0.00000000
     The SCF correction term to forces
     atom    1 type  1   force =     0.00000000    0.00000000    0.00001955
     atom    2 type  1   force =     0.00000000    0.00000000    0.00001961
     atom    3 type  1   force =     0.00000000    0.00000000   -0.00001961
     atom    4 type  1   force =    -0.00000000   -0.00000000   -0.00001955

     Total force =     0.003918     Total SCF correction =     0.000039
     Energy error            =      2.9E-04 Ry
     Gradient error          =      2.6E-03 Ry/Bohr

     number of scf cycles    =  11
     number of bfgs steps    =  10

     energy             old  =     -73.7734335590 Ry
     energy             new  =     -73.7737247796 Ry

     CASE: energy            _new < energy            _old

     new trust radius        =       0.1092281003 bohr
     new conv_thr            =       0.0000000003 Ry


ATOMIC_POSITIONS (angstrom)
C                0.0000000000       -0.0000000000        9.8291259292
C                1.2300000000        0.7101408311        9.8316391313
C                1.2300000000        0.7101408311       13.5183608687
C                0.0000000000        1.4202816622       13.5208740708



     Writing config-only to output data dir /home/ubuntu/projects/Graphene-Band-Structure-Quantum-Espresso/outputs/bilayer/field_0Ry/coupled/data/coupled.save/ :
     XML data file
     NEW-OLD atomic charge density approx. for the potential

     Check: negative core charge=   -0.000003

     negative rho (up, down):  1.395E-04 0.000E+00

     total cpu time spent up to now is      163.0 secs

     Self-consistent Calculation

     iteration #  1     ecut=    60.00 Ry     beta= 0.70
     Davidson diagonalization with overlap

---- Real-time Memory Report at c_bands before calling an iterative solver
           131 MiB given to the printing process from OS
             0 MiB allocation reported by mallinfo(arena+hblkhd)
          3529 MiB available memory on the node where the printing process lives
------------------
     ethr =  1.00E-06,  avg # of iterations =  8.3

     negative rho (up, down):  1.415E-04 0.000E+00

     total cpu time spent up to now is      167.3 secs

     total energy              =     -73.77037068 Ry
     estimated scf accuracy    <       0.01000823 Ry

     iteration #  2     ecut=    60.00 Ry     beta= 0.70
     Davidson diagonalization with overlap

---- Real-time Memory Report at c_bands before calling an iterative solver
           131 MiB given to the printing process from OS
             0 MiB allocation reported by mallinfo(arena+hblkhd)
          3560 MiB available memory on the node where the printing process lives
------------------
     ethr =  6.26E-05,  avg # of iterations =  4.5

     negative rho (up, down):  1.443E-04 0.000E+00

     total cpu time spent up to now is      169.3 secs

     total energy              =     -73.77184380 Ry
     estimated scf accuracy    <       0.00939995 Ry

     iteration #  3     ecut=    60.00 Ry     beta= 0.70
     Davidson diagonalization with overlap

---- Real-time Memory Report at c_bands before calling an iterative solver
           131 MiB given to the printing process from OS
             0 MiB allocation reported by mallinfo(arena+hblkhd)
          3529 MiB available memory on the node where the printing process lives
------------------
     ethr =  5.87E-05,  avg # of iterations =  3.7

     negative rho (up, down):  1.432E-04 0.000E+00

     total cpu time spent up to now is      171.2 secs

     total energy              =     -73.77402146 Ry
     estimated scf accuracy    <       0.00013484 Ry

     iteration #  4     ecut=    60.00 Ry     beta= 0.70
     Davidson diagonalization with overlap

---- Real-time Memory Report at c_bands before calling an iterative solver
           131 MiB given to the printing process from OS
             0 MiB allocation reported by mallinfo(arena+hblkhd)
          3529 MiB available memory on the node where the printing process lives
------------------
     ethr =  8.43E-07,  avg # of iterations =  5.6

     negative rho (up, down):  1.436E-04 0.000E+00

     total cpu time spent up to now is      173.2 secs

     total energy              =     -73.77404361 Ry
     estimated scf accuracy    <       0.00000203 Ry

     iteration #  5     ecut=    60.00 Ry     beta= 0.70
     Davidson diagonalization with overlap

---- Real-time Memory Report at c_bands before calling an iterative solver
           131 MiB given to the printing process from OS
             0 MiB allocation reported by mallinfo(arena+hblkhd)
          3526 MiB available memory on the node where the printing process lives
------------------
     ethr =  1.27E-08,  avg # of iterations =  2.5

     negative rho (up, down):  1.436E-04 0.000E+00

     total cpu time spent up to now is      175.2 secs

     total energy              =     -73.77404459 Ry
     estimated scf accuracy    <       0.00000019 Ry

     iteration #  6     ecut=    60.00 Ry     beta= 0.70
     Davidson diagonalization with overlap

---- Real-time Memory Report at c_bands before calling an iterative solver
           131 MiB given to the printing process from OS
             0 MiB allocation reported by mallinfo(arena+hblkhd)
          3533 MiB available memory on the node where the printing process lives
------------------
     ethr =  1.20E-09,  avg # of iterations =  1.8

     negative rho (up, down):  1.435E-04 0.000E+00

     total cpu time spent up to now is      176.9 secs

     total energy              =     -73.77404460 Ry
     estimated scf accuracy    <       0.00000003 Ry

     iteration #  7     ecut=    60.00 Ry     beta= 0.70
     Davidson diagonalization with overlap

---- Real-time Memory Report at c_bands before calling an iterative solver
           131 MiB given to the printing process from OS
             0 MiB allocation reported by mallinfo(arena+hblkhd)
          3522 MiB available memory on the node where the printing process lives
------------------
     ethr =  1.93E-10,  avg # of iterations =  2.0

     negative rho (up, down):  1.435E-04 0.000E+00

     total cpu time spent up to now is      178.8 secs

     total energy              =     -73.77404461 Ry
     estimated scf accuracy    <          2.8E-10 Ry

     iteration #  8     ecut=    60.00 Ry     beta= 0.70
     Davidson diagonalization with overlap

---- Real-time Memory Report at c_bands before calling an iterative solver
           131 MiB given to the printing process from OS
             0 MiB allocation reported by mallinfo(arena+hblkhd)
          3528 MiB available memory on the node where the printing process lives
------------------
     ethr =  1.78E-12,  avg # of iterations =  3.9

     negative rho (up, down):  1.435E-04 0.000E+00

     total cpu time spent up to now is      180.9 secs

     End of self-consistent calculation

          k = 0.0000 0.0000 0.0000 (  6469 PWs)   bands (ev):

   -23.8487 -23.7799 -12.1892 -11.6035  -7.2776  -7.2776  -7.2744  -7.2744
    -0.9408  -0.5549   0.7755   1.4812   2.3723   3.3267

     occupation numbers 
     1.0000   1.0000   1.0000   1.0000   1.0000   1.0000   1.0000   1.0000
     0.0000   0.0000   0.0000   0.0000   0.0000   0.0000

          k = 0.0000 0.0962 0.0000 (  6478 PWs)   bands (ev):

   -23.6837 -23.6157 -11.9901 -11.4087  -7.9321  -7.9258  -7.6197  -7.6146
    -0.7193  -0.3300   0.9943   1.7054   2.5843   3.5560

     occupation numbers 
     1.0000   1.0000   1.0000   1.0000   1.0000   1.0000   1.0000   1.0000
     0.0000   0.0000   0.0000   0.0000   0.0000   0.0000

          k = 0.0000 0.1925 0.0000 (  6486 PWs)   bands (ev):

   -23.1904 -23.1247 -11.3977 -10.8296  -9.5794  -9.5668  -8.4196  -8.4121
    -0.0549   0.3435   1.6495   2.3765   3.2128   4.1434

     occupation numbers 
     1.0000   1.0000   1.0000   1.0000   1.0000   1.0000   1.0000   1.0000
     0.0000   0.0000   0.0000   0.0000   0.0000   0.0000

          k = 0.0000 0.2887 0.0000 (  6494 PWs)   bands (ev):

   -22.3747 -22.3127 -11.6906 -11.6704 -10.4300  -9.8870  -9.3066  -9.2977
     1.0488   1.4546   2.6940   2.9760   3.1567   3.4972

     occupation numbers 
     1.0000   1.0000   1.0000   1.0000   1.0000   1.0000   1.0000   1.0000
     0.0000   0.0000   0.0000   0.0000   0.0000   0.0000

          k = 0.0000 0.3849 0.0000 (  6484 PWs)   bands (ev):

   -21.2486 -21.1917 -13.9077 -13.8796 -10.0457 -10.0359  -9.1334  -8.6353
     0.5842   0.8372   2.5766   3.0360   3.5264   3.5958

     occupation numbers 
     1.0000   1.0000   1.0000   1.0000   1.0000   1.0000   1.0000   1.0000
     0.0000   0.0000   0.0000   0.0000   0.0000   0.0000

          k = 0.0000 0.4811 0.0000 (  6486 PWs)   bands (ev):

   -19.8424 -19.7924 -16.0214 -15.9865 -10.5221 -10.5119  -7.6561  -7.2561
    -1.5847  -1.2903   3.2658   3.3532   4.5715   5.0432

     occupation numbers 
     1.0000   1.0000   1.0000   1.0000   1.0000   1.0000   1.0000   1.0000
     0.0000   0.0000   0.0000   0.0000   0.0000   0.0000

          k = 0.0000-0.5774 0.0000 (  6508 PWs)   bands (ev):

   -18.5538 -18.5293 -17.5331 -17.5141 -10.6857 -10.6754  -6.7133  -6.5119
    -2.6499  -2.4234   3.1838   3.2787   6.8387   6.9298

     occupation numbers 
     1.0000   1.0000   1.0000   1.0000   1.0000   1.0000   1.0000   1.0000
     0.0000   0.0000   0.0000   0.0000   0.0000   0.0000

          k = 0.0833 0.1443 0.0000 (  6487 PWs)   bands (ev):

   -23.3546 -23.2881 -11.5943 -11.0216  -8.9693  -8.9632  -8.3022  -8.2978
    -0.2760   0.1194   1.4321   2.1537   3.0072   4.0147

     occupation numbers 
     1.0000   1.0000   1.0000   1.0000   1.0000   1.0000   1.0000   1.0000
     0.0000   0.0000   0.0000   0.0000   0.0000   0.0000

          k = 0.0833 0.2406 0.0000 (  6474 PWs)   bands (ev):

   -22.7001 -22.6366 -10.8131 -10.6896 -10.6761 -10.2593  -9.3094  -9.3009
     0.6093   1.0152   2.3032   3.0458   3.7891   3.8643

     occupation numbers 
     1.0000   1.0000   1.0000   1.0000   1.0000   1.0000   1.0000   1.0000
     0.0000   0.0000   0.0000   0.0000   0.0000   0.0000

          k = 0.0833 0.3368 0.0000 (  6487 PWs)   bands (ev):

   -21.7290 -21.6700 -12.7766 -12.7537 -10.2029 -10.1915  -9.6752  -9.1550
     1.6300   1.8275   1.9326   2.3825   3.6038   4.2953

     occupation numbers 
     1.0000   1.0000   1.0000   1.0000   1.0000   1.0000   1.0000   1.0000
     0.0000   0.0000   0.0000   0.0000   0.0000   0.0000

          k = 0.0833 0.4330 0.0000 (  6482 PWs)   bands (ev):

   -20.4600 -20.4068 -14.9134 -14.8824 -10.8423 -10.8295  -8.2579  -7.8006
    -0.6164  -0.3541   3.6528   4.0374   4.1887   4.2252

     occupation numbers 
     1.0000   1.0000   1.0000   1.0000   1.0000   1.0000   1.0000   1.0000
     0.0000   0.0000   0.0000   0.0000   0.0000   0.0000

          k = 0.0833 0.5292 0.0000 (  6501 PWs)   bands (ev):

   -18.9667 -18.9231 -16.8681 -16.8331 -11.1731 -11.1597  -6.8653  -6.5690
    -2.3838  -2.1387   3.9201   4.0226   5.8387   6.3166

     occupation numbers 
     1.0000   1.0000   1.0000   1.0000   1.0000   1.0000   1.0000   1.0000
     0.0000   0.0000   0.0000   0.0000   0.0000   0.0000

          k = 0.1667 0.2887 0.0000 (  6494 PWs)   bands (ev):

   -21.8902 -21.8305 -12.0221 -12.0111 -10.6808 -10.6729  -9.8583  -9.3311
     1.7122   2.1268   2.1298   2.2535   3.3862   4.1614

     occupation numbers 
     1.0000   1.0000   1.0000   1.0000   1.0000   1.0000   1.0000   1.0000
     0.0000   0.0000   0.0000   0.0000   0.0000   0.0000

          k = 0.1667 0.3849 0.0000 (  6484 PWs)   bands (ev):

   -20.7750 -20.7203 -13.7626 -13.7409 -11.7460 -11.7314  -8.5767  -8.0945
     0.1418   0.3152   3.2454   3.6725   4.8517   5.6804

     occupation numbers 
     1.0000   1.0000   1.0000   1.0000   1.0000   1.0000   1.0000   1.0000
     0.0000   0.0000   0.0000   0.0000   0.0000   0.0000

          k = 0.1667 0.4811 0.0000 (  6474 PWs)   bands (ev):

   -19.3889 -19.3410 -15.6886 -15.6571 -12.3260 -12.3075  -7.0989  -6.7068
    -1.8040  -1.5861   5.1672   5.5646   5.8342   5.9486

     occupation numbers 
     1.0000   1.0000   1.0000   1.0000   1.0000   1.0000   1.0000   1.0000
     0.0000   0.0000   0.0000   0.0000   0.0000   0.0000

          k = 0.1667 0.5774 0.0000 (  6478 PWs)   bands (ev):

   -18.1309 -18.1076 -17.1287 -17.1121 -12.5119 -12.4925  -6.1105  -5.9127
    -2.8227  -2.7044   5.7021   5.8577   7.2372   7.2873

     occupation numbers 
     1.0000   1.0000   1.0000   1.0000   1.0000   1.0000   1.0000   1.0000
     0.0000   0.0000   0.0000   0.0000   0.0000   0.0000

          k = 0.2500 0.4330 0.0000 (  6442 PWs)   bands (ev):

   -19.5381 -19.4892 -14.7957 -14.7799 -13.2390 -13.2271  -7.1972  -6.7756
    -1.4786  -1.3136   4.9629   5.3280   6.1945   7.2676

     occupation numbers 
     1.0000   1.0000   1.0000   1.0000   1.0000   1.0000   1.0000   1.0000
     0.0000   0.0000   0.0000   0.0000   0.0000   0.0000

          k = 0.2500 0.5292 0.0000 (  6455 PWs)   bands (ev):

   -18.1027 -18.0633 -16.2313 -16.2050 -13.9535 -13.9333  -5.7448  -5.4481
    -2.9990  -2.8461   6.5822   6.5920   7.0267   7.8948

     occupation numbers 
     1.0000   1.0000   1.0000   1.0000   1.0000   1.0000   1.0000   1.0000
     0.0000   0.0000   0.0000   0.0000   0.0000   0.0000

          k = 0.3333 0.5774 0.0000 (  6450 PWs)   bands (ev):

   -16.8787 -16.8576 -16.8576 -16.8382 -14.8513 -14.8513  -4.4161  -4.2320
    -4.2320  -4.0419   6.3424   6.3424   8.3681   8.7071

     occupation numbers 
     1.0000   1.0000   1.0000   1.0000   1.0000   1.0000   0.9725   0.5016
     0.5016   0.0243   0.0000   0.0000   0.0000   0.0000

     the Fermi energy is    -4.2316 ev

!    total energy              =     -73.77404461 Ry
     total all-electron energy =      -304.830433 Ry
     estimated scf accuracy    <          8.5E-12 Ry
     smearing contrib. (-TS)   =      -0.00018039 Ry
     internal energy E=F+TS    =     -73.77386422 Ry

     The total energy is F=E-TS. E is the sum of the following terms:
     one-electron contribution =   -1203.10517417 Ry
     hartree contribution      =     603.31744830 Ry
     xc contribution           =     -18.57263582 Ry
     ewald contribution        =     569.25533909 Ry
     one-center paw contrib.   =     -24.66884161 Ry
      -> PAW hartree energy AE =       9.52968359 Ry
      -> PAW hartree energy PS =      -9.52100301 Ry
      -> PAW xc energy AE      =     -10.68365143 Ry
      -> PAW xc energy PS      =       4.50777168 Ry
      -> total E_H with PAW    =     603.32612888 Ry
      -> total E_XC with PAW   =     -24.74851558 Ry

     convergence has been achieved in   8 iterations

     negative rho (up, down):  1.435E-04 0.000E+00

     Forces acting on atoms (cartesian axes, Ry/au):

     atom    1 type  1   force =     0.00000000   -0.00000000    0.00090109
     atom    2 type  1   force =     0.00000000   -0.00000000   -0.00188741
     atom    3 type  1   force =    -0.00000000   -0.00000000    0.00188741
     atom    4 type  1   force =     0.00000000    0.00000000   -0.00090109
     The non-local contrib.  to forces
     atom    1 type  1   force =     0.00000000   -0.00000000    0.00204482
     atom    2 type  1   force =     0.00000000   -0.00000000   -0.00320384
     atom    3 type  1   force =     0.00000000    0.00000000    0.00320384
     atom    4 type  1   force =     0.00000000   -0.00000000   -0.00204482
     The ionic contribution  to forces
     atom    1 type  1   force =     0.00000000   -0.00000000  -21.52009511
     atom    2 type  1   force =    -0.00000000    0.00000000  -21.45187658
     atom    3 type  1   force =    -0.00000000   -0.00000000   21.45187658
     atom    4 type  1   force =     0.00000000    0.00000000   21.52009511
     The local contribution  to forces
     atom    1 type  1   force =    -0.00000000    0.00000000   21.51888541
     atom    2 type  1   force =    -0.00000000    0.00000000   21.45310213
     atom    3 type  1   force =    -0.00000000    0.00000000  -21.45310213
     atom    4 type  1   force =    -0.00000000    0.00000000  -21.51888541
     The core correction contribution to forces
     atom    1 type  1   force =    -0.00000000   -0.00000000    0.00006503
     atom    2 type  1   force =     0.00000000   -0.00000000    0.00008973
     atom    3 type  1   force =     0.00000000   -0.00000000   -0.00008973
     atom    4 type  1   force =    -0.00000000   -0.00000000   -0.00006503
     The Hubbard contrib.    to forces
     atom    1 type  1   force =     0.00000000    0.00000000    0.00000000
     atom    2 type  1   force =     0.00000000    0.00000000    0.00000000
     atom    3 type  1   force =     0.00000000    0.00000000    0.00000000
     atom    4 type  1   force =     0.00000000    0.00000000    0.00000000
     The SCF correction term to forces
     atom    1 type  1   force =    -0.00000000    0.00000000    0.00000095
     atom    2 type  1   force =    -0.00000000   -0.00000000    0.00000116
     atom    3 type  1   force =    -0.00000000   -0.00000000   -0.00000116
     atom    4 type  1   force =     0.00000000    0.00000000   -0.00000095

     Total force =     0.002958     Total SCF correction =     0.000002
     Energy error            =      3.2E-04 Ry
     Gradient error          =      1.9E-03 Ry/Bohr

     number of scf cycles    =  12
     number of bfgs steps    =  11

     energy             old  =     -73.7737247796 Ry
     energy             new  =     -73.7740446104 Ry

     CASE: energy            _new < energy            _old

     new trust radius        =       0.1334120612 bohr
     new conv_thr            =       0.0000000002 Ry


ATOMIC_POSITIONS (angstrom)
C                0.0000000000       -0.0000000000        9.7597676912
C                1.2300000000        0.7101408311        9.7610405088
C                1.2300000000        0.7101408311       13.5889594912
C                0.0000000000        1.4202816622       13.5902323088



     Writing config-only to output data dir /home/ubuntu/projects/Graphene-Band-Structure-Quantum-Espresso/outputs/bilayer/field_0Ry/coupled/data/coupled.save/ :
     XML data file
     NEW-OLD atomic charge density approx. for the potential

     Check: negative core charge=   -0.000003

     negative rho (up, down):  1.408E-04 0.000E+00

     total cpu time spent up to now is      181.6 secs

     Self-consistent Calculation

     iteration #  1     ecut=    60.00 Ry     beta= 0.70
     Davidson diagonalization with overlap

---- Real-time Memory Report at c_bands before calling an iterative solver
           131 MiB given to the printing process from OS
             0 MiB allocation reported by mallinfo(arena+hblkhd)
          3528 MiB available memory on the node where the printing process lives
------------------
     c_bands:  1 eigenvalues not converged
     ethr =  1.00E-06,  avg # of iterations =  9.8

     negative rho (up, down):  1.424E-04 0.000E+00

     total cpu time spent up to now is      185.0 secs

     total energy              =     -73.76885844 Ry
     estimated scf accuracy    <       0.01478632 Ry

     iteration #  2     ecut=    60.00 Ry     beta= 0.70
     Davidson diagonalization with overlap

---- Real-time Memory Report at c_bands before calling an iterative solver
           131 MiB given to the printing process from OS
             0 MiB allocation reported by mallinfo(arena+hblkhd)
          3544 MiB available memory on the node where the printing process lives
------------------
     ethr =  9.24E-05,  avg # of iterations =  4.4

     negative rho (up, down):  1.496E-04 0.000E+00

     total cpu time spent up to now is      186.4 secs

     total energy              =     -73.77100630 Ry
     estimated scf accuracy    <       0.01391123 Ry

     iteration #  3     ecut=    60.00 Ry     beta= 0.70
     Davidson diagonalization with overlap

---- Real-time Memory Report at c_bands before calling an iterative solver
           131 MiB given to the printing process from OS
             0 MiB allocation reported by mallinfo(arena+hblkhd)
          3527 MiB available memory on the node where the printing process lives
------------------
     ethr =  8.69E-05,  avg # of iterations =  4.1

     negative rho (up, down):  1.444E-04 0.000E+00

     total cpu time spent up to now is      188.2 secs

     total energy              =     -73.77423806 Ry
     estimated scf accuracy    <       0.00020512 Ry

     iteration #  4     ecut=    60.00 Ry     beta= 0.70
     Davidson diagonalization with overlap

---- Real-time Memory Report at c_bands before calling an iterative solver
           131 MiB given to the printing process from OS
             0 MiB allocation reported by mallinfo(arena+hblkhd)
          3511 MiB available memory on the node where the printing process lives
------------------
     ethr =  1.28E-06,  avg # of iterations =  5.6

     negative rho (up, down):  1.448E-04 0.000E+00

     total cpu time spent up to now is      190.6 secs

     total energy              =     -73.77427243 Ry
     estimated scf accuracy    <       0.00000296 Ry

     iteration #  5     ecut=    60.00 Ry     beta= 0.70
     Davidson diagonalization with overlap

---- Real-time Memory Report at c_bands before calling an iterative solver
           131 MiB given to the printing process from OS
             0 MiB allocation reported by mallinfo(arena+hblkhd)
          3541 MiB available memory on the node where the printing process lives
------------------
     ethr =  1.85E-08,  avg # of iterations =  2.7

     negative rho (up, down):  1.448E-04 0.000E+00

     total cpu time spent up to now is      192.7 secs

     total energy              =     -73.77427393 Ry
     estimated scf accuracy    <       0.00000030 Ry

     iteration #  6     ecut=    60.00 Ry     beta= 0.70
     Davidson diagonalization with overlap

---- Real-time Memory Report at c_bands before calling an iterative solver
           131 MiB given to the printing process from OS
             0 MiB allocation reported by mallinfo(arena+hblkhd)
          3516 MiB available memory on the node where the printing process lives
------------------
     ethr =  1.88E-09,  avg # of iterations =  1.6

     negative rho (up, down):  1.448E-04 0.000E+00

     total cpu time spent up to now is      194.4 secs

     total energy              =     -73.77427395 Ry
     estimated scf accuracy    <       0.00000004 Ry

     iteration #  7     ecut=    60.00 Ry     beta= 0.70
     Davidson diagonalization with overlap

---- Real-time Memory Report at c_bands before calling an iterative solver
           131 MiB given to the printing process from OS
             0 MiB allocation reported by mallinfo(arena+hblkhd)
          3530 MiB available memory on the node where the printing process lives
------------------
     ethr =  2.36E-10,  avg # of iterations =  2.2

     negative rho (up, down):  1.448E-04 0.000E+00

     total cpu time spent up to now is      196.2 secs

     total energy              =     -73.77427396 Ry
     estimated scf accuracy    <          7.2E-10 Ry

     iteration #  8     ecut=    60.00 Ry     beta= 0.70
     Davidson diagonalization with overlap

---- Real-time Memory Report at c_bands before calling an iterative solver
           131 MiB given to the printing process from OS
             0 MiB allocation reported by mallinfo(arena+hblkhd)
          3507 MiB available memory on the node where the printing process lives
------------------
     ethr =  4.50E-12,  avg # of iterations =  3.5

     negative rho (up, down):  1.448E-04 0.000E+00

     total cpu time spent up to now is      198.4 secs

     End of self-consistent calculation

          k = 0.0000 0.0000 0.0000 (  6469 PWs)   bands (ev):

   -23.8366 -23.7871 -12.1309 -11.6590  -7.2751  -7.2751  -7.2730  -7.2730
    -0.9675  -0.5585   0.7084   1.5575   2.2919   3.0412

     occupation numbers 
     1.0000   1.0000   1.0000   1.0000   1.0000   1.0000   1.0000   1.0000
     0.0000   0.0000   0.0000   0.0000   0.0000   0.0000

          k = 0.0000 0.0962 0.0000 (  6478 PWs)   bands (ev):

   -23.6717 -23.6228 -11.9321 -11.4637  -7.9291  -7.9249  -7.6169  -7.6136
    -0.7463  -0.3337   0.9266   1.7814   2.5071   3.2705

     occupation numbers 
     1.0000   1.0000   1.0000   1.0000   1.0000   1.0000   1.0000   1.0000
     0.0000   0.0000   0.0000   0.0000   0.0000   0.0000

          k = 0.0000 0.1925 0.0000 (  6486 PWs)   bands (ev):

   -23.1787 -23.1315 -11.3406 -10.8835  -9.5754  -9.5668  -8.4163  -8.4114
    -0.0826   0.3395   1.5793   2.4516   3.1462   3.9587

     occupation numbers 
     1.0000   1.0000   1.0000   1.0000   1.0000   1.0000   1.0000   1.0000
     0.0000   0.0000   0.0000   0.0000   0.0000   0.0000

          k = 0.0000 0.2887 0.0000 (  6494 PWs)   bands (ev):

   -22.3635 -22.3191 -11.6854 -11.6715 -10.3746  -9.9386  -9.3032  -9.2973
     1.0200   1.4507   2.6146   3.0046   3.1490   3.5604

     occupation numbers 
     1.0000   1.0000   1.0000   1.0000   1.0000   1.0000   1.0000   1.0000
     0.0000   0.0000   0.0000   0.0000   0.0000   0.0000

          k = 0.0000 0.3849 0.0000 (  6484 PWs)   bands (ev):

   -21.2381 -21.1974 -13.9012 -13.8817 -10.0421 -10.0356  -9.0813  -8.6827
     0.6149   0.8128   2.5457   3.0307   3.5390   3.5888

     occupation numbers 
     1.0000   1.0000   1.0000   1.0000   1.0000   1.0000   1.0000   1.0000
     0.0000   0.0000   0.0000   0.0000   0.0000   0.0000

          k = 0.0000 0.4811 0.0000 (  6486 PWs)   bands (ev):

   -19.8329 -19.7973 -16.0140 -15.9895 -10.5184 -10.5117  -7.6118  -7.2935
    -1.5528  -1.3174   3.2804   3.3433   4.5392   5.0376

     occupation numbers 
     1.0000   1.0000   1.0000   1.0000   1.0000   1.0000   1.0000   1.0000
     0.0000   0.0000   0.0000   0.0000   0.0000   0.0000

          k = 0.0000-0.5774 0.0000 (  6508 PWs)   bands (ev):

   -18.5478 -18.5305 -17.5282 -17.5148 -10.6820 -10.6751  -6.6850  -6.5281
    -2.6312  -2.4422   3.1991   3.2686   6.8015   6.8964

     occupation numbers 
     1.0000   1.0000   1.0000   1.0000   1.0000   1.0000   1.0000   1.0000
     0.0000   0.0000   0.0000   0.0000   0.0000   0.0000

          k = 0.0833 0.1443 0.0000 (  6487 PWs)   bands (ev):

   -23.3428 -23.2950 -11.5368 -11.0759  -8.9663  -8.9622  -8.2995  -8.2966
    -0.3035   0.1155   1.3628   2.2292   2.9360   3.7292

     occupation numbers 
     1.0000   1.0000   1.0000   1.0000   1.0000   1.0000   1.0000   1.0000
     0.0000   0.0000   0.0000   0.0000   0.0000   0.0000

          k = 0.0833 0.2406 0.0000 (  6474 PWs)   bands (ev):

   -22.6887 -22.6432 -10.7570 -10.6854 -10.6761 -10.3119  -9.3060  -9.3004
     0.5809   1.0111   2.2298   3.1202   3.7439   3.8828

     occupation numbers 
     1.0000   1.0000   1.0000   1.0000   1.0000   1.0000   1.0000   1.0000
     0.0000   0.0000   0.0000   0.0000   0.0000   0.0000

          k = 0.0833 0.3368 0.0000 (  6487 PWs)   bands (ev):

   -21.7182 -21.6760 -12.7709 -12.7552 -10.1990 -10.1913  -9.6215  -9.2044
     1.6561   1.8084   1.9014   2.3779   3.5323   4.3271

     occupation numbers 
     1.0000   1.0000   1.0000   1.0000   1.0000   1.0000   1.0000   1.0000
     0.0000   0.0000   0.0000   0.0000   0.0000   0.0000

          k = 0.0833 0.4330 0.0000 (  6482 PWs)   bands (ev):

   -20.4500 -20.4121 -14.9065 -14.8849 -10.8382 -10.8296  -8.2090  -7.8439
    -0.5854  -0.3785   3.6219   4.0421   4.1875   4.2217

     occupation numbers 
     1.0000   1.0000   1.0000   1.0000   1.0000   1.0000   1.0000   1.0000
     0.0000   0.0000   0.0000   0.0000   0.0000   0.0000

          k = 0.0833 0.5292 0.0000 (  6501 PWs)   bands (ev):

   -18.9580 -18.9272 -16.8607 -16.8361 -11.1689 -11.1599  -6.8294  -6.5952
    -2.3597  -2.1602   3.9359   4.0121   5.8043   6.3120

     occupation numbers 
     1.0000   1.0000   1.0000   1.0000   1.0000   1.0000   1.0000   1.0000
     0.0000   0.0000   0.0000   0.0000   0.0000   0.0000

          k = 0.1667 0.2887 0.0000 (  6494 PWs)   bands (ev):

   -21.8793 -21.8366 -12.0182 -12.0108 -10.6776 -10.6721  -9.8040  -9.3812
     1.6833   2.1255   2.1457   2.2424   3.3061   4.2351

     occupation numbers 
     1.0000   1.0000   1.0000   1.0000   1.0000   1.0000   1.0000   1.0000
     0.0000   0.0000   0.0000   0.0000   0.0000   0.0000

          k = 0.1667 0.3849 0.0000 (  6484 PWs)   bands (ev):

   -20.7648 -20.7258 -13.7572 -13.7421 -11.7417 -11.7317  -8.5259  -8.1405
     0.1657   0.2996   3.2137   3.6685   4.7610   5.7469

     occupation numbers 
     1.0000   1.0000   1.0000   1.0000   1.0000   1.0000   1.0000   1.0000
     0.0000   0.0000   0.0000   0.0000   0.0000   0.0000

          k = 0.1667 0.4811 0.0000 (  6474 PWs)   bands (ev):

   -19.3796 -19.3456 -15.6817 -15.6597 -12.3210 -12.3083  -7.0552  -6.7437
    -1.7778  -1.6056   5.1330   5.5666   5.8484   5.9393

     occupation numbers 
     1.0000   1.0000   1.0000   1.0000   1.0000   1.0000   1.0000   1.0000
     0.0000   0.0000   0.0000   0.0000   0.0000   0.0000

          k = 0.1667 0.5774 0.0000 (  6478 PWs)   bands (ev):

   -18.1250 -18.1086 -17.1242 -17.1124 -12.5068 -12.4935  -6.0823  -5.9283
    -2.8136  -2.7124   5.7228   5.8456   7.2136   7.2376

     occupation numbers 
     1.0000   1.0000   1.0000   1.0000   1.0000   1.0000   1.0000   1.0000
     0.0000   0.0000   0.0000   0.0000   0.0000   0.0000

          k = 0.2500 0.4330 0.0000 (  6442 PWs)   bands (ev):

   -19.5287 -19.4940 -14.7911 -14.7801 -13.2351 -13.2269  -7.1511  -6.8157
    -1.4553  -1.3283   4.9281   5.3289   6.0951   7.3375

     occupation numbers 
     1.0000   1.0000   1.0000   1.0000   1.0000   1.0000   1.0000   1.0000
     0.0000   0.0000   0.0000   0.0000   0.0000   0.0000

          k = 0.2500 0.5292 0.0000 (  6455 PWs)   bands (ev):

   -18.0946 -18.0668 -16.2252 -16.2067 -13.9483 -13.9343  -5.7087  -5.4747
    -2.9791  -2.8602   6.5536   6.6063   7.0108   7.9146

     occupation numbers 
     1.0000   1.0000   1.0000   1.0000   1.0000   1.0000   1.0000   1.0000
     0.0000   0.0000   0.0000   0.0000   0.0000   0.0000

          k = 0.3333 0.5774 0.0000 (  6450 PWs)   bands (ev):

   -16.8702 -16.8555 -16.8555 -16.8419 -14.8492 -14.8492  -4.3707  -4.2274
    -4.2274  -4.0806   6.3474   6.3474   8.3624   8.6958

     occupation numbers 
     1.0000   1.0000   1.0000   1.0000   1.0000   1.0000   0.9324   0.5018
     0.5018   0.0641   0.0000   0.0000   0.0000   0.0000

     the Fermi energy is    -4.2269 ev

!    total energy              =     -73.77427396 Ry
     total all-electron energy =      -304.830663 Ry
     estimated scf accuracy    <          2.9E-11 Ry
     smearing contrib. (-TS)   =      -0.00020702 Ry
     internal energy E=F+TS    =     -73.77406694 Ry

     The total energy is F=E-TS. E is the sum of the following terms:
     one-electron contribution =   -1180.37865622 Ry
     hartree contribution      =     591.95500726 Ry
     xc contribution           =     -18.57178869 Ry
     ewald contribution        =     557.89019881 Ry
     one-center paw contrib.   =     -24.66882810 Ry
      -> PAW hartree energy AE =       9.52879089 Ry
      -> PAW hartree energy PS =      -9.52011048 Ry
      -> PAW xc energy AE      =     -10.68344525 Ry
      -> PAW xc energy PS      =       4.50756492 Ry
      -> total E_H with PAW    =     591.96368767 Ry
      -> total E_XC with PAW   =     -24.74766902 Ry

     convergence has been achieved in   8 iterations

     negative rho (up, down):  1.448E-04 0.000E+00

     Forces acting on atoms (cartesian axes, Ry/au):

     atom    1 type  1   force =     0.00000000    0.00000000    0.00038740
     atom    2 type  1   force =     0.00000000   -0.00000000   -0.00092057
     atom    3 type  1   force =     0.00000000    0.00000000    0.00092057
     atom    4 type  1   force =     0.00000000   -0.00000000   -0.00038740
     The non-local contrib.  to forces
     atom    1 type  1   force =     0.00000000   -0.00000000    0.00089350
     atom    2 type  1   force =     0.00000000    0.00000000   -0.00163176
     atom    3 type  1   force =     0.00000000    0.00000000    0.00163176
     atom    4 type  1   force =     0.00000000   -0.00000000   -0.00089350
     The ionic contribution  to forces
     atom    1 type  1   force =     0.00000000   -0.00000000  -21.50321730
     atom    2 type  1   force =    -0.00000000    0.00000000  -21.46894970
     atom    3 type  1   force =    -0.00000000   -0.00000000   21.46894970
     atom    4 type  1   force =     0.00000000    0.00000000   21.50321730
     The local contribution  to forces
     atom    1 type  1   force =     0.00000000    0.00000000   21.50268700
     atom    2 type  1   force =    -0.00000000    0.00000000   21.46961947
     atom    3 type  1   force =    -0.00000000    0.00000000  -21.46961947
     atom    4 type  1   force =    -0.00000000    0.00000000  -21.50268700
     The core correction contribution to forces
     atom    1 type  1   force =    -0.00000000   -0.00000000    0.00003311
     atom    2 type  1   force =     0.00000000   -0.00000000    0.00005009
     atom    3 type  1   force =     0.00000000   -0.00000000   -0.00005009
     atom    4 type  1   force =    -0.00000000   -0.00000000   -0.00003311
     The Hubbard contrib.    to forces
     atom    1 type  1   force =     0.00000000    0.00000000    0.00000000
     atom    2 type  1   force =     0.00000000    0.00000000    0.00000000
     atom    3 type  1   force =     0.00000000    0.00000000    0.00000000
     atom    4 type  1   force =     0.00000000    0.00000000    0.00000000
     The SCF correction term to forces
     atom    1 type  1   force =    -0.00000000   -0.00000000   -0.00000891
     atom    2 type  1   force =    -0.00000000   -0.00000000   -0.00000867
     atom    3 type  1   force =    -0.00000000    0.00000000    0.00000867
     atom    4 type  1   force =     0.00000000    0.00000000    0.00000891

     Total force =     0.001412     Total SCF correction =     0.000018
     Energy error            =      2.3E-04 Ry
     Gradient error          =      9.2E-04 Ry/Bohr

     number of scf cycles    =  13
     number of bfgs steps    =  12

     energy             old  =     -73.7740446104 Ry
     energy             new  =     -73.7742739624 Ry

     CASE: energy            _new < energy            _old

     new trust radius        =       0.1467532673 bohr
     new conv_thr            =            1.0E-10 Ry


ATOMIC_POSITIONS (angstrom)
C                0.0000000000       -0.0000000000        9.6833817195
C                1.2300000000        0.7101408311        9.6833820242
C                1.2300000000        0.7101408311       13.6666179758
C                0.0000000000        1.4202816622       13.6666182805



     Writing config-only to output data dir /home/ubuntu/projects/Graphene-Band-Structure-Quantum-Espresso/outputs/bilayer/field_0Ry/coupled/data/coupled.save/ :
     XML data file
     NEW-OLD atomic charge density approx. for the potential

     Check: negative core charge=   -0.000003

     negative rho (up, down):  1.441E-04 0.000E+00

     total cpu time spent up to now is      199.5 secs

     Self-consistent Calculation

     iteration #  1     ecut=    60.00 Ry     beta= 0.70
     Davidson diagonalization with overlap

---- Real-time Memory Report at c_bands before calling an iterative solver
           131 MiB given to the printing process from OS
             0 MiB allocation reported by mallinfo(arena+hblkhd)
          3525 MiB available memory on the node where the printing process lives
------------------
     ethr =  1.00E-06,  avg # of iterations =  9.7

     negative rho (up, down):  1.462E-04 0.000E+00

     total cpu time spent up to now is      204.7 secs

     total energy              =     -73.76787867 Ry
     estimated scf accuracy    <       0.01786175 Ry

     iteration #  2     ecut=    60.00 Ry     beta= 0.70
     Davidson diagonalization with overlap

---- Real-time Memory Report at c_bands before calling an iterative solver
           131 MiB given to the printing process from OS
             0 MiB allocation reported by mallinfo(arena+hblkhd)
          3559 MiB available memory on the node where the printing process lives
------------------
     ethr =  1.12E-04,  avg # of iterations =  4.1

     negative rho (up, down):  1.502E-04 0.000E+00

     total cpu time spent up to now is      206.9 secs

     total energy              =     -73.77044441 Ry
     estimated scf accuracy    <       0.01678504 Ry

     iteration #  3     ecut=    60.00 Ry     beta= 0.70
     Davidson diagonalization with overlap

---- Real-time Memory Report at c_bands before calling an iterative solver
           131 MiB given to the printing process from OS
             0 MiB allocation reported by mallinfo(arena+hblkhd)
          3527 MiB available memory on the node where the printing process lives
------------------
     ethr =  1.05E-04,  avg # of iterations =  3.8

     negative rho (up, down):  1.482E-04 0.000E+00

     total cpu time spent up to now is      208.9 secs

     total energy              =     -73.77435631 Ry
     estimated scf accuracy    <       0.00025165 Ry

     iteration #  4     ecut=    60.00 Ry     beta= 0.70
     Davidson diagonalization with overlap

---- Real-time Memory Report at c_bands before calling an iterative solver
           131 MiB given to the printing process from OS
             0 MiB allocation reported by mallinfo(arena+hblkhd)
          3525 MiB available memory on the node where the printing process lives
------------------
     ethr =  1.57E-06,  avg # of iterations =  6.6

     negative rho (up, down):  1.488E-04 0.000E+00

     total cpu time spent up to now is      211.0 secs

     total energy              =     -73.77439862 Ry
     estimated scf accuracy    <       0.00000374 Ry

     iteration #  5     ecut=    60.00 Ry     beta= 0.70
     Davidson diagonalization with overlap

---- Real-time Memory Report at c_bands before calling an iterative solver
           131 MiB given to the printing process from OS
             0 MiB allocation reported by mallinfo(arena+hblkhd)
          3523 MiB available memory on the node where the printing process lives
------------------
     ethr =  2.33E-08,  avg # of iterations =  2.6

     negative rho (up, down):  1.487E-04 0.000E+00

     total cpu time spent up to now is      213.0 secs

     total energy              =     -73.77440040 Ry
     estimated scf accuracy    <       0.00000036 Ry

     iteration #  6     ecut=    60.00 Ry     beta= 0.70
     Davidson diagonalization with overlap

---- Real-time Memory Report at c_bands before calling an iterative solver
           131 MiB given to the printing process from OS
             0 MiB allocation reported by mallinfo(arena+hblkhd)
          3520 MiB available memory on the node where the printing process lives
------------------
     ethr =  2.27E-09,  avg # of iterations =  1.7

     negative rho (up, down):  1.487E-04 0.000E+00

     total cpu time spent up to now is      214.8 secs

     total energy              =     -73.77440045 Ry
     estimated scf accuracy    <       0.00000002 Ry

     iteration #  7     ecut=    60.00 Ry     beta= 0.70
     Davidson diagonalization with overlap

---- Real-time Memory Report at c_bands before calling an iterative solver
           131 MiB given to the printing process from OS
             0 MiB allocation reported by mallinfo(arena+hblkhd)
          3535 MiB available memory on the node where the printing process lives
------------------
     ethr =  1.37E-10,  avg # of iterations =  2.5

     negative rho (up, down):  1.487E-04 0.000E+00

     total cpu time spent up to now is      216.8 secs

     total energy              =     -73.77440045 Ry
     estimated scf accuracy    <          4.8E-10 Ry

     iteration #  8     ecut=    60.00 Ry     beta= 0.70
     Davidson diagonalization with overlap

---- Real-time Memory Report at c_bands before calling an iterative solver
           131 MiB given to the printing process from OS
             0 MiB allocation reported by mallinfo(arena+hblkhd)
          3526 MiB available memory on the node where the printing process lives
------------------
     ethr =  3.01E-12,  avg # of iterations =  3.2

     negative rho (up, down):  1.487E-04 0.000E+00

     total cpu time spent up to now is      219.0 secs

     End of self-consistent calculation

          k = 0.0000 0.0000 0.0000 (  6469 PWs)   bands (ev):

   -23.8274 -23.7930 -12.0797 -11.7080  -7.2734  -7.2734  -7.2721  -7.2721
    -0.9985  -0.5622   0.6204   1.6430   2.2452   2.7663

     occupation numbers 
     1.0000   1.0000   1.0000   1.0000   1.0000   1.0000   1.0000   1.0000
     0.0000   0.0000   0.0000   0.0000   0.0000   0.0000

          k = 0.0000 0.0962 0.0000 (  6478 PWs)   bands (ev):

   -23.6626 -23.6286 -11.8812 -11.5124  -7.9270  -7.9244  -7.6150  -7.6129
    -0.7774  -0.3375   0.8383   1.8665   2.4633   2.9953

     occupation numbers 
     1.0000   1.0000   1.0000   1.0000   1.0000   1.0000   1.0000   1.0000
     0.0000   0.0000   0.0000   0.0000   0.0000   0.0000

          k = 0.0000 0.1925 0.0000 (  6486 PWs)   bands (ev):

   -23.1699 -23.1371 -11.2905 -10.9311  -9.5725  -9.5670  -8.4141  -8.4110
    -0.1145   0.3354   1.4901   2.5356   3.1121   3.6819

     occupation numbers 
     1.0000   1.0000   1.0000   1.0000   1.0000   1.0000   1.0000   1.0000
     0.0000   0.0000   0.0000   0.0000   0.0000   0.0000

          k = 0.0000 0.2887 0.0000 (  6494 PWs)   bands (ev):

   -22.3550 -22.3243 -11.6816 -11.6724 -10.3262  -9.9842  -9.3008  -9.2970
     0.9870   1.4465   2.5222   3.0283   3.1412   3.6268

     occupation numbers 
     1.0000   1.0000   1.0000   1.0000   1.0000   1.0000   1.0000   1.0000
     0.0000   0.0000   0.0000   0.0000   0.0000   0.0000

          k = 0.0000 0.3849 0.0000 (  6484 PWs)   bands (ev):

   -21.2302 -21.2022 -13.8966 -13.8835 -10.0396 -10.0355  -9.0361  -8.7245
     0.6405   0.7913   2.5116   3.0247   3.5488   3.5833

     occupation numbers 
     1.0000   1.0000   1.0000   1.0000   1.0000   1.0000   1.0000   1.0000
     0.0000   0.0000   0.0000   0.0000   0.0000   0.0000

          k = 0.0000 0.4811 0.0000 (  6486 PWs)   bands (ev):

   -19.8257 -19.8013 -16.0086 -15.9920 -10.5159 -10.5116  -7.5737  -7.3266
    -1.5253  -1.3414   3.2915   3.3351   4.5037   5.0316

     occupation numbers 
     1.0000   1.0000   1.0000   1.0000   1.0000   1.0000   1.0000   1.0000
     0.0000   0.0000   0.0000   0.0000   0.0000   0.0000

          k = 0.0000-0.5774 0.0000 (  6508 PWs)   bands (ev):

   -18.5434 -18.5317 -17.5247 -17.5155 -10.6794 -10.6750  -6.6619  -6.5428
    -2.6137  -2.4596   3.2109   3.2602   6.7630   6.8608

     occupation numbers 
     1.0000   1.0000   1.0000   1.0000   1.0000   1.0000   1.0000   1.0000
     0.0000   0.0000   0.0000   0.0000   0.0000   0.0000

          k = 0.0833 0.1443 0.0000 (  6487 PWs)   bands (ev):

   -23.3338 -23.3007 -11.4865 -11.1239  -8.9642  -8.9616  -8.2976  -8.2958
    -0.3352   0.1115   1.2739   2.3137   2.8980   3.4532

     occupation numbers 
     1.0000   1.0000   1.0000   1.0000   1.0000   1.0000   1.0000   1.0000
     0.0000   0.0000   0.0000   0.0000   0.0000   0.0000

          k = 0.0833 0.2406 0.0000 (  6474 PWs)   bands (ev):

   -22.6801 -22.6485 -10.7080 -10.6823 -10.6763 -10.3584  -9.3036  -9.3000
     0.5483   1.0068   2.1389   3.2031   3.7251   3.8976

     occupation numbers 
     1.0000   1.0000   1.0000   1.0000   1.0000   1.0000   1.0000   1.0000
     0.0000   0.0000   0.0000   0.0000   0.0000   0.0000

          k = 0.0833 0.3368 0.0000 (  6487 PWs)   bands (ev):

   -21.7101 -21.6809 -12.7669 -12.7564 -10.1963 -10.1913  -9.5746  -9.2482
     1.6768   1.7909   1.8676   2.3728   3.4470   4.3507

     occupation numbers 
     1.0000   1.0000   1.0000   1.0000   1.0000   1.0000   1.0000   1.0000
     0.0000   0.0000   0.0000   0.0000   0.0000   0.0000

          k = 0.0833 0.4330 0.0000 (  6482 PWs)   bands (ev):

   -20.4425 -20.4164 -14.9015 -14.8870 -10.8354 -10.8298  -8.1667  -7.8823
    -0.5592  -0.4001   3.5880   4.0434   4.1857   4.2199

     occupation numbers 
     1.0000   1.0000   1.0000   1.0000   1.0000   1.0000   1.0000   1.0000
     0.0000   0.0000   0.0000   0.0000   0.0000   0.0000

          k = 0.0833 0.5292 0.0000 (  6501 PWs)   bands (ev):

   -18.9516 -18.9305 -16.8553 -16.8385 -11.1659 -11.1601  -6.7991  -6.6187
    -2.3383  -2.1796   3.9483   4.0033   5.7672   6.3068

     occupation numbers 
     1.0000   1.0000   1.0000   1.0000   1.0000   1.0000   1.0000   1.0000
     0.0000   0.0000   0.0000   0.0000   0.0000   0.0000

          k = 0.1667 0.2887 0.0000 (  6494 PWs)   bands (ev):

   -21.8711 -21.8416 -12.0155 -12.0106 -10.6753 -10.6717  -9.7567  -9.4255
     1.6499   2.1207   2.1610   2.2327   3.2114   4.3174

     occupation numbers 
     1.0000   1.0000   1.0000   1.0000   1.0000   1.0000   1.0000   1.0000
     0.0000   0.0000   0.0000   0.0000   0.0000   0.0000

          k = 0.1667 0.3849 0.0000 (  6484 PWs)   bands (ev):

   -20.7571 -20.7303 -13.7532 -13.7432 -11.7386 -11.7320  -8.4817  -8.1810
     0.1852   0.2859   3.1783   3.6641   4.6618   5.8167

     occupation numbers 
     1.0000   1.0000   1.0000   1.0000   1.0000   1.0000   1.0000   1.0000
     0.0000   0.0000   0.0000   0.0000   0.0000   0.0000

          k = 0.1667 0.4811 0.0000 (  6474 PWs)   bands (ev):

   -19.3727 -19.3494 -15.6767 -15.6618 -12.3175 -12.3091  -7.0177  -6.7762
    -1.7556  -1.6229   5.0959   5.5669   5.8607   5.9312

     occupation numbers 
     1.0000   1.0000   1.0000   1.0000   1.0000   1.0000   1.0000   1.0000
     0.0000   0.0000   0.0000   0.0000   0.0000   0.0000

          k = 0.1667 0.5774 0.0000 (  6478 PWs)   bands (ev):

   -18.1208 -18.1097 -17.1210 -17.1128 -12.5032 -12.4944  -6.0593  -5.9426
    -2.8046  -2.7203   5.7398   5.8348   7.1863   7.1913

     occupation numbers 
     1.0000   1.0000   1.0000   1.0000   1.0000   1.0000   1.0000   1.0000
     0.0000   0.0000   0.0000   0.0000   0.0000   0.0000

          k = 0.2500 0.4330 0.0000 (  6442 PWs)   bands (ev):

   -19.5217 -19.4979 -14.7878 -14.7805 -13.2324 -13.2268  -7.1114  -6.8511
    -1.4363  -1.3413   4.8896   5.3290   6.0027   7.4141

     occupation numbers 
     1.0000   1.0000   1.0000   1.0000   1.0000   1.0000   1.0000   1.0000
     0.0000   0.0000   0.0000   0.0000   0.0000   0.0000

          k = 0.2500 0.5292 0.0000 (  6455 PWs)   bands (ev):

   -18.0887 -18.0697 -16.2207 -16.2082 -13.9446 -13.9352  -5.6783  -5.4985
    -2.9625  -2.8725   6.5184   6.6278   6.9960   7.9338

     occupation numbers 
     1.0000   1.0000   1.0000   1.0000   1.0000   1.0000   1.0000   1.0000
     0.0000   0.0000   0.0000   0.0000   0.0000   0.0000

          k = 0.3333 0.5774 0.0000 (  6450 PWs)   bands (ev):

   -16.8640 -16.8541 -16.8541 -16.8449 -14.8478 -14.8478  -4.3326  -4.2242
    -4.2242  -4.1137   6.3530   6.3530   8.3597   8.6845

     occupation numbers 
     1.0000   1.0000   1.0000   1.0000   1.0000   1.0000   0.8709   0.5014
     0.5014   0.1263   0.0000   0.0000   0.0000   0.0000

     the Fermi energy is    -4.2238 ev

!    total energy              =     -73.77440045 Ry
     total all-electron energy =      -304.830789 Ry
     estimated scf accuracy    <          4.7E-11 Ry
     smearing contrib. (-TS)   =      -0.00023880 Ry
     internal energy E=F+TS    =     -73.77416165 Ry

     The total energy is F=E-TS. E is the sum of the following terms:
     one-electron contribution =   -1155.36262056 Ry
     hartree contribution      =     579.44752010 Ry
     xc contribution           =     -18.57118379 Ry
     ewald contribution        =     545.38094041 Ry
     one-center paw contrib.   =     -24.66881781 Ry
      -> PAW hartree energy AE =       9.52816688 Ry
      -> PAW hartree energy PS =      -9.51948661 Ry
      -> PAW xc energy AE      =     -10.68330090 Ry
      -> PAW xc energy PS      =       4.50742032 Ry
      -> total E_H with PAW    =     579.45620038 Ry
      -> total E_XC with PAW   =     -24.74706436 Ry

     convergence has been achieved in   8 iterations

     negative rho (up, down):  1.487E-04 0.000E+00

     Forces acting on atoms (cartesian axes, Ry/au):

     atom    1 type  1   force =     0.00000000    0.00000000   -0.00023144
     atom    2 type  1   force =     0.00000000   -0.00000000    0.00000583
     atom    3 type  1   force =     0.00000000    0.00000000   -0.00000583
     atom    4 type  1   force =     0.00000000   -0.00000000    0.00023144
     The non-local contrib.  to forces
     atom    1 type  1   force =    -0.00000000   -0.00000000   -0.00038973
     atom    2 type  1   force =     0.00000000    0.00000000   -0.00006031
     atom    3 type  1   force =     0.00000000    0.00000000    0.00006031
     atom    4 type  1   force =     0.00000000    0.00000000    0.00038973
     The ionic contribution  to forces
     atom    1 type  1   force =     0.00000000   -0.00000000  -21.48577624
     atom    2 type  1   force =    -0.00000000    0.00000000  -21.48653237
     atom    3 type  1   force =    -0.00000000   -0.00000000   21.48653237
     atom    4 type  1   force =     0.00000000    0.00000000   21.48577624
     The local contribution  to forces
     atom    1 type  1   force =     0.00000000    0.00000000   21.48591869
     atom    2 type  1   force =    -0.00000000    0.00000000   21.48657488
     atom    3 type  1   force =    -0.00000000    0.00000000  -21.48657488
     atom    4 type  1   force =     0.00000000    0.00000000  -21.48591869
     The core correction contribution to forces
     atom    1 type  1   force =     0.00000000   -0.00000000    0.00002837
     atom    2 type  1   force =     0.00000000   -0.00000000    0.00003613
     atom    3 type  1   force =     0.00000000   -0.00000000   -0.00003613
     atom    4 type  1   force =     0.00000000   -0.00000000   -0.00002837
     The Hubbard contrib.    to forces
     atom    1 type  1   force =     0.00000000    0.00000000    0.00000000
     atom    2 type  1   force =     0.00000000    0.00000000    0.00000000
     atom    3 type  1   force =     0.00000000    0.00000000    0.00000000
     atom    4 type  1   force =     0.00000000    0.00000000    0.00000000
     The SCF correction term to forces
     atom    1 type  1   force =     0.00000000    0.00000000   -0.00001253
     atom    2 type  1   force =    -0.00000000   -0.00000000   -0.00001249
     atom    3 type  1   force =    -0.00000000   -0.00000000    0.00001249
     atom    4 type  1   force =     0.00000000   -0.00000000    0.00001253

     Total force =     0.000327     Total SCF correction =     0.000025
     Energy error            =      1.3E-04 Ry
     Gradient error          =      2.3E-04 Ry/Bohr

     number of scf cycles    =  14
     number of bfgs steps    =  13

     energy             old  =     -73.7742739624 Ry
     energy             new  =     -73.7744004530 Ry

     CASE: energy            _new < energy            _old

     new trust radius        =       0.1035769341 bohr
     new conv_thr            =            1.0E-10 Ry


ATOMIC_POSITIONS (angstrom)
C                0.0000000000       -0.0000000000        9.6291651510
C                1.2300000000        0.7101408311        9.6285714711
C                1.2300000000        0.7101408311       13.7214285289
C                0.0000000000        1.4202816622       13.7208348490



     Writing config-only to output data dir /home/ubuntu/projects/Graphene-Band-Structure-Quantum-Espresso/outputs/bilayer/field_0Ry/coupled/data/coupled.save/ :
     XML data file
     NEW-OLD atomic charge density approx. for the potential

     Check: negative core charge=   -0.000003

     negative rho (up, down):  1.390E-04 0.000E+00

     total cpu time spent up to now is      220.1 secs

     Self-consistent Calculation

     iteration #  1     ecut=    60.00 Ry     beta= 0.70
     Davidson diagonalization with overlap

---- Real-time Memory Report at c_bands before calling an iterative solver
           131 MiB given to the printing process from OS
             0 MiB allocation reported by mallinfo(arena+hblkhd)
          3531 MiB available memory on the node where the printing process lives
------------------
     ethr =  1.00E-06,  avg # of iterations =  7.8

     negative rho (up, down):  1.406E-04 0.000E+00

     total cpu time spent up to now is      223.9 secs

     total energy              =     -73.77115747 Ry
     estimated scf accuracy    <       0.00898418 Ry

     iteration #  2     ecut=    60.00 Ry     beta= 0.70
     Davidson diagonalization with overlap

---- Real-time Memory Report at c_bands before calling an iterative solver
           131 MiB given to the printing process from OS
             0 MiB allocation reported by mallinfo(arena+hblkhd)
          3548 MiB available memory on the node where the printing process lives
------------------
     ethr =  5.62E-05,  avg # of iterations =  4.4

     negative rho (up, down):  1.438E-04 0.000E+00

     total cpu time spent up to now is      226.2 secs

     total energy              =     -73.77243927 Ry
     estimated scf accuracy    <       0.00845669 Ry

     iteration #  3     ecut=    60.00 Ry     beta= 0.70
     Davidson diagonalization with overlap

---- Real-time Memory Report at c_bands before calling an iterative solver
           131 MiB given to the printing process from OS
             0 MiB allocation reported by mallinfo(arena+hblkhd)
          3532 MiB available memory on the node where the printing process lives
------------------
     ethr =  5.29E-05,  avg # of iterations =  4.2

     negative rho (up, down):  1.421E-04 0.000E+00

     total cpu time spent up to now is      228.1 secs

     total energy              =     -73.77441335 Ry
     estimated scf accuracy    <       0.00012679 Ry

     iteration #  4     ecut=    60.00 Ry     beta= 0.70
     Davidson diagonalization with overlap

---- Real-time Memory Report at c_bands before calling an iterative solver
           131 MiB given to the printing process from OS
             0 MiB allocation reported by mallinfo(arena+hblkhd)
          3539 MiB available memory on the node where the printing process lives
------------------
     ethr =  7.92E-07,  avg # of iterations =  4.4

     negative rho (up, down):  1.425E-04 0.000E+00

     total cpu time spent up to now is      230.3 secs

     total energy              =     -73.77443440 Ry
     estimated scf accuracy    <       0.00000192 Ry

     iteration #  5     ecut=    60.00 Ry     beta= 0.70
     Davidson diagonalization with overlap

---- Real-time Memory Report at c_bands before calling an iterative solver
           131 MiB given to the printing process from OS
             0 MiB allocation reported by mallinfo(arena+hblkhd)
          3540 MiB available memory on the node where the printing process lives
------------------
     ethr =  1.20E-08,  avg # of iterations =  2.5

     negative rho (up, down):  1.424E-04 0.000E+00

     total cpu time spent up to now is      232.4 secs

     total energy              =     -73.77443531 Ry
     estimated scf accuracy    <       0.00000020 Ry

     iteration #  6     ecut=    60.00 Ry     beta= 0.70
     Davidson diagonalization with overlap

---- Real-time Memory Report at c_bands before calling an iterative solver
           131 MiB given to the printing process from OS
             0 MiB allocation reported by mallinfo(arena+hblkhd)
          3538 MiB available memory on the node where the printing process lives
------------------
     ethr =  1.26E-09,  avg # of iterations =  1.8

     negative rho (up, down):  1.424E-04 0.000E+00

     total cpu time spent up to now is      234.0 secs

     total energy              =     -73.77443535 Ry
     estimated scf accuracy    <          3.1E-09 Ry

     iteration #  7     ecut=    60.00 Ry     beta= 0.70
     Davidson diagonalization with overlap

---- Real-time Memory Report at c_bands before calling an iterative solver
           131 MiB given to the printing process from OS
             0 MiB allocation reported by mallinfo(arena+hblkhd)
          3506 MiB available memory on the node where the printing process lives
------------------
     ethr =  1.96E-11,  avg # of iterations =  3.7

     negative rho (up, down):  1.424E-04 0.000E+00

     total cpu time spent up to now is      236.2 secs

     total energy              =     -73.77443535 Ry
     estimated scf accuracy    <          1.3E-10 Ry

     iteration #  8     ecut=    60.00 Ry     beta= 0.70
     Davidson diagonalization with overlap

---- Real-time Memory Report at c_bands before calling an iterative solver
           131 MiB given to the printing process from OS
             0 MiB allocation reported by mallinfo(arena+hblkhd)
          3536 MiB available memory on the node where the printing process lives
------------------
     ethr =  8.36E-13,  avg # of iterations =  2.6

     negative rho (up, down):  1.424E-04 0.000E+00

     total cpu time spent up to now is      238.2 secs

     End of self-consistent calculation

          k = 0.0000 0.0000 0.0000 (  6469 PWs)   bands (ev):

   -23.8227 -23.7961 -12.0502 -11.7364  -7.2726  -7.2726  -7.2717  -7.2717
    -1.0190  -0.5599   0.5599   1.7154   2.2352   2.6079

     occupation numbers 
     1.0000   1.0000   1.0000   1.0000   1.0000   1.0000   1.0000   1.0000
     0.0000   0.0000   0.0000   0.0000   0.0000   0.0000

          k = 0.0000 0.0962 0.0000 (  6478 PWs)   bands (ev):

   -23.6579 -23.6316 -11.8517 -11.5407  -7.9260  -7.9241  -7.6141  -7.6126
    -0.7982  -0.3353   0.7779   1.9386   2.4554   2.8361

     occupation numbers 
     1.0000   1.0000   1.0000   1.0000   1.0000   1.0000   1.0000   1.0000
     0.0000   0.0000   0.0000   0.0000   0.0000   0.0000

          k = 0.0000 0.1925 0.0000 (  6486 PWs)   bands (ev):

   -23.1654 -23.1401 -11.2616 -10.9587  -9.5712  -9.5670  -8.4131  -8.4108
    -0.1357   0.3373   1.4299   2.6066   3.1110   3.5203

     occupation numbers 
     1.0000   1.0000   1.0000   1.0000   1.0000   1.0000   1.0000   1.0000
     0.0000   0.0000   0.0000   0.0000   0.0000   0.0000

          k = 0.0000 0.2887 0.0000 (  6494 PWs)   bands (ev):

   -22.3507 -22.3270 -11.6798 -11.6729 -10.2984 -10.0105  -9.2996  -9.2969
     0.9650   1.4481   2.4623   3.0417   3.1377   3.6786

     occupation numbers 
     1.0000   1.0000   1.0000   1.0000   1.0000   1.0000   1.0000   1.0000
     0.0000   0.0000   0.0000   0.0000   0.0000   0.0000

          k = 0.0000 0.3849 0.0000 (  6484 PWs)   bands (ev):

   -21.2261 -21.2046 -13.8943 -13.8844 -10.0384 -10.0354  -9.0101  -8.7487
     0.6547   0.7790   2.4891   3.0246   3.5545   3.5811

     occupation numbers 
     1.0000   1.0000   1.0000   1.0000   1.0000   1.0000   1.0000   1.0000
     0.0000   0.0000   0.0000   0.0000   0.0000   0.0000

          k = 0.0000 0.4811 0.0000 (  6486 PWs)   bands (ev):

   -19.8221 -19.8034 -16.0058 -15.9933 -10.5147 -10.5115  -7.5521  -7.3457
    -1.5095  -1.3553   3.2973   3.3308   4.4803   5.0314

     occupation numbers 
     1.0000   1.0000   1.0000   1.0000   1.0000   1.0000   1.0000   1.0000
     0.0000   0.0000   0.0000   0.0000   0.0000   0.0000

          k = 0.0000-0.5774 0.0000 (  6508 PWs)   bands (ev):

   -18.5412 -18.5323 -17.5230 -17.5159 -10.6782 -10.6750  -6.6492  -6.5514
    -2.6029  -2.4700   3.2171   3.2558   6.7389   6.8371

     occupation numbers 
     1.0000   1.0000   1.0000   1.0000   1.0000   1.0000   1.0000   1.0000
     0.0000   0.0000   0.0000   0.0000   0.0000   0.0000

          k = 0.0833 0.1443 0.0000 (  6487 PWs)   bands (ev):

   -23.3293 -23.3036 -11.4574 -11.1517  -8.9632  -8.9613  -8.2967  -8.2954
    -0.3562   0.1135   1.2136   2.3852   2.8943   3.2925

     occupation numbers 
     1.0000   1.0000   1.0000   1.0000   1.0000   1.0000   1.0000   1.0000
     0.0000   0.0000   0.0000   0.0000   0.0000   0.0000

          k = 0.0833 0.2406 0.0000 (  6474 PWs)   bands (ev):

   -22.6757 -22.6513 -10.6822 -10.6784 -10.6764 -10.3854  -9.3025  -9.2999
     0.5266   1.0084   2.0783   3.2733   3.7322   3.9052

     occupation numbers 
     1.0000   1.0000   1.0000   1.0000   1.0000   1.0000   1.0000   1.0000
     0.0000   0.0000   0.0000   0.0000   0.0000   0.0000

          k = 0.0833 0.3368 0.0000 (  6487 PWs)   bands (ev):

   -21.7059 -21.6835 -12.7649 -12.7570 -10.1950 -10.1914  -9.5477  -9.2734
     1.6878   1.7799   1.8466   2.3735   3.3916   4.3639

     occupation numbers 
     1.0000   1.0000   1.0000   1.0000   1.0000   1.0000   1.0000   1.0000
     0.0000   0.0000   0.0000   0.0000   0.0000   0.0000

          k = 0.0833 0.4330 0.0000 (  6482 PWs)   bands (ev):

   -20.4387 -20.4187 -14.8990 -14.8881 -10.8340 -10.8299  -8.1425  -7.9044
    -0.5445  -0.4125   3.5656   4.0445   4.1849   4.2216

     occupation numbers 
     1.0000   1.0000   1.0000   1.0000   1.0000   1.0000   1.0000   1.0000
     0.0000   0.0000   0.0000   0.0000   0.0000   0.0000

          k = 0.0833 0.5292 0.0000 (  6501 PWs)   bands (ev):

   -18.9484 -18.9322 -16.8526 -16.8398 -11.1645 -11.1602  -6.7822  -6.6323
    -2.3257  -2.1910   3.9549   3.9985   5.7428   6.3067

     occupation numbers 
     1.0000   1.0000   1.0000   1.0000   1.0000   1.0000   1.0000   1.0000
     0.0000   0.0000   0.0000   0.0000   0.0000   0.0000

          k = 0.1667 0.2887 0.0000 (  6494 PWs)   bands (ev):

   -21.8670 -21.8442 -12.0142 -12.0106 -10.6742 -10.6715  -9.7295  -9.4511
     1.6275   2.1219   2.1692   2.2273   3.1499   4.3870

     occupation numbers 
     1.0000   1.0000   1.0000   1.0000   1.0000   1.0000   1.0000   1.0000
     0.0000   0.0000   0.0000   0.0000   0.0000   0.0000

          k = 0.1667 0.3849 0.0000 (  6484 PWs)   bands (ev):

   -20.7532 -20.7326 -13.7513 -13.7437 -11.7371 -11.7322  -8.4565  -8.2044
     0.1958   0.2780   3.1548   3.6651   4.6001   5.8698

     occupation numbers 
     1.0000   1.0000   1.0000   1.0000   1.0000   1.0000   1.0000   1.0000
     0.0000   0.0000   0.0000   0.0000   0.0000   0.0000

          k = 0.1667 0.4811 0.0000 (  6474 PWs)   bands (ev):

   -19.3692 -19.3514 -15.6741 -15.6629 -12.3157 -12.3095  -6.9965  -6.7950
    -1.7432  -1.6330   5.0713   5.5694   5.8680   5.9269

     occupation numbers 
     1.0000   1.0000   1.0000   1.0000   1.0000   1.0000   1.0000   1.0000
     0.0000   0.0000   0.0000   0.0000   0.0000   0.0000

          k = 0.1667 0.5774 0.0000 (  6478 PWs)   bands (ev):

   -18.1187 -18.1102 -17.1193 -17.1131 -12.5014 -12.4948  -6.0468  -5.9509
    -2.7988  -2.7253   5.7492   5.8284   7.1630   7.1687

     occupation numbers 
     1.0000   1.0000   1.0000   1.0000   1.0000   1.0000   1.0000   1.0000
     0.0000   0.0000   0.0000   0.0000   0.0000   0.0000

          k = 0.2500 0.4330 0.0000 (  6442 PWs)   bands (ev):

   -19.5181 -19.5000 -14.7862 -14.7807 -13.2310 -13.2269  -7.0889  -6.8715
    -1.4261  -1.3486   4.8639   5.3321   5.9496   7.4776

     occupation numbers 
     1.0000   1.0000   1.0000   1.0000   1.0000   1.0000   1.0000   1.0000
     0.0000   0.0000   0.0000   0.0000   0.0000   0.0000

          k = 0.2500 0.5292 0.0000 (  6455 PWs)   bands (ev):

   -18.0857 -18.0713 -16.2185 -16.2090 -13.9427 -13.9357  -5.6614  -5.5123
    -2.9534  -2.8794   6.4968   6.6414   6.9881   7.9441

     occupation numbers 
     1.0000   1.0000   1.0000   1.0000   1.0000   1.0000   1.0000   1.0000
     0.0000   0.0000   0.0000   0.0000   0.0000   0.0000

          k = 0.3333 0.5774 0.0000 (  6450 PWs)   bands (ev):

   -16.8609 -16.8534 -16.8534 -16.8465 -14.8471 -14.8471  -4.3115  -4.2226
    -4.2226  -4.1323   6.3569   6.3569   8.3599   8.6775

     occupation numbers 
     1.0000   1.0000   1.0000   1.0000   1.0000   1.0000   0.8231   0.5011
     0.5011   0.1747   0.0000   0.0000   0.0000   0.0000

     the Fermi energy is    -4.2223 ev

!    total energy              =     -73.77443535 Ry
     total all-electron energy =      -304.830824 Ry
     estimated scf accuracy    <          4.9E-12 Ry
     smearing contrib. (-TS)   =      -0.00025828 Ry
     internal energy E=F+TS    =     -73.77417707 Ry

     The total energy is F=E-TS. E is the sum of the following terms:
     one-electron contribution =   -1137.65635049 Ry
     hartree contribution      =     570.59458392 Ry
     xc contribution           =     -18.57087725 Ry
     ewald contribution        =     536.52727802 Ry
     one-center paw contrib.   =     -24.66881127 Ry
      -> PAW hartree energy AE =       9.52785825 Ry
      -> PAW hartree energy PS =      -9.51917808 Ry
      -> PAW xc energy AE      =     -10.68322858 Ry
      -> PAW xc energy PS      =       4.50734849 Ry
      -> total E_H with PAW    =     570.60326409 Ry
      -> total E_XC with PAW   =     -24.74675734 Ry

     convergence has been achieved in   8 iterations

     negative rho (up, down):  1.424E-04 0.000E+00

     Forces acting on atoms (cartesian axes, Ry/au):

     atom    1 type  1   force =     0.00000000    0.00000000   -0.00059701
     atom    2 type  1   force =     0.00000000    0.00000000    0.00032915
     atom    3 type  1   force =     0.00000000   -0.00000000   -0.00032915
     atom    4 type  1   force =     0.00000000   -0.00000000    0.00059701
     The non-local contrib.  to forces
     atom    1 type  1   force =     0.00000000    0.00000000   -0.00103298
     atom    2 type  1   force =     0.00000000   -0.00000000    0.00062862
     atom    3 type  1   force =     0.00000000   -0.00000000   -0.00062862
     atom    4 type  1   force =     0.00000000    0.00000000    0.00103298
     The ionic contribution  to forces
     atom    1 type  1   force =     0.00000000   -0.00000000  -21.47763881
     atom    2 type  1   force =    -0.00000000    0.00000000  -21.49473875
     atom    3 type  1   force =    -0.00000000   -0.00000000   21.49473875
     atom    4 type  1   force =     0.00000000    0.00000000   21.47763881
     The local contribution  to forces
     atom    1 type  1   force =     0.00000000    0.00000000   21.47812785
     atom    2 type  1   force =    -0.00000000    0.00000000   21.49452377
     atom    3 type  1   force =    -0.00000000    0.00000000  -21.49452377
     atom    4 type  1   force =    -0.00000000    0.00000000  -21.47812785
     The core correction contribution to forces
     atom    1 type  1   force =     0.00000000    0.00000000   -0.00005104
     atom    2 type  1   force =     0.00000000   -0.00000000   -0.00008245
     atom    3 type  1   force =     0.00000000   -0.00000000    0.00008245
     atom    4 type  1   force =     0.00000000   -0.00000000    0.00005104
     The Hubbard contrib.    to forces
     atom    1 type  1   force =     0.00000000    0.00000000    0.00000000
     atom    2 type  1   force =     0.00000000    0.00000000    0.00000000
     atom    3 type  1   force =     0.00000000    0.00000000    0.00000000
     atom    4 type  1   force =     0.00000000    0.00000000    0.00000000
     The SCF correction term to forces
     atom    1 type  1   force =    -0.00000000   -0.00000000   -0.00000203
     atom    2 type  1   force =     0.00000000    0.00000000   -0.00000204
     atom    3 type  1   force =     0.00000000    0.00000000    0.00000204
     atom    4 type  1   force =     0.00000000    0.00000000    0.00000203

     Total force =     0.000964     Total SCF correction =     0.000004
     Energy error            =      3.5E-05 Ry
     Gradient error          =      6.0E-04 Ry/Bohr

     bfgs converged in  15 scf cycles and  14 bfgs steps
     (criteria: energy <  1.0E-04 Ry, force <  1.0E-03 Ry/Bohr)

     End of BFGS Geometry Optimization

     Final energy             =     -73.7744353524 Ry

     File /home/ubuntu/projects/Graphene-Band-Structure-Quantum-Espresso/outputs/bilayer/field_0Ry/coupled/data/coupled.bfgs deleted, as requested
Begin final coordinates

ATOMIC_POSITIONS (angstrom)
C                0.0000000000       -0.0000000000        9.6291651510
C                1.2300000000        0.7101408311        9.6285714711
C                1.2300000000        0.7101408311       13.7214285289
C                0.0000000000        1.4202816622       13.7208348490
End final coordinates



     Writing all to output data dir /home/ubuntu/projects/Graphene-Band-Structure-Quantum-Espresso/outputs/bilayer/field_0Ry/coupled/data/coupled.save/ :
     XML data file, charge density, pseudopotentials, collected wavefunctions

     init_run     :      2.68s CPU      2.95s WALL (       1 calls)
     electrons    :    215.50s CPU    220.87s WALL (      15 calls)
     update_pot   :      3.15s CPU      3.78s WALL (      14 calls)
     forces       :      7.17s CPU      8.11s WALL (      15 calls)

     Called by init_run:
     wfcinit      :      0.46s CPU      0.47s WALL (       1 calls)
     wfcinit:atom :      0.00s CPU      0.00s WALL (       5 calls)
     wfcinit:wfcr :      0.42s CPU      0.43s WALL (       5 calls)
     potinit      :      0.75s CPU      0.85s WALL (       1 calls)
     hinit0       :      0.94s CPU      1.02s WALL (       1 calls)

     Called by electrons:
     c_bands      :    159.67s CPU    162.80s WALL (     108 calls)
     sum_band     :     23.38s CPU     24.22s WALL (     108 calls)
     v_of_rho     :     14.57s CPU     15.89s WALL (     120 calls)
     v_h          :      0.69s CPU      0.81s WALL (     120 calls)
     v_xc         :     15.73s CPU     17.38s WALL (     135 calls)
     newd         :      5.88s CPU      6.12s WALL (     120 calls)
     PAW_pot      :     13.51s CPU     13.75s WALL (     134 calls)
     mix_rho      :      1.38s CPU      1.41s WALL (     108 calls)

     Called by c_bands:
     init_us_2    :      2.13s CPU      2.18s WALL (    1230 calls)
     cegterg      :    120.27s CPU    122.81s WALL (     540 calls)

     Called by sum_band:
     sum_band:wei :      0.04s CPU      0.04s WALL (     108 calls)
     sum_band:loo :     13.35s CPU     13.63s WALL (     108 calls)
     sum_band:buf :      0.16s CPU      0.16s WALL (     540 calls)
     sum_band:ini :      0.88s CPU      0.90s WALL (     540 calls)
     sum_band:cal :      4.12s CPU      4.22s WALL (     610 calls)
     sum_band:bec :      0.01s CPU      0.01s WALL (     610 calls)
     addusdens    :      4.08s CPU      4.40s WALL (     108 calls)
     addusd:skk   :      0.07s CPU      0.07s WALL (     108 calls)

     Called by *egterg:
     cdiaghg      :      0.73s CPU      0.75s WALL (    2191 calls)
     cegterg:over :     10.55s CPU     10.77s WALL (    1736 calls)
     cegterg:upda :      6.46s CPU      6.59s WALL (    1736 calls)
     cegterg:last :     15.87s CPU     16.17s WALL (    1222 calls)
     h_psi        :     71.80s CPU     73.37s WALL (    2281 calls)
     s_psi        :     10.55s CPU     10.78s WALL (    2281 calls)
     g_psi        :      0.51s CPU      0.53s WALL (    1736 calls)

     Called by h_psi:
     h_psi:calbec :     10.51s CPU     10.73s WALL (    2281 calls)
     vloc_psi     :     50.22s CPU     51.35s WALL (    2281 calls)
     add_vuspsi   :     10.72s CPU     10.92s WALL (    2281 calls)

     General routines
     calbec       :     16.69s CPU     17.07s WALL (    3191 calls)
     fft          :      6.64s CPU      6.81s WALL (    1712 calls)
     ffts         :      0.70s CPU      0.72s WALL (     228 calls)
     fftw         :     50.78s CPU     51.95s WALL (   49514 calls)
     interpolate  :      1.09s CPU      1.11s WALL (     120 calls)

     Parallel routines

     PAW routines
     PAW_pot      :     13.51s CPU     13.75s WALL (     134 calls)
     PAW_symme    :      0.03s CPU      0.03s WALL (     242 calls)

     PWSCF        :   3m51.42s CPU   3m58.91s WALL


   This run was terminated on:  10:53:44   7Sep2026            

=------------------------------------------------------------------------------=
   JOB DONE.
=------------------------------------------------------------------------------=
Note: The following floating-point exceptions are signalling: IEEE_UNDERFLOW_FLAG IEEE_DENORMAL
