
     Program PWSCF v.7.6 starts on  7Sep2026 at 10:53:46 

     This program is part of the open-source Quantum ESPRESSO suite
     for quantum simulation of materials; please cite
         "P. Giannozzi et al., J. Phys.:Condens. Matter 21 395502 (2009);
         "P. Giannozzi et al., J. Phys.:Condens. Matter 29 465901 (2017);
         "P. Giannozzi et al., J. Chem. Phys. 152 154105 (2020);
          URL http://www.quantum-espresso.org", 
     in publications or presentations arising from this work. More details at
     http://www.quantum-espresso.org/quote

     Parallel version (MPI), running on     4 processors

     MPI processes distributed on     1 nodes
     3790 MiB available memory on the printing compute node when the environment starts

     Waiting for input...
     Reading input from standard input
Warning: card &CELL ignored
Warning: card &FCP ignored
Warning: card &RISM ignored

     Current dimensions of program PWSCF are:
     Max number of different atomic species (ntypx) = 10
     Max number of k-points (npk) =  40000
     Max angular momentum in pseudopotentials (lmaxx) =  4
     file C.pbe-n-kjpaw_psl.1.0.0.UPF: wavefunction(s)  2S 2P renormalized
     Message from routine setup:
     using ibrav=0 with symmetry is DISCOURAGED, use correct ibrav instead

     K-points division:     npool     =       4
     Subspace diagonalization in iterative solution of the eigenvalue problem:
     a serial algorithm will be used


     G-vector sticks info
     --------------------
     sticks:   dense  smooth     PW     G-vecs:    dense   smooth      PW
     Sum         595     361    109               111671    52021    9049

     Using Slab Decomposition



     bravais-lattice index     =            0
     lattice parameter (alat)  =       4.6487  a.u.
     unit-cell volume          =     825.8174 (a.u.)^3
     number of atoms/cell      =            4
     number of atomic types    =            1
     number of electrons       =        16.00
     number of Kohn-Sham states=           14
     kinetic-energy cutoff     =      60.0000  Ry
     charge density cutoff     =     400.0000  Ry
     scf convergence threshold =      1.0E-08
     mixing beta               =       0.7000
     number of iterations used =            8  plain     mixing
     Exchange-correlation= SLA  PW   PBX  PBC
                           (   1   4   3   4   0   0   0)

     celldm(1)=   4.648726  celldm(2)=   0.000000  celldm(3)=   0.000000
     celldm(4)=   0.000000  celldm(5)=   0.000000  celldm(6)=   0.000000

     crystal axes: (cart. coord. in units of alat)
               a(1) = (   1.000000   0.000000   0.000000 )  
               a(2) = (  -0.500000   0.866025   0.000000 )  
               a(3) = (   0.000000   0.000000   9.491870 )  

     reciprocal axes: (cart. coord. in units 2 pi/alat)
               b(1) = (  1.000000  0.577351 -0.000000 )  
               b(2) = (  0.000000  1.154701  0.000000 )  
               b(3) = (  0.000000 -0.000000  0.105353 )  


     PseudoPot. # 1 for C  read from file:
     /home/ubuntu/projects/Graphene-Band-Structure-Quantum-Espresso/pseudo/C.pbe-n-kjpaw_psl.1.0.0.UPF
     MD5 check sum: 5f16ad9a65e90284d1d834d4ab3b0f7d
     Pseudo is Projector augmented-wave + core cor, Zval =  4.0
     Generated using &quot;atomic&quot; code by A. Dal Corso  v.6.3
     Shape of augmentation charge: PSQ
     Using radial grid of 1073 points,  4 beta functions with: 
                l(1) =   0
                l(2) =   0
                l(3) =   1
                l(4) =   1
     Q(r) pseudized with 0 coefficients 


     atomic species   valence    mass     pseudopotential
     C                 4.00    12.01100     C ( 1.00)

     12 Sym. Ops., with inversion, found ( 6 have fractional translation)


                                    s                        frac. trans.

      isym =  1     identity                                     

 cryst.   s( 1) = (     1          0          0      )
                  (     0          1          0      )
                  (     0          0          1      )

 cart.    s( 1) = (  1.0000000  0.0000000  0.0000000 )
                  (  0.0000000  1.0000000  0.0000000 )
                  (  0.0000000  0.0000000  1.0000000 )


      isym =  2     180 deg rotation - cart. axis [1,0,0]        

 cryst.   s( 2) = (     1          0          0      )    f =( -0.3333335 )
                  (    -1         -1          0      )       (  0.3333330 )
                  (     0          0         -1      )       ( -0.0000001 )

 cart.    s( 2) = (  1.0000000  0.0000000  0.0000000 )    f =( -0.5000000 )
                  (  0.0000000 -1.0000000  0.0000000 )       (  0.2886747 )
                  (  0.0000000  0.0000000 -1.0000000 )       ( -0.0000005 )


      isym =  3     120 deg rotation - cryst. axis [0,0,1]       

 cryst.   s( 3) = (     0          1          0      )
                  (    -1         -1          0      )
                  (     0          0          1      )

 cart.    s( 3) = ( -0.5000000 -0.8660258  0.0000000 )
                  (  0.8660250 -0.5000000  0.0000000 )
                  (  0.0000000  0.0000000  1.0000000 )


      isym =  4     120 deg rotation - cryst. axis [0,0,-1]      

 cryst.   s( 4) = (    -1         -1          0      )
                  (     1          0          0      )
                  (     0          0          1      )

 cart.    s( 4) = ( -0.5000000  0.8660258  0.0000000 )
                  ( -0.8660250 -0.5000000  0.0000000 )
                  (  0.0000000  0.0000000  1.0000000 )


      isym =  5     180 deg rotation - cryst. axis [0,1,0]       

 cryst.   s( 5) = (    -1         -1          0      )    f =( -0.3333335 )
                  (     0          1          0      )       (  0.3333335 )
                  (     0          0         -1      )       ( -0.0000001 )

 cart.    s( 5) = ( -0.5000000 -0.8660258  0.0000000 )    f =( -0.5000003 )
                  ( -0.8660250  0.5000000  0.0000000 )       (  0.2886752 )
                  (  0.0000000  0.0000000 -1.0000000 )       ( -0.0000005 )


      isym =  6     180 deg rotation - cryst. axis [1,1,0]       

 cryst.   s( 6) = (     0          1          0      )    f =( -0.3333330 )
                  (     1          0          0      )       (  0.3333335 )
                  (     0          0         -1      )       ( -0.0000001 )

 cart.    s( 6) = ( -0.5000000  0.8660258  0.0000000 )    f =( -0.4999997 )
                  (  0.8660250  0.5000000  0.0000000 )       (  0.2886752 )
                  (  0.0000000  0.0000000 -1.0000000 )       ( -0.0000005 )


      isym =  7     inversion                                    

 cryst.   s( 7) = (    -1          0          0      )    f =( -0.3333335 )
                  (     0         -1          0      )       (  0.3333330 )
                  (     0          0         -1      )       ( -0.0000001 )

 cart.    s( 7) = ( -1.0000000  0.0000000  0.0000000 )    f =( -0.5000000 )
                  (  0.0000000 -1.0000000  0.0000000 )       (  0.2886747 )
                  (  0.0000000  0.0000000 -1.0000000 )       ( -0.0000005 )


      isym =  8     inv. 180 deg rotation - cart. axis [1,0,0]   

 cryst.   s( 8) = (    -1          0          0      )
                  (     1          1          0      )
                  (     0          0          1      )

 cart.    s( 8) = ( -1.0000000  0.0000000  0.0000000 )
                  (  0.0000000  1.0000000  0.0000000 )
                  (  0.0000000  0.0000000  1.0000000 )


      isym =  9     inv. 120 deg rotation - cryst. axis [0,0,1]  

 cryst.   s( 9) = (     0         -1          0      )    f =( -0.3333330 )
                  (     1          1          0      )       (  0.3333335 )
                  (     0          0         -1      )       ( -0.0000001 )

 cart.    s( 9) = (  0.5000000  0.8660258  0.0000000 )    f =( -0.4999997 )
                  ( -0.8660250  0.5000000  0.0000000 )       (  0.2886752 )
                  (  0.0000000  0.0000000 -1.0000000 )       ( -0.0000005 )


      isym = 10     inv. 120 deg rotation - cryst. axis [0,0,-1] 

 cryst.   s(10) = (     1          1          0      )    f =( -0.3333335 )
                  (    -1          0          0      )       (  0.3333335 )
                  (     0          0         -1      )       ( -0.0000001 )

 cart.    s(10) = (  0.5000000 -0.8660258  0.0000000 )    f =( -0.5000003 )
                  (  0.8660250  0.5000000  0.0000000 )       (  0.2886752 )
                  (  0.0000000  0.0000000 -1.0000000 )       ( -0.0000005 )


      isym = 11     inv. 180 deg rotation - cryst. axis [0,1,0]  

 cryst.   s(11) = (     1          1          0      )
                  (     0         -1          0      )
                  (     0          0          1      )

 cart.    s(11) = (  0.5000000  0.8660258  0.0000000 )
                  (  0.8660250 -0.5000000  0.0000000 )
                  (  0.0000000  0.0000000  1.0000000 )


      isym = 12     inv. 180 deg rotation - cryst. axis [1,1,0]  

 cryst.   s(12) = (     0         -1          0      )
                  (    -1          0          0      )
                  (     0          0          1      )

 cart.    s(12) = (  0.5000000 -0.8660258  0.0000000 )
                  ( -0.8660250 -0.5000000  0.0000000 )
                  (  0.0000000  0.0000000  1.0000000 )


   Cartesian axes

     site n.     atom                  positions (alat units)
         1        C      tau(   1) = (   0.0000000   0.0000000   3.9142950  )
         2        C      tau(   2) = (   0.5000000   0.2886752   3.9140537  )
         3        C      tau(   3) = (   0.5000000   0.2886752   5.5778168  )
         4        C      tau(   4) = (   0.0000000   0.5773503   5.5775755  )

   Crystallographic axes

     site n.     atom                  positions (cryst. coord.)
         1        C      tau(   1) = (  0.0000000  0.0000000  0.4123840  )
         2        C      tau(   2) = (  0.6666668  0.3333335  0.4123585  )
         3        C      tau(   3) = (  0.6666668  0.3333335  0.5876415  )
         4        C      tau(   4) = (  0.3333335  0.6666670  0.5876161  )

     number of k points=    19  Gaussian smearing, width (Ry)=  0.0100
                       cart. coord. in units 2pi/alat
        k(    1) = (   0.0000000   0.0000000   0.0000000), wk =   0.0138889
        k(    2) = (   0.0000000   0.0962251   0.0000000), wk =   0.0833333
        k(    3) = (   0.0000000   0.1924502   0.0000000), wk =   0.0833333
        k(    4) = (   0.0000000   0.2886753   0.0000000), wk =   0.0833333
        k(    5) = (   0.0000000   0.3849004   0.0000000), wk =   0.0833333
        k(    6) = (   0.0000000   0.4811254   0.0000000), wk =   0.0833333
        k(    7) = (   0.0000000  -0.5773505   0.0000000), wk =   0.0416667
        k(    8) = (   0.0833333   0.1443376   0.0000000), wk =   0.0833333
        k(    9) = (   0.0833333   0.2405627   0.0000000), wk =   0.1666667
        k(   10) = (   0.0833333   0.3367878   0.0000000), wk =   0.1666667
        k(   11) = (   0.0833333   0.4330129   0.0000000), wk =   0.1666667
        k(   12) = (   0.0833333   0.5292380   0.0000000), wk =   0.1666667
        k(   13) = (   0.1666667   0.2886753   0.0000000), wk =   0.0833333
        k(   14) = (   0.1666667   0.3849004   0.0000000), wk =   0.1666667
        k(   15) = (   0.1666667   0.4811254   0.0000000), wk =   0.1666667
        k(   16) = (   0.1666667   0.5773505   0.0000000), wk =   0.0833333
        k(   17) = (   0.2500000   0.4330129   0.0000000), wk =   0.0833333
        k(   18) = (   0.2500000   0.5292380   0.0000000), wk =   0.1666667
        k(   19) = (   0.3333333   0.5773505   0.0000000), wk =   0.0277778

                       cryst. coord.
        k(    1) = (   0.0000000   0.0000000   0.0000000), wk =   0.0138889
        k(    2) = (   0.0000000   0.0833333   0.0000000), wk =   0.0833333
        k(    3) = (   0.0000000   0.1666667   0.0000000), wk =   0.0833333
        k(    4) = (   0.0000000   0.2500000   0.0000000), wk =   0.0833333
        k(    5) = (   0.0000000   0.3333333   0.0000000), wk =   0.0833333
        k(    6) = (   0.0000000   0.4166667   0.0000000), wk =   0.0833333
        k(    7) = (   0.0000000  -0.5000000   0.0000000), wk =   0.0416667
        k(    8) = (   0.0833333   0.0833333   0.0000000), wk =   0.0833333
        k(    9) = (   0.0833333   0.1666667   0.0000000), wk =   0.1666667
        k(   10) = (   0.0833333   0.2500000   0.0000000), wk =   0.1666667
        k(   11) = (   0.0833333   0.3333333   0.0000000), wk =   0.1666667
        k(   12) = (   0.0833333   0.4166667   0.0000000), wk =   0.1666667
        k(   13) = (   0.1666667   0.1666667   0.0000000), wk =   0.0833333
        k(   14) = (   0.1666667   0.2500000   0.0000000), wk =   0.1666667
        k(   15) = (   0.1666667   0.3333333   0.0000000), wk =   0.1666667
        k(   16) = (   0.1666667   0.4166667   0.0000000), wk =   0.0833333
        k(   17) = (   0.2500000   0.2500000   0.0000000), wk =   0.0833333
        k(   18) = (   0.2500000   0.3333333   0.0000000), wk =   0.1666667
        k(   19) = (   0.3333333   0.3333333   0.0000000), wk =   0.0277778

     Dense  grid:   111671 G-vectors     FFT dimensions: (  30,  30, 288)

     Smooth grid:    52021 G-vectors     FFT dimensions: (  24,  24, 225)

     Dynamical RAM for                 wfc:       1.38 MB

     Dynamical RAM for     wfc (w. buffer):       8.31 MB

     Dynamical RAM for           str. fact:       1.70 MB

     Dynamical RAM for           local pot:       0.00 MB

     Dynamical RAM for          nlocal pot:       3.16 MB

     Dynamical RAM for                qrad:       0.46 MB

     Dynamical RAM for          rho,v,vnew:      11.04 MB

     Dynamical RAM for               rhoin:       3.68 MB

     Dynamical RAM for            rho*nmix:      27.26 MB

     Dynamical RAM for           G-vectors:       6.79 MB

     Dynamical RAM for          h,s,v(r/c):       0.04 MB

     Dynamical RAM for          <psi|beta>:       0.01 MB

     Dynamical RAM for                 psi:       2.77 MB

     Dynamical RAM for                hpsi:       2.77 MB

     Dynamical RAM for                spsi:       2.77 MB

     Dynamical RAM for      wfcinit/wfcrot:       2.77 MB

     Dynamical RAM for           addusdens:      21.30 MB

     Dynamical RAM for          addusforce:      23.43 MB

     Estimated static dynamical RAM per process >      48.44 MB

     Estimated max dynamical RAM per process >      99.14 MB

     Estimated total dynamical RAM >     314.76 MB
 ----2D----2D----2D----2D----2D----2D----2D----2D----2D----2D----2D----2D
  The code is running with the 2D cutoff
  Please refer to:
  Sohier, T., Calandra, M., & Mauri, F. (2017), 
  Density functional perturbation theory for gated two-dimensional heterostructures:
  Theoretical developments and application to flexural phonons in graphene.
  Physical Review B, 96(7), 75448. https://doi.org/10.1103/PhysRevB.96.075448
 ----2D----2D----2D----2D----2D----2D----2D----2D----2D----2D----2D----2D

     Check: negative core charge=   -0.000003

     Initial potential from superposition of free atoms

     starting charge      15.9998, renormalised to      16.0000

     negative rho (up, down):  1.197E-04 0.000E+00
     Starting wfcs are   16 randomized atomic wfcs
     Checking if some PAW data can be deallocated... 

     total cpu time spent up to now is        2.3 secs

     Self-consistent Calculation

     iteration #  1     ecut=    60.00 Ry     beta= 0.70
     Davidson diagonalization with overlap

---- Real-time Memory Report at c_bands before calling an iterative solver
            97 MiB given to the printing process from OS
             0 MiB allocation reported by mallinfo(arena+hblkhd)
          3590 MiB available memory on the node where the printing process lives
------------------
     ethr =  1.00E-02,  avg # of iterations =  5.6

     negative rho (up, down):  9.729E-05 0.000E+00

     total cpu time spent up to now is        4.4 secs

     total energy              =     -73.72659478 Ry
     estimated scf accuracy    <       0.37662110 Ry

     iteration #  2     ecut=    60.00 Ry     beta= 0.70
     Davidson diagonalization with overlap

---- Real-time Memory Report at c_bands before calling an iterative solver
           119 MiB given to the printing process from OS
             0 MiB allocation reported by mallinfo(arena+hblkhd)
          3511 MiB available memory on the node where the printing process lives
------------------
     ethr =  2.35E-03,  avg # of iterations =  4.9

     negative rho (up, down):  1.202E-04 0.000E+00

     total cpu time spent up to now is        6.5 secs

     total energy              =     -73.77370829 Ry
     estimated scf accuracy    <       0.00414544 Ry

     iteration #  3     ecut=    60.00 Ry     beta= 0.70
     Davidson diagonalization with overlap

---- Real-time Memory Report at c_bands before calling an iterative solver
           120 MiB given to the printing process from OS
             0 MiB allocation reported by mallinfo(arena+hblkhd)
          3509 MiB available memory on the node where the printing process lives
------------------
     c_bands:  1 eigenvalues not converged
     ethr =  2.59E-05,  avg # of iterations = 11.6

     negative rho (up, down):  1.406E-04 0.000E+00

     total cpu time spent up to now is        9.0 secs

     total energy              =     -73.77438982 Ry
     estimated scf accuracy    <       0.00033962 Ry

     iteration #  4     ecut=    60.00 Ry     beta= 0.70
     Davidson diagonalization with overlap

---- Real-time Memory Report at c_bands before calling an iterative solver
           122 MiB given to the printing process from OS
             0 MiB allocation reported by mallinfo(arena+hblkhd)
          3539 MiB available memory on the node where the printing process lives
------------------
     ethr =  2.12E-06,  avg # of iterations =  5.6

     negative rho (up, down):  1.415E-04 0.000E+00

     total cpu time spent up to now is       11.4 secs

     total energy              =     -73.77442190 Ry
     estimated scf accuracy    <       0.00005692 Ry

     iteration #  5     ecut=    60.00 Ry     beta= 0.70
     Davidson diagonalization with overlap

---- Real-time Memory Report at c_bands before calling an iterative solver
           123 MiB given to the printing process from OS
             0 MiB allocation reported by mallinfo(arena+hblkhd)
          3545 MiB available memory on the node where the printing process lives
------------------
     ethr =  3.56E-07,  avg # of iterations =  2.2

     negative rho (up, down):  1.422E-04 0.000E+00

     total cpu time spent up to now is       13.2 secs

     total energy              =     -73.77443341 Ry
     estimated scf accuracy    <       0.00000200 Ry

     iteration #  6     ecut=    60.00 Ry     beta= 0.70
     Davidson diagonalization with overlap

---- Real-time Memory Report at c_bands before calling an iterative solver
           125 MiB given to the printing process from OS
             0 MiB allocation reported by mallinfo(arena+hblkhd)
          3549 MiB available memory on the node where the printing process lives
------------------
     ethr =  1.25E-08,  avg # of iterations =  2.8

     negative rho (up, down):  1.423E-04 0.000E+00

     total cpu time spent up to now is       15.4 secs

     total energy              =     -73.77443426 Ry
     estimated scf accuracy    <       0.00000025 Ry

     iteration #  7     ecut=    60.00 Ry     beta= 0.70
     Davidson diagonalization with overlap

---- Real-time Memory Report at c_bands before calling an iterative solver
           127 MiB given to the printing process from OS
             0 MiB allocation reported by mallinfo(arena+hblkhd)
          3531 MiB available memory on the node where the printing process lives
------------------
     ethr =  1.57E-09,  avg # of iterations =  1.7

     negative rho (up, down):  1.424E-04 0.000E+00

     total cpu time spent up to now is       17.2 secs

     total energy              =     -73.77443428 Ry
     estimated scf accuracy    <       0.00000005 Ry

     iteration #  8     ecut=    60.00 Ry     beta= 0.70
     Davidson diagonalization with overlap

---- Real-time Memory Report at c_bands before calling an iterative solver
           128 MiB given to the printing process from OS
             0 MiB allocation reported by mallinfo(arena+hblkhd)
          3538 MiB available memory on the node where the printing process lives
------------------
     ethr =  3.07E-10,  avg # of iterations =  2.0

     negative rho (up, down):  1.424E-04 0.000E+00

     total cpu time spent up to now is       19.2 secs

     End of self-consistent calculation

          k = 0.0000 0.0000 0.0000 (  6469 PWs)   bands (ev):

   -23.8231 -23.7965 -12.0505 -11.7367  -7.2730  -7.2730  -7.2721  -7.2721
    -1.0191  -0.5599   0.5598   1.7153   2.2352   2.6082

     occupation numbers 
     1.0000   1.0000   1.0000   1.0000   1.0000   1.0000   1.0000   1.0000
     0.0000   0.0000   0.0000   0.0000   0.0000   0.0000

          k = 0.0000 0.0962 0.0000 (  6478 PWs)   bands (ev):

   -23.6583 -23.6320 -11.8521 -11.5410  -7.9264  -7.9245  -7.6144  -7.6130
    -0.7983  -0.3353   0.7778   1.9386   2.4554   2.8364

     occupation numbers 
     1.0000   1.0000   1.0000   1.0000   1.0000   1.0000   1.0000   1.0000
     0.0000   0.0000   0.0000   0.0000   0.0000   0.0000

          k = 0.0000 0.1925 0.0000 (  6486 PWs)   bands (ev):

   -23.1657 -23.1404 -11.2619 -10.9590  -9.5716  -9.5674  -8.4134  -8.4112
    -0.1358   0.3373   1.4298   2.6066   3.1108   3.5207

     occupation numbers 
     1.0000   1.0000   1.0000   1.0000   1.0000   1.0000   1.0000   1.0000
     0.0000   0.0000   0.0000   0.0000   0.0000   0.0000

          k = 0.0000 0.2887 0.0000 (  6494 PWs)   bands (ev):

   -22.3511 -22.3274 -11.6802 -11.6733 -10.2987 -10.0108  -9.3000  -9.2973
     0.9649   1.4481   2.4622   3.0414   3.1374   3.6788

     occupation numbers 
     1.0000   1.0000   1.0000   1.0000   1.0000   1.0000   1.0000   1.0000
     0.0000   0.0000   0.0000   0.0000   0.0000   0.0000

          k = 0.0000 0.3849 0.0000 (  6484 PWs)   bands (ev):

   -21.2265 -21.2050 -13.8946 -13.8848 -10.0388 -10.0358  -9.0104  -8.7490
     0.6544   0.7787   2.4890   3.0245   3.5541   3.5806

     occupation numbers 
     1.0000   1.0000   1.0000   1.0000   1.0000   1.0000   1.0000   1.0000
     0.0000   0.0000   0.0000   0.0000   0.0000   0.0000

          k = 0.0000 0.4811 0.0000 (  6486 PWs)   bands (ev):

   -19.8225 -19.8038 -16.0062 -15.9937 -10.5150 -10.5119  -7.5524  -7.3460
    -1.5098  -1.3557   3.2970   3.3305   4.4802   5.0314

     occupation numbers 
     1.0000   1.0000   1.0000   1.0000   1.0000   1.0000   1.0000   1.0000
     0.0000   0.0000   0.0000   0.0000   0.0000   0.0000

          k = 0.0000-0.5774 0.0000 (  6508 PWs)   bands (ev):

   -18.5415 -18.5326 -17.5233 -17.5163 -10.6786 -10.6754  -6.6495  -6.5517
    -2.6032  -2.4703   3.2168   3.2554   6.7388   6.8368

     occupation numbers 
     1.0000   1.0000   1.0000   1.0000   1.0000   1.0000   1.0000   1.0000
     0.0000   0.0000   0.0000   0.0000   0.0000   0.0000

          k = 0.0833 0.1443 0.0000 (  6487 PWs)   bands (ev):

   -23.3296 -23.3040 -11.4577 -11.1520  -8.9636  -8.9617  -8.2971  -8.2958
    -0.3563   0.1135   1.2135   2.3852   2.8943   3.2929

     occupation numbers 
     1.0000   1.0000   1.0000   1.0000   1.0000   1.0000   1.0000   1.0000
     0.0000   0.0000   0.0000   0.0000   0.0000   0.0000

          k = 0.0833 0.2406 0.0000 (  6474 PWs)   bands (ev):

   -22.6760 -22.6517 -10.6826 -10.6787 -10.6768 -10.3857  -9.3029  -9.3003
     0.5265   1.0084   2.0782   3.2734   3.7325   3.9050

     occupation numbers 
     1.0000   1.0000   1.0000   1.0000   1.0000   1.0000   1.0000   1.0000
     0.0000   0.0000   0.0000   0.0000   0.0000   0.0000

          k = 0.0833 0.3368 0.0000 (  6487 PWs)   bands (ev):

   -21.7063 -21.6839 -12.7652 -12.7574 -10.1954 -10.1918  -9.5480  -9.2737
     1.6875   1.7796   1.8465   2.3734   3.3915   4.3650

     occupation numbers 
     1.0000   1.0000   1.0000   1.0000   1.0000   1.0000   1.0000   1.0000
     0.0000   0.0000   0.0000   0.0000   0.0000   0.0000

          k = 0.0833 0.4330 0.0000 (  6482 PWs)   bands (ev):

   -20.4391 -20.4191 -14.8994 -14.8885 -10.8344 -10.8303  -8.1428  -7.9047
    -0.5448  -0.4128   3.5655   4.0443   4.1846   4.2214

     occupation numbers 
     1.0000   1.0000   1.0000   1.0000   1.0000   1.0000   1.0000   1.0000
     0.0000   0.0000   0.0000   0.0000   0.0000   0.0000

          k = 0.0833 0.5292 0.0000 (  6501 PWs)   bands (ev):

   -18.9487 -18.9326 -16.8529 -16.8402 -11.1649 -11.1606  -6.7825  -6.6326
    -2.3260  -2.1913   3.9545   3.9981   5.7427   6.3067

     occupation numbers 
     1.0000   1.0000   1.0000   1.0000   1.0000   1.0000   1.0000   1.0000
     0.0000   0.0000   0.0000   0.0000   0.0000   0.0000

          k = 0.1667 0.2887 0.0000 (  6494 PWs)   bands (ev):

   -21.8673 -21.8446 -12.0146 -12.0110 -10.6746 -10.6719  -9.7298  -9.4514
     1.6274   2.1219   2.1689   2.2270   3.1498   4.3871

     occupation numbers 
     1.0000   1.0000   1.0000   1.0000   1.0000   1.0000   1.0000   1.0000
     0.0000   0.0000   0.0000   0.0000   0.0000   0.0000

          k = 0.1667 0.3849 0.0000 (  6484 PWs)   bands (ev):

   -20.7536 -20.7330 -13.7516 -13.7441 -11.7375 -11.7326  -8.4568  -8.2047
     0.1955   0.2777   3.1546   3.6651   4.6000   5.8709

     occupation numbers 
     1.0000   1.0000   1.0000   1.0000   1.0000   1.0000   1.0000   1.0000
     0.0000   0.0000   0.0000   0.0000   0.0000   0.0000

          k = 0.1667 0.4811 0.0000 (  6474 PWs)   bands (ev):

   -19.3696 -19.3518 -15.6745 -15.6633 -12.3161 -12.3099  -6.9968  -6.7953
    -1.7435  -1.6333   5.0711   5.5693   5.8677   5.9267

     occupation numbers 
     1.0000   1.0000   1.0000   1.0000   1.0000   1.0000   1.0000   1.0000
     0.0000   0.0000   0.0000   0.0000   0.0000   0.0000

          k = 0.1667 0.5774 0.0000 (  6478 PWs)   bands (ev):

   -18.1190 -18.1106 -17.1197 -17.1135 -12.5018 -12.4952  -6.0471  -5.9512
    -2.7992  -2.7256   5.7489   5.8281   7.1630   7.1685

     occupation numbers 
     1.0000   1.0000   1.0000   1.0000   1.0000   1.0000   1.0000   1.0000
     0.0000   0.0000   0.0000   0.0000   0.0000   0.0000

          k = 0.2500 0.4330 0.0000 (  6442 PWs)   bands (ev):

   -19.5185 -19.5003 -14.7865 -14.7811 -13.2314 -13.2272  -7.0892  -6.8718
    -1.4264  -1.3489   4.8637   5.3321   5.9494   7.4781

     occupation numbers 
     1.0000   1.0000   1.0000   1.0000   1.0000   1.0000   1.0000   1.0000
     0.0000   0.0000   0.0000   0.0000   0.0000   0.0000

          k = 0.2500 0.5292 0.0000 (  6455 PWs)   bands (ev):

   -18.0860 -18.0716 -16.2188 -16.2094 -13.9431 -13.9360  -5.6617  -5.5126
    -2.9537  -2.8798   6.4965   6.6412   6.9880   7.9437

     occupation numbers 
     1.0000   1.0000   1.0000   1.0000   1.0000   1.0000   1.0000   1.0000
     0.0000   0.0000   0.0000   0.0000   0.0000   0.0000

          k = 0.3333 0.5774 0.0000 (  6450 PWs)   bands (ev):

   -16.8612 -16.8538 -16.8538 -16.8469 -14.8475 -14.8475  -4.3119  -4.2228
    -4.2228  -4.1327   6.3566   6.3567   8.3597   8.6773

     occupation numbers 
     1.0000   1.0000   1.0000   1.0000   1.0000   1.0000   0.8233   0.5009
     0.5009   0.1749   0.0000   0.0000   0.0000   0.0000

     the Fermi energy is    -4.2226 ev

!    total energy              =     -73.77443429 Ry
     total all-electron energy =      -304.830823 Ry
     estimated scf accuracy    <          2.9E-09 Ry
     smearing contrib. (-TS)   =      -0.00025828 Ry
     internal energy E=F+TS    =     -73.77417601 Ry

     The total energy is F=E-TS. E is the sum of the following terms:
     one-electron contribution =   -1137.65742648 Ry
     hartree contribution      =     570.59538969 Ry
     xc contribution           =     -18.57089369 Ry
     ewald contribution        =     536.52756746 Ry
     one-center paw contrib.   =     -24.66881299 Ry
      -> PAW hartree energy AE =       9.52781298 Ry
      -> PAW hartree energy PS =      -9.51913286 Ry
      -> PAW xc energy AE      =     -10.68321770 Ry
      -> PAW xc energy PS      =       4.50733786 Ry
      -> total E_H with PAW    =     570.60406982 Ry
      -> total E_XC with PAW   =     -24.74677353 Ry

     convergence has been achieved in   8 iterations

     negative rho (up, down):  1.424E-04 0.000E+00

     Forces acting on atoms (cartesian axes, Ry/au):

     atom    1 type  1   force =     0.00000000   -0.00000000   -0.00060009
     atom    2 type  1   force =     0.00000000   -0.00000000    0.00032638
     atom    3 type  1   force =     0.00000000    0.00000000   -0.00032638
     atom    4 type  1   force =     0.00000000    0.00000000    0.00060009
     The non-local contrib.  to forces
     atom    1 type  1   force =     0.00000000    0.00000000   -0.00103654
     atom    2 type  1   force =     0.00000000    0.00000000    0.00062566
     atom    3 type  1   force =     0.00000000    0.00000000   -0.00062566
     atom    4 type  1   force =     0.00000000   -0.00000000    0.00103654
     The ionic contribution  to forces
     atom    1 type  1   force =     0.00000053    0.00000661  -21.47765149
     atom    2 type  1   force =    -0.00000053   -0.00000661  -21.49475145
     atom    3 type  1   force =    -0.00000053    0.00000661   21.49475145
     atom    4 type  1   force =     0.00000053   -0.00000661   21.47765149
     The local contribution  to forces
     atom    1 type  1   force =    -0.00000000   -0.00000189   21.47820736
     atom    2 type  1   force =    -0.00000038    0.00000002   21.49460245
     atom    3 type  1   force =    -0.00000038   -0.00000377  -21.49460246
     atom    4 type  1   force =    -0.00000000   -0.00000185  -21.47820736
     The core correction contribution to forces
     atom    1 type  1   force =     0.00000000   -0.00000000   -0.00005080
     atom    2 type  1   force =     0.00000004    0.00000021   -0.00008220
     atom    3 type  1   force =     0.00000004    0.00000020    0.00008220
     atom    4 type  1   force =     0.00000000    0.00000041    0.00005080
     The Hubbard contrib.    to forces
     atom    1 type  1   force =     0.00000000    0.00000000    0.00000000
     atom    2 type  1   force =     0.00000000    0.00000000    0.00000000
     atom    3 type  1   force =     0.00000000    0.00000000    0.00000000
     atom    4 type  1   force =     0.00000000    0.00000000    0.00000000
     The SCF correction term to forces
     atom    1 type  1   force =    -0.00000000    0.00000000   -0.00006862
     atom    2 type  1   force =    -0.00000000    0.00000000   -0.00006808
     atom    3 type  1   force =    -0.00000000   -0.00000000    0.00006808
     atom    4 type  1   force =    -0.00000000   -0.00000000    0.00006862

     Total force =     0.000966     Total SCF correction =     0.000137
     SCF correction compared to forces is large: reduce conv_thr to get better values

     Writing all to output data dir /home/ubuntu/projects/Graphene-Band-Structure-Quantum-Espresso/outputs/bilayer/field_0Ry/coupled/data/coupled.save/ :
     XML data file, charge density, pseudopotentials, collected wavefunctions

     init_run     :      2.06s CPU      2.22s WALL (       1 calls)
     electrons    :     16.76s CPU     16.93s WALL (       1 calls)
     forces       :      0.56s CPU      0.62s WALL (       1 calls)

     Called by init_run:
     wfcinit      :      0.46s CPU      0.47s WALL (       1 calls)
     wfcinit:atom :      0.00s CPU      0.00s WALL (       5 calls)
     wfcinit:wfcr :      0.43s CPU      0.43s WALL (       5 calls)
     potinit      :      0.54s CPU      0.60s WALL (       1 calls)
     hinit0       :      0.95s CPU      0.99s WALL (       1 calls)

     Called by electrons:
     c_bands      :     12.27s CPU     12.32s WALL (       8 calls)
     sum_band     :      1.87s CPU      1.91s WALL (       8 calls)
     v_of_rho     :      1.22s CPU      1.31s WALL (       9 calls)
     v_h          :      0.06s CPU      0.06s WALL (       9 calls)
     v_xc         :      1.32s CPU      1.43s WALL (      10 calls)
     newd         :      0.45s CPU      0.46s WALL (       9 calls)
     PAW_pot      :      0.92s CPU      0.92s WALL (       9 calls)
     mix_rho      :      0.12s CPU      0.12s WALL (       8 calls)

     Called by c_bands:
     init_us_2    :      0.16s CPU      0.17s WALL (      90 calls)
     cegterg      :      9.98s CPU     10.02s WALL (      40 calls)

     Called by sum_band:
     sum_band:wei :      0.00s CPU      0.00s WALL (       8 calls)
     sum_band:loo :      1.09s CPU      1.09s WALL (       8 calls)
     sum_band:buf :      0.01s CPU      0.01s WALL (      40 calls)
     sum_band:ini :      0.07s CPU      0.07s WALL (      40 calls)
     sum_band:cal :      0.29s CPU      0.29s WALL (      40 calls)
     sum_band:bec :      0.00s CPU      0.00s WALL (      40 calls)
     addusdens    :      0.32s CPU      0.34s WALL (       8 calls)
     addusd:skk   :      0.01s CPU      0.01s WALL (       8 calls)

     Called by *egterg:
     cdiaghg      :      0.08s CPU      0.08s WALL (     234 calls)
     cegterg:over :      0.85s CPU      0.85s WALL (     194 calls)
     cegterg:upda :      0.56s CPU      0.57s WALL (     194 calls)
     cegterg:last :      1.37s CPU      1.37s WALL (     100 calls)
     h_psi        :      6.25s CPU      6.28s WALL (     239 calls)
     s_psi        :      0.88s CPU      0.89s WALL (     239 calls)
     g_psi        :      0.04s CPU      0.04s WALL (     194 calls)

     Called by h_psi:
     h_psi:calbec :      0.89s CPU      0.89s WALL (     239 calls)
     vloc_psi     :      4.44s CPU      4.46s WALL (     239 calls)
     add_vuspsi   :      0.90s CPU      0.90s WALL (     239 calls)

     General routines
     calbec       :      1.35s CPU      1.36s WALL (     299 calls)
     fft          :      1.15s CPU      1.16s WALL (     126 calls)
     ffts         :      0.31s CPU      0.31s WALL (      17 calls)
     fftw         :      4.47s CPU      4.49s WALL (    4016 calls)
     interpolate  :      0.34s CPU      0.34s WALL (       9 calls)

     Parallel routines

     PAW routines
     PAW_pot      :      0.92s CPU      0.92s WALL (       9 calls)
     PAW_symme    :      0.01s CPU      0.01s WALL (      17 calls)

     PWSCF        :     19.51s CPU     19.96s WALL


   This run was terminated on:  10:54: 6   7Sep2026            

=------------------------------------------------------------------------------=
   JOB DONE.
=------------------------------------------------------------------------------=
Note: The following floating-point exceptions are signalling: IEEE_UNDERFLOW_FLAG IEEE_DENORMAL
