&CONTROL
   calculation      = 'bands'
   verbosity        = 'high'
   tprnfor          = .true.
   outdir           = '/Users/memo/Desktop/New Horizons/Graphene Band Structure QE/outputs/bilayer/data'
   prefix           = 'graphene'
   pseudo_dir       = '/Users/memo/Desktop/New Horizons/Graphene Band Structure QE/pseudo'
/
&SYSTEM
   nbnd             = 12
   ecutwfc          = 100.0
   ecutrho          = 400.0
   assume_isolated  = '2D'
   ntyp             = 1
   nat              = 4
   ibrav            = 0
/
&ELECTRONS
   electron_maxstep = 200
   conv_thr         = 1e-08
   mixing_beta      = 0.7
/
&IONS
/
&CELL
/
&FCP
/
&RISM
/
ATOMIC_SPECIES
C 12.011 C.pbe-n-kjpaw_psl.1.0.0.UPF

K_POINTS crystal_b
100
0.00000000000000 0.00000000000000 0.00000000000000 0
0.01388888888889 0.00000000000000 0.00000000000000 0
0.02777777777778 0.00000000000000 0.00000000000000 0
0.04166666666667 0.00000000000000 0.00000000000000 0
0.05555555555556 0.00000000000000 0.00000000000000 0
0.06944444444444 0.00000000000000 0.00000000000000 0
0.08333333333333 0.00000000000000 0.00000000000000 0
0.09722222222222 0.00000000000000 0.00000000000000 0
0.11111111111111 0.00000000000000 0.00000000000000 0
0.12500000000000 0.00000000000000 0.00000000000000 0
0.13888888888889 0.00000000000000 0.00000000000000 0
0.15277777777778 0.00000000000000 0.00000000000000 0
0.16666666666667 0.00000000000000 0.00000000000000 0
0.18055555555556 0.00000000000000 0.00000000000000 0
0.19444444444444 0.00000000000000 0.00000000000000 0
0.20833333333333 0.00000000000000 0.00000000000000 0
0.22222222222222 0.00000000000000 0.00000000000000 0
0.23611111111111 0.00000000000000 0.00000000000000 0
0.25000000000000 0.00000000000000 0.00000000000000 0
0.26388888888889 0.00000000000000 0.00000000000000 0
0.27777777777778 0.00000000000000 0.00000000000000 0
0.29166666666667 0.00000000000000 0.00000000000000 0
0.30555555555556 0.00000000000000 0.00000000000000 0
0.31944444444444 0.00000000000000 0.00000000000000 0
0.33333333333333 0.00000000000000 0.00000000000000 0
0.34722222222222 0.00000000000000 0.00000000000000 0
0.36111111111111 0.00000000000000 0.00000000000000 0
0.37500000000000 0.00000000000000 0.00000000000000 0
0.38888888888889 0.00000000000000 0.00000000000000 0
0.40277777777778 0.00000000000000 0.00000000000000 0
0.41666666666667 0.00000000000000 0.00000000000000 0
0.43055555555556 0.00000000000000 0.00000000000000 0
0.44444444444444 0.00000000000000 0.00000000000000 0
0.45833333333333 0.00000000000000 0.00000000000000 0
0.47222222222222 0.00000000000000 0.00000000000000 0
0.48611111111111 0.00000000000000 0.00000000000000 0
0.50000000000000 0.00000000000000 0.00000000000000 0
0.49166666666667 0.01666666666667 0.00000000000000 0
0.48333333333333 0.03333333333333 0.00000000000000 0
0.47500000000000 0.05000000000000 0.00000000000000 0
0.46666666666667 0.06666666666667 0.00000000000000 0
0.45833333333333 0.08333333333333 0.00000000000000 0
0.45000000000000 0.10000000000000 0.00000000000000 0
0.44166666666667 0.11666666666667 0.00000000000000 0
0.43333333333333 0.13333333333333 0.00000000000000 0
0.42500000000000 0.15000000000000 0.00000000000000 0
0.41666666666667 0.16666666666667 0.00000000000000 0
0.40833333333333 0.18333333333333 0.00000000000000 0
0.40000000000000 0.20000000000000 0.00000000000000 0
0.39166666666667 0.21666666666667 0.00000000000000 0
0.38333333333333 0.23333333333333 0.00000000000000 0
0.37500000000000 0.25000000000000 0.00000000000000 0
0.36666666666667 0.26666666666667 0.00000000000000 0
0.35833333333333 0.28333333333333 0.00000000000000 0
0.35000000000000 0.30000000000000 0.00000000000000 0
0.34166666666667 0.31666666666667 0.00000000000000 0
0.33333333333333 0.33333333333333 0.00000000000000 0
0.32558139534884 0.32558139534884 0.00000000000000 0
0.31782945736434 0.31782945736434 0.00000000000000 0
0.31007751937984 0.31007751937984 0.00000000000000 0
0.30232558139535 0.30232558139535 0.00000000000000 0
0.29457364341085 0.29457364341085 0.00000000000000 0
0.28682170542636 0.28682170542636 0.00000000000000 0
0.27906976744186 0.27906976744186 0.00000000000000 0
0.27131782945736 0.27131782945736 0.00000000000000 0
0.26356589147287 0.26356589147287 0.00000000000000 0
0.25581395348837 0.25581395348837 0.00000000000000 0
0.24806201550388 0.24806201550388 0.00000000000000 0
0.24031007751938 0.24031007751938 0.00000000000000 0
0.23255813953488 0.23255813953488 0.00000000000000 0
0.22480620155039 0.22480620155039 0.00000000000000 0
0.21705426356589 0.21705426356589 0.00000000000000 0
0.20930232558140 0.20930232558140 0.00000000000000 0
0.20155038759690 0.20155038759690 0.00000000000000 0
0.19379844961240 0.19379844961240 0.00000000000000 0
0.18604651162791 0.18604651162791 0.00000000000000 0
0.17829457364341 0.17829457364341 0.00000000000000 0
0.17054263565891 0.17054263565891 0.00000000000000 0
0.16279069767442 0.16279069767442 0.00000000000000 0
0.15503875968992 0.15503875968992 0.00000000000000 0
0.14728682170543 0.14728682170543 0.00000000000000 0
0.13953488372093 0.13953488372093 0.00000000000000 0
0.13178294573643 0.13178294573643 0.00000000000000 0
0.12403100775194 0.12403100775194 0.00000000000000 0
0.11627906976744 0.11627906976744 0.00000000000000 0
0.10852713178295 0.10852713178295 0.00000000000000 0
0.10077519379845 0.10077519379845 0.00000000000000 0
0.09302325581395 0.09302325581395 0.00000000000000 0
0.08527131782946 0.08527131782946 0.00000000000000 0
0.07751937984496 0.07751937984496 0.00000000000000 0
0.06976744186047 0.06976744186047 0.00000000000000 0
0.06201550387597 0.06201550387597 0.00000000000000 0
0.05426356589147 0.05426356589147 0.00000000000000 0
0.04651162790698 0.04651162790698 0.00000000000000 0
0.03875968992248 0.03875968992248 0.00000000000000 0
0.03100775193798 0.03100775193798 0.00000000000000 0
0.02325581395349 0.02325581395349 0.00000000000000 0
0.01550387596899 0.01550387596899 0.00000000000000 0
0.00775193798450 0.00775193798450 0.00000000000000 0
0.00000000000000 0.00000000000000 0.00000000000000 0

CELL_PARAMETERS angstrom
2.45999984708052 0.00000000000000 0.00000000000000
-1.22999992354026 2.13042136756791 0.00000000000000
0.00000000000000 0.00000000000000 23.34999874850822

ATOMIC_POSITIONS angstrom
C 0.0000000000 0.0000000000 9.6186408706  
C 1.2300000000 0.7101408311 9.6178851655  
C 1.2300000000 0.7101408311 13.7321148345  
C 0.0000000000 1.4202816622 13.7313591294  

