
     Program PWSCF v.7.5 starts on 30Aug2026 at  0:14:51 

     This program is part of the open-source Quantum ESPRESSO suite
     for quantum simulation of materials; please cite
         "P. Giannozzi et al., J. Phys.:Condens. Matter 21 395502 (2009);
         "P. Giannozzi et al., J. Phys.:Condens. Matter 29 465901 (2017);
         "P. Giannozzi et al., J. Chem. Phys. 152 154105 (2020);
          URL http://www.quantum-espresso.org", 
     in publications or presentations arising from this work. More details at
     http://www.quantum-espresso.org/quote

     Parallel version (MPI & OpenMP), running on       8 processor cores
     Number of MPI processes:                 1
     Threads/MPI process:                     8

     MPI processes distributed on     1 nodes
     0 MiB available memory on the printing compute node when the environment starts

     Waiting for input...
     Reading input from standard input
Warning: card &CELL ignored
Warning: card &FCP ignored
Warning: card &RISM ignored

     Current dimensions of program PWSCF are:
     Max number of different atomic species (ntypx) = 10
     Max number of k-points (npk) =  40000
     Max angular momentum in pseudopotentials (lmaxx) =  4
     file C.pbe-n-kjpaw_psl.1.0.0.UPF: wavefunction(s)  2S 2P renormalized
     Message from routine setup:
     using ibrav=0 with symmetry is DISCOURAGED, use correct ibrav instead

     Subspace diagonalization in iterative solution of the eigenvalue problem:
     a serial algorithm will be used


     G-vector sticks info
     --------------------
     sticks:   dense  smooth     PW     G-vecs:    dense   smooth      PW
     Sum         595     595    169               111671   111671   17805

     Using Slab Decomposition



     bravais-lattice index     =            0
     lattice parameter (alat)  =       4.6487  a.u.
     unit-cell volume          =     825.8180 (a.u.)^3
     number of atoms/cell      =            4
     number of atomic types    =            1
     number of electrons       =        16.00
     number of Kohn-Sham states=           12
     kinetic-energy cutoff     =     100.0000  Ry
     charge density cutoff     =     400.0000  Ry
     scf convergence threshold =      1.0E-08
     mixing beta               =       0.7000
     number of iterations used =            8  plain     mixing
     energy convergence thresh.=      1.0E-04
     force convergence thresh. =      1.0E-03
     Exchange-correlation= SLA  PW   PBX  PBC
                           (   1   4   3   4   0   0   0)
     nstep                     =           50


     celldm(1)=   4.648726  celldm(2)=   0.000000  celldm(3)=   0.000000
     celldm(4)=   0.000000  celldm(5)=   0.000000  celldm(6)=   0.000000

     crystal axes: (cart. coord. in units of alat)
               a(1) = (   1.000000   0.000000   0.000000 )  
               a(2) = (  -0.500000   0.866025   0.000000 )  
               a(3) = (   0.000000   0.000000   9.491870 )  

     reciprocal axes: (cart. coord. in units 2 pi/alat)
               b(1) = (  1.000000  0.577350 -0.000000 )  
               b(2) = (  0.000000  1.154701  0.000000 )  
               b(3) = (  0.000000 -0.000000  0.105353 )  


     PseudoPot. # 1 for C  read from file:
     /Users/memo/Desktop/New Horizons/Graphene Band Structure QE/pseudo/C.pbe-n-kjpaw_psl.1.0.0.UPF
     MD5 check sum: 5f16ad9a65e90284d1d834d4ab3b0f7d
     Pseudo is Projector augmented-wave + core cor, Zval =  4.0
     Generated using &quot;atomic&quot; code by A. Dal Corso  v.6.3
     Shape of augmentation charge: PSQ
     Using radial grid of 1073 points,  4 beta functions with: 
                l(1) =   0
                l(2) =   0
                l(3) =   1
                l(4) =   1
     Q(r) pseudized with 0 coefficients 


     atomic species   valence    mass     pseudopotential
     C                 4.00    12.01100     C ( 1.00)

     12 Sym. Ops., with inversion, found ( 6 have fractional translation)


                                    s                        frac. trans.

      isym =  1     identity                                     

 cryst.   s( 1) = (     1          0          0      )
                  (     0          1          0      )
                  (     0          0          1      )

 cart.    s( 1) = (  1.0000000  0.0000000  0.0000000 )
                  (  0.0000000  1.0000000  0.0000000 )
                  (  0.0000000  0.0000000  1.0000000 )


      isym =  2     180 deg rotation - cart. axis [1,0,0]        

 cryst.   s( 2) = (     1          0          0      )    f =( -0.3333333 )
                  (    -1         -1          0      )       (  0.3333333 )
                  (     0          0         -1      )       (  0.0000000 )

 cart.    s( 2) = (  1.0000000  0.0000000  0.0000000 )    f =( -0.5000000 )
                  (  0.0000000 -1.0000000  0.0000000 )       (  0.2886751 )
                  (  0.0000000  0.0000000 -1.0000000 )       (  0.0000000 )


      isym =  3     120 deg rotation - cryst. axis [0,0,1]       

 cryst.   s( 3) = (     0          1          0      )
                  (    -1         -1          0      )
                  (     0          0          1      )

 cart.    s( 3) = ( -0.5000000 -0.8660254  0.0000000 )
                  (  0.8660254 -0.5000000  0.0000000 )
                  (  0.0000000  0.0000000  1.0000000 )


      isym =  4     120 deg rotation - cryst. axis [0,0,-1]      

 cryst.   s( 4) = (    -1         -1          0      )
                  (     1          0          0      )
                  (     0          0          1      )

 cart.    s( 4) = ( -0.5000000  0.8660254  0.0000000 )
                  ( -0.8660254 -0.5000000  0.0000000 )
                  (  0.0000000  0.0000000  1.0000000 )


      isym =  5     180 deg rotation - cryst. axis [0,1,0]       

 cryst.   s( 5) = (    -1         -1          0      )    f =( -0.3333333 )
                  (     0          1          0      )       (  0.3333333 )
                  (     0          0         -1      )       (  0.0000000 )

 cart.    s( 5) = ( -0.5000000 -0.8660254  0.0000000 )    f =( -0.5000000 )
                  ( -0.8660254  0.5000000  0.0000000 )       (  0.2886751 )
                  (  0.0000000  0.0000000 -1.0000000 )       (  0.0000000 )


      isym =  6     180 deg rotation - cryst. axis [1,1,0]       

 cryst.   s( 6) = (     0          1          0      )    f =( -0.3333333 )
                  (     1          0          0      )       (  0.3333333 )
                  (     0          0         -1      )       (  0.0000000 )

 cart.    s( 6) = ( -0.5000000  0.8660254  0.0000000 )    f =( -0.5000000 )
                  (  0.8660254  0.5000000  0.0000000 )       (  0.2886751 )
                  (  0.0000000  0.0000000 -1.0000000 )       (  0.0000000 )


      isym =  7     inversion                                    

 cryst.   s( 7) = (    -1          0          0      )    f =( -0.3333333 )
                  (     0         -1          0      )       (  0.3333333 )
                  (     0          0         -1      )       (  0.0000000 )

 cart.    s( 7) = ( -1.0000000  0.0000000  0.0000000 )    f =( -0.5000000 )
                  (  0.0000000 -1.0000000  0.0000000 )       (  0.2886751 )
                  (  0.0000000  0.0000000 -1.0000000 )       (  0.0000000 )


      isym =  8     inv. 180 deg rotation - cart. axis [1,0,0]   

 cryst.   s( 8) = (    -1          0          0      )
                  (     1          1          0      )
                  (     0          0          1      )

 cart.    s( 8) = ( -1.0000000  0.0000000  0.0000000 )
                  (  0.0000000  1.0000000  0.0000000 )
                  (  0.0000000  0.0000000  1.0000000 )


      isym =  9     inv. 120 deg rotation - cryst. axis [0,0,1]  

 cryst.   s( 9) = (     0         -1          0      )    f =( -0.3333333 )
                  (     1          1          0      )       (  0.3333333 )
                  (     0          0         -1      )       (  0.0000000 )

 cart.    s( 9) = (  0.5000000  0.8660254  0.0000000 )    f =( -0.5000000 )
                  ( -0.8660254  0.5000000  0.0000000 )       (  0.2886751 )
                  (  0.0000000  0.0000000 -1.0000000 )       (  0.0000000 )


      isym = 10     inv. 120 deg rotation - cryst. axis [0,0,-1] 

 cryst.   s(10) = (     1          1          0      )    f =( -0.3333333 )
                  (    -1          0          0      )       (  0.3333333 )
                  (     0          0         -1      )       (  0.0000000 )

 cart.    s(10) = (  0.5000000 -0.8660254  0.0000000 )    f =( -0.5000000 )
                  (  0.8660254  0.5000000  0.0000000 )       (  0.2886751 )
                  (  0.0000000  0.0000000 -1.0000000 )       (  0.0000000 )


      isym = 11     inv. 180 deg rotation - cryst. axis [0,1,0]  

 cryst.   s(11) = (     1          1          0      )
                  (     0         -1          0      )
                  (     0          0          1      )

 cart.    s(11) = (  0.5000000  0.8660254  0.0000000 )
                  (  0.8660254 -0.5000000  0.0000000 )
                  (  0.0000000  0.0000000  1.0000000 )


      isym = 12     inv. 180 deg rotation - cryst. axis [1,1,0]  

 cryst.   s(12) = (     0         -1          0      )
                  (    -1          0          0      )
                  (     0          0          1      )

 cart.    s(12) = (  0.5000000 -0.8660254  0.0000000 )
                  ( -0.8660254 -0.5000000  0.0000000 )
                  (  0.0000000  0.0000000  1.0000000 )


   Cartesian axes

     site n.     atom                  positions (alat units)
         1        C      tau(   1) = (   0.0000000   0.0000000   4.0650407  )
         2        C      tau(   2) = (   0.5000000   0.2886751   4.0650407  )
         3        C      tau(   3) = (   0.5000000   0.2886751   5.4268293  )
         4        C      tau(   4) = (   0.0000000   0.5773503   5.4268293  )

   Crystallographic axes

     site n.     atom                  positions (cryst. coord.)
         1        C      tau(   1) = (  0.0000000  0.0000000  0.4282655  )
         2        C      tau(   2) = (  0.6666667  0.3333333  0.4282655  )
         3        C      tau(   3) = (  0.6666667  0.3333333  0.5717345  )
         4        C      tau(   4) = (  0.3333333  0.6666667  0.5717345  )

     number of k points=    19  Marzari-Vanderbilt smearing, width (Ry)=  0.0100
                       cart. coord. in units 2pi/alat
        k(    1) = (   0.0000000   0.0000000   0.0000000), wk =   0.0138889
        k(    2) = (   0.0000000   0.0962250   0.0000000), wk =   0.0833333
        k(    3) = (   0.0000000   0.1924501   0.0000000), wk =   0.0833333
        k(    4) = (   0.0000000   0.2886751   0.0000000), wk =   0.0833333
        k(    5) = (   0.0000000   0.3849002   0.0000000), wk =   0.0833333
        k(    6) = (   0.0000000   0.4811252   0.0000000), wk =   0.0833333
        k(    7) = (   0.0000000  -0.5773503   0.0000000), wk =   0.0416667
        k(    8) = (   0.0833333   0.1443376   0.0000000), wk =   0.0833333
        k(    9) = (   0.0833333   0.2405626   0.0000000), wk =   0.1666667
        k(   10) = (   0.0833333   0.3367877   0.0000000), wk =   0.1666667
        k(   11) = (   0.0833333   0.4330127   0.0000000), wk =   0.1666667
        k(   12) = (   0.0833333   0.5292377   0.0000000), wk =   0.1666667
        k(   13) = (   0.1666667   0.2886751   0.0000000), wk =   0.0833333
        k(   14) = (   0.1666667   0.3849002   0.0000000), wk =   0.1666667
        k(   15) = (   0.1666667   0.4811252   0.0000000), wk =   0.1666667
        k(   16) = (   0.1666667   0.5773503   0.0000000), wk =   0.0833333
        k(   17) = (   0.2500000   0.4330127   0.0000000), wk =   0.0833333
        k(   18) = (   0.2500000   0.5292377   0.0000000), wk =   0.1666667
        k(   19) = (   0.3333333   0.5773503   0.0000000), wk =   0.0277778

                       cryst. coord.
        k(    1) = (   0.0000000   0.0000000   0.0000000), wk =   0.0138889
        k(    2) = (   0.0000000   0.0833333   0.0000000), wk =   0.0833333
        k(    3) = (   0.0000000   0.1666667   0.0000000), wk =   0.0833333
        k(    4) = (   0.0000000   0.2500000   0.0000000), wk =   0.0833333
        k(    5) = (   0.0000000   0.3333333   0.0000000), wk =   0.0833333
        k(    6) = (   0.0000000   0.4166667   0.0000000), wk =   0.0833333
        k(    7) = (   0.0000000  -0.5000000   0.0000000), wk =   0.0416667
        k(    8) = (   0.0833333   0.0833333   0.0000000), wk =   0.0833333
        k(    9) = (   0.0833333   0.1666667   0.0000000), wk =   0.1666667
        k(   10) = (   0.0833333   0.2500000   0.0000000), wk =   0.1666667
        k(   11) = (   0.0833333   0.3333333   0.0000000), wk =   0.1666667
        k(   12) = (   0.0833333   0.4166667   0.0000000), wk =   0.1666667
        k(   13) = (   0.1666667   0.1666667   0.0000000), wk =   0.0833333
        k(   14) = (   0.1666667   0.2500000   0.0000000), wk =   0.1666667
        k(   15) = (   0.1666667   0.3333333   0.0000000), wk =   0.1666667
        k(   16) = (   0.1666667   0.4166667   0.0000000), wk =   0.0833333
        k(   17) = (   0.2500000   0.2500000   0.0000000), wk =   0.0833333
        k(   18) = (   0.2500000   0.3333333   0.0000000), wk =   0.1666667
        k(   19) = (   0.3333333   0.3333333   0.0000000), wk =   0.0277778

     Dense  grid:   111671 G-vectors     FFT dimensions: (  30,  30, 288)

     Dynamical RAM for                 wfc:       2.55 MB

     Dynamical RAM for     wfc (w. buffer):      51.07 MB

     Dynamical RAM for           str. fact:       1.70 MB

     Dynamical RAM for           local pot:       0.00 MB

     Dynamical RAM for          nlocal pot:       6.81 MB

     Dynamical RAM for                qrad:       0.46 MB

     Dynamical RAM for          rho,v,vnew:      11.04 MB

     Dynamical RAM for               rhoin:       3.68 MB

     Dynamical RAM for            rho*nmix:      27.26 MB

     Dynamical RAM for           G-vectors:       7.24 MB

     Dynamical RAM for          h,s,v(r/c):       0.03 MB

     Dynamical RAM for          <psi|beta>:       0.01 MB

     Dynamical RAM for                 psi:       5.11 MB

     Dynamical RAM for                hpsi:       5.11 MB

     Dynamical RAM for                spsi:       5.11 MB

     Dynamical RAM for      wfcinit/wfcrot:       5.11 MB

     Dynamical RAM for           addusdens:      80.09 MB

     Dynamical RAM for          addusforce:      91.17 MB

     Estimated static dynamical RAM per process >      95.30 MB

     Estimated max dynamical RAM per process >     213.73 MB
 ----2D----2D----2D----2D----2D----2D----2D----2D----2D----2D----2D----2D
  The code is running with the 2D cutoff
  Please refer to:
  Sohier, T., Calandra, M., & Mauri, F. (2017), 
  Density functional perturbation theory for gated two-dimensional heterostructures:
  Theoretical developments and application to flexural phonons in graphene.
  Physical Review B, 96(7), 75448. https://doi.org/10.1103/PhysRevB.96.075448
 ----2D----2D----2D----2D----2D----2D----2D----2D----2D----2D----2D----2D

     Check: negative core charge=   -0.000003

     Initial potential from superposition of free atoms

     starting charge      15.9998, renormalised to      16.0000

     negative rho (up, down):  1.246E-04 0.000E+00
     Starting wfcs are   16 randomized atomic wfcs
     Checking if some PAW data can be deallocated... 

     total cpu time spent up to now is       14.0 secs

     Self-consistent Calculation

     iteration #  1     ecut=   100.00 Ry     beta= 0.70
     Davidson diagonalization with overlap

---- Real-time Memory Report at c_bands before calling an iterative solver
             0 MiB given to the printing process from OS
             0 MiB allocation reported by mallinfo(arena+hblkhd)
             0 MiB available memory on the node where the printing process lives
------------------
     ethr =  1.00E-02,  avg # of iterations =  2.8

     negative rho (up, down):  1.106E-04 0.000E+00

     total cpu time spent up to now is       37.8 secs

     total energy              =     -73.73336546 Ry
     estimated scf accuracy    <       0.35690991 Ry

     iteration #  2     ecut=   100.00 Ry     beta= 0.70
     Davidson diagonalization with overlap

---- Real-time Memory Report at c_bands before calling an iterative solver
             0 MiB given to the printing process from OS
             0 MiB allocation reported by mallinfo(arena+hblkhd)
             0 MiB available memory on the node where the printing process lives
------------------
     ethr =  2.23E-03,  avg # of iterations =  4.1

     negative rho (up, down):  1.288E-04 0.000E+00

     total cpu time spent up to now is       54.8 secs

     total energy              =     -73.77230028 Ry
     estimated scf accuracy    <       0.00492148 Ry

     iteration #  3     ecut=   100.00 Ry     beta= 0.70
     Davidson diagonalization with overlap

---- Real-time Memory Report at c_bands before calling an iterative solver
             0 MiB given to the printing process from OS
             0 MiB allocation reported by mallinfo(arena+hblkhd)
             0 MiB available memory on the node where the printing process lives
------------------
     c_bands:  1 eigenvalues not converged
     c_bands:  1 eigenvalues not converged
     ethr =  3.08E-05,  avg # of iterations = 11.7

     negative rho (up, down):  1.380E-04 0.000E+00

     total cpu time spent up to now is       66.9 secs

     total energy              =     -73.77324411 Ry
     estimated scf accuracy    <       0.00081675 Ry

     iteration #  4     ecut=   100.00 Ry     beta= 0.70
     Davidson diagonalization with overlap

---- Real-time Memory Report at c_bands before calling an iterative solver
             0 MiB given to the printing process from OS
             0 MiB allocation reported by mallinfo(arena+hblkhd)
             0 MiB available memory on the node where the printing process lives
------------------
     ethr =  5.10E-06,  avg # of iterations =  5.8

     negative rho (up, down):  1.439E-04 0.000E+00

     total cpu time spent up to now is       73.0 secs

     total energy              =     -73.77341605 Ry
     estimated scf accuracy    <       0.00047255 Ry

     iteration #  5     ecut=   100.00 Ry     beta= 0.70
     Davidson diagonalization with overlap

---- Real-time Memory Report at c_bands before calling an iterative solver
             0 MiB given to the printing process from OS
             0 MiB allocation reported by mallinfo(arena+hblkhd)
             0 MiB available memory on the node where the printing process lives
------------------
     ethr =  2.95E-06,  avg # of iterations =  3.8

     negative rho (up, down):  1.447E-04 0.000E+00

     total cpu time spent up to now is       78.1 secs

     total energy              =     -73.77350744 Ry
     estimated scf accuracy    <       0.00000632 Ry

     iteration #  6     ecut=   100.00 Ry     beta= 0.70
     Davidson diagonalization with overlap

---- Real-time Memory Report at c_bands before calling an iterative solver
             0 MiB given to the printing process from OS
             0 MiB allocation reported by mallinfo(arena+hblkhd)
             0 MiB available memory on the node where the printing process lives
------------------
     ethr =  3.95E-08,  avg # of iterations =  2.7

     negative rho (up, down):  1.449E-04 0.000E+00

     total cpu time spent up to now is       83.8 secs

     total energy              =     -73.77351021 Ry
     estimated scf accuracy    <       0.00000041 Ry

     iteration #  7     ecut=   100.00 Ry     beta= 0.70
     Davidson diagonalization with overlap

---- Real-time Memory Report at c_bands before calling an iterative solver
             0 MiB given to the printing process from OS
             0 MiB allocation reported by mallinfo(arena+hblkhd)
             0 MiB available memory on the node where the printing process lives
------------------
     ethr =  2.54E-09,  avg # of iterations =  2.2

     negative rho (up, down):  1.449E-04 0.000E+00

     total cpu time spent up to now is       88.6 secs

     total energy              =     -73.77351028 Ry
     estimated scf accuracy    <       0.00000004 Ry

     iteration #  8     ecut=   100.00 Ry     beta= 0.70
     Davidson diagonalization with overlap

---- Real-time Memory Report at c_bands before calling an iterative solver
             0 MiB given to the printing process from OS
             0 MiB allocation reported by mallinfo(arena+hblkhd)
             0 MiB available memory on the node where the printing process lives
------------------
     ethr =  2.52E-10,  avg # of iterations =  2.3

     negative rho (up, down):  1.449E-04 0.000E+00

     total cpu time spent up to now is       95.5 secs

     End of self-consistent calculation

          k = 0.0000 0.0000 0.0000 ( 14055 PWs)   bands (ev):

   -23.9043 -23.7525 -12.3930 -11.4141  -7.2923  -7.2923  -7.2830  -7.2830
    -0.8822  -0.5487   0.8591   1.3063

     occupation numbers 
     1.0000   1.0000   1.0000   1.0000   1.0000   1.0000   1.0000   1.0000
     0.0000   0.0000   0.0000   0.0000

          k = 0.0000 0.0962 0.0000 ( 14039 PWs)   bands (ev):

   -23.7389 -23.5886 -12.1931 -11.2205  -7.9492  -7.9322  -7.6360  -7.6218
    -0.6599  -0.3237   1.0807   1.5310

     occupation numbers 
     1.0000   1.0000   1.0000   1.0000   1.0000   1.0000   1.0000   1.0000
     0.0000   0.0000   0.0000   0.0000

          k = 0.0000 0.1925 0.0000 ( 14001 PWs)   bands (ev):

   -23.2444 -23.0987 -11.5982 -10.6455  -9.6013  -9.5689  -8.4378  -8.4175
     0.0069   0.3503   1.7451   2.2037

     occupation numbers 
     1.0000   1.0000   1.0000   1.0000   1.0000   1.0000   1.0000   1.0000
     0.0000   0.0000   0.0000   0.0000

          k = 0.0000 0.2887 0.0000 ( 13973 PWs)   bands (ev):

   -22.4267 -22.2885 -11.7179 -11.6679 -10.6253  -9.7104  -9.3261  -9.3020
     1.1143   1.4607   2.8275   2.8738

     occupation numbers 
     1.0000   1.0000   1.0000   1.0000   1.0000   1.0000   1.0000   1.0000
     0.0000   0.0000   0.0000   0.0000

          k = 0.0000 0.3849 0.0000 ( 13957 PWs)   bands (ev):

   -21.2978 -21.1699 -13.9401 -13.8727 -10.0660 -10.0397  -9.3188  -8.4733
     0.4636   0.9247   2.6490   3.0446

     occupation numbers 
     1.0000   1.0000   1.0000   1.0000   1.0000   1.0000   1.0000   1.0000
     0.0000   0.0000   0.0000   0.0000

          k = 0.0000 0.4811 0.0000 ( 13900 PWs)   bands (ev):

   -19.8879 -19.7740 -16.0582 -15.9761 -10.5428 -10.5154  -7.8174  -7.1304
    -1.7024  -1.1951   3.2013   3.3905

     occupation numbers 
     1.0000   1.0000   1.0000   1.0000   1.0000   1.0000   1.0000   1.0000
     0.0000   0.0000   0.0000   0.0000

          k = 0.0000-0.5774 0.0000 ( 13904 PWs)   bands (ev):

   -18.5846 -18.5276 -17.5574 -17.5144 -10.7064 -10.6787  -6.8239  -6.4651
    -2.7103  -2.3572   3.1165   3.3170

     occupation numbers 
     1.0000   1.0000   1.0000   1.0000   1.0000   1.0000   1.0000   1.0000
     0.0000   0.0000   0.0000   0.0000

          k = 0.0833 0.1443 0.0000 ( 14003 PWs)   bands (ev):

   -23.4089 -23.2617 -11.7956 -10.8360  -8.9864  -8.9700  -8.3177  -8.3057
    -0.2150   0.1261   1.5244   1.9802

     occupation numbers 
     1.0000   1.0000   1.0000   1.0000   1.0000   1.0000   1.0000   1.0000
     0.0000   0.0000   0.0000   0.0000

          k = 0.0833 0.2406 0.0000 ( 14001 PWs)   bands (ev):

   -22.7529 -22.6117 -11.0109 -10.7121 -10.6778 -10.0795  -9.3283  -9.3060
     0.6733   1.0224   2.4097   2.8737

     occupation numbers 
     1.0000   1.0000   1.0000   1.0000   1.0000   1.0000   1.0000   1.0000
     0.0000   0.0000   0.0000   0.0000

          k = 0.0833 0.3368 0.0000 ( 13973 PWs)   bands (ev):

   -21.7795 -21.6471 -12.8055 -12.7499 -10.2242 -10.1944  -9.8656  -8.9856
     1.5279   1.8908   2.0056   2.3893

     occupation numbers 
     1.0000   1.0000   1.0000   1.0000   1.0000   1.0000   1.0000   1.0000
     0.0000   0.0000   0.0000   0.0000

          k = 0.0833 0.4330 0.0000 ( 13937 PWs)   bands (ev):

   -20.5073 -20.3868 -14.9476 -14.8741 -10.8647 -10.8315  -8.4336  -7.6526
    -0.7348  -0.2688   3.7253   3.9993

     occupation numbers 
     1.0000   1.0000   1.0000   1.0000   1.0000   1.0000   1.0000   1.0000
     0.0000   0.0000   0.0000   0.0000

          k = 0.0833 0.5292 0.0000 ( 13904 PWs)   bands (ev):

   -19.0084 -18.9083 -16.9046 -16.8231 -11.1959 -11.1613  -7.0003  -6.4850
    -2.4690  -2.0636   3.8518   4.0611

     occupation numbers 
     1.0000   1.0000   1.0000   1.0000   1.0000   1.0000   1.0000   1.0000
     0.0000   0.0000   0.0000   0.0000

          k = 0.1667 0.2887 0.0000 ( 13969 PWs)   bands (ev):

   -21.9411 -21.8073 -12.0429 -12.0153 -10.6991 -10.6790 -10.0503  -9.1593
     1.7802   2.0454   2.1344   2.2912

     occupation numbers 
     1.0000   1.0000   1.0000   1.0000   1.0000   1.0000   1.0000   1.0000
     0.0000   0.0000   0.0000   0.0000

          k = 0.1667 0.3849 0.0000 ( 13953 PWs)   bands (ev):

   -20.8231 -20.6996 -13.7908 -13.7381 -11.7694 -11.7330  -8.7585  -7.9374
     0.0467   0.3662   3.3188   3.6792

     occupation numbers 
     1.0000   1.0000   1.0000   1.0000   1.0000   1.0000   1.0000   1.0000
     0.0000   0.0000   0.0000   0.0000

          k = 0.1667 0.4811 0.0000 ( 13903 PWs)   bands (ev):

   -19.4332 -19.3237 -15.7231 -15.6487 -12.3523 -12.3065  -7.2584  -6.5826
    -1.9036  -1.5203   5.2491   5.5436

     occupation numbers 
     1.0000   1.0000   1.0000   1.0000   1.0000   1.0000   1.0000   1.0000
     0.0000   0.0000   0.0000   0.0000

          k = 0.1667 0.5774 0.0000 ( 13896 PWs)   bands (ev):

   -18.1609 -18.1063 -17.1516 -17.1137 -12.5389 -12.4909  -6.2213  -5.8683
    -2.8512  -2.6787   5.6199   5.8968

     occupation numbers 
     1.0000   1.0000   1.0000   1.0000   1.0000   1.0000   1.0000   1.0000
     0.0000   0.0000   0.0000   0.0000

          k = 0.2500 0.4330 0.0000 ( 13939 PWs)   bands (ev):

   -19.5829 -19.4714 -14.8201 -14.7816 -13.2601 -13.2316  -7.3642  -6.6389
    -1.5708  -1.2665   5.0445   5.3206

     occupation numbers 
     1.0000   1.0000   1.0000   1.0000   1.0000   1.0000   1.0000   1.0000
     0.0000   0.0000   0.0000   0.0000

          k = 0.2500 0.5292 0.0000 ( 13893 PWs)   bands (ev):

   -18.1420 -18.0507 -16.2622 -16.2002 -13.9808 -13.9323  -5.8807  -5.3619
    -3.0751  -2.7986   6.5109   6.7205

     occupation numbers 
     1.0000   1.0000   1.0000   1.0000   1.0000   1.0000   1.0000   1.0000
     0.0000   0.0000   0.0000   0.0000

          k = 0.3333 0.5774 0.0000 ( 13848 PWs)   bands (ev):

   -16.9203 -16.8701 -16.8701 -16.8244 -14.8646 -14.8646  -4.5854  -4.2564
    -4.2564  -3.9064   6.3440   6.3440

     occupation numbers 
     1.0000   1.0000   1.0000   1.0000   1.0000   1.0000   1.0087   0.4956
     0.4956   0.0000   0.0000   0.0000

     the Fermi energy is    -4.2383 ev

!    total energy              =     -73.77351029 Ry
     total all-electron energy =      -304.829899 Ry
     estimated scf accuracy    <          8.7E-10 Ry
     smearing contrib. (-TS)   =      -0.00008470 Ry
     internal energy E=F+TS    =     -73.77342559 Ry

     The total energy is F=E-TS. E is the sum of the following terms:
     one-electron contribution =   -1258.17982136 Ry
     hartree contribution      =     630.84995791 Ry
     xc contribution           =     -18.57728663 Ry
     ewald contribution        =     596.80287104 Ry
     one-center paw contrib.   =     -24.66914655 Ry
      -> PAW hartree energy AE =      37.92399632 Ry
      -> PAW hartree energy PS =     -37.88922797 Ry
      -> PAW xc energy AE      =     -42.68951396 Ry
      -> PAW xc energy PS      =      17.98559906 Ry
      -> total E_H with PAW    =     630.88472626 Ry
      -> total E_XC with PAW   =     -43.28120153 Ry

     convergence has been achieved in   8 iterations

     negative rho (up, down):  1.449E-04 0.000E+00

     Forces acting on atoms (cartesian axes, Ry/au):

     atom    1 type  1   force =     0.00000000    0.00000000   -0.00258378
     atom    2 type  1   force =     0.00000000   -0.00000000   -0.00154197
     atom    3 type  1   force =     0.00000000    0.00000000    0.00154197
     atom    4 type  1   force =     0.00000000    0.00000000    0.00258378
     The non-local contrib.  to forces
     atom    1 type  1   force =     0.00000000    0.00000000   -0.00278556
     atom    2 type  1   force =     0.00000000    0.00000000   -0.00103453
     atom    3 type  1   force =     0.00000000    0.00000000    0.00103453
     atom    4 type  1   force =     0.00000000   -0.00000000    0.00278556
     The ionic contribution  to forces
     atom    1 type  1   force =     0.00000000   -0.00000000  -21.48298676
     atom    2 type  1   force =    -0.00000000    0.00000000  -21.48793610
     atom    3 type  1   force =    -0.00000000   -0.00000000   21.48793610
     atom    4 type  1   force =     0.00000000    0.00000000   21.48298676
     The local contribution  to forces
     atom    1 type  1   force =    -0.00000000    0.00000000   21.48304919
     atom    2 type  1   force =    -0.00000000    0.00000000   21.48732007
     atom    3 type  1   force =    -0.00000000    0.00000000  -21.48732007
     atom    4 type  1   force =    -0.00000000    0.00000000  -21.48304919
     The core correction contribution to forces
     atom    1 type  1   force =     0.00000000    0.00000000    0.00011752
     atom    2 type  1   force =     0.00000000   -0.00000000    0.00008725
     atom    3 type  1   force =     0.00000000   -0.00000000   -0.00008725
     atom    4 type  1   force =    -0.00000000   -0.00000000   -0.00011752
     The Hubbard contrib.    to forces
     atom    1 type  1   force =     0.00000000    0.00000000    0.00000000
     atom    2 type  1   force =     0.00000000    0.00000000    0.00000000
     atom    3 type  1   force =     0.00000000    0.00000000    0.00000000
     atom    4 type  1   force =     0.00000000    0.00000000    0.00000000
     The SCF correction term to forces
     atom    1 type  1   force =    -0.00000000   -0.00000000    0.00002183
     atom    2 type  1   force =    -0.00000000   -0.00000000    0.00002134
     atom    3 type  1   force =     0.00000000   -0.00000000   -0.00002134
     atom    4 type  1   force =     0.00000000    0.00000000   -0.00002183

     Total force =     0.004255     Total SCF correction =     0.000043

     BFGS Geometry Optimization
     Energy error            =      1.8E-05 Ry
     Gradient error          =      2.6E-03 Ry/Bohr

     number of scf cycles    =   1
     number of bfgs steps    =   0

     energy             new  =     -73.7735102889 Ry

     new trust radius        =       0.0025837841 bohr
     new conv_thr            =       0.0000000100 Ry


ATOMIC_POSITIONS (angstrom)
C                0.0000000000        0.0000000000        9.9986327204
C                1.2300000000        0.7101408311        9.9991840225
C                1.2300000000        0.7101408311       13.3508159775
C                0.0000000000        1.4202816622       13.3513672796



     Writing config-only to output data dir /Users/memo/Desktop/New Horizons/Graphene Band Structure QE/outputs/bilayer/data/graphene.save/ :
     XML data file
     NEW-OLD atomic charge density approx. for the potential

     Check: negative core charge=   -0.000003

     negative rho (up, down):  1.445E-04 0.000E+00

     total cpu time spent up to now is       97.1 secs

     Self-consistent Calculation

     iteration #  1     ecut=   100.00 Ry     beta= 0.70
     Davidson diagonalization with overlap

---- Real-time Memory Report at c_bands before calling an iterative solver
             0 MiB given to the printing process from OS
             0 MiB allocation reported by mallinfo(arena+hblkhd)
             0 MiB available memory on the node where the printing process lives
------------------
     ethr =  1.00E-06,  avg # of iterations =  2.0

     Threshold (ethr) on eigenvalues was too large:
     Diagonalizing with lowered threshold

     Davidson diagonalization with overlap

---- Real-time Memory Report at c_bands before calling an iterative solver
             0 MiB given to the printing process from OS
             0 MiB allocation reported by mallinfo(arena+hblkhd)
             0 MiB available memory on the node where the printing process lives
------------------
     ethr =  1.67E-08,  avg # of iterations =  2.3

     negative rho (up, down):  1.446E-04 0.000E+00

     total cpu time spent up to now is      117.5 secs

     total energy              =     -73.77352673 Ry
     estimated scf accuracy    <       0.00000353 Ry

     iteration #  2     ecut=   100.00 Ry     beta= 0.70
     Davidson diagonalization with overlap

---- Real-time Memory Report at c_bands before calling an iterative solver
             0 MiB given to the printing process from OS
             0 MiB allocation reported by mallinfo(arena+hblkhd)
             0 MiB available memory on the node where the printing process lives
------------------
     ethr =  2.21E-08,  avg # of iterations =  2.1

     negative rho (up, down):  1.447E-04 0.000E+00

     total cpu time spent up to now is      123.0 secs

     total energy              =     -73.77352728 Ry
     estimated scf accuracy    <       0.00000301 Ry

     iteration #  3     ecut=   100.00 Ry     beta= 0.70
     Davidson diagonalization with overlap

---- Real-time Memory Report at c_bands before calling an iterative solver
             0 MiB given to the printing process from OS
             0 MiB allocation reported by mallinfo(arena+hblkhd)
             0 MiB available memory on the node where the printing process lives
------------------
     ethr =  1.88E-08,  avg # of iterations =  2.0

     negative rho (up, down):  1.447E-04 0.000E+00

     total cpu time spent up to now is      130.6 secs

     total energy              =     -73.77352799 Ry
     estimated scf accuracy    <       0.00000004 Ry

     iteration #  4     ecut=   100.00 Ry     beta= 0.70
     Davidson diagonalization with overlap

---- Real-time Memory Report at c_bands before calling an iterative solver
             0 MiB given to the printing process from OS
             0 MiB allocation reported by mallinfo(arena+hblkhd)
             0 MiB available memory on the node where the printing process lives
------------------
     ethr =  2.74E-10,  avg # of iterations =  1.9

     negative rho (up, down):  1.447E-04 0.000E+00

     total cpu time spent up to now is      139.7 secs

     End of self-consistent calculation

          k = 0.0000 0.0000 0.0000 ( 14055 PWs)   bands (ev):

   -23.9037 -23.7527 -12.3913 -11.4156  -7.2921  -7.2921  -7.2829  -7.2829
    -0.8824  -0.5485   0.8593   1.3077

     occupation numbers 
     1.0000   1.0000   1.0000   1.0000   1.0000   1.0000   1.0000   1.0000
     0.0000   0.0000   0.0000   0.0000

          k = 0.0000 0.0962 0.0000 ( 14039 PWs)   bands (ev):

   -23.7383 -23.5888 -12.1914 -11.2220  -7.9490  -7.9321  -7.6358  -7.6217
    -0.6600  -0.3235   1.0809   1.5324

     occupation numbers 
     1.0000   1.0000   1.0000   1.0000   1.0000   1.0000   1.0000   1.0000
     0.0000   0.0000   0.0000   0.0000

          k = 0.0000 0.1925 0.0000 ( 14001 PWs)   bands (ev):

   -23.2438 -23.0989 -11.5965 -10.6469  -9.6010  -9.5688  -8.4376  -8.4174
     0.0066   0.3505   1.7452   2.2050

     occupation numbers 
     1.0000   1.0000   1.0000   1.0000   1.0000   1.0000   1.0000   1.0000
     0.0000   0.0000   0.0000   0.0000

          k = 0.0000 0.2887 0.0000 ( 13973 PWs)   bands (ev):

   -22.4262 -22.2887 -11.7176 -11.6678 -10.6237  -9.7118  -9.3259  -9.3019
     1.1140   1.4609   2.8286   2.8736

     occupation numbers 
     1.0000   1.0000   1.0000   1.0000   1.0000   1.0000   1.0000   1.0000
     0.0000   0.0000   0.0000   0.0000

          k = 0.0000 0.3849 0.0000 ( 13957 PWs)   bands (ev):

   -21.2973 -21.1700 -13.9397 -13.8727 -10.0657 -10.0396  -9.3172  -8.4745
     0.4649   0.9237   2.6487   3.0447

     occupation numbers 
     1.0000   1.0000   1.0000   1.0000   1.0000   1.0000   1.0000   1.0000
     0.0000   0.0000   0.0000   0.0000

          k = 0.0000 0.4811 0.0000 ( 13900 PWs)   bands (ev):

   -19.8875 -19.7741 -16.0578 -15.9761 -10.5425 -10.5153  -7.8161  -7.1313
    -1.7011  -1.1961   3.2019   3.3902

     occupation numbers 
     1.0000   1.0000   1.0000   1.0000   1.0000   1.0000   1.0000   1.0000
     0.0000   0.0000   0.0000   0.0000

          k = 0.0000-0.5774 0.0000 ( 13904 PWs)   bands (ev):

   -18.5842 -18.5275 -17.5571 -17.5144 -10.7062 -10.6786  -6.8232  -6.4652
    -2.7093  -2.3582   3.1172   3.3168

     occupation numbers 
     1.0000   1.0000   1.0000   1.0000   1.0000   1.0000   1.0000   1.0000
     0.0000   0.0000   0.0000   0.0000

          k = 0.0833 0.1443 0.0000 ( 14003 PWs)   bands (ev):

   -23.4084 -23.2619 -11.7939 -10.8375  -8.9862  -8.9699  -8.3175  -8.3056
    -0.2153   0.1263   1.5246   1.9815

     occupation numbers 
     1.0000   1.0000   1.0000   1.0000   1.0000   1.0000   1.0000   1.0000
     0.0000   0.0000   0.0000   0.0000

          k = 0.0833 0.2406 0.0000 ( 14001 PWs)   bands (ev):

   -22.7523 -22.6119 -11.0092 -10.7119 -10.6777 -10.0808  -9.3280  -9.3059
     0.6730   1.0226   2.4098   2.8751

     occupation numbers 
     1.0000   1.0000   1.0000   1.0000   1.0000   1.0000   1.0000   1.0000
     0.0000   0.0000   0.0000   0.0000

          k = 0.0833 0.3368 0.0000 ( 13973 PWs)   bands (ev):

   -21.7789 -21.6473 -12.8052 -12.7499 -10.2239 -10.1943  -9.8640  -8.9869
     1.5289   1.8905   2.0051   2.3894

     occupation numbers 
     1.0000   1.0000   1.0000   1.0000   1.0000   1.0000   1.0000   1.0000
     0.0000   0.0000   0.0000   0.0000

          k = 0.0833 0.4330 0.0000 ( 13937 PWs)   bands (ev):

   -20.5068 -20.3869 -14.9472 -14.8741 -10.8645 -10.8315  -8.4321  -7.6537
    -0.7336  -0.2697   3.7251   3.9998

     occupation numbers 
     1.0000   1.0000   1.0000   1.0000   1.0000   1.0000   1.0000   1.0000
     0.0000   0.0000   0.0000   0.0000

          k = 0.0833 0.5292 0.0000 ( 13904 PWs)   bands (ev):

   -19.0079 -18.9084 -16.9042 -16.8232 -11.1956 -11.1613  -6.9993  -6.4854
    -2.4679  -2.0645   3.8525   4.0608

     occupation numbers 
     1.0000   1.0000   1.0000   1.0000   1.0000   1.0000   1.0000   1.0000
     0.0000   0.0000   0.0000   0.0000

          k = 0.1667 0.2887 0.0000 ( 13969 PWs)   bands (ev):

   -21.9405 -21.8074 -12.0426 -12.0152 -10.6988 -10.6789 -10.0487  -9.1607
     1.7796   2.0463   2.1350   2.2908

     occupation numbers 
     1.0000   1.0000   1.0000   1.0000   1.0000   1.0000   1.0000   1.0000
     0.0000   0.0000   0.0000   0.0000

          k = 0.1667 0.3849 0.0000 ( 13953 PWs)   bands (ev):

   -20.8226 -20.6997 -13.7905 -13.7381 -11.7692 -11.7330  -8.7570  -7.9386
     0.0475   0.3660   3.3186   3.6793

     occupation numbers 
     1.0000   1.0000   1.0000   1.0000   1.0000   1.0000   1.0000   1.0000
     0.0000   0.0000   0.0000   0.0000

          k = 0.1667 0.4811 0.0000 ( 13903 PWs)   bands (ev):

   -19.4327 -19.3238 -15.7228 -15.6488 -12.3520 -12.3065  -7.2571  -6.5835
    -1.9027  -1.5208   5.2488   5.5439

     occupation numbers 
     1.0000   1.0000   1.0000   1.0000   1.0000   1.0000   1.0000   1.0000
     0.0000   0.0000   0.0000   0.0000

          k = 0.1667 0.5774 0.0000 ( 13896 PWs)   bands (ev):

   -18.1606 -18.1063 -17.1513 -17.1136 -12.5386 -12.4909  -6.2205  -5.8683
    -2.8505  -2.6792   5.6206   5.8965

     occupation numbers 
     1.0000   1.0000   1.0000   1.0000   1.0000   1.0000   1.0000   1.0000
     0.0000   0.0000   0.0000   0.0000

          k = 0.2500 0.4330 0.0000 ( 13939 PWs)   bands (ev):

   -19.5825 -19.4715 -14.8198 -14.7815 -13.2598 -13.2315  -7.3629  -6.6399
    -1.5701  -1.2666   5.0442   5.3208

     occupation numbers 
     1.0000   1.0000   1.0000   1.0000   1.0000   1.0000   1.0000   1.0000
     0.0000   0.0000   0.0000   0.0000

          k = 0.2500 0.5292 0.0000 ( 13893 PWs)   bands (ev):

   -18.1416 -18.0507 -16.2618 -16.2002 -13.9805 -13.9322  -5.8796  -5.3624
    -3.0745  -2.7988   6.5117   6.7189

     occupation numbers 
     1.0000   1.0000   1.0000   1.0000   1.0000   1.0000   1.0000   1.0000
     0.0000   0.0000   0.0000   0.0000

          k = 0.3333 0.5774 0.0000 ( 13848 PWs)   bands (ev):

   -16.9198 -16.8699 -16.8699 -16.8245 -14.8644 -14.8644  -4.5844  -4.2561
    -4.2561  -3.9071   6.3437   6.3437

     occupation numbers 
     1.0000   1.0000   1.0000   1.0000   1.0000   1.0000   1.0089   0.4955
     0.4955   0.0000   0.0000   0.0000

     the Fermi energy is    -4.2379 ev

!    total energy              =     -73.77352800 Ry
     total all-electron energy =      -304.829917 Ry
     estimated scf accuracy    <          1.5E-09 Ry
     smearing contrib. (-TS)   =      -0.00008460 Ry
     internal energy E=F+TS    =     -73.77344339 Ry

     The total energy is F=E-TS. E is the sum of the following terms:
     one-electron contribution =   -1257.82519800 Ry
     hartree contribution      =     630.67256371 Ry
     xc contribution           =     -18.57724465 Ry
     ewald contribution        =     596.62558050 Ry
     one-center paw contrib.   =     -24.66914496 Ry
      -> PAW hartree energy AE =      37.92393709 Ry
      -> PAW hartree energy PS =     -37.88916888 Ry
      -> PAW xc energy AE      =     -42.68949869 Ry
      -> PAW xc energy PS      =      17.98558552 Ry
      -> total E_H with PAW    =     630.70733192 Ry
      -> total E_XC with PAW   =     -43.28115782 Ry

     convergence has been achieved in   4 iterations

     negative rho (up, down):  1.447E-04 0.000E+00

     Forces acting on atoms (cartesian axes, Ry/au):

     atom    1 type  1   force =     0.00000000   -0.00000000   -0.00221633
     atom    2 type  1   force =     0.00000000   -0.00000000   -0.00189588
     atom    3 type  1   force =     0.00000000    0.00000000    0.00189588
     atom    4 type  1   force =     0.00000000   -0.00000000    0.00221633
     The non-local contrib.  to forces
     atom    1 type  1   force =     0.00000000    0.00000000   -0.00209798
     atom    2 type  1   force =     0.00000000   -0.00000000   -0.00167388
     atom    3 type  1   force =     0.00000000    0.00000000    0.00167388
     atom    4 type  1   force =     0.00000000    0.00000000    0.00209798
     The ionic contribution  to forces
     atom    1 type  1   force =    -0.00000000   -0.00000000  -21.49069296
     atom    2 type  1   force =    -0.00000000    0.00000000  -21.48024839
     atom    3 type  1   force =    -0.00000000   -0.00000000   21.48024839
     atom    4 type  1   force =     0.00000000    0.00000000   21.49069296
     The local contribution  to forces
     atom    1 type  1   force =    -0.00000000    0.00000000   21.49038332
     atom    2 type  1   force =    -0.00000000    0.00000000   21.47985689
     atom    3 type  1   force =    -0.00000000    0.00000000  -21.47985689
     atom    4 type  1   force =    -0.00000000    0.00000000  -21.49038332
     The core correction contribution to forces
     atom    1 type  1   force =    -0.00000000    0.00000000    0.00011565
     atom    2 type  1   force =     0.00000000   -0.00000000    0.00009365
     atom    3 type  1   force =     0.00000000   -0.00000000   -0.00009365
     atom    4 type  1   force =    -0.00000000   -0.00000000   -0.00011565
     The Hubbard contrib.    to forces
     atom    1 type  1   force =     0.00000000    0.00000000    0.00000000
     atom    2 type  1   force =     0.00000000    0.00000000    0.00000000
     atom    3 type  1   force =     0.00000000    0.00000000    0.00000000
     atom    4 type  1   force =     0.00000000    0.00000000    0.00000000
     The SCF correction term to forces
     atom    1 type  1   force =     0.00000000    0.00000000    0.00007564
     atom    2 type  1   force =     0.00000000    0.00000000    0.00007585
     atom    3 type  1   force =    -0.00000000    0.00000000   -0.00007585
     atom    4 type  1   force =    -0.00000000   -0.00000000   -0.00007564

     Total force =     0.004125     Total SCF correction =     0.000151
     Energy error            =      1.8E-05 Ry
     Gradient error          =      2.2E-03 Ry/Bohr

     number of scf cycles    =   2
     number of bfgs steps    =   1

     energy             old  =     -73.7735102889 Ry
     energy             new  =     -73.7735279966 Ry

     CASE: energy            _new < energy            _old


     WARNING: bfgs curvature condition failed, Theta= 0.837
     new trust radius        =       0.0028421625 bohr
     new conv_thr            =            1.0E-10 Ry


ATOMIC_POSITIONS (angstrom)
C                0.0000000000        0.0000000000        9.9971287127
C                1.2300000000        0.7101408311        9.9981311716
C                1.2300000000        0.7101408311       13.3518688284
C                0.0000000000        1.4202816622       13.3528712873



     Writing config-only to output data dir /Users/memo/Desktop/New Horizons/Graphene Band Structure QE/outputs/bilayer/data/graphene.save/ :
     XML data file
     NEW-OLD atomic charge density approx. for the potential

     Check: negative core charge=   -0.000003

     negative rho (up, down):  1.442E-04 0.000E+00

     total cpu time spent up to now is      142.2 secs

     Self-consistent Calculation

     iteration #  1     ecut=   100.00 Ry     beta= 0.70
     Davidson diagonalization with overlap

---- Real-time Memory Report at c_bands before calling an iterative solver
             0 MiB given to the printing process from OS
             0 MiB allocation reported by mallinfo(arena+hblkhd)
             0 MiB available memory on the node where the printing process lives
------------------
     ethr =  1.00E-06,  avg # of iterations =  2.0

     Threshold (ethr) on eigenvalues was too large:
     Diagonalizing with lowered threshold

     Davidson diagonalization with overlap

---- Real-time Memory Report at c_bands before calling an iterative solver
             0 MiB given to the printing process from OS
             0 MiB allocation reported by mallinfo(arena+hblkhd)
             0 MiB available memory on the node where the printing process lives
------------------
     ethr =  2.25E-08,  avg # of iterations =  2.3

     negative rho (up, down):  1.444E-04 0.000E+00

     total cpu time spent up to now is      161.1 secs

     total energy              =     -73.77354607 Ry
     estimated scf accuracy    <       0.00000464 Ry

     iteration #  2     ecut=   100.00 Ry     beta= 0.70
     Davidson diagonalization with overlap

---- Real-time Memory Report at c_bands before calling an iterative solver
             0 MiB given to the printing process from OS
             0 MiB allocation reported by mallinfo(arena+hblkhd)
             0 MiB available memory on the node where the printing process lives
------------------
     ethr =  2.90E-08,  avg # of iterations =  2.0

     negative rho (up, down):  1.444E-04 0.000E+00

     total cpu time spent up to now is      166.1 secs

     total energy              =     -73.77354678 Ry
     estimated scf accuracy    <       0.00000388 Ry

     iteration #  3     ecut=   100.00 Ry     beta= 0.70
     Davidson diagonalization with overlap

---- Real-time Memory Report at c_bands before calling an iterative solver
             0 MiB given to the printing process from OS
             0 MiB allocation reported by mallinfo(arena+hblkhd)
             0 MiB available memory on the node where the printing process lives
------------------
     ethr =  2.42E-08,  avg # of iterations =  2.0

     negative rho (up, down):  1.444E-04 0.000E+00

     total cpu time spent up to now is      176.9 secs

     total energy              =     -73.77354770 Ry
     estimated scf accuracy    <       0.00000006 Ry

     iteration #  4     ecut=   100.00 Ry     beta= 0.70
     Davidson diagonalization with overlap

---- Real-time Memory Report at c_bands before calling an iterative solver
             0 MiB given to the printing process from OS
             0 MiB allocation reported by mallinfo(arena+hblkhd)
             0 MiB available memory on the node where the printing process lives
------------------
     ethr =  3.87E-10,  avg # of iterations =  1.8

     negative rho (up, down):  1.444E-04 0.000E+00

     total cpu time spent up to now is      183.1 secs

     total energy              =     -73.77354771 Ry
     estimated scf accuracy    <          1.8E-09 Ry

     iteration #  5     ecut=   100.00 Ry     beta= 0.70
     Davidson diagonalization with overlap

---- Real-time Memory Report at c_bands before calling an iterative solver
             0 MiB given to the printing process from OS
             0 MiB allocation reported by mallinfo(arena+hblkhd)
             0 MiB available memory on the node where the printing process lives
------------------
     ethr =  1.13E-11,  avg # of iterations =  2.8

     negative rho (up, down):  1.444E-04 0.000E+00

     total cpu time spent up to now is      189.4 secs

     total energy              =     -73.77354771 Ry
     estimated scf accuracy    <          1.3E-10 Ry

     iteration #  6     ecut=   100.00 Ry     beta= 0.70
     Davidson diagonalization with overlap

---- Real-time Memory Report at c_bands before calling an iterative solver
             0 MiB given to the printing process from OS
             0 MiB allocation reported by mallinfo(arena+hblkhd)
             0 MiB available memory on the node where the printing process lives
------------------
     ethr =  7.93E-13,  avg # of iterations =  2.3

     negative rho (up, down):  1.444E-04 0.000E+00

     total cpu time spent up to now is      195.0 secs

     End of self-consistent calculation

          k = 0.0000 0.0000 0.0000 ( 14055 PWs)   bands (ev):

   -23.9032 -23.7531 -12.3896 -11.4175  -7.2921  -7.2921  -7.2830  -7.2830
    -0.8827  -0.5484   0.8593   1.3092

     occupation numbers 
     1.0000   1.0000   1.0000   1.0000   1.0000   1.0000   1.0000   1.0000
     0.0000   0.0000   0.0000   0.0000

          k = 0.0000 0.0962 0.0000 ( 14039 PWs)   bands (ev):

   -23.7378 -23.5892 -12.1897 -11.2239  -7.9489  -7.9322  -7.6358  -7.6218
    -0.6604  -0.3234   1.0809   1.5339

     occupation numbers 
     1.0000   1.0000   1.0000   1.0000   1.0000   1.0000   1.0000   1.0000
     0.0000   0.0000   0.0000   0.0000

          k = 0.0000 0.1925 0.0000 ( 14001 PWs)   bands (ev):

   -23.2434 -23.0993 -11.5948 -10.6488  -9.6009  -9.5689  -8.4375  -8.4175
     0.0063   0.3506   1.7451   2.2065

     occupation numbers 
     1.0000   1.0000   1.0000   1.0000   1.0000   1.0000   1.0000   1.0000
     0.0000   0.0000   0.0000   0.0000

          k = 0.0000 0.2887 0.0000 ( 13973 PWs)   bands (ev):

   -22.4257 -22.2891 -11.7174 -11.6680 -10.6220  -9.7136  -9.3259  -9.3020
     1.1136   1.4610   2.8289   2.8737

     occupation numbers 
     1.0000   1.0000   1.0000   1.0000   1.0000   1.0000   1.0000   1.0000
     0.0000   0.0000   0.0000   0.0000

          k = 0.0000 0.3849 0.0000 ( 13957 PWs)   bands (ev):

   -21.2969 -21.1704 -13.9395 -13.8729 -10.0657 -10.0397  -9.3157  -8.4762
     0.4661   0.9225   2.6482   3.0447

     occupation numbers 
     1.0000   1.0000   1.0000   1.0000   1.0000   1.0000   1.0000   1.0000
     0.0000   0.0000   0.0000   0.0000

          k = 0.0000 0.4811 0.0000 ( 13900 PWs)   bands (ev):

   -19.8871 -19.7744 -16.0576 -15.9764 -10.5425 -10.5154  -7.8147  -7.1326
    -1.6999  -1.1975   3.2024   3.3897

     occupation numbers 
     1.0000   1.0000   1.0000   1.0000   1.0000   1.0000   1.0000   1.0000
     0.0000   0.0000   0.0000   0.0000

          k = 0.0000-0.5774 0.0000 ( 13904 PWs)   bands (ev):

   -18.5840 -18.5277 -17.5570 -17.5145 -10.7061 -10.6787  -6.8224  -6.4656
    -2.7086  -2.3594   3.1177   3.3162

     occupation numbers 
     1.0000   1.0000   1.0000   1.0000   1.0000   1.0000   1.0000   1.0000
     0.0000   0.0000   0.0000   0.0000

          k = 0.0833 0.1443 0.0000 ( 14003 PWs)   bands (ev):

   -23.4079 -23.2623 -11.7922 -10.8394  -8.9861  -8.9700  -8.3175  -8.3057
    -0.2156   0.1264   1.5245   1.9831

     occupation numbers 
     1.0000   1.0000   1.0000   1.0000   1.0000   1.0000   1.0000   1.0000
     0.0000   0.0000   0.0000   0.0000

          k = 0.0833 0.2406 0.0000 ( 14001 PWs)   bands (ev):

   -22.7519 -22.6123 -11.0075 -10.7118 -10.6779 -10.0827  -9.3280  -9.3060
     0.6726   1.0227   2.4095   2.8767

     occupation numbers 
     1.0000   1.0000   1.0000   1.0000   1.0000   1.0000   1.0000   1.0000
     0.0000   0.0000   0.0000   0.0000

          k = 0.0833 0.3368 0.0000 ( 13973 PWs)   bands (ev):

   -21.7785 -21.6477 -12.8050 -12.7501 -10.2238 -10.1944  -9.8624  -8.9886
     1.5297   1.8899   2.0045   2.3895

     occupation numbers 
     1.0000   1.0000   1.0000   1.0000   1.0000   1.0000   1.0000   1.0000
     0.0000   0.0000   0.0000   0.0000

          k = 0.0833 0.4330 0.0000 ( 13937 PWs)   bands (ev):

   -20.5064 -20.3872 -14.9470 -14.8743 -10.8644 -10.8316  -8.4307  -7.6552
    -0.7324  -0.2708   3.7246   4.0001

     occupation numbers 
     1.0000   1.0000   1.0000   1.0000   1.0000   1.0000   1.0000   1.0000
     0.0000   0.0000   0.0000   0.0000

          k = 0.0833 0.5292 0.0000 ( 13904 PWs)   bands (ev):

   -19.0076 -18.9087 -16.9040 -16.8234 -11.1955 -11.1614  -6.9982  -6.4863
    -2.4670  -2.0656   3.8531   4.0603

     occupation numbers 
     1.0000   1.0000   1.0000   1.0000   1.0000   1.0000   1.0000   1.0000
     0.0000   0.0000   0.0000   0.0000

          k = 0.1667 0.2887 0.0000 ( 13969 PWs)   bands (ev):

   -21.9401 -21.8078 -12.0425 -12.0153 -10.6988 -10.6790 -10.0471  -9.1624
     1.7788   2.0472   2.1354   2.2902

     occupation numbers 
     1.0000   1.0000   1.0000   1.0000   1.0000   1.0000   1.0000   1.0000
     0.0000   0.0000   0.0000   0.0000

          k = 0.1667 0.3849 0.0000 ( 13953 PWs)   bands (ev):

   -20.8222 -20.7001 -13.7903 -13.7383 -11.7691 -11.7331  -8.7555  -7.9402
     0.0482   0.3654   3.3181   3.6793

     occupation numbers 
     1.0000   1.0000   1.0000   1.0000   1.0000   1.0000   1.0000   1.0000
     0.0000   0.0000   0.0000   0.0000

          k = 0.1667 0.4811 0.0000 ( 13903 PWs)   bands (ev):

   -19.4324 -19.3241 -15.7225 -15.6490 -12.3518 -12.3066  -7.2558  -6.5848
    -1.9018  -1.5216   5.2482   5.5441

     occupation numbers 
     1.0000   1.0000   1.0000   1.0000   1.0000   1.0000   1.0000   1.0000
     0.0000   0.0000   0.0000   0.0000

          k = 0.1667 0.5774 0.0000 ( 13896 PWs)   bands (ev):

   -18.1604 -18.1064 -17.1512 -17.1137 -12.5384 -12.4911  -6.2197  -5.8687
    -2.8501  -2.6800   5.6213   5.8960

     occupation numbers 
     1.0000   1.0000   1.0000   1.0000   1.0000   1.0000   1.0000   1.0000
     0.0000   0.0000   0.0000   0.0000

          k = 0.2500 0.4330 0.0000 ( 13939 PWs)   bands (ev):

   -19.5821 -19.4718 -14.8196 -14.7817 -13.2598 -13.2316  -7.3615  -6.6413
    -1.5695  -1.2670   5.0436   5.3209

     occupation numbers 
     1.0000   1.0000   1.0000   1.0000   1.0000   1.0000   1.0000   1.0000
     0.0000   0.0000   0.0000   0.0000

          k = 0.2500 0.5292 0.0000 ( 13893 PWs)   bands (ev):

   -18.1413 -18.0510 -16.2616 -16.2004 -13.9803 -13.9324  -5.8786  -5.3633
    -3.0740  -2.7993   6.5122   6.7169

     occupation numbers 
     1.0000   1.0000   1.0000   1.0000   1.0000   1.0000   1.0000   1.0000
     0.0000   0.0000   0.0000   0.0000

          k = 0.3333 0.5774 0.0000 ( 13848 PWs)   bands (ev):

   -16.9195 -16.8699 -16.8699 -16.8247 -14.8644 -14.8644  -4.5832  -4.2560
    -4.2560  -3.9082   6.3432   6.3432

     occupation numbers 
     1.0000   1.0000   1.0000   1.0000   1.0000   1.0000   1.0091   0.4954
     0.4954   0.0000   0.0000   0.0000

     the Fermi energy is    -4.2379 ev

!    total energy              =     -73.77354771 Ry
     total all-electron energy =      -304.829937 Ry
     estimated scf accuracy    <          7.5E-13 Ry
     smearing contrib. (-TS)   =      -0.00008443 Ry
     internal energy E=F+TS    =     -73.77346327 Ry

     The total energy is F=E-TS. E is the sum of the following terms:
     one-electron contribution =   -1257.41060329 Ry
     hartree contribution      =     630.46553320 Ry
     xc contribution           =     -18.57718993 Ry
     ewald contribution        =     596.41794080 Ry
     one-center paw contrib.   =     -24.66914405 Ry
      -> PAW hartree energy AE =      37.92379338 Ry
      -> PAW hartree energy PS =     -37.88902527 Ry
      -> PAW xc energy AE      =     -42.68946389 Ry
      -> PAW xc energy PS      =      17.98555173 Ry
      -> total E_H with PAW    =     630.50030132 Ry
      -> total E_XC with PAW   =     -43.28110210 Ry

     convergence has been achieved in   6 iterations

     negative rho (up, down):  1.444E-04 0.000E+00

     Forces acting on atoms (cartesian axes, Ry/au):

     atom    1 type  1   force =     0.00000000    0.00000000   -0.00188935
     atom    2 type  1   force =     0.00000000   -0.00000000   -0.00216291
     atom    3 type  1   force =     0.00000000    0.00000000    0.00216291
     atom    4 type  1   force =     0.00000000   -0.00000000    0.00188935
     The non-local contrib.  to forces
     atom    1 type  1   force =     0.00000000    0.00000000   -0.00153830
     atom    2 type  1   force =     0.00000000    0.00000000   -0.00219370
     atom    3 type  1   force =     0.00000000   -0.00000000    0.00219370
     atom    4 type  1   force =     0.00000000    0.00000000    0.00153830
     The ionic contribution  to forces
     atom    1 type  1   force =    -0.00000000   -0.00000000  -21.49700654
     atom    2 type  1   force =     0.00000000    0.00000000  -21.47395344
     atom    3 type  1   force =     0.00000000   -0.00000000   21.47395344
     atom    4 type  1   force =     0.00000000    0.00000000   21.49700654
     The local contribution  to forces
     atom    1 type  1   force =    -0.00000000    0.00000000   21.49654097
     atom    2 type  1   force =    -0.00000000    0.00000000   21.47388501
     atom    3 type  1   force =    -0.00000000    0.00000000  -21.47388501
     atom    4 type  1   force =     0.00000000    0.00000000  -21.49654097
     The core correction contribution to forces
     atom    1 type  1   force =    -0.00000000    0.00000000    0.00011523
     atom    2 type  1   force =     0.00000000   -0.00000000    0.00009993
     atom    3 type  1   force =     0.00000000   -0.00000000   -0.00009993
     atom    4 type  1   force =     0.00000000   -0.00000000   -0.00011523
     The Hubbard contrib.    to forces
     atom    1 type  1   force =     0.00000000    0.00000000    0.00000000
     atom    2 type  1   force =     0.00000000    0.00000000    0.00000000
     atom    3 type  1   force =     0.00000000    0.00000000    0.00000000
     atom    4 type  1   force =     0.00000000    0.00000000    0.00000000
     The SCF correction term to forces
     atom    1 type  1   force =    -0.00000000   -0.00000000   -0.00000070
     atom    2 type  1   force =    -0.00000000   -0.00000000   -0.00000072
     atom    3 type  1   force =    -0.00000000   -0.00000000    0.00000072
     atom    4 type  1   force =    -0.00000000   -0.00000000    0.00000070

     Total force =     0.004061     Total SCF correction =     0.000001
     Energy error            =      2.0E-05 Ry
     Gradient error          =      2.2E-03 Ry/Bohr

     number of scf cycles    =   3
     number of bfgs steps    =   2

     energy             old  =     -73.7735279966 Ry
     energy             new  =     -73.7735477087 Ry

     CASE: energy            _new < energy            _old

     new trust radius        =       0.0042632437 bohr
     new conv_thr            =            1.0E-10 Ry


ATOMIC_POSITIONS (angstrom)
C                0.0000000000        0.0000000000        9.9948727013
C                1.2300000000        0.7101408311        9.9962943304
C                1.2300000000        0.7101408311       13.3537056696
C                0.0000000000        1.4202816622       13.3551272987



     Writing config-only to output data dir /Users/memo/Desktop/New Horizons/Graphene Band Structure QE/outputs/bilayer/data/graphene.save/ :
     XML data file
     NEW-OLD atomic charge density approx. for the potential

     Check: negative core charge=   -0.000003

     negative rho (up, down):  1.437E-04 0.000E+00

     total cpu time spent up to now is      196.1 secs

     Self-consistent Calculation

     iteration #  1     ecut=   100.00 Ry     beta= 0.70
     Davidson diagonalization with overlap

---- Real-time Memory Report at c_bands before calling an iterative solver
             0 MiB given to the printing process from OS
             0 MiB allocation reported by mallinfo(arena+hblkhd)
             0 MiB available memory on the node where the printing process lives
------------------
     ethr =  1.00E-06,  avg # of iterations =  2.6

     Threshold (ethr) on eigenvalues was too large:
     Diagonalizing with lowered threshold

     Davidson diagonalization with overlap

---- Real-time Memory Report at c_bands before calling an iterative solver
             0 MiB given to the printing process from OS
             0 MiB allocation reported by mallinfo(arena+hblkhd)
             0 MiB available memory on the node where the printing process lives
------------------
     ethr =  6.38E-08,  avg # of iterations =  1.5

     negative rho (up, down):  1.440E-04 0.000E+00

     total cpu time spent up to now is      215.0 secs

     total energy              =     -73.77357383 Ry
     estimated scf accuracy    <       0.00001246 Ry

     iteration #  2     ecut=   100.00 Ry     beta= 0.70
     Davidson diagonalization with overlap

---- Real-time Memory Report at c_bands before calling an iterative solver
             0 MiB given to the printing process from OS
             0 MiB allocation reported by mallinfo(arena+hblkhd)
             0 MiB available memory on the node where the printing process lives
------------------
     ethr =  7.79E-08,  avg # of iterations =  2.0

     negative rho (up, down):  1.440E-04 0.000E+00

     total cpu time spent up to now is      220.9 secs

     total energy              =     -73.77357581 Ry
     estimated scf accuracy    <       0.00001073 Ry

     iteration #  3     ecut=   100.00 Ry     beta= 0.70
     Davidson diagonalization with overlap

---- Real-time Memory Report at c_bands before calling an iterative solver
             0 MiB given to the printing process from OS
             0 MiB allocation reported by mallinfo(arena+hblkhd)
             0 MiB available memory on the node where the printing process lives
------------------
     ethr =  6.70E-08,  avg # of iterations =  2.0

     negative rho (up, down):  1.440E-04 0.000E+00

     total cpu time spent up to now is      225.6 secs

     total energy              =     -73.77357832 Ry
     estimated scf accuracy    <       0.00000015 Ry

     iteration #  4     ecut=   100.00 Ry     beta= 0.70
     Davidson diagonalization with overlap

---- Real-time Memory Report at c_bands before calling an iterative solver
             0 MiB given to the printing process from OS
             0 MiB allocation reported by mallinfo(arena+hblkhd)
             0 MiB available memory on the node where the printing process lives
------------------
     ethr =  9.32E-10,  avg # of iterations =  1.9

     negative rho (up, down):  1.441E-04 0.000E+00

     total cpu time spent up to now is      230.5 secs

     total energy              =     -73.77357834 Ry
     estimated scf accuracy    <          4.7E-09 Ry

     iteration #  5     ecut=   100.00 Ry     beta= 0.70
     Davidson diagonalization with overlap

---- Real-time Memory Report at c_bands before calling an iterative solver
             0 MiB given to the printing process from OS
             0 MiB allocation reported by mallinfo(arena+hblkhd)
             0 MiB available memory on the node where the printing process lives
------------------
     ethr =  2.96E-11,  avg # of iterations =  2.6

     negative rho (up, down):  1.441E-04 0.000E+00

     total cpu time spent up to now is      236.1 secs

     total energy              =     -73.77357834 Ry
     estimated scf accuracy    <          2.5E-10 Ry

     iteration #  6     ecut=   100.00 Ry     beta= 0.70
     Davidson diagonalization with overlap

---- Real-time Memory Report at c_bands before calling an iterative solver
             0 MiB given to the printing process from OS
             0 MiB allocation reported by mallinfo(arena+hblkhd)
             0 MiB available memory on the node where the printing process lives
------------------
     ethr =  1.53E-12,  avg # of iterations =  2.5

     negative rho (up, down):  1.441E-04 0.000E+00

     total cpu time spent up to now is      241.3 secs

     End of self-consistent calculation

          k = 0.0000 0.0000 0.0000 ( 14055 PWs)   bands (ev):

   -23.9022 -23.7535 -12.3865 -11.4204  -7.2918  -7.2918  -7.2828  -7.2828
    -0.8831  -0.5481   0.8592   1.3115

     occupation numbers 
     1.0000   1.0000   1.0000   1.0000   1.0000   1.0000   1.0000   1.0000
     0.0000   0.0000   0.0000   0.0000

          k = 0.0000 0.0962 0.0000 ( 14039 PWs)   bands (ev):

   -23.7368 -23.5896 -12.1867 -11.2267  -7.9486  -7.9321  -7.6355  -7.6216
    -0.6608  -0.3230   1.0808   1.5362

     occupation numbers 
     1.0000   1.0000   1.0000   1.0000   1.0000   1.0000   1.0000   1.0000
     0.0000   0.0000   0.0000   0.0000

          k = 0.0000 0.1925 0.0000 ( 14001 PWs)   bands (ev):

   -23.2424 -23.0997 -11.5918 -10.6516  -9.6005  -9.5689  -8.4372  -8.4174
     0.0058   0.3510   1.7448   2.2087

     occupation numbers 
     1.0000   1.0000   1.0000   1.0000   1.0000   1.0000   1.0000   1.0000
     0.0000   0.0000   0.0000   0.0000

          k = 0.0000 0.2887 0.0000 ( 13973 PWs)   bands (ev):

   -22.4248 -22.2894 -11.7169 -11.6681 -10.6191  -9.7162  -9.3255  -9.3020
     1.1131   1.4614   2.8286   2.8749

     occupation numbers 
     1.0000   1.0000   1.0000   1.0000   1.0000   1.0000   1.0000   1.0000
     0.0000   0.0000   0.0000   0.0000

          k = 0.0000 0.3849 0.0000 ( 13957 PWs)   bands (ev):

   -21.2961 -21.1708 -13.9389 -13.8730 -10.0653 -10.0396  -9.3129  -8.4786
     0.4682   0.9210   2.6477   3.0449

     occupation numbers 
     1.0000   1.0000   1.0000   1.0000   1.0000   1.0000   1.0000   1.0000
     0.0000   0.0000   0.0000   0.0000

          k = 0.0000 0.4811 0.0000 ( 13900 PWs)   bands (ev):

   -19.8863 -19.7747 -16.0569 -15.9765 -10.5421 -10.5154  -7.8123  -7.1344
    -1.6979  -1.1991   3.2035   3.3891

     occupation numbers 
     1.0000   1.0000   1.0000   1.0000   1.0000   1.0000   1.0000   1.0000
     0.0000   0.0000   0.0000   0.0000

          k = 0.0000-0.5774 0.0000 ( 13904 PWs)   bands (ev):

   -18.5834 -18.5277 -17.5566 -17.5145 -10.7057 -10.6787  -6.8208  -6.4660
    -2.7074  -2.3608   3.1189   3.3156

     occupation numbers 
     1.0000   1.0000   1.0000   1.0000   1.0000   1.0000   1.0000   1.0000
     0.0000   0.0000   0.0000   0.0000

          k = 0.0833 0.1443 0.0000 ( 14003 PWs)   bands (ev):

   -23.4069 -23.2627 -11.7892 -10.8422  -8.9858  -8.9699  -8.3172  -8.3055
    -0.2160   0.1267   1.5243   1.9853

     occupation numbers 
     1.0000   1.0000   1.0000   1.0000   1.0000   1.0000   1.0000   1.0000
     0.0000   0.0000   0.0000   0.0000

          k = 0.0833 0.2406 0.0000 ( 14001 PWs)   bands (ev):

   -22.7510 -22.6127 -11.0045 -10.7114 -10.6779 -10.0854  -9.3276  -9.3059
     0.6722   1.0230   2.4091   2.8789

     occupation numbers 
     1.0000   1.0000   1.0000   1.0000   1.0000   1.0000   1.0000   1.0000
     0.0000   0.0000   0.0000   0.0000

          k = 0.0833 0.3368 0.0000 ( 13973 PWs)   bands (ev):

   -21.7776 -21.6480 -12.8045 -12.7501 -10.2234 -10.1944  -9.8595  -8.9911
     1.5313   1.8891   2.0038   2.3899

     occupation numbers 
     1.0000   1.0000   1.0000   1.0000   1.0000   1.0000   1.0000   1.0000
     0.0000   0.0000   0.0000   0.0000

          k = 0.0833 0.4330 0.0000 ( 13937 PWs)   bands (ev):

   -20.5056 -20.3876 -14.9464 -14.8745 -10.8640 -10.8316  -8.4280  -7.6574
    -0.7304  -0.2722   3.7240   4.0008

     occupation numbers 
     1.0000   1.0000   1.0000   1.0000   1.0000   1.0000   1.0000   1.0000
     0.0000   0.0000   0.0000   0.0000

          k = 0.0833 0.5292 0.0000 ( 13904 PWs)   bands (ev):

   -19.0069 -18.9089 -16.9033 -16.8236 -11.1951 -11.1614  -6.9962  -6.4874
    -2.4655  -2.0670   3.8542   4.0597

     occupation numbers 
     1.0000   1.0000   1.0000   1.0000   1.0000   1.0000   1.0000   1.0000
     0.0000   0.0000   0.0000   0.0000

          k = 0.1667 0.2887 0.0000 ( 13969 PWs)   bands (ev):

   -21.9392 -21.8082 -12.0422 -12.0152 -10.6985 -10.6789 -10.0442  -9.1650
     1.7780   2.0488   2.1361   2.2896

     occupation numbers 
     1.0000   1.0000   1.0000   1.0000   1.0000   1.0000   1.0000   1.0000
     0.0000   0.0000   0.0000   0.0000

          k = 0.1667 0.3849 0.0000 ( 13953 PWs)   bands (ev):

   -20.8214 -20.7004 -13.7898 -13.7383 -11.7686 -11.7331  -8.7528  -7.9425
     0.0497   0.3648   3.3175   3.6796

     occupation numbers 
     1.0000   1.0000   1.0000   1.0000   1.0000   1.0000   1.0000   1.0000
     0.0000   0.0000   0.0000   0.0000

          k = 0.1667 0.4811 0.0000 ( 13903 PWs)   bands (ev):

   -19.4316 -19.3244 -15.7219 -15.6491 -12.3514 -12.3066  -7.2534  -6.5866
    -1.9002  -1.5226   5.2475   5.5448

     occupation numbers 
     1.0000   1.0000   1.0000   1.0000   1.0000   1.0000   1.0000   1.0000
     0.0000   0.0000   0.0000   0.0000

          k = 0.1667 0.5774 0.0000 ( 13896 PWs)   bands (ev):

   -18.1598 -18.1064 -17.1508 -17.1137 -12.5380 -12.4911  -6.2181  -5.8691
    -2.8494  -2.6807   5.6227   5.8955

     occupation numbers 
     1.0000   1.0000   1.0000   1.0000   1.0000   1.0000   1.0000   1.0000
     0.0000   0.0000   0.0000   0.0000

          k = 0.2500 0.4330 0.0000 ( 13939 PWs)   bands (ev):

   -19.5813 -19.4721 -14.8192 -14.7816 -13.2594 -13.2316  -7.3590  -6.6433
    -1.5681  -1.2675   5.0430   5.3213

     occupation numbers 
     1.0000   1.0000   1.0000   1.0000   1.0000   1.0000   1.0000   1.0000
     0.0000   0.0000   0.0000   0.0000

          k = 0.2500 0.5292 0.0000 ( 13893 PWs)   bands (ev):

   -18.1406 -18.0512 -16.2611 -16.2004 -13.9798 -13.9324  -5.8765  -5.3644
    -3.0729  -2.7998   6.5133   6.7146

     occupation numbers 
     1.0000   1.0000   1.0000   1.0000   1.0000   1.0000   1.0000   1.0000
     0.0000   0.0000   0.0000   0.0000

          k = 0.3333 0.5774 0.0000 ( 13848 PWs)   bands (ev):

   -16.9188 -16.8697 -16.8697 -16.8250 -14.8642 -14.8642  -4.5808  -4.2555
    -4.2555  -3.9100   6.3428   6.3428

     occupation numbers 
     1.0000   1.0000   1.0000   1.0000   1.0000   1.0000   1.0096   0.4952
     0.4952   0.0000   0.0000   0.0000

     the Fermi energy is    -4.2374 ev

!    total energy              =     -73.77357834 Ry
     total all-electron energy =      -304.829967 Ry
     estimated scf accuracy    <          2.8E-11 Ry
     smearing contrib. (-TS)   =      -0.00008413 Ry
     internal energy E=F+TS    =     -73.77349421 Ry

     The total energy is F=E-TS. E is the sum of the following terms:
     one-electron contribution =   -1256.74631823 Ry
     hartree contribution      =     630.13350392 Ry
     xc contribution           =     -18.57710184 Ry
     ewald contribution        =     596.08556447 Ry
     one-center paw contrib.   =     -24.66914254 Ry
      -> PAW hartree energy AE =      37.92359719 Ry
      -> PAW hartree energy PS =     -37.88882925 Ry
      -> PAW xc energy AE      =     -42.68941614 Ry
      -> PAW xc energy PS      =      17.98550567 Ry
      -> total E_H with PAW    =     630.16827186 Ry
      -> total E_XC with PAW   =     -43.28101231 Ry

     convergence has been achieved in   6 iterations

     negative rho (up, down):  1.441E-04 0.000E+00

     Forces acting on atoms (cartesian axes, Ry/au):

     atom    1 type  1   force =     0.00000000    0.00000000   -0.00157739
     atom    2 type  1   force =     0.00000000    0.00000000   -0.00240444
     atom    3 type  1   force =     0.00000000   -0.00000000    0.00240444
     atom    4 type  1   force =     0.00000000    0.00000000    0.00157739
     The non-local contrib.  to forces
     atom    1 type  1   force =     0.00000000    0.00000000   -0.00099977
     atom    2 type  1   force =     0.00000000   -0.00000000   -0.00266860
     atom    3 type  1   force =     0.00000000   -0.00000000    0.00266860
     atom    4 type  1   force =     0.00000000   -0.00000000    0.00099977
     The ionic contribution  to forces
     atom    1 type  1   force =     0.00000000   -0.00000000  -21.50288854
     atom    2 type  1   force =     0.00000000    0.00000000  -21.46809656
     atom    3 type  1   force =     0.00000000   -0.00000000   21.46809656
     atom    4 type  1   force =     0.00000000    0.00000000   21.50288854
     The local contribution  to forces
     atom    1 type  1   force =    -0.00000000    0.00000000   21.50220689
     atom    2 type  1   force =    -0.00000000    0.00000000   21.46826429
     atom    3 type  1   force =    -0.00000000    0.00000000  -21.46826429
     atom    4 type  1   force =     0.00000000    0.00000000  -21.50220689
     The core correction contribution to forces
     atom    1 type  1   force =    -0.00000000    0.00000000    0.00011411
     atom    2 type  1   force =    -0.00000000   -0.00000000    0.00010636
     atom    3 type  1   force =     0.00000000   -0.00000000   -0.00010636
     atom    4 type  1   force =     0.00000000   -0.00000000   -0.00011411
     The Hubbard contrib.    to forces
     atom    1 type  1   force =     0.00000000    0.00000000    0.00000000
     atom    2 type  1   force =     0.00000000    0.00000000    0.00000000
     atom    3 type  1   force =     0.00000000    0.00000000    0.00000000
     atom    4 type  1   force =     0.00000000    0.00000000    0.00000000
     The SCF correction term to forces
     atom    1 type  1   force =     0.00000000    0.00000000   -0.00001007
     atom    2 type  1   force =    -0.00000000   -0.00000000   -0.00000992
     atom    3 type  1   force =    -0.00000000   -0.00000000    0.00000992
     atom    4 type  1   force =    -0.00000000   -0.00000000    0.00001007

     Total force =     0.004067     Total SCF correction =     0.000020
     Energy error            =      3.1E-05 Ry
     Gradient error          =      2.4E-03 Ry/Bohr

     number of scf cycles    =   4
     number of bfgs steps    =   3

     energy             old  =     -73.7735477087 Ry
     energy             new  =     -73.7735783430 Ry

     CASE: energy            _new < energy            _old

     new trust radius        =       0.0063948656 bohr
     new conv_thr            =            1.0E-10 Ry


ATOMIC_POSITIONS (angstrom)
C                0.0000000000        0.0000000000        9.9914886842
C                1.2300000000        0.7101408311        9.9933238748
C                1.2300000000        0.7101408311       13.3566761252
C                0.0000000000        1.4202816622       13.3585113158



     Writing config-only to output data dir /Users/memo/Desktop/New Horizons/Graphene Band Structure QE/outputs/bilayer/data/graphene.save/ :
     XML data file
     NEW-OLD atomic charge density approx. for the potential

     Check: negative core charge=   -0.000003

     negative rho (up, down):  1.431E-04 0.000E+00

     total cpu time spent up to now is      242.3 secs

     Self-consistent Calculation

     iteration #  1     ecut=   100.00 Ry     beta= 0.70
     Davidson diagonalization with overlap

---- Real-time Memory Report at c_bands before calling an iterative solver
             0 MiB given to the printing process from OS
             0 MiB allocation reported by mallinfo(arena+hblkhd)
             0 MiB available memory on the node where the printing process lives
------------------
     ethr =  1.00E-06,  avg # of iterations =  3.0

     negative rho (up, down):  1.434E-04 0.000E+00

     total cpu time spent up to now is      252.5 secs

     total energy              =     -73.77361510 Ry
     estimated scf accuracy    <       0.00002755 Ry

     iteration #  2     ecut=   100.00 Ry     beta= 0.70
     Davidson diagonalization with overlap

---- Real-time Memory Report at c_bands before calling an iterative solver
             0 MiB given to the printing process from OS
             0 MiB allocation reported by mallinfo(arena+hblkhd)
             0 MiB available memory on the node where the printing process lives
------------------
     ethr =  1.72E-07,  avg # of iterations =  2.0

     negative rho (up, down):  1.435E-04 0.000E+00

     total cpu time spent up to now is      260.4 secs

     total energy              =     -73.77361944 Ry
     estimated scf accuracy    <       0.00002106 Ry

     iteration #  3     ecut=   100.00 Ry     beta= 0.70
     Davidson diagonalization with overlap

---- Real-time Memory Report at c_bands before calling an iterative solver
             0 MiB given to the printing process from OS
             0 MiB allocation reported by mallinfo(arena+hblkhd)
             0 MiB available memory on the node where the printing process lives
------------------
     ethr =  1.32E-07,  avg # of iterations =  2.0

     negative rho (up, down):  1.435E-04 0.000E+00

     total cpu time spent up to now is      272.2 secs

     total energy              =     -73.77362460 Ry
     estimated scf accuracy    <       0.00000051 Ry

     iteration #  4     ecut=   100.00 Ry     beta= 0.70
     Davidson diagonalization with overlap

---- Real-time Memory Report at c_bands before calling an iterative solver
             0 MiB given to the printing process from OS
             0 MiB allocation reported by mallinfo(arena+hblkhd)
             0 MiB available memory on the node where the printing process lives
------------------
     ethr =  3.20E-09,  avg # of iterations =  1.9

     negative rho (up, down):  1.436E-04 0.000E+00

     total cpu time spent up to now is      277.1 secs

     total energy              =     -73.77362469 Ry
     estimated scf accuracy    <          5.9E-09 Ry

     iteration #  5     ecut=   100.00 Ry     beta= 0.70
     Davidson diagonalization with overlap

---- Real-time Memory Report at c_bands before calling an iterative solver
             0 MiB given to the printing process from OS
             0 MiB allocation reported by mallinfo(arena+hblkhd)
             0 MiB available memory on the node where the printing process lives
------------------
     ethr =  3.70E-11,  avg # of iterations =  3.4

     negative rho (up, down):  1.436E-04 0.000E+00

     total cpu time spent up to now is      286.5 secs

     total energy              =     -73.77362469 Ry
     estimated scf accuracy    <          6.8E-10 Ry

     iteration #  6     ecut=   100.00 Ry     beta= 0.70
     Davidson diagonalization with overlap

---- Real-time Memory Report at c_bands before calling an iterative solver
             0 MiB given to the printing process from OS
             0 MiB allocation reported by mallinfo(arena+hblkhd)
             0 MiB available memory on the node where the printing process lives
------------------
     ethr =  4.27E-12,  avg # of iterations =  2.1

     negative rho (up, down):  1.435E-04 0.000E+00

     total cpu time spent up to now is      292.4 secs

     End of self-consistent calculation

          k = 0.0000 0.0000 0.0000 ( 14055 PWs)   bands (ev):

   -23.9007 -23.7542 -12.3818 -11.4248  -7.2914  -7.2914  -7.2825  -7.2825
    -0.8839  -0.5479   0.8590   1.3150

     occupation numbers 
     1.0000   1.0000   1.0000   1.0000   1.0000   1.0000   1.0000   1.0000
     0.0000   0.0000   0.0000   0.0000

          k = 0.0000 0.0962 0.0000 ( 14039 PWs)   bands (ev):

   -23.7353 -23.5903 -12.1819 -11.2311  -7.9481  -7.9319  -7.6350  -7.6214
    -0.6616  -0.3229   1.0804   1.5396

     occupation numbers 
     1.0000   1.0000   1.0000   1.0000   1.0000   1.0000   1.0000   1.0000
     0.0000   0.0000   0.0000   0.0000

          k = 0.0000 0.1925 0.0000 ( 14001 PWs)   bands (ev):

   -23.2410 -23.1003 -11.5871 -10.6558  -9.5999  -9.5688  -8.4367  -8.4172
     0.0049   0.3511   1.7443   2.2122

     occupation numbers 
     1.0000   1.0000   1.0000   1.0000   1.0000   1.0000   1.0000   1.0000
     0.0000   0.0000   0.0000   0.0000

          k = 0.0000 0.2887 0.0000 ( 13973 PWs)   bands (ev):

   -22.4234 -22.2900 -11.7162 -11.6681 -10.6145  -9.7203  -9.3249  -9.3018
     1.1120   1.4616   2.8276   2.8772

     occupation numbers 
     1.0000   1.0000   1.0000   1.0000   1.0000   1.0000   1.0000   1.0000
     0.0000   0.0000   0.0000   0.0000

          k = 0.0000 0.3849 0.0000 ( 13957 PWs)   bands (ev):

   -21.2947 -21.1713 -13.9380 -13.8732 -10.0647 -10.0395  -9.3085  -8.4823
     0.4713   0.9188   2.6466   3.0451

     occupation numbers 
     1.0000   1.0000   1.0000   1.0000   1.0000   1.0000   1.0000   1.0000
     0.0000   0.0000   0.0000   0.0000

          k = 0.0000 0.4811 0.0000 ( 13900 PWs)   bands (ev):

   -19.8850 -19.7751 -16.0559 -15.9768 -10.5415 -10.5153  -7.8085  -7.1372
    -1.6949  -1.2015   3.2053   3.3882

     occupation numbers 
     1.0000   1.0000   1.0000   1.0000   1.0000   1.0000   1.0000   1.0000
     0.0000   0.0000   0.0000   0.0000

          k = 0.0000-0.5774 0.0000 ( 13904 PWs)   bands (ev):

   -18.5825 -18.5277 -17.5559 -17.5145 -10.7052 -10.6786  -6.8181  -6.4669
    -2.7058  -2.3627   3.1207   3.3147

     occupation numbers 
     1.0000   1.0000   1.0000   1.0000   1.0000   1.0000   1.0000   1.0000
     0.0000   0.0000   0.0000   0.0000

          k = 0.0833 0.1443 0.0000 ( 14003 PWs)   bands (ev):

   -23.4055 -23.2634 -11.7845 -10.8465  -8.9853  -8.9697  -8.3168  -8.3053
    -0.2169   0.1269   1.5238   1.9888

     occupation numbers 
     1.0000   1.0000   1.0000   1.0000   1.0000   1.0000   1.0000   1.0000
     0.0000   0.0000   0.0000   0.0000

          k = 0.0833 0.2406 0.0000 ( 14001 PWs)   bands (ev):

   -22.7495 -22.6132 -10.9999 -10.7108 -10.6778 -10.0895  -9.3271  -9.3058
     0.6712   1.0232   2.4084   2.8824

     occupation numbers 
     1.0000   1.0000   1.0000   1.0000   1.0000   1.0000   1.0000   1.0000
     0.0000   0.0000   0.0000   0.0000

          k = 0.0833 0.3368 0.0000 ( 13973 PWs)   bands (ev):

   -21.7762 -21.6486 -12.8037 -12.7502 -10.2228 -10.1943  -9.8551  -8.9950
     1.5338   1.8877   2.0026   2.3901

     occupation numbers 
     1.0000   1.0000   1.0000   1.0000   1.0000   1.0000   1.0000   1.0000
     0.0000   0.0000   0.0000   0.0000

          k = 0.0833 0.4330 0.0000 ( 13937 PWs)   bands (ev):

   -20.5043 -20.3880 -14.9454 -14.8747 -10.8633 -10.8315  -8.4239  -7.6608
    -0.7275  -0.2743   3.7229   4.0020

     occupation numbers 
     1.0000   1.0000   1.0000   1.0000   1.0000   1.0000   1.0000   1.0000
     0.0000   0.0000   0.0000   0.0000

          k = 0.0833 0.5292 0.0000 ( 13904 PWs)   bands (ev):

   -19.0057 -18.9093 -16.9023 -16.8238 -11.1945 -11.1614  -6.9930  -6.4891
    -2.4634  -2.0690   3.8561   4.0588

     occupation numbers 
     1.0000   1.0000   1.0000   1.0000   1.0000   1.0000   1.0000   1.0000
     0.0000   0.0000   0.0000   0.0000

          k = 0.1667 0.2887 0.0000 ( 13969 PWs)   bands (ev):

   -21.9378 -21.8088 -12.0416 -12.0151 -10.6980 -10.6787 -10.0397  -9.1689
     1.7766   2.0511   2.1365   2.2887

     occupation numbers 
     1.0000   1.0000   1.0000   1.0000   1.0000   1.0000   1.0000   1.0000
     0.0000   0.0000   0.0000   0.0000

          k = 0.1667 0.3849 0.0000 ( 13953 PWs)   bands (ev):

   -20.8200 -20.7009 -13.7890 -13.7384 -11.7680 -11.7330  -8.7485  -7.9461
     0.0520   0.3637   3.3164   3.6797

     occupation numbers 
     1.0000   1.0000   1.0000   1.0000   1.0000   1.0000   1.0000   1.0000
     0.0000   0.0000   0.0000   0.0000

          k = 0.1667 0.4811 0.0000 ( 13903 PWs)   bands (ev):

   -19.4303 -19.3248 -15.7209 -15.6493 -12.3506 -12.3067  -7.2496  -6.5893
    -1.8977  -1.5242   5.2461   5.5456

     occupation numbers 
     1.0000   1.0000   1.0000   1.0000   1.0000   1.0000   1.0000   1.0000
     0.0000   0.0000   0.0000   0.0000

          k = 0.1667 0.5774 0.0000 ( 13896 PWs)   bands (ev):

   -18.1590 -18.1064 -17.1502 -17.1136 -12.5372 -12.4911  -6.2154  -5.8699
    -2.8486  -2.6815   5.6247   5.8946

     occupation numbers 
     1.0000   1.0000   1.0000   1.0000   1.0000   1.0000   1.0000   1.0000
     0.0000   0.0000   0.0000   0.0000

          k = 0.2500 0.4330 0.0000 ( 13939 PWs)   bands (ev):

   -19.5801 -19.4725 -14.8185 -14.7815 -13.2588 -13.2314  -7.3550  -6.6465
    -1.5659  -1.2684   5.0417   5.3217

     occupation numbers 
     1.0000   1.0000   1.0000   1.0000   1.0000   1.0000   1.0000   1.0000
     0.0000   0.0000   0.0000   0.0000

          k = 0.2500 0.5292 0.0000 ( 13893 PWs)   bands (ev):

   -18.1395 -18.0515 -16.2602 -16.2005 -13.9791 -13.9324  -5.8733  -5.3663
    -3.0711  -2.8008   6.5149   6.7113

     occupation numbers 
     1.0000   1.0000   1.0000   1.0000   1.0000   1.0000   1.0000   1.0000
     0.0000   0.0000   0.0000   0.0000

          k = 0.3333 0.5774 0.0000 ( 13848 PWs)   bands (ev):

   -16.9176 -16.8693 -16.8693 -16.8253 -14.8638 -14.8638  -4.5770  -4.2548
    -4.2548  -3.9129   6.3423   6.3423

     occupation numbers 
     1.0000   1.0000   1.0000   1.0000   1.0000   1.0000   1.0104   0.4948
     0.4948   0.0000   0.0000   0.0000

     the Fermi energy is    -4.2368 ev

!    total energy              =     -73.77362470 Ry
     total all-electron energy =      -304.830014 Ry
     estimated scf accuracy    <          4.4E-11 Ry
     smearing contrib. (-TS)   =      -0.00008360 Ry
     internal energy E=F+TS    =     -73.77354109 Ry

     The total energy is F=E-TS. E is the sum of the following terms:
     one-electron contribution =   -1255.71488701 Ry
     hartree contribution      =     629.61792463 Ry
     xc contribution           =     -18.57696634 Ry
     ewald contribution        =     595.56952778 Ry
     one-center paw contrib.   =     -24.66914016 Ry
      -> PAW hartree energy AE =      37.92330352 Ry
      -> PAW hartree energy PS =     -37.88853585 Ry
      -> PAW xc energy AE      =     -42.68934454 Ry
      -> PAW xc energy PS      =      17.98543671 Ry
      -> total E_H with PAW    =     629.65269230 Ry
      -> total E_XC with PAW   =     -43.28087416 Ry

     convergence has been achieved in   6 iterations

     negative rho (up, down):  1.435E-04 0.000E+00

     Forces acting on atoms (cartesian axes, Ry/au):

     atom    1 type  1   force =     0.00000000    0.00000000   -0.00125131
     atom    2 type  1   force =     0.00000000    0.00000000   -0.00262832
     atom    3 type  1   force =     0.00000000   -0.00000000    0.00262832
     atom    4 type  1   force =     0.00000000    0.00000000    0.00125131
     The non-local contrib.  to forces
     atom    1 type  1   force =     0.00000000    0.00000000   -0.00044945
     atom    2 type  1   force =     0.00000000    0.00000000   -0.00312723
     atom    3 type  1   force =     0.00000000   -0.00000000    0.00312723
     atom    4 type  1   force =     0.00000000   -0.00000000    0.00044945
     The ionic contribution  to forces
     atom    1 type  1   force =     0.00000000   -0.00000000  -21.50871284
     atom    2 type  1   force =    -0.00000000    0.00000000  -21.46230722
     atom    3 type  1   force =    -0.00000000   -0.00000000   21.46230722
     atom    4 type  1   force =     0.00000000    0.00000000   21.50871284
     The local contribution  to forces
     atom    1 type  1   force =    -0.00000000    0.00000000   21.50781303
     atom    2 type  1   force =    -0.00000000    0.00000000   21.46270729
     atom    3 type  1   force =    -0.00000000    0.00000000  -21.46270729
     atom    4 type  1   force =    -0.00000000    0.00000000  -21.50781303
     The core correction contribution to forces
     atom    1 type  1   force =     0.00000000    0.00000000    0.00010982
     atom    2 type  1   force =     0.00000000   -0.00000000    0.00011061
     atom    3 type  1   force =     0.00000000   -0.00000000   -0.00011061
     atom    4 type  1   force =    -0.00000000   -0.00000000   -0.00010982
     The Hubbard contrib.    to forces
     atom    1 type  1   force =     0.00000000    0.00000000    0.00000000
     atom    2 type  1   force =     0.00000000    0.00000000    0.00000000
     atom    3 type  1   force =     0.00000000    0.00000000    0.00000000
     atom    4 type  1   force =     0.00000000    0.00000000    0.00000000
     The SCF correction term to forces
     atom    1 type  1   force =    -0.00000000   -0.00000000   -0.00001188
     atom    2 type  1   force =    -0.00000000   -0.00000000   -0.00001177
     atom    3 type  1   force =    -0.00000000   -0.00000000    0.00001177
     atom    4 type  1   force =     0.00000000    0.00000000    0.00001188

     Total force =     0.004117     Total SCF correction =     0.000024
     Energy error            =      4.6E-05 Ry
     Gradient error          =      2.6E-03 Ry/Bohr

     number of scf cycles    =   5
     number of bfgs steps    =   4

     energy             old  =     -73.7735783430 Ry
     energy             new  =     -73.7736246950 Ry

     CASE: energy            _new < energy            _old

     new trust radius        =       0.0095922983 bohr
     new conv_thr            =            1.0E-10 Ry


ATOMIC_POSITIONS (angstrom)
C                0.0000000000        0.0000000000        9.9864126585
C                1.2300000000        0.7101408311        9.9886598613
C                1.2300000000        0.7101408311       13.3613401387
C                0.0000000000        1.4202816622       13.3635873415



     Writing config-only to output data dir /Users/memo/Desktop/New Horizons/Graphene Band Structure QE/outputs/bilayer/data/graphene.save/ :
     XML data file
     NEW-OLD atomic charge density approx. for the potential

     Check: negative core charge=   -0.000003

     negative rho (up, down):  1.422E-04 0.000E+00

     total cpu time spent up to now is      294.0 secs

     Self-consistent Calculation

     iteration #  1     ecut=   100.00 Ry     beta= 0.70
     Davidson diagonalization with overlap

---- Real-time Memory Report at c_bands before calling an iterative solver
             0 MiB given to the printing process from OS
             0 MiB allocation reported by mallinfo(arena+hblkhd)
             0 MiB available memory on the node where the printing process lives
------------------
     ethr =  1.00E-06,  avg # of iterations =  3.2

     negative rho (up, down):  1.426E-04 0.000E+00

     total cpu time spent up to now is      304.6 secs

     total energy              =     -73.77366903 Ry
     estimated scf accuracy    <       0.00006889 Ry

     iteration #  2     ecut=   100.00 Ry     beta= 0.70
     Davidson diagonalization with overlap

---- Real-time Memory Report at c_bands before calling an iterative solver
             0 MiB given to the printing process from OS
             0 MiB allocation reported by mallinfo(arena+hblkhd)
             0 MiB available memory on the node where the printing process lives
------------------
     ethr =  4.31E-07,  avg # of iterations =  2.1

     negative rho (up, down):  1.428E-04 0.000E+00

     total cpu time spent up to now is      310.8 secs

     total energy              =     -73.77367994 Ry
     estimated scf accuracy    <       0.00005660 Ry

     iteration #  3     ecut=   100.00 Ry     beta= 0.70
     Davidson diagonalization with overlap

---- Real-time Memory Report at c_bands before calling an iterative solver
             0 MiB given to the printing process from OS
             0 MiB allocation reported by mallinfo(arena+hblkhd)
             0 MiB available memory on the node where the printing process lives
------------------
     ethr =  3.54E-07,  avg # of iterations =  2.0

     negative rho (up, down):  1.429E-04 0.000E+00

     total cpu time spent up to now is      319.1 secs

     total energy              =     -73.77369348 Ry
     estimated scf accuracy    <       0.00000094 Ry

     iteration #  4     ecut=   100.00 Ry     beta= 0.70
     Davidson diagonalization with overlap

---- Real-time Memory Report at c_bands before calling an iterative solver
             0 MiB given to the printing process from OS
             0 MiB allocation reported by mallinfo(arena+hblkhd)
             0 MiB available memory on the node where the printing process lives
------------------
     ethr =  5.86E-09,  avg # of iterations =  1.9

     negative rho (up, down):  1.429E-04 0.000E+00

     total cpu time spent up to now is      327.8 secs

     total energy              =     -73.77369362 Ry
     estimated scf accuracy    <       0.00000003 Ry

     iteration #  5     ecut=   100.00 Ry     beta= 0.70
     Davidson diagonalization with overlap

---- Real-time Memory Report at c_bands before calling an iterative solver
             0 MiB given to the printing process from OS
             0 MiB allocation reported by mallinfo(arena+hblkhd)
             0 MiB available memory on the node where the printing process lives
------------------
     ethr =  1.69E-10,  avg # of iterations =  3.0

     negative rho (up, down):  1.429E-04 0.000E+00

     total cpu time spent up to now is      335.2 secs

     total energy              =     -73.77369364 Ry
     estimated scf accuracy    <          2.3E-09 Ry

     iteration #  6     ecut=   100.00 Ry     beta= 0.70
     Davidson diagonalization with overlap

---- Real-time Memory Report at c_bands before calling an iterative solver
             0 MiB given to the printing process from OS
             0 MiB allocation reported by mallinfo(arena+hblkhd)
             0 MiB available memory on the node where the printing process lives
------------------
     ethr =  1.42E-11,  avg # of iterations =  2.2

     negative rho (up, down):  1.429E-04 0.000E+00

     total cpu time spent up to now is      343.2 secs

     total energy              =     -73.77369364 Ry
     estimated scf accuracy    <          1.4E-10 Ry

     iteration #  7     ecut=   100.00 Ry     beta= 0.70
     Davidson diagonalization with overlap

---- Real-time Memory Report at c_bands before calling an iterative solver
             0 MiB given to the printing process from OS
             0 MiB allocation reported by mallinfo(arena+hblkhd)
             0 MiB available memory on the node where the printing process lives
------------------
     ethr =  9.01E-13,  avg # of iterations =  2.9

     negative rho (up, down):  1.429E-04 0.000E+00

     total cpu time spent up to now is      357.2 secs

     End of self-consistent calculation

          k = 0.0000 0.0000 0.0000 ( 14055 PWs)   bands (ev):

   -23.8984 -23.7551 -12.3746 -11.4314  -7.2907  -7.2907  -7.2821  -7.2821
    -0.8850  -0.5474   0.8583   1.3199

     occupation numbers 
     1.0000   1.0000   1.0000   1.0000   1.0000   1.0000   1.0000   1.0000
     0.0000   0.0000   0.0000   0.0000

          k = 0.0000 0.0962 0.0000 ( 14039 PWs)   bands (ev):

   -23.7330 -23.5912 -12.1748 -11.2376  -7.9473  -7.9316  -7.6343  -7.6211
    -0.6628  -0.3224   1.0797   1.5446

     occupation numbers 
     1.0000   1.0000   1.0000   1.0000   1.0000   1.0000   1.0000   1.0000
     0.0000   0.0000   0.0000   0.0000

          k = 0.0000 0.1925 0.0000 ( 14001 PWs)   bands (ev):

   -23.2387 -23.1012 -11.5800 -10.6623  -9.5989  -9.5686  -8.4359  -8.4170
     0.0037   0.3516   1.7434   2.2171

     occupation numbers 
     1.0000   1.0000   1.0000   1.0000   1.0000   1.0000   1.0000   1.0000
     0.0000   0.0000   0.0000   0.0000

          k = 0.0000 0.2887 0.0000 ( 13973 PWs)   bands (ev):

   -22.4212 -22.2908 -11.7149 -11.6681 -10.6076  -9.7264  -9.3241  -9.3016
     1.1106   1.4621   2.8256   2.8811

     occupation numbers 
     1.0000   1.0000   1.0000   1.0000   1.0000   1.0000   1.0000   1.0000
     0.0000   0.0000   0.0000   0.0000

          k = 0.0000 0.3849 0.0000 ( 13957 PWs)   bands (ev):

   -21.2926 -21.1720 -13.9366 -13.8734 -10.0638 -10.0393  -9.3019  -8.4880
     0.4759   0.9156   2.6450   3.0455

     occupation numbers 
     1.0000   1.0000   1.0000   1.0000   1.0000   1.0000   1.0000   1.0000
     0.0000   0.0000   0.0000   0.0000

          k = 0.0000 0.4811 0.0000 ( 13900 PWs)   bands (ev):

   -19.8831 -19.7758 -16.0543 -15.9771 -10.5406 -10.5151  -7.8027  -7.1415
    -1.6905  -1.2050   3.2079   3.3869

     occupation numbers 
     1.0000   1.0000   1.0000   1.0000   1.0000   1.0000   1.0000   1.0000
     0.0000   0.0000   0.0000   0.0000

          k = 0.0000-0.5774 0.0000 ( 13904 PWs)   bands (ev):

   -18.5812 -18.5276 -17.5549 -17.5144 -10.7042 -10.6784  -6.8140  -6.4682
    -2.7035  -2.3653   3.1235   3.3134

     occupation numbers 
     1.0000   1.0000   1.0000   1.0000   1.0000   1.0000   1.0000   1.0000
     0.0000   0.0000   0.0000   0.0000

          k = 0.0833 0.1443 0.0000 ( 14003 PWs)   bands (ev):

   -23.4032 -23.2643 -11.7774 -10.8529  -8.9846  -8.9693  -8.3161  -8.3049
    -0.2181   0.1273   1.5230   1.9937

     occupation numbers 
     1.0000   1.0000   1.0000   1.0000   1.0000   1.0000   1.0000   1.0000
     0.0000   0.0000   0.0000   0.0000

          k = 0.0833 0.2406 0.0000 ( 14001 PWs)   bands (ev):

   -22.7473 -22.6141 -10.9929 -10.7098 -10.6777 -10.0958  -9.3263  -9.3055
     0.6699   1.0236   2.4071   2.8873

     occupation numbers 
     1.0000   1.0000   1.0000   1.0000   1.0000   1.0000   1.0000   1.0000
     0.0000   0.0000   0.0000   0.0000

          k = 0.0833 0.3368 0.0000 ( 13973 PWs)   bands (ev):

   -21.7741 -21.6494 -12.8024 -12.7503 -10.2219 -10.1941  -9.8483  -9.0009
     1.5377   1.8857   2.0010   2.3906

     occupation numbers 
     1.0000   1.0000   1.0000   1.0000   1.0000   1.0000   1.0000   1.0000
     0.0000   0.0000   0.0000   0.0000

          k = 0.0833 0.4330 0.0000 ( 13937 PWs)   bands (ev):

   -20.5023 -20.3887 -14.9439 -14.8749 -10.8623 -10.8314  -8.4176  -7.6659
    -0.7230  -0.2773   3.7213   4.0039

     occupation numbers 
     1.0000   1.0000   1.0000   1.0000   1.0000   1.0000   1.0000   1.0000
     0.0000   0.0000   0.0000   0.0000

          k = 0.0833 0.5292 0.0000 ( 13904 PWs)   bands (ev):

   -19.0039 -18.9097 -16.9007 -16.8241 -11.1934 -11.1612  -6.9880  -6.4918
    -2.4602  -2.0717   3.8588   4.0575

     occupation numbers 
     1.0000   1.0000   1.0000   1.0000   1.0000   1.0000   1.0000   1.0000
     0.0000   0.0000   0.0000   0.0000

          k = 0.1667 0.2887 0.0000 ( 13969 PWs)   bands (ev):

   -21.9357 -21.8095 -12.0406 -12.0149 -10.6971 -10.6784 -10.0329  -9.1749
     1.7749   2.0545   2.1372   2.2875

     occupation numbers 
     1.0000   1.0000   1.0000   1.0000   1.0000   1.0000   1.0000   1.0000
     0.0000   0.0000   0.0000   0.0000

          k = 0.1667 0.3849 0.0000 ( 13953 PWs)   bands (ev):

   -20.8180 -20.7016 -13.7878 -13.7384 -11.7670 -11.7329  -8.7420  -7.9516
     0.0556   0.3621   3.3148   3.6802

     occupation numbers 
     1.0000   1.0000   1.0000   1.0000   1.0000   1.0000   1.0000   1.0000
     0.0000   0.0000   0.0000   0.0000

          k = 0.1667 0.4811 0.0000 ( 13903 PWs)   bands (ev):

   -19.4284 -19.3254 -15.7195 -15.6496 -12.3495 -12.3066  -7.2438  -6.5936
    -1.8940  -1.5264   5.2442   5.5470

     occupation numbers 
     1.0000   1.0000   1.0000   1.0000   1.0000   1.0000   1.0000   1.0000
     0.0000   0.0000   0.0000   0.0000

          k = 0.1667 0.5774 0.0000 ( 13896 PWs)   bands (ev):

   -18.1576 -18.1063 -17.1492 -17.1135 -12.5360 -12.4911  -6.2113  -5.8711
    -2.8474  -2.6825   5.6279   5.8933

     occupation numbers 
     1.0000   1.0000   1.0000   1.0000   1.0000   1.0000   1.0000   1.0000
     0.0000   0.0000   0.0000   0.0000

          k = 0.2500 0.4330 0.0000 ( 13939 PWs)   bands (ev):

   -19.5782 -19.4731 -14.8174 -14.7813 -13.2579 -13.2312  -7.3490  -6.6512
    -1.5625  -1.2698   5.0398   5.3225

     occupation numbers 
     1.0000   1.0000   1.0000   1.0000   1.0000   1.0000   1.0000   1.0000
     0.0000   0.0000   0.0000   0.0000

          k = 0.2500 0.5292 0.0000 ( 13893 PWs)   bands (ev):

   -18.1378 -18.0519 -16.2589 -16.2006 -13.9779 -13.9324  -5.8683  -5.3691
    -3.0683  -2.8024   6.5174   6.7066

     occupation numbers 
     1.0000   1.0000   1.0000   1.0000   1.0000   1.0000   1.0000   1.0000
     0.0000   0.0000   0.0000   0.0000

          k = 0.3333 0.5774 0.0000 ( 13848 PWs)   bands (ev):

   -16.9158 -16.8687 -16.8687 -16.8257 -14.8632 -14.8632  -4.5709  -4.2537
    -4.2537  -3.9175   6.3418   6.3418

     occupation numbers 
     1.0000   1.0000   1.0000   1.0000   1.0000   1.0000   1.0118   0.4941
     0.4941   0.0000   0.0000   0.0000

     the Fermi energy is    -4.2359 ev

!    total energy              =     -73.77369364 Ry
     total all-electron energy =      -304.830083 Ry
     estimated scf accuracy    <          2.8E-12 Ry
     smearing contrib. (-TS)   =      -0.00008270 Ry
     internal energy E=F+TS    =     -73.77361093 Ry

     The total energy is F=E-TS. E is the sum of the following terms:
     one-electron contribution =   -1254.13383099 Ry
     hartree contribution      =     628.82755908 Ry
     xc contribution           =     -18.57676422 Ry
     ewald contribution        =     594.77856180 Ry
     one-center paw contrib.   =     -24.66913660 Ry
      -> PAW hartree energy AE =      37.92287240 Ry
      -> PAW hartree energy PS =     -37.88810514 Ry
      -> PAW xc energy AE      =     -42.68923937 Ry
      -> PAW xc energy PS      =      17.98533551 Ry
      -> total E_H with PAW    =     628.86232634 Ry
      -> total E_XC with PAW   =     -43.28066808 Ry

     convergence has been achieved in   7 iterations

     negative rho (up, down):  1.429E-04 0.000E+00

     Forces acting on atoms (cartesian axes, Ry/au):

     atom    1 type  1   force =     0.00000000    0.00000000   -0.00090973
     atom    2 type  1   force =     0.00000000    0.00000000   -0.00284006
     atom    3 type  1   force =     0.00000000   -0.00000000    0.00284006
     atom    4 type  1   force =     0.00000000   -0.00000000    0.00090973
     The non-local contrib.  to forces
     atom    1 type  1   force =     0.00000000   -0.00000000    0.00011996
     atom    2 type  1   force =     0.00000000    0.00000000   -0.00357481
     atom    3 type  1   force =     0.00000000   -0.00000000    0.00357481
     atom    4 type  1   force =     0.00000000    0.00000000   -0.00011996
     The ionic contribution  to forces
     atom    1 type  1   force =     0.00000000   -0.00000000  -21.51454495
     atom    2 type  1   force =    -0.00000000    0.00000000  -21.45652423
     atom    3 type  1   force =    -0.00000000   -0.00000000   21.45652423
     atom    4 type  1   force =     0.00000000    0.00000000   21.51454495
     The local contribution  to forces
     atom    1 type  1   force =    -0.00000000    0.00000000   21.51341660
     atom    2 type  1   force =    -0.00000000    0.00000000   21.45714924
     atom    3 type  1   force =    -0.00000000    0.00000000  -21.45714924
     atom    4 type  1   force =    -0.00000000    0.00000000  -21.51341660
     The core correction contribution to forces
     atom    1 type  1   force =     0.00000000    0.00000000    0.00009608
     atom    2 type  1   force =     0.00000000   -0.00000000    0.00010716
     atom    3 type  1   force =     0.00000000   -0.00000000   -0.00010716
     atom    4 type  1   force =    -0.00000000   -0.00000000   -0.00009608
     The Hubbard contrib.    to forces
     atom    1 type  1   force =     0.00000000    0.00000000    0.00000000
     atom    2 type  1   force =     0.00000000    0.00000000    0.00000000
     atom    3 type  1   force =     0.00000000    0.00000000    0.00000000
     atom    4 type  1   force =     0.00000000    0.00000000    0.00000000
     The SCF correction term to forces
     atom    1 type  1   force =     0.00000000    0.00000000    0.00000257
     atom    2 type  1   force =    -0.00000000    0.00000000    0.00000258
     atom    3 type  1   force =    -0.00000000    0.00000000   -0.00000258
     atom    4 type  1   force =     0.00000000   -0.00000000   -0.00000257

     Total force =     0.004217     Total SCF correction =     0.000005
     Energy error            =      6.9E-05 Ry
     Gradient error          =      2.8E-03 Ry/Bohr

     number of scf cycles    =   6
     number of bfgs steps    =   5

     energy             old  =     -73.7736246950 Ry
     energy             new  =     -73.7736936358 Ry

     CASE: energy            _new < energy            _old

     new trust radius        =       0.0143884475 bohr
     new conv_thr            =            1.0E-10 Ry


ATOMIC_POSITIONS (angstrom)
C                0.0000000000        0.0000000000        9.9787986200
C                1.2300000000        0.7101408311        9.9814508754
C                1.2300000000        0.7101408311       13.3685491246
C                0.0000000000        1.4202816622       13.3712013800



     Writing config-only to output data dir /Users/memo/Desktop/New Horizons/Graphene Band Structure QE/outputs/bilayer/data/graphene.save/ :
     XML data file
     NEW-OLD atomic charge density approx. for the potential

     Check: negative core charge=   -0.000003

     negative rho (up, down):  1.408E-04 0.000E+00

     total cpu time spent up to now is      361.7 secs

     Self-consistent Calculation

     iteration #  1     ecut=   100.00 Ry     beta= 0.70
     Davidson diagonalization with overlap

---- Real-time Memory Report at c_bands before calling an iterative solver
             0 MiB given to the printing process from OS
             0 MiB allocation reported by mallinfo(arena+hblkhd)
             0 MiB available memory on the node where the printing process lives
------------------
     ethr =  1.00E-06,  avg # of iterations =  3.8

     negative rho (up, down):  1.414E-04 0.000E+00

     total cpu time spent up to now is      401.6 secs

     total energy              =     -73.77373545 Ry
     estimated scf accuracy    <       0.00016312 Ry

     iteration #  2     ecut=   100.00 Ry     beta= 0.70
     Davidson diagonalization with overlap

---- Real-time Memory Report at c_bands before calling an iterative solver
             0 MiB given to the printing process from OS
             0 MiB allocation reported by mallinfo(arena+hblkhd)
             0 MiB available memory on the node where the printing process lives
------------------
     ethr =  1.02E-06,  avg # of iterations =  2.7

     negative rho (up, down):  1.417E-04 0.000E+00

     total cpu time spent up to now is      408.6 secs

     total energy              =     -73.77376129 Ry
     estimated scf accuracy    <       0.00014039 Ry

     iteration #  3     ecut=   100.00 Ry     beta= 0.70
     Davidson diagonalization with overlap

---- Real-time Memory Report at c_bands before calling an iterative solver
             0 MiB given to the printing process from OS
             0 MiB allocation reported by mallinfo(arena+hblkhd)
             0 MiB available memory on the node where the printing process lives
------------------
     ethr =  8.77E-07,  avg # of iterations =  2.1

     negative rho (up, down):  1.418E-04 0.000E+00

     total cpu time spent up to now is      417.8 secs

     total energy              =     -73.77379429 Ry
     estimated scf accuracy    <       0.00000193 Ry

     iteration #  4     ecut=   100.00 Ry     beta= 0.70
     Davidson diagonalization with overlap

---- Real-time Memory Report at c_bands before calling an iterative solver
             0 MiB given to the printing process from OS
             0 MiB allocation reported by mallinfo(arena+hblkhd)
             0 MiB available memory on the node where the printing process lives
------------------
     ethr =  1.20E-08,  avg # of iterations =  1.8

     negative rho (up, down):  1.419E-04 0.000E+00

     total cpu time spent up to now is      423.7 secs

     total energy              =     -73.77379457 Ry
     estimated scf accuracy    <       0.00000007 Ry

     iteration #  5     ecut=   100.00 Ry     beta= 0.70
     Davidson diagonalization with overlap

---- Real-time Memory Report at c_bands before calling an iterative solver
             0 MiB given to the printing process from OS
             0 MiB allocation reported by mallinfo(arena+hblkhd)
             0 MiB available memory on the node where the printing process lives
------------------
     ethr =  4.43E-10,  avg # of iterations =  2.7

     negative rho (up, down):  1.419E-04 0.000E+00

     total cpu time spent up to now is      434.7 secs

     total energy              =     -73.77379461 Ry
     estimated scf accuracy    <          4.5E-09 Ry

     iteration #  6     ecut=   100.00 Ry     beta= 0.70
     Davidson diagonalization with overlap

---- Real-time Memory Report at c_bands before calling an iterative solver
             0 MiB given to the printing process from OS
             0 MiB allocation reported by mallinfo(arena+hblkhd)
             0 MiB available memory on the node where the printing process lives
------------------
     ethr =  2.81E-11,  avg # of iterations =  2.5

     negative rho (up, down):  1.418E-04 0.000E+00

     total cpu time spent up to now is      451.0 secs

     total energy              =     -73.77379461 Ry
     estimated scf accuracy    <          6.6E-10 Ry

     iteration #  7     ecut=   100.00 Ry     beta= 0.70
     Davidson diagonalization with overlap

---- Real-time Memory Report at c_bands before calling an iterative solver
             0 MiB given to the printing process from OS
             0 MiB allocation reported by mallinfo(arena+hblkhd)
             0 MiB available memory on the node where the printing process lives
------------------
     ethr =  4.15E-12,  avg # of iterations =  2.2

     negative rho (up, down):  1.418E-04 0.000E+00

     total cpu time spent up to now is      457.6 secs

     End of self-consistent calculation

          k = 0.0000 0.0000 0.0000 ( 14055 PWs)   bands (ev):

   -23.8950 -23.7565 -12.3638 -11.4413  -7.2898  -7.2898  -7.2816  -7.2816
    -0.8868  -0.5468   0.8579   1.3285

     occupation numbers 
     1.0000   1.0000   1.0000   1.0000   1.0000   1.0000   1.0000   1.0000
     0.0000   0.0000   0.0000   0.0000

          k = 0.0000 0.0962 0.0000 ( 14039 PWs)   bands (ev):

   -23.7296 -23.5926 -12.1640 -11.2475  -7.9462  -7.9311  -7.6332  -7.6206
    -0.6646  -0.3217   1.0791   1.5531

     occupation numbers 
     1.0000   1.0000   1.0000   1.0000   1.0000   1.0000   1.0000   1.0000
     0.0000   0.0000   0.0000   0.0000

          k = 0.0000 0.1925 0.0000 ( 14001 PWs)   bands (ev):

   -23.2354 -23.1026 -11.5694 -10.6719  -9.5975  -9.5684  -8.4347  -8.4166
     0.0018   0.3522   1.7423   2.2256

     occupation numbers 
     1.0000   1.0000   1.0000   1.0000   1.0000   1.0000   1.0000   1.0000
     0.0000   0.0000   0.0000   0.0000

          k = 0.0000 0.2887 0.0000 ( 13973 PWs)   bands (ev):

   -22.4180 -22.2921 -11.7132 -11.6682 -10.5972  -9.7357  -9.3228  -9.3013
     1.1085   1.4628   2.8226   2.8870

     occupation numbers 
     1.0000   1.0000   1.0000   1.0000   1.0000   1.0000   1.0000   1.0000
     0.0000   0.0000   0.0000   0.0000

          k = 0.0000 0.3849 0.0000 ( 13957 PWs)   bands (ev):

   -21.2896 -21.1732 -13.9346 -13.8737 -10.0625 -10.0391  -9.2920  -8.4964
     0.4827   0.9110   2.6425   3.0460

     occupation numbers 
     1.0000   1.0000   1.0000   1.0000   1.0000   1.0000   1.0000   1.0000
     0.0000   0.0000   0.0000   0.0000

          k = 0.0000 0.4811 0.0000 ( 13900 PWs)   bands (ev):

   -19.8803 -19.7767 -16.0520 -15.9776 -10.5393 -10.5148  -7.7940  -7.1479
    -1.6841  -1.2100   3.2118   3.3850

     occupation numbers 
     1.0000   1.0000   1.0000   1.0000   1.0000   1.0000   1.0000   1.0000
     0.0000   0.0000   0.0000   0.0000

          k = 0.0000-0.5774 0.0000 ( 13904 PWs)   bands (ev):

   -18.5792 -18.5275 -17.5533 -17.5143 -10.7029 -10.6782  -6.8079  -6.4703
    -2.7003  -2.3689   3.1275   3.3114

     occupation numbers 
     1.0000   1.0000   1.0000   1.0000   1.0000   1.0000   1.0000   1.0000
     0.0000   0.0000   0.0000   0.0000

          k = 0.0833 0.1443 0.0000 ( 14003 PWs)   bands (ev):

   -23.3998 -23.2656 -11.7667 -10.8626  -8.9834  -8.9688  -8.3150  -8.3044
    -0.2200   0.1280   1.5221   2.0022

     occupation numbers 
     1.0000   1.0000   1.0000   1.0000   1.0000   1.0000   1.0000   1.0000
     0.0000   0.0000   0.0000   0.0000

          k = 0.0833 0.2406 0.0000 ( 14001 PWs)   bands (ev):

   -22.7440 -22.6154 -10.9824 -10.7083 -10.6775 -10.1052  -9.3250  -9.3051
     0.6678   1.0242   2.4056   2.8958

     occupation numbers 
     1.0000   1.0000   1.0000   1.0000   1.0000   1.0000   1.0000   1.0000
     0.0000   0.0000   0.0000   0.0000

          k = 0.0833 0.3368 0.0000 ( 13973 PWs)   bands (ev):

   -21.7710 -21.6505 -12.8005 -12.7504 -10.2205 -10.1939  -9.8382  -9.0098
     1.5434   1.8825   1.9985   2.3912

     occupation numbers 
     1.0000   1.0000   1.0000   1.0000   1.0000   1.0000   1.0000   1.0000
     0.0000   0.0000   0.0000   0.0000

          k = 0.0833 0.4330 0.0000 ( 13937 PWs)   bands (ev):

   -20.4993 -20.3898 -14.9418 -14.8753 -10.8609 -10.8312  -8.4082  -7.6736
    -0.7164  -0.2818   3.7188   4.0067

     occupation numbers 
     1.0000   1.0000   1.0000   1.0000   1.0000   1.0000   1.0000   1.0000
     0.0000   0.0000   0.0000   0.0000

          k = 0.0833 0.5292 0.0000 ( 13904 PWs)   bands (ev):

   -19.0013 -18.9105 -16.8985 -16.8246 -11.1920 -11.1611  -6.9807  -6.4960
    -2.4556  -2.0758   3.8629   4.0555

     occupation numbers 
     1.0000   1.0000   1.0000   1.0000   1.0000   1.0000   1.0000   1.0000
     0.0000   0.0000   0.0000   0.0000

          k = 0.1667 0.2887 0.0000 ( 13969 PWs)   bands (ev):

   -21.9325 -21.8108 -12.0393 -12.0145 -10.6960 -10.6780 -10.0226  -9.1839
     1.7723   2.0594   2.1381   2.2856

     occupation numbers 
     1.0000   1.0000   1.0000   1.0000   1.0000   1.0000   1.0000   1.0000
     0.0000   0.0000   0.0000   0.0000

          k = 0.1667 0.3849 0.0000 ( 13953 PWs)   bands (ev):

   -20.8150 -20.7027 -13.7860 -13.7385 -11.7655 -11.7327  -8.7323  -7.9598
     0.0610   0.3596   3.3123   3.6807

     occupation numbers 
     1.0000   1.0000   1.0000   1.0000   1.0000   1.0000   1.0000   1.0000
     0.0000   0.0000   0.0000   0.0000

          k = 0.1667 0.4811 0.0000 ( 13903 PWs)   bands (ev):

   -19.4257 -19.3262 -15.7173 -15.6500 -12.3478 -12.3066  -7.2352  -6.6000
    -1.8885  -1.5298   5.2412   5.5491

     occupation numbers 
     1.0000   1.0000   1.0000   1.0000   1.0000   1.0000   1.0000   1.0000
     0.0000   0.0000   0.0000   0.0000

          k = 0.1667 0.5774 0.0000 ( 13896 PWs)   bands (ev):

   -18.1557 -18.1062 -17.1478 -17.1133 -12.5343 -12.4912  -6.2051  -5.8730
    -2.8459  -2.6839   5.6327   5.8914

     occupation numbers 
     1.0000   1.0000   1.0000   1.0000   1.0000   1.0000   1.0000   1.0000
     0.0000   0.0000   0.0000   0.0000

          k = 0.2500 0.4330 0.0000 ( 13939 PWs)   bands (ev):

   -19.5754 -19.4741 -14.8158 -14.7811 -13.2566 -13.2309  -7.3400  -6.6582
    -1.5573  -1.2721   5.0369   5.3236

     occupation numbers 
     1.0000   1.0000   1.0000   1.0000   1.0000   1.0000   1.0000   1.0000
     0.0000   0.0000   0.0000   0.0000

          k = 0.2500 0.5292 0.0000 ( 13893 PWs)   bands (ev):

   -18.1353 -18.0525 -16.2569 -16.2008 -13.9762 -13.9324  -5.8609  -5.3733
    -3.0641  -2.8047   6.5211   6.6998

     occupation numbers 
     1.0000   1.0000   1.0000   1.0000   1.0000   1.0000   1.0000   1.0000
     0.0000   0.0000   0.0000   0.0000

          k = 0.3333 0.5774 0.0000 ( 13848 PWs)   bands (ev):

   -16.9132 -16.8678 -16.8678 -16.8264 -14.8624 -14.8624  -4.5617  -4.2522
    -4.2522  -3.9245   6.3412   6.3412

     occupation numbers 
     1.0000   1.0000   1.0000   1.0000   1.0000   1.0000   1.0142   0.4929
     0.4929   0.0001   0.0000   0.0000

     the Fermi energy is    -4.2346 ev

!    total energy              =     -73.77379461 Ry
     total all-electron energy =      -304.830183 Ry
     estimated scf accuracy    <          2.2E-12 Ry
     smearing contrib. (-TS)   =      -0.00008118 Ry
     internal energy E=F+TS    =     -73.77371343 Ry

     The total energy is F=E-TS. E is the sum of the following terms:
     one-electron contribution =   -1251.72779252 Ry
     hartree contribution      =     627.62485010 Ry
     xc contribution           =     -18.57646921 Ry
     ewald contribution        =     593.57482979 Ry
     one-center paw contrib.   =     -24.66913158 Ry
      -> PAW hartree energy AE =      37.92226854 Ry
      -> PAW hartree energy PS =     -37.88750185 Ry
      -> PAW xc energy AE      =     -42.68909213 Ry
      -> PAW xc energy PS      =      17.98519385 Ry
      -> total E_H with PAW    =     627.65961679 Ry
      -> total E_XC with PAW   =     -43.28036748 Ry

     convergence has been achieved in   7 iterations

     negative rho (up, down):  1.418E-04 0.000E+00

     Forces acting on atoms (cartesian axes, Ry/au):

     atom    1 type  1   force =     0.00000000    0.00000000   -0.00055022
     atom    2 type  1   force =     0.00000000    0.00000000   -0.00303054
     atom    3 type  1   force =     0.00000000   -0.00000000    0.00303054
     atom    4 type  1   force =     0.00000000   -0.00000000    0.00055022
     The non-local contrib.  to forces
     atom    1 type  1   force =    -0.00000000    0.00000000    0.00070514
     atom    2 type  1   force =     0.00000000   -0.00000000   -0.00400749
     atom    3 type  1   force =     0.00000000   -0.00000000    0.00400749
     atom    4 type  1   force =     0.00000000    0.00000000   -0.00070514
     The ionic contribution  to forces
     atom    1 type  1   force =     0.00000000   -0.00000000  -21.52032146
     atom    2 type  1   force =    -0.00000000    0.00000000  -21.45081665
     atom    3 type  1   force =    -0.00000000   -0.00000000   21.45081665
     atom    4 type  1   force =     0.00000000    0.00000000   21.52032146
     The local contribution  to forces
     atom    1 type  1   force =    -0.00000000    0.00000000   21.51900304
     atom    2 type  1   force =    -0.00000000    0.00000000   21.45170416
     atom    3 type  1   force =    -0.00000000    0.00000000  -21.45170416
     atom    4 type  1   force =    -0.00000000    0.00000000  -21.51900304
     The core correction contribution to forces
     atom    1 type  1   force =     0.00000000    0.00000000    0.00006215
     atom    2 type  1   force =     0.00000000   -0.00000000    0.00008852
     atom    3 type  1   force =     0.00000000   -0.00000000   -0.00008852
     atom    4 type  1   force =     0.00000000   -0.00000000   -0.00006215
     The Hubbard contrib.    to forces
     atom    1 type  1   force =     0.00000000    0.00000000    0.00000000
     atom    2 type  1   force =     0.00000000    0.00000000    0.00000000
     atom    3 type  1   force =     0.00000000    0.00000000    0.00000000
     atom    4 type  1   force =     0.00000000    0.00000000    0.00000000
     The SCF correction term to forces
     atom    1 type  1   force =    -0.00000000   -0.00000000    0.00000091
     atom    2 type  1   force =     0.00000000    0.00000000    0.00000091
     atom    3 type  1   force =     0.00000000    0.00000000   -0.00000091
     atom    4 type  1   force =    -0.00000000   -0.00000000   -0.00000091

     Total force =     0.004356     Total SCF correction =     0.000002
     Energy error            =      1.0E-04 Ry
     Gradient error          =      3.0E-03 Ry/Bohr

     number of scf cycles    =   7
     number of bfgs steps    =   6

     energy             old  =     -73.7736936358 Ry
     energy             new  =     -73.7737946107 Ry

     CASE: energy            _new < energy            _old

     new trust radius        =       0.0215826713 bohr
     new conv_thr            =       0.0000000001 Ry


ATOMIC_POSITIONS (angstrom)
C                0.0000000000        0.0000000000        9.9673775622
C                1.2300000000        0.7101408311        9.9704120068
C                1.2300000000        0.7101408311       13.3795879932
C                0.0000000000        1.4202816622       13.3826224378



     Writing config-only to output data dir /Users/memo/Desktop/New Horizons/Graphene Band Structure QE/outputs/bilayer/data/graphene.save/ :
     XML data file
     NEW-OLD atomic charge density approx. for the potential

     Check: negative core charge=   -0.000003

     negative rho (up, down):  1.387E-04 0.000E+00

     total cpu time spent up to now is      459.2 secs

     Self-consistent Calculation

     iteration #  1     ecut=   100.00 Ry     beta= 0.70
     Davidson diagonalization with overlap

---- Real-time Memory Report at c_bands before calling an iterative solver
             0 MiB given to the printing process from OS
             0 MiB allocation reported by mallinfo(arena+hblkhd)
             0 MiB available memory on the node where the printing process lives
------------------
     ethr =  1.00E-06,  avg # of iterations =  4.3

     negative rho (up, down):  1.399E-04 0.000E+00

     total cpu time spent up to now is      472.1 secs

     total energy              =     -73.77380356 Ry
     estimated scf accuracy    <       0.00037747 Ry

     iteration #  2     ecut=   100.00 Ry     beta= 0.70
     Davidson diagonalization with overlap

---- Real-time Memory Report at c_bands before calling an iterative solver
             0 MiB given to the printing process from OS
             0 MiB allocation reported by mallinfo(arena+hblkhd)
             0 MiB available memory on the node where the printing process lives
------------------
     ethr =  2.36E-06,  avg # of iterations =  3.6

     negative rho (up, down):  1.402E-04 0.000E+00

     total cpu time spent up to now is      479.5 secs

     total energy              =     -73.77386230 Ry
     estimated scf accuracy    <       0.00033153 Ry

     iteration #  3     ecut=   100.00 Ry     beta= 0.70
     Davidson diagonalization with overlap

---- Real-time Memory Report at c_bands before calling an iterative solver
             0 MiB given to the printing process from OS
             0 MiB allocation reported by mallinfo(arena+hblkhd)
             0 MiB available memory on the node where the printing process lives
------------------
     ethr =  2.07E-06,  avg # of iterations =  3.2

     negative rho (up, down):  1.404E-04 0.000E+00

     total cpu time spent up to now is      485.7 secs

     total energy              =     -73.77393984 Ry
     estimated scf accuracy    <       0.00000437 Ry

     iteration #  4     ecut=   100.00 Ry     beta= 0.70
     Davidson diagonalization with overlap

---- Real-time Memory Report at c_bands before calling an iterative solver
             0 MiB given to the printing process from OS
             0 MiB allocation reported by mallinfo(arena+hblkhd)
             0 MiB available memory on the node where the printing process lives
------------------
     ethr =  2.73E-08,  avg # of iterations =  1.8

     negative rho (up, down):  1.405E-04 0.000E+00

     total cpu time spent up to now is      491.4 secs

     total energy              =     -73.77394050 Ry
     estimated scf accuracy    <       0.00000016 Ry

     iteration #  5     ecut=   100.00 Ry     beta= 0.70
     Davidson diagonalization with overlap

---- Real-time Memory Report at c_bands before calling an iterative solver
             0 MiB given to the printing process from OS
             0 MiB allocation reported by mallinfo(arena+hblkhd)
             0 MiB available memory on the node where the printing process lives
------------------
     ethr =  9.94E-10,  avg # of iterations =  2.7

     negative rho (up, down):  1.405E-04 0.000E+00

     total cpu time spent up to now is      498.0 secs

     total energy              =     -73.77394058 Ry
     estimated scf accuracy    <       0.00000001 Ry

     iteration #  6     ecut=   100.00 Ry     beta= 0.70
     Davidson diagonalization with overlap

---- Real-time Memory Report at c_bands before calling an iterative solver
             0 MiB given to the printing process from OS
             0 MiB allocation reported by mallinfo(arena+hblkhd)
             0 MiB available memory on the node where the printing process lives
------------------
     ethr =  8.19E-11,  avg # of iterations =  1.9

     negative rho (up, down):  1.405E-04 0.000E+00

     total cpu time spent up to now is      503.9 secs

     total energy              =     -73.77394058 Ry
     estimated scf accuracy    <          2.2E-09 Ry

     iteration #  7     ecut=   100.00 Ry     beta= 0.70
     Davidson diagonalization with overlap

---- Real-time Memory Report at c_bands before calling an iterative solver
             0 MiB given to the printing process from OS
             0 MiB allocation reported by mallinfo(arena+hblkhd)
             0 MiB available memory on the node where the printing process lives
------------------
     ethr =  1.40E-11,  avg # of iterations =  2.3

     negative rho (up, down):  1.405E-04 0.000E+00

     total cpu time spent up to now is      510.6 secs

     End of self-consistent calculation

          k = 0.0000 0.0000 0.0000 ( 14055 PWs)   bands (ev):

   -23.8900 -23.7586 -12.3479 -11.4559  -7.2884  -7.2884  -7.2807  -7.2807
    -0.8898  -0.5462   0.8561   1.3409

     occupation numbers 
     1.0000   1.0000   1.0000   1.0000   1.0000   1.0000   1.0000   1.0000
     0.0000   0.0000   0.0000   0.0000

          k = 0.0000 0.0962 0.0000 ( 14039 PWs)   bands (ev):

   -23.7247 -23.5947 -12.1482 -11.2620  -7.9446  -7.9305  -7.6317  -7.6199
    -0.6677  -0.3212   1.0772   1.5655

     occupation numbers 
     1.0000   1.0000   1.0000   1.0000   1.0000   1.0000   1.0000   1.0000
     0.0000   0.0000   0.0000   0.0000

          k = 0.0000 0.1925 0.0000 ( 14001 PWs)   bands (ev):

   -23.2305 -23.1046 -11.5537 -10.6861  -9.5955  -9.5682  -8.4330  -8.4161
    -0.0015   0.3527   1.7397   2.2379

     occupation numbers 
     1.0000   1.0000   1.0000   1.0000   1.0000   1.0000   1.0000   1.0000
     0.0000   0.0000   0.0000   0.0000

          k = 0.0000 0.2887 0.0000 ( 13973 PWs)   bands (ev):

   -22.4133 -22.2940 -11.7107 -11.6683 -10.5819  -9.7493  -9.3210  -9.3009
     1.1049   1.4633   2.8169   2.8956

     occupation numbers 
     1.0000   1.0000   1.0000   1.0000   1.0000   1.0000   1.0000   1.0000
     0.0000   0.0000   0.0000   0.0000

          k = 0.0000 0.3849 0.0000 ( 13957 PWs)   bands (ev):

   -21.2852 -21.1748 -13.9316 -13.8742 -10.0606 -10.0387  -9.2774  -8.5089
     0.4926   0.9042   2.6384   3.0464

     occupation numbers 
     1.0000   1.0000   1.0000   1.0000   1.0000   1.0000   1.0000   1.0000
     0.0000   0.0000   0.0000   0.0000

          k = 0.0000 0.4811 0.0000 ( 13900 PWs)   bands (ev):

   -19.8762 -19.7781 -16.0487 -15.9784 -10.5373 -10.5145  -7.7812  -7.1575
    -1.6747  -1.2174   3.2175   3.3821

     occupation numbers 
     1.0000   1.0000   1.0000   1.0000   1.0000   1.0000   1.0000   1.0000
     0.0000   0.0000   0.0000   0.0000

          k = 0.0000-0.5774 0.0000 ( 13904 PWs)   bands (ev):

   -18.5763 -18.5275 -17.5512 -17.5142 -10.7010 -10.6778  -6.7988  -6.4735
    -2.6958  -2.3741   3.1334   3.3084

     occupation numbers 
     1.0000   1.0000   1.0000   1.0000   1.0000   1.0000   1.0000   1.0000
     0.0000   0.0000   0.0000   0.0000

          k = 0.0833 0.1443 0.0000 ( 14003 PWs)   bands (ev):

   -23.3950 -23.2677 -11.7510 -10.8770  -8.9818  -8.9681  -8.3136  -8.3036
    -0.2232   0.1284   1.5197   2.0145

     occupation numbers 
     1.0000   1.0000   1.0000   1.0000   1.0000   1.0000   1.0000   1.0000
     0.0000   0.0000   0.0000   0.0000

          k = 0.0833 0.2406 0.0000 ( 14001 PWs)   bands (ev):

   -22.7393 -22.6173 -10.9669 -10.7063 -10.6773 -10.1190  -9.3233  -9.3046
     0.6643   1.0247   2.4022   2.9081

     occupation numbers 
     1.0000   1.0000   1.0000   1.0000   1.0000   1.0000   1.0000   1.0000
     0.0000   0.0000   0.0000   0.0000

          k = 0.0833 0.3368 0.0000 ( 13973 PWs)   bands (ev):

   -21.7665 -21.6523 -12.7979 -12.7506 -10.2186 -10.1936  -9.8232  -9.0228
     1.5517   1.8778   1.9944   2.3917

     occupation numbers 
     1.0000   1.0000   1.0000   1.0000   1.0000   1.0000   1.0000   1.0000
     0.0000   0.0000   0.0000   0.0000

          k = 0.0833 0.4330 0.0000 ( 13937 PWs)   bands (ev):

   -20.4951 -20.3913 -14.9387 -14.8759 -10.8588 -10.8310  -8.3943  -7.6850
    -0.7068  -0.2884   3.7146   4.0120

     occupation numbers 
     1.0000   1.0000   1.0000   1.0000   1.0000   1.0000   1.0000   1.0000
     0.0000   0.0000   0.0000   0.0000

          k = 0.0833 0.5292 0.0000 ( 13904 PWs)   bands (ev):

   -18.9976 -18.9116 -16.8952 -16.8254 -11.1899 -11.1609  -6.9698  -6.5022
    -2.4489  -2.0816   3.8688   4.0525

     occupation numbers 
     1.0000   1.0000   1.0000   1.0000   1.0000   1.0000   1.0000   1.0000
     0.0000   0.0000   0.0000   0.0000

          k = 0.1667 0.2887 0.0000 ( 13969 PWs)   bands (ev):

   -21.9280 -21.8125 -12.0373 -12.0140 -10.6943 -10.6774 -10.0076  -9.1971
     1.7683   2.0665   2.1388   2.2828

     occupation numbers 
     1.0000   1.0000   1.0000   1.0000   1.0000   1.0000   1.0000   1.0000
     0.0000   0.0000   0.0000   0.0000

          k = 0.1667 0.3849 0.0000 ( 13953 PWs)   bands (ev):

   -20.8107 -20.7042 -13.7834 -13.7386 -11.7633 -11.7325  -8.7180  -7.9719
     0.0688   0.3558   3.3082   3.6811

     occupation numbers 
     1.0000   1.0000   1.0000   1.0000   1.0000   1.0000   1.0000   1.0000
     0.0000   0.0000   0.0000   0.0000

          k = 0.1667 0.4811 0.0000 ( 13903 PWs)   bands (ev):

   -19.4217 -19.3275 -15.7142 -15.6506 -12.3454 -12.3066  -7.2225  -6.6095
    -1.8804  -1.5348   5.2364   5.5518

     occupation numbers 
     1.0000   1.0000   1.0000   1.0000   1.0000   1.0000   1.0000   1.0000
     0.0000   0.0000   0.0000   0.0000

          k = 0.1667 0.5774 0.0000 ( 13896 PWs)   bands (ev):

   -18.1529 -18.1061 -17.1457 -17.1131 -12.5319 -12.4912  -6.1960  -5.8761
    -2.8438  -2.6858   5.6395   5.8885

     occupation numbers 
     1.0000   1.0000   1.0000   1.0000   1.0000   1.0000   1.0000   1.0000
     0.0000   0.0000   0.0000   0.0000

          k = 0.2500 0.4330 0.0000 ( 13939 PWs)   bands (ev):

   -19.5714 -19.4754 -14.8136 -14.7808 -13.2546 -13.2304  -7.3268  -6.6688
    -1.5497  -1.2756   5.0321   5.3249

     occupation numbers 
     1.0000   1.0000   1.0000   1.0000   1.0000   1.0000   1.0000   1.0000
     0.0000   0.0000   0.0000   0.0000

          k = 0.2500 0.5292 0.0000 ( 13893 PWs)   bands (ev):

   -18.1318 -18.0534 -16.2541 -16.2010 -13.9737 -13.9324  -5.8499  -5.3798
    -3.0579  -2.8083   6.5266   6.6900

     occupation numbers 
     1.0000   1.0000   1.0000   1.0000   1.0000   1.0000   1.0000   1.0000
     0.0000   0.0000   0.0000   0.0000

          k = 0.3333 0.5774 0.0000 ( 13848 PWs)   bands (ev):

   -16.9094 -16.8666 -16.8666 -16.8274 -14.8612 -14.8612  -4.5480  -4.2500
    -4.2500  -3.9349   6.3405   6.3405

     occupation numbers 
     1.0000   1.0000   1.0000   1.0000   1.0000   1.0000   1.0185   0.4907
     0.4907   0.0001   0.0000   0.0000

     the Fermi energy is    -4.2328 ev

!    total energy              =     -73.77394058 Ry
     total all-electron energy =      -304.830329 Ry
     estimated scf accuracy    <          4.7E-11 Ry
     smearing contrib. (-TS)   =      -0.00007855 Ry
     internal energy E=F+TS    =     -73.77386204 Ry

     The total energy is F=E-TS. E is the sum of the following terms:
     one-electron contribution =   -1248.08195531 Ry
     hartree contribution      =     625.80232357 Ry
     xc contribution           =     -18.57605000 Ry
     ewald contribution        =     591.75094486 Ry
     one-center paw contrib.   =     -24.66912516 Ry
      -> PAW hartree energy AE =      37.92146376 Ry
      -> PAW hartree energy PS =     -37.88669782 Ry
      -> PAW xc energy AE      =     -42.68889656 Ry
      -> PAW xc energy PS      =      17.98500546 Ry
      -> total E_H with PAW    =     625.83708952 Ry
      -> total E_XC with PAW   =     -43.27994110 Ry

     convergence has been achieved in   7 iterations

     negative rho (up, down):  1.405E-04 0.000E+00

     Forces acting on atoms (cartesian axes, Ry/au):

     atom    1 type  1   force =     0.00000000    0.00000000   -0.00018822
     atom    2 type  1   force =     0.00000000   -0.00000000   -0.00320200
     atom    3 type  1   force =     0.00000000    0.00000000    0.00320200
     atom    4 type  1   force =     0.00000000   -0.00000000    0.00018822
     The non-local contrib.  to forces
     atom    1 type  1   force =     0.00000000    0.00000000    0.00129671
     atom    2 type  1   force =    -0.00000000    0.00000000   -0.00440785
     atom    3 type  1   force =     0.00000000    0.00000000    0.00440785
     atom    4 type  1   force =     0.00000000   -0.00000000   -0.00129671
     The ionic contribution  to forces
     atom    1 type  1   force =     0.00000000   -0.00000000  -21.52583568
     atom    2 type  1   force =    -0.00000000    0.00000000  -21.44539807
     atom    3 type  1   force =    -0.00000000   -0.00000000   21.44539807
     atom    4 type  1   force =     0.00000000    0.00000000   21.52583568
     The local contribution  to forces
     atom    1 type  1   force =    -0.00000000    0.00000000   21.52434640
     atom    2 type  1   force =    -0.00000000    0.00000000   21.44655748
     atom    3 type  1   force =    -0.00000000    0.00000000  -21.44655748
     atom    4 type  1   force =    -0.00000000    0.00000000  -21.52434640
     The core correction contribution to forces
     atom    1 type  1   force =     0.00000000    0.00000000   -0.00000943
     atom    2 type  1   force =     0.00000000   -0.00000000    0.00003271
     atom    3 type  1   force =     0.00000000   -0.00000000   -0.00003271
     atom    4 type  1   force =    -0.00000000   -0.00000000    0.00000943
     The Hubbard contrib.    to forces
     atom    1 type  1   force =     0.00000000    0.00000000    0.00000000
     atom    2 type  1   force =     0.00000000    0.00000000    0.00000000
     atom    3 type  1   force =     0.00000000    0.00000000    0.00000000
     atom    4 type  1   force =     0.00000000    0.00000000    0.00000000
     The SCF correction term to forces
     atom    1 type  1   force =     0.00000000    0.00000000    0.00001378
     atom    2 type  1   force =     0.00000000    0.00000000    0.00001373
     atom    3 type  1   force =     0.00000000    0.00000000   -0.00001373
     atom    4 type  1   force =    -0.00000000   -0.00000000   -0.00001378

     Total force =     0.004536     Total SCF correction =     0.000028
     Energy error            =      1.5E-04 Ry
     Gradient error          =      3.2E-03 Ry/Bohr

     number of scf cycles    =   8
     number of bfgs steps    =   7

     energy             old  =     -73.7737946107 Ry
     energy             new  =     -73.7739405821 Ry

     CASE: energy            _new < energy            _old

     new trust radius        =       0.0323740069 bohr
     new conv_thr            =       0.0000000001 Ry


ATOMIC_POSITIONS (angstrom)
C                0.0000000000        0.0000000000        9.9502459756
C                1.2300000000        0.7101408311        9.9536182902
C                1.2300000000        0.7101408311       13.3963817098
C                0.0000000000        1.4202816622       13.3997540244



     Writing config-only to output data dir /Users/memo/Desktop/New Horizons/Graphene Band Structure QE/outputs/bilayer/data/graphene.save/ :
     XML data file
     NEW-OLD atomic charge density approx. for the potential

     Check: negative core charge=   -0.000003

     negative rho (up, down):  1.391E-04 0.000E+00

     total cpu time spent up to now is      512.3 secs

     Self-consistent Calculation

     iteration #  1     ecut=   100.00 Ry     beta= 0.70
     Davidson diagonalization with overlap

---- Real-time Memory Report at c_bands before calling an iterative solver
             0 MiB given to the printing process from OS
             0 MiB allocation reported by mallinfo(arena+hblkhd)
             0 MiB available memory on the node where the printing process lives
------------------
     ethr =  1.00E-06,  avg # of iterations =  4.6

     negative rho (up, down):  1.407E-04 0.000E+00

     total cpu time spent up to now is      526.9 secs

     total energy              =     -73.77383769 Ry
     estimated scf accuracy    <       0.00085975 Ry

     iteration #  2     ecut=   100.00 Ry     beta= 0.70
     Davidson diagonalization with overlap

---- Real-time Memory Report at c_bands before calling an iterative solver
             0 MiB given to the printing process from OS
             0 MiB allocation reported by mallinfo(arena+hblkhd)
             0 MiB available memory on the node where the printing process lives
------------------
     ethr =  5.37E-06,  avg # of iterations =  3.6

     negative rho (up, down):  1.412E-04 0.000E+00

     total cpu time spent up to now is      540.6 secs

     total energy              =     -73.77396848 Ry
     estimated scf accuracy    <       0.00075342 Ry

     iteration #  3     ecut=   100.00 Ry     beta= 0.70
     Davidson diagonalization with overlap

---- Real-time Memory Report at c_bands before calling an iterative solver
             0 MiB given to the printing process from OS
             0 MiB allocation reported by mallinfo(arena+hblkhd)
             0 MiB available memory on the node where the printing process lives
------------------
     ethr =  4.71E-06,  avg # of iterations =  3.2

     negative rho (up, down):  1.415E-04 0.000E+00

     total cpu time spent up to now is      547.6 secs

     total energy              =     -73.77414523 Ry
     estimated scf accuracy    <       0.00001019 Ry

     iteration #  4     ecut=   100.00 Ry     beta= 0.70
     Davidson diagonalization with overlap

---- Real-time Memory Report at c_bands before calling an iterative solver
             0 MiB given to the printing process from OS
             0 MiB allocation reported by mallinfo(arena+hblkhd)
             0 MiB available memory on the node where the printing process lives
------------------
     ethr =  6.37E-08,  avg # of iterations =  1.8

     negative rho (up, down):  1.416E-04 0.000E+00

     total cpu time spent up to now is      554.2 secs

     total energy              =     -73.77414678 Ry
     estimated scf accuracy    <       0.00000036 Ry

     iteration #  5     ecut=   100.00 Ry     beta= 0.70
     Davidson diagonalization with overlap

---- Real-time Memory Report at c_bands before calling an iterative solver
             0 MiB given to the printing process from OS
             0 MiB allocation reported by mallinfo(arena+hblkhd)
             0 MiB available memory on the node where the printing process lives
------------------
     ethr =  2.27E-09,  avg # of iterations =  2.7

     negative rho (up, down):  1.416E-04 0.000E+00

     total cpu time spent up to now is      560.8 secs

     total energy              =     -73.77414698 Ry
     estimated scf accuracy    <       0.00000003 Ry

     iteration #  6     ecut=   100.00 Ry     beta= 0.70
     Davidson diagonalization with overlap

---- Real-time Memory Report at c_bands before calling an iterative solver
             0 MiB given to the printing process from OS
             0 MiB allocation reported by mallinfo(arena+hblkhd)
             0 MiB available memory on the node where the printing process lives
------------------
     ethr =  2.00E-10,  avg # of iterations =  2.2

     negative rho (up, down):  1.415E-04 0.000E+00

     total cpu time spent up to now is      566.4 secs

     total energy              =     -73.77414698 Ry
     estimated scf accuracy    <          5.6E-09 Ry

     iteration #  7     ecut=   100.00 Ry     beta= 0.70
     Davidson diagonalization with overlap

---- Real-time Memory Report at c_bands before calling an iterative solver
             0 MiB given to the printing process from OS
             0 MiB allocation reported by mallinfo(arena+hblkhd)
             0 MiB available memory on the node where the printing process lives
------------------
     ethr =  3.48E-11,  avg # of iterations =  2.4

     negative rho (up, down):  1.415E-04 0.000E+00

     total cpu time spent up to now is      573.3 secs

     End of self-consistent calculation

          k = 0.0000 0.0000 0.0000 ( 14055 PWs)   bands (ev):

   -23.8832 -23.7617 -12.3249 -11.4773  -7.2865  -7.2865  -7.2796  -7.2796
    -0.8974  -0.5497   0.8485   1.3560

     occupation numbers 
     1.0000   1.0000   1.0000   1.0000   1.0000   1.0000   1.0000   1.0000
     0.0000   0.0000   0.0000   0.0000

          k = 0.0000 0.0962 0.0000 ( 14039 PWs)   bands (ev):

   -23.7179 -23.5978 -12.1253 -11.2832  -7.9425  -7.9296  -7.6296  -7.6190
    -0.6753  -0.3247   1.0692   1.5806

     occupation numbers 
     1.0000   1.0000   1.0000   1.0000   1.0000   1.0000   1.0000   1.0000
     0.0000   0.0000   0.0000   0.0000

          k = 0.0000 0.1925 0.0000 ( 14001 PWs)   bands (ev):

   -23.2239 -23.1075 -11.5311 -10.7069  -9.5927  -9.5678  -8.4307  -8.4154
    -0.0093   0.3492   1.7308   2.2529

     occupation numbers 
     1.0000   1.0000   1.0000   1.0000   1.0000   1.0000   1.0000   1.0000
     0.0000   0.0000   0.0000   0.0000

          k = 0.0000 0.2887 0.0000 ( 13973 PWs)   bands (ev):

   -22.4069 -22.2967 -11.7073 -11.6686 -10.5598  -9.7692  -9.3185  -9.3003
     1.0967   1.4600   2.8037   2.9075

     occupation numbers 
     1.0000   1.0000   1.0000   1.0000   1.0000   1.0000   1.0000   1.0000
     0.0000   0.0000   0.0000   0.0000

          k = 0.0000 0.3849 0.0000 ( 13957 PWs)   bands (ev):

   -21.2791 -21.1773 -13.9276 -13.8749 -10.0581 -10.0382  -9.2564  -8.5272
     0.5066   0.8943   2.6297   3.0432

     occupation numbers 
     1.0000   1.0000   1.0000   1.0000   1.0000   1.0000   1.0000   1.0000
     0.0000   0.0000   0.0000   0.0000

          k = 0.0000 0.4811 0.0000 ( 13900 PWs)   bands (ev):

   -19.8705 -19.7802 -16.0441 -15.9796 -10.5347 -10.5140  -7.7627  -7.1716
    -1.6612  -1.2281   3.2253   3.3778

     occupation numbers 
     1.0000   1.0000   1.0000   1.0000   1.0000   1.0000   1.0000   1.0000
     0.0000   0.0000   0.0000   0.0000

          k = 0.0000-0.5774 0.0000 ( 13904 PWs)   bands (ev):

   -18.5724 -18.5275 -17.5482 -17.5141 -10.6983 -10.6774  -6.7858  -6.4785
    -2.6893  -2.3814   3.1416   3.3040

     occupation numbers 
     1.0000   1.0000   1.0000   1.0000   1.0000   1.0000   1.0000   1.0000
     0.0000   0.0000   0.0000   0.0000

          k = 0.0833 0.1443 0.0000 ( 14003 PWs)   bands (ev):

   -23.3883 -23.2706 -11.7283 -10.8979  -8.9796  -8.9672  -8.3116  -8.3026
    -0.2310   0.1249   1.5111   2.0296

     occupation numbers 
     1.0000   1.0000   1.0000   1.0000   1.0000   1.0000   1.0000   1.0000
     0.0000   0.0000   0.0000   0.0000

          k = 0.0833 0.2406 0.0000 ( 14001 PWs)   bands (ev):

   -22.7328 -22.6201 -10.9445 -10.7034 -10.6770 -10.1393  -9.3209  -9.3040
     0.6563   1.0212   2.3921   2.9230

     occupation numbers 
     1.0000   1.0000   1.0000   1.0000   1.0000   1.0000   1.0000   1.0000
     0.0000   0.0000   0.0000   0.0000

          k = 0.0833 0.3368 0.0000 ( 13973 PWs)   bands (ev):

   -21.7603 -21.6549 -12.7943 -12.7510 -10.2159 -10.1932  -9.8016  -9.0419
     1.5635   1.8706   1.9857   2.3885

     occupation numbers 
     1.0000   1.0000   1.0000   1.0000   1.0000   1.0000   1.0000   1.0000
     0.0000   0.0000   0.0000   0.0000

          k = 0.0833 0.4330 0.0000 ( 13937 PWs)   bands (ev):

   -20.4892 -20.3935 -14.9344 -14.8768 -10.8560 -10.8307  -8.3743  -7.7016
    -0.6931  -0.2980   3.7062   4.0167

     occupation numbers 
     1.0000   1.0000   1.0000   1.0000   1.0000   1.0000   1.0000   1.0000
     0.0000   0.0000   0.0000   0.0000

          k = 0.0833 0.5292 0.0000 ( 13904 PWs)   bands (ev):

   -18.9924 -18.9132 -16.8907 -16.8265 -11.1870 -11.1606  -6.9541  -6.5115
    -2.4394  -2.0900   3.8771   4.0481

     occupation numbers 
     1.0000   1.0000   1.0000   1.0000   1.0000   1.0000   1.0000   1.0000
     0.0000   0.0000   0.0000   0.0000

          k = 0.1667 0.2887 0.0000 ( 13969 PWs)   bands (ev):

   -21.9217 -21.8152 -12.0347 -12.0134 -10.6920 -10.6766  -9.9858  -9.2165
     1.7600   2.0762   2.1356   2.2787

     occupation numbers 
     1.0000   1.0000   1.0000   1.0000   1.0000   1.0000   1.0000   1.0000
     0.0000   0.0000   0.0000   0.0000

          k = 0.1667 0.3849 0.0000 ( 13953 PWs)   bands (ev):

   -20.8047 -20.7066 -13.7798 -13.7388 -11.7604 -11.7323  -8.6973  -7.9896
     0.0800   0.3501   3.2994   3.6780

     occupation numbers 
     1.0000   1.0000   1.0000   1.0000   1.0000   1.0000   1.0000   1.0000
     0.0000   0.0000   0.0000   0.0000

          k = 0.1667 0.4811 0.0000 ( 13903 PWs)   bands (ev):

   -19.4162 -19.3295 -15.7099 -15.6515 -12.3421 -12.3067  -7.2042  -6.6234
    -1.8689  -1.5421   5.2270   5.5535

     occupation numbers 
     1.0000   1.0000   1.0000   1.0000   1.0000   1.0000   1.0000   1.0000
     0.0000   0.0000   0.0000   0.0000

          k = 0.1667 0.5774 0.0000 ( 13896 PWs)   bands (ev):

   -18.1490 -18.1061 -17.1429 -17.1128 -12.5285 -12.4914  -6.1829  -5.8808
    -2.8409  -2.6886   5.6492   5.8843

     occupation numbers 
     1.0000   1.0000   1.0000   1.0000   1.0000   1.0000   1.0000   1.0000
     0.0000   0.0000   0.0000   0.0000

          k = 0.2500 0.4330 0.0000 ( 13939 PWs)   bands (ev):

   -19.5658 -19.4774 -14.8105 -14.7805 -13.2520 -13.2298  -7.3077  -6.6841
    -1.5388  -1.2808   5.0228   5.3239

     occupation numbers 
     1.0000   1.0000   1.0000   1.0000   1.0000   1.0000   1.0000   1.0000
     0.0000   0.0000   0.0000   0.0000

          k = 0.2500 0.5292 0.0000 ( 13893 PWs)   bands (ev):

   -18.1269 -18.0548 -16.2502 -16.2015 -13.9704 -13.9325  -5.8341  -5.3893
    -3.0491  -2.8137   6.5341   6.6758

     occupation numbers 
     1.0000   1.0000   1.0000   1.0000   1.0000   1.0000   1.0000   1.0000
     0.0000   0.0000   0.0000   0.0000

          k = 0.3333 0.5774 0.0000 ( 13848 PWs)   bands (ev):

   -16.9041 -16.8650 -16.8650 -16.8289 -14.8596 -14.8596  -4.5282  -4.2471
    -4.2471  -3.9503   6.3397   6.3397

     occupation numbers 
     1.0000   1.0000   1.0000   1.0000   1.0000   1.0000   1.0265   0.4867
     0.4867   0.0002   0.0000   0.0000

     the Fermi energy is    -4.2307 ev

!    total energy              =     -73.77414698 Ry
     total all-electron energy =      -304.830536 Ry
     estimated scf accuracy    <          1.4E-10 Ry
     smearing contrib. (-TS)   =      -0.00007392 Ry
     internal energy E=F+TS    =     -73.77407306 Ry

     The total energy is F=E-TS. E is the sum of the following terms:
     one-electron contribution =   -1242.57480637 Ry
     hartree contribution      =     623.04930951 Ry
     xc contribution           =     -18.57547860 Ry
     ewald contribution        =     588.99602045 Ry
     one-center paw contrib.   =     -24.66911806 Ry
      -> PAW hartree energy AE =      37.92047519 Ry
      -> PAW hartree energy PS =     -37.88571010 Ry
      -> PAW xc energy AE      =     -42.68865818 Ry
      -> PAW xc energy PS      =      17.98477503 Ry
      -> total E_H with PAW    =     623.08407460 Ry
      -> total E_XC with PAW   =     -43.27936175 Ry

     convergence has been achieved in   7 iterations

     negative rho (up, down):  1.415E-04 0.000E+00

     Forces acting on atoms (cartesian axes, Ry/au):

     atom    1 type  1   force =     0.00000000   -0.00000000    0.00021982
     atom    2 type  1   force =     0.00000000   -0.00000000   -0.00330187
     atom    3 type  1   force =     0.00000000    0.00000000    0.00330187
     atom    4 type  1   force =     0.00000000    0.00000000   -0.00021982
     The non-local contrib.  to forces
     atom    1 type  1   force =     0.00000000    0.00000000    0.00190849
     atom    2 type  1   force =     0.00000000    0.00000000   -0.00472752
     atom    3 type  1   force =     0.00000000   -0.00000000    0.00472752
     atom    4 type  1   force =     0.00000000    0.00000000   -0.00190849
     The ionic contribution  to forces
     atom    1 type  1   force =     0.00000000   -0.00000000  -21.53080485
     atom    2 type  1   force =    -0.00000000    0.00000000  -21.44055876
     atom    3 type  1   force =    -0.00000000   -0.00000000   21.44055876
     atom    4 type  1   force =     0.00000000    0.00000000   21.53080485
     The local contribution  to forces
     atom    1 type  1   force =    -0.00000000    0.00000000   21.52916421
     atom    2 type  1   force =    -0.00000000    0.00000000   21.44199147
     atom    3 type  1   force =    -0.00000000    0.00000000  -21.44199147
     atom    4 type  1   force =    -0.00000000    0.00000000  -21.52916421
     The core correction contribution to forces
     atom    1 type  1   force =     0.00000000    0.00000000   -0.00007233
     atom    2 type  1   force =     0.00000000   -0.00000000   -0.00003124
     atom    3 type  1   force =     0.00000000   -0.00000000    0.00003124
     atom    4 type  1   force =    -0.00000000   -0.00000000    0.00007233
     The Hubbard contrib.    to forces
     atom    1 type  1   force =     0.00000000    0.00000000    0.00000000
     atom    2 type  1   force =     0.00000000    0.00000000    0.00000000
     atom    3 type  1   force =     0.00000000    0.00000000    0.00000000
     atom    4 type  1   force =     0.00000000    0.00000000    0.00000000
     The SCF correction term to forces
     atom    1 type  1   force =     0.00000000    0.00000000    0.00002431
     atom    2 type  1   force =    -0.00000000   -0.00000000    0.00002417
     atom    3 type  1   force =    -0.00000000   -0.00000000   -0.00002417
     atom    4 type  1   force =    -0.00000000    0.00000000   -0.00002431

     Total force =     0.004680     Total SCF correction =     0.000048
     Energy error            =      2.1E-04 Ry
     Gradient error          =      3.3E-03 Ry/Bohr

     number of scf cycles    =   9
     number of bfgs steps    =   8

     energy             old  =     -73.7739405821 Ry
     energy             new  =     -73.7741469816 Ry

     CASE: energy            _new < energy            _old

     new trust radius        =       0.0485610103 bohr
     new conv_thr            =       0.0000000002 Ry


ATOMIC_POSITIONS (angstrom)
C                0.0000000000        0.0000000000        9.9245485956
C                1.2300000000        0.7101408311        9.9281399488
C                1.2300000000        0.7101408311       13.4218600512
C                0.0000000000        1.4202816622       13.4254514044



     Writing config-only to output data dir /Users/memo/Desktop/New Horizons/Graphene Band Structure QE/outputs/bilayer/data/graphene.save/ :
     XML data file
     NEW-OLD atomic charge density approx. for the potential

     Check: negative core charge=   -0.000003

     negative rho (up, down):  1.476E-04 0.000E+00

     total cpu time spent up to now is      574.8 secs

     Self-consistent Calculation

     iteration #  1     ecut=   100.00 Ry     beta= 0.70
     Davidson diagonalization with overlap

---- Real-time Memory Report at c_bands before calling an iterative solver
             0 MiB given to the printing process from OS
             0 MiB allocation reported by mallinfo(arena+hblkhd)
             0 MiB available memory on the node where the printing process lives
------------------
     ethr =  1.00E-06,  avg # of iterations =  6.3

     negative rho (up, down):  1.494E-04 0.000E+00

     total cpu time spent up to now is      591.0 secs

     total energy              =     -73.77369020 Ry
     estimated scf accuracy    <       0.00197735 Ry

     iteration #  2     ecut=   100.00 Ry     beta= 0.70
     Davidson diagonalization with overlap

---- Real-time Memory Report at c_bands before calling an iterative solver
             0 MiB given to the printing process from OS
             0 MiB allocation reported by mallinfo(arena+hblkhd)
             0 MiB available memory on the node where the printing process lives
------------------
     ethr =  1.24E-05,  avg # of iterations =  3.8

     negative rho (up, down):  1.500E-04 0.000E+00

     total cpu time spent up to now is      600.1 secs

     total energy              =     -73.77399615 Ry
     estimated scf accuracy    <       0.00177796 Ry

     iteration #  3     ecut=   100.00 Ry     beta= 0.70
     Davidson diagonalization with overlap

---- Real-time Memory Report at c_bands before calling an iterative solver
             0 MiB given to the printing process from OS
             0 MiB allocation reported by mallinfo(arena+hblkhd)
             0 MiB available memory on the node where the printing process lives
------------------
     ethr =  1.11E-05,  avg # of iterations =  3.2

     negative rho (up, down):  1.504E-04 0.000E+00

     total cpu time spent up to now is      608.2 secs

     total energy              =     -73.77440629 Ry
     estimated scf accuracy    <       0.00002289 Ry

     iteration #  4     ecut=   100.00 Ry     beta= 0.70
     Davidson diagonalization with overlap

---- Real-time Memory Report at c_bands before calling an iterative solver
             0 MiB given to the printing process from OS
             0 MiB allocation reported by mallinfo(arena+hblkhd)
             0 MiB available memory on the node where the printing process lives
------------------
     ethr =  1.43E-07,  avg # of iterations =  2.3

     negative rho (up, down):  1.505E-04 0.000E+00

     total cpu time spent up to now is      615.9 secs

     total energy              =     -73.77440996 Ry
     estimated scf accuracy    <       0.00000073 Ry

     iteration #  5     ecut=   100.00 Ry     beta= 0.70
     Davidson diagonalization with overlap

---- Real-time Memory Report at c_bands before calling an iterative solver
             0 MiB given to the printing process from OS
             0 MiB allocation reported by mallinfo(arena+hblkhd)
             0 MiB available memory on the node where the printing process lives
------------------
     ethr =  4.56E-09,  avg # of iterations =  2.7

     negative rho (up, down):  1.505E-04 0.000E+00

     total cpu time spent up to now is      630.4 secs

     total energy              =     -73.77441034 Ry
     estimated scf accuracy    <       0.00000005 Ry

     iteration #  6     ecut=   100.00 Ry     beta= 0.70
     Davidson diagonalization with overlap

---- Real-time Memory Report at c_bands before calling an iterative solver
             0 MiB given to the printing process from OS
             0 MiB allocation reported by mallinfo(arena+hblkhd)
             0 MiB available memory on the node where the printing process lives
------------------
     ethr =  3.16E-10,  avg # of iterations =  2.4

     negative rho (up, down):  1.504E-04 0.000E+00

     total cpu time spent up to now is      636.9 secs

     total energy              =     -73.77441035 Ry
     estimated scf accuracy    <       0.00000001 Ry

     iteration #  7     ecut=   100.00 Ry     beta= 0.70
     Davidson diagonalization with overlap

---- Real-time Memory Report at c_bands before calling an iterative solver
             0 MiB given to the printing process from OS
             0 MiB allocation reported by mallinfo(arena+hblkhd)
             0 MiB available memory on the node where the printing process lives
------------------
     ethr =  6.73E-11,  avg # of iterations =  2.0

     negative rho (up, down):  1.504E-04 0.000E+00

     total cpu time spent up to now is      644.2 secs

     End of self-consistent calculation

          k = 0.0000 0.0000 0.0000 ( 14055 PWs)   bands (ev):

   -23.8739 -23.7662 -12.2924 -11.5077  -7.2841  -7.2841  -7.2783  -7.2783
    -0.9089  -0.5550   0.8317   1.3746

     occupation numbers 
     1.0000   1.0000   1.0000   1.0000   1.0000   1.0000   1.0000   1.0000
     0.0000   0.0000   0.0000   0.0000

          k = 0.0000 0.0962 0.0000 ( 14039 PWs)   bands (ev):

   -23.7088 -23.6021 -12.0928 -11.3135  -7.9397  -7.9287  -7.6270  -7.6179
    -0.6869  -0.3300   1.0521   1.5991

     occupation numbers 
     1.0000   1.0000   1.0000   1.0000   1.0000   1.0000   1.0000   1.0000
     0.0000   0.0000   0.0000   0.0000

          k = 0.0000 0.1925 0.0000 ( 14001 PWs)   bands (ev):

   -23.2149 -23.1117 -11.4991 -10.7365  -9.5892  -9.5676  -8.4277  -8.4146
    -0.0212   0.3438   1.7123   2.2711

     occupation numbers 
     1.0000   1.0000   1.0000   1.0000   1.0000   1.0000   1.0000   1.0000
     0.0000   0.0000   0.0000   0.0000

          k = 0.0000 0.2887 0.0000 ( 13973 PWs)   bands (ev):

   -22.3983 -22.3007 -11.7028 -11.6690 -10.5286  -9.7976  -9.3154  -9.2997
     1.0844   1.4550   2.7794   2.9239

     occupation numbers 
     1.0000   1.0000   1.0000   1.0000   1.0000   1.0000   1.0000   1.0000
     0.0000   0.0000   0.0000   0.0000

          k = 0.0000 0.3849 0.0000 ( 13957 PWs)   bands (ev):

   -21.2709 -21.1809 -13.9223 -13.8761 -10.0548 -10.0377  -9.2267  -8.5532
     0.5260   0.8804   2.6166   3.0382

     occupation numbers 
     1.0000   1.0000   1.0000   1.0000   1.0000   1.0000   1.0000   1.0000
     0.0000   0.0000   0.0000   0.0000

          k = 0.0000 0.4811 0.0000 ( 13900 PWs)   bands (ev):

   -19.8630 -19.7832 -16.0381 -15.9814 -10.5314 -10.5135  -7.7367  -7.1919
    -1.6425  -1.2433   3.2360   3.3718

     occupation numbers 
     1.0000   1.0000   1.0000   1.0000   1.0000   1.0000   1.0000   1.0000
     0.0000   0.0000   0.0000   0.0000

          k = 0.0000-0.5774 0.0000 ( 13904 PWs)   bands (ev):

   -18.5673 -18.5277 -17.5443 -17.5142 -10.6950 -10.6769  -6.7677  -6.4861
    -2.6801  -2.3918   3.1527   3.2978

     occupation numbers 
     1.0000   1.0000   1.0000   1.0000   1.0000   1.0000   1.0000   1.0000
     0.0000   0.0000   0.0000   0.0000

          k = 0.0833 0.1443 0.0000 ( 14003 PWs)   bands (ev):

   -23.3793 -23.2749 -11.6961 -10.9277  -8.9769  -8.9661  -8.3091  -8.3014
    -0.2428   0.1196   1.4931   2.0479

     occupation numbers 
     1.0000   1.0000   1.0000   1.0000   1.0000   1.0000   1.0000   1.0000
     0.0000   0.0000   0.0000   0.0000

          k = 0.0833 0.2406 0.0000 ( 14001 PWs)   bands (ev):

   -22.7241 -22.6242 -10.9129 -10.6997 -10.6767 -10.1682  -9.3178  -9.3032
     0.6442   1.0159   2.3720   2.9411

     occupation numbers 
     1.0000   1.0000   1.0000   1.0000   1.0000   1.0000   1.0000   1.0000
     0.0000   0.0000   0.0000   0.0000

          k = 0.0833 0.3368 0.0000 ( 13973 PWs)   bands (ev):

   -21.7519 -21.6586 -12.7895 -12.7517 -10.2124 -10.1928  -9.7711  -9.0692
     1.5799   1.8602   1.9726   2.3836

     occupation numbers 
     1.0000   1.0000   1.0000   1.0000   1.0000   1.0000   1.0000   1.0000
     0.0000   0.0000   0.0000   0.0000

          k = 0.0833 0.4330 0.0000 ( 13937 PWs)   bands (ev):

   -20.4814 -20.3968 -14.9288 -14.8783 -10.8524 -10.8304  -8.3461  -7.7254
    -0.6741  -0.3116   3.6935   4.0208

     occupation numbers 
     1.0000   1.0000   1.0000   1.0000   1.0000   1.0000   1.0000   1.0000
     0.0000   0.0000   0.0000   0.0000

          k = 0.0833 0.5292 0.0000 ( 13904 PWs)   bands (ev):

   -18.9855 -18.9157 -16.8847 -16.8282 -11.1833 -11.1605  -6.9323  -6.5251
    -2.4260  -2.1019   3.8883   4.0419

     occupation numbers 
     1.0000   1.0000   1.0000   1.0000   1.0000   1.0000   1.0000   1.0000
     0.0000   0.0000   0.0000   0.0000

          k = 0.1667 0.2887 0.0000 ( 13969 PWs)   bands (ev):

   -21.9133 -21.8189 -12.0312 -12.0128 -10.6891 -10.6757  -9.9551  -9.2441
     1.7476   2.0893   2.1307   2.2727

     occupation numbers 
     1.0000   1.0000   1.0000   1.0000   1.0000   1.0000   1.0000   1.0000
     0.0000   0.0000   0.0000   0.0000

          k = 0.1667 0.3849 0.0000 ( 13953 PWs)   bands (ev):

   -20.7968 -20.7100 -13.7752 -13.7393 -11.7566 -11.7321  -8.6681  -8.0149
     0.0955   0.3418   3.2862   3.6733

     occupation numbers 
     1.0000   1.0000   1.0000   1.0000   1.0000   1.0000   1.0000   1.0000
     0.0000   0.0000   0.0000   0.0000

          k = 0.1667 0.4811 0.0000 ( 13903 PWs)   bands (ev):

   -19.4089 -19.3324 -15.7042 -15.6529 -12.3379 -12.3070  -7.1785  -6.6434
    -1.8528  -1.5527   5.2129   5.5543

     occupation numbers 
     1.0000   1.0000   1.0000   1.0000   1.0000   1.0000   1.0000   1.0000
     0.0000   0.0000   0.0000   0.0000

          k = 0.1667 0.5774 0.0000 ( 13896 PWs)   bands (ev):

   -18.1441 -18.1063 -17.1392 -17.1126 -12.5241 -12.4917  -6.1648  -5.8880
    -2.8368  -2.6925   5.6626   5.8780

     occupation numbers 
     1.0000   1.0000   1.0000   1.0000   1.0000   1.0000   1.0000   1.0000
     0.0000   0.0000   0.0000   0.0000

          k = 0.2500 0.4330 0.0000 ( 13939 PWs)   bands (ev):

   -19.5584 -19.4804 -14.8065 -14.7803 -13.2487 -13.2292  -7.2808  -6.7062
    -1.5238  -1.2885   5.0087   5.3221

     occupation numbers 
     1.0000   1.0000   1.0000   1.0000   1.0000   1.0000   1.0000   1.0000
     0.0000   0.0000   0.0000   0.0000

          k = 0.2500 0.5292 0.0000 ( 13893 PWs)   bands (ev):

   -18.1204 -18.0569 -16.2452 -16.2024 -13.9660 -13.9328  -5.8121  -5.4032
    -3.0367  -2.8215   6.5448   6.6556

     occupation numbers 
     1.0000   1.0000   1.0000   1.0000   1.0000   1.0000   1.0000   1.0000
     0.0000   0.0000   0.0000   0.0000

          k = 0.3333 0.5774 0.0000 ( 13848 PWs)   bands (ev):

   -16.8971 -16.8631 -16.8631 -16.8311 -14.8575 -14.8575  -4.5004  -4.2434
    -4.2434  -3.9721   6.3392   6.3392

     occupation numbers 
     1.0000   1.0000   1.0000   1.0000   1.0000   1.0000   1.0413   0.4791
     0.4791   0.0006   0.0000   0.0000

     the Fermi energy is    -4.2283 ev

!    total energy              =     -73.77441035 Ry
     total all-electron energy =      -304.830799 Ry
     estimated scf accuracy    <          1.2E-10 Ry
     smearing contrib. (-TS)   =      -0.00006602 Ry
     internal energy E=F+TS    =     -73.77434433 Ry

     The total energy is F=E-TS. E is the sum of the following terms:
     one-electron contribution =   -1234.26726877 Ry
     hartree contribution      =     618.89645290 Ry
     xc contribution           =     -18.57471515 Ry
     ewald contribution        =     584.84029449 Ry
     one-center paw contrib.   =     -24.66910780 Ry
      -> PAW hartree energy AE =      37.91923342 Ry
      -> PAW hartree energy PS =     -37.88446952 Ry
      -> PAW xc energy AE      =     -42.68835715 Ry
      -> PAW xc energy PS      =      17.98448546 Ry
      -> total E_H with PAW    =     618.93121681 Ry
      -> total E_XC with PAW   =     -43.27858685 Ry

     convergence has been achieved in   7 iterations

     negative rho (up, down):  1.504E-04 0.000E+00

     Forces acting on atoms (cartesian axes, Ry/au):

     atom    1 type  1   force =     0.00000000   -0.00000000    0.00078232
     atom    2 type  1   force =     0.00000000    0.00000000   -0.00311934
     atom    3 type  1   force =     0.00000000   -0.00000000    0.00311934
     atom    4 type  1   force =     0.00000000   -0.00000000   -0.00078232
     The non-local contrib.  to forces
     atom    1 type  1   force =     0.00000000    0.00000000    0.00251950
     atom    2 type  1   force =     0.00000000    0.00000000   -0.00479997
     atom    3 type  1   force =     0.00000000   -0.00000000    0.00479997
     atom    4 type  1   force =    -0.00000000   -0.00000000   -0.00251950
     The ionic contribution  to forces
     atom    1 type  1   force =     0.00000000   -0.00000000  -21.53420353
     atom    2 type  1   force =    -0.00000000    0.00000000  -21.43732968
     atom    3 type  1   force =    -0.00000000   -0.00000000   21.43732968
     atom    4 type  1   force =     0.00000000    0.00000000   21.53420353
     The local contribution  to forces
     atom    1 type  1   force =    -0.00000000    0.00000000   21.53245372
     atom    2 type  1   force =    -0.00000000    0.00000000   21.43896816
     atom    3 type  1   force =    -0.00000000    0.00000000  -21.43896816
     atom    4 type  1   force =    -0.00000000    0.00000000  -21.53245372
     The core correction contribution to forces
     atom    1 type  1   force =    -0.00000000   -0.00000000    0.00003436
     atom    2 type  1   force =     0.00000000   -0.00000000    0.00006382
     atom    3 type  1   force =     0.00000000   -0.00000000   -0.00006382
     atom    4 type  1   force =    -0.00000000   -0.00000000   -0.00003436
     The Hubbard contrib.    to forces
     atom    1 type  1   force =     0.00000000    0.00000000    0.00000000
     atom    2 type  1   force =     0.00000000    0.00000000    0.00000000
     atom    3 type  1   force =     0.00000000    0.00000000    0.00000000
     atom    4 type  1   force =     0.00000000    0.00000000    0.00000000
     The SCF correction term to forces
     atom    1 type  1   force =     0.00000000    0.00000000   -0.00002173
     atom    2 type  1   force =    -0.00000000   -0.00000000   -0.00002167
     atom    3 type  1   force =    -0.00000000   -0.00000000    0.00002167
     atom    4 type  1   force =    -0.00000000   -0.00000000    0.00002173

     Total force =     0.004548     Total SCF correction =     0.000043
     Energy error            =      2.6E-04 Ry
     Gradient error          =      3.1E-03 Ry/Bohr

     number of scf cycles    =  10
     number of bfgs steps    =   9

     energy             old  =     -73.7741469816 Ry
     energy             new  =     -73.7744103487 Ry

     CASE: energy            _new < energy            _old

     new trust radius        =       0.0728415155 bohr
     new conv_thr            =       0.0000000003 Ry


ATOMIC_POSITIONS (angstrom)
C                0.0000000000        0.0000000000        9.8862191843
C                1.2300000000        0.7101408311        9.8895938788
C                1.2300000000        0.7101408311       13.4604061212
C                0.0000000000        1.4202816622       13.4637808157



     Writing config-only to output data dir /Users/memo/Desktop/New Horizons/Graphene Band Structure QE/outputs/bilayer/data/graphene.save/ :
     XML data file
     NEW-OLD atomic charge density approx. for the potential

     Check: negative core charge=   -0.000003

     negative rho (up, down):  1.602E-04 0.000E+00

     total cpu time spent up to now is      645.9 secs

     Self-consistent Calculation

     iteration #  1     ecut=   100.00 Ry     beta= 0.70
     Davidson diagonalization with overlap

---- Real-time Memory Report at c_bands before calling an iterative solver
             0 MiB given to the printing process from OS
             0 MiB allocation reported by mallinfo(arena+hblkhd)
             0 MiB available memory on the node where the printing process lives
------------------
     ethr =  1.00E-06,  avg # of iterations =  7.1

     negative rho (up, down):  1.621E-04 0.000E+00

     total cpu time spent up to now is      667.0 secs

     total energy              =     -73.77306078 Ry
     estimated scf accuracy    <       0.00447643 Ry

     iteration #  2     ecut=   100.00 Ry     beta= 0.70
     Davidson diagonalization with overlap

---- Real-time Memory Report at c_bands before calling an iterative solver
             0 MiB given to the printing process from OS
             0 MiB allocation reported by mallinfo(arena+hblkhd)
             0 MiB available memory on the node where the printing process lives
------------------
     ethr =  2.80E-05,  avg # of iterations =  4.0

     negative rho (up, down):  1.631E-04 0.000E+00

     total cpu time spent up to now is      674.0 secs

     total energy              =     -73.77375423 Ry
     estimated scf accuracy    <       0.00406133 Ry

     iteration #  3     ecut=   100.00 Ry     beta= 0.70
     Davidson diagonalization with overlap

---- Real-time Memory Report at c_bands before calling an iterative solver
             0 MiB given to the printing process from OS
             0 MiB allocation reported by mallinfo(arena+hblkhd)
             0 MiB available memory on the node where the printing process lives
------------------
     ethr =  2.54E-05,  avg # of iterations =  3.7

     negative rho (up, down):  1.636E-04 0.000E+00

     total cpu time spent up to now is      681.6 secs

     total energy              =     -73.77468968 Ry
     estimated scf accuracy    <       0.00005087 Ry

     iteration #  4     ecut=   100.00 Ry     beta= 0.70
     Davidson diagonalization with overlap

---- Real-time Memory Report at c_bands before calling an iterative solver
             0 MiB given to the printing process from OS
             0 MiB allocation reported by mallinfo(arena+hblkhd)
             0 MiB available memory on the node where the printing process lives
------------------
     ethr =  3.18E-07,  avg # of iterations =  2.9

     negative rho (up, down):  1.636E-04 0.000E+00

     total cpu time spent up to now is      690.1 secs

     total energy              =     -73.77469777 Ry
     estimated scf accuracy    <       0.00000157 Ry

     iteration #  5     ecut=   100.00 Ry     beta= 0.70
     Davidson diagonalization with overlap

---- Real-time Memory Report at c_bands before calling an iterative solver
             0 MiB given to the printing process from OS
             0 MiB allocation reported by mallinfo(arena+hblkhd)
             0 MiB available memory on the node where the printing process lives
------------------
     ethr =  9.81E-09,  avg # of iterations =  2.9

     negative rho (up, down):  1.636E-04 0.000E+00

     total cpu time spent up to now is      696.1 secs

     total energy              =     -73.77469859 Ry
     estimated scf accuracy    <       0.00000009 Ry

     iteration #  6     ecut=   100.00 Ry     beta= 0.70
     Davidson diagonalization with overlap

---- Real-time Memory Report at c_bands before calling an iterative solver
             0 MiB given to the printing process from OS
             0 MiB allocation reported by mallinfo(arena+hblkhd)
             0 MiB available memory on the node where the printing process lives
------------------
     ethr =  5.76E-10,  avg # of iterations =  2.2

     negative rho (up, down):  1.636E-04 0.000E+00

     total cpu time spent up to now is      702.8 secs

     total energy              =     -73.77469860 Ry
     estimated scf accuracy    <       0.00000002 Ry

     iteration #  7     ecut=   100.00 Ry     beta= 0.70
     Davidson diagonalization with overlap

---- Real-time Memory Report at c_bands before calling an iterative solver
             0 MiB given to the printing process from OS
             0 MiB allocation reported by mallinfo(arena+hblkhd)
             0 MiB available memory on the node where the printing process lives
------------------
     ethr =  1.02E-10,  avg # of iterations =  2.1

     negative rho (up, down):  1.636E-04 0.000E+00

     total cpu time spent up to now is      714.1 secs

     End of self-consistent calculation

          k = 0.0000 0.0000 0.0000 ( 14055 PWs)   bands (ev):

   -23.8620 -23.7719 -12.2476 -11.5493  -7.2812  -7.2812  -7.2766  -7.2766
    -0.9244  -0.5607   0.8027   1.4044

     occupation numbers 
     1.0000   1.0000   1.0000   1.0000   1.0000   1.0000   1.0000   1.0000
     0.0000   0.0000   0.0000   0.0000

          k = 0.0000 0.0962 0.0000 ( 14039 PWs)   bands (ev):

   -23.6969 -23.6078 -12.0482 -11.3548  -7.9362  -7.9274  -7.6237  -7.6165
    -0.7026  -0.3358   1.0224   1.6288

     occupation numbers 
     1.0000   1.0000   1.0000   1.0000   1.0000   1.0000   1.0000   1.0000
     0.0000   0.0000   0.0000   0.0000

          k = 0.0000 0.1925 0.0000 ( 14001 PWs)   bands (ev):

   -23.2033 -23.1172 -11.4550 -10.7769  -9.5846  -9.5672  -8.4240  -8.4135
    -0.0373   0.3381   1.6806   2.3005

     occupation numbers 
     1.0000   1.0000   1.0000   1.0000   1.0000   1.0000   1.0000   1.0000
     0.0000   0.0000   0.0000   0.0000

          k = 0.0000 0.2887 0.0000 ( 13973 PWs)   bands (ev):

   -22.3872 -22.3058 -11.6971 -11.6696 -10.4856  -9.8364  -9.3114  -9.2989
     1.0677   1.4495   2.7395   2.9458

     occupation numbers 
     1.0000   1.0000   1.0000   1.0000   1.0000   1.0000   1.0000   1.0000
     0.0000   0.0000   0.0000   0.0000

          k = 0.0000 0.3849 0.0000 ( 13957 PWs)   bands (ev):

   -21.2604 -21.1855 -13.9155 -13.8776 -10.0507 -10.0370  -9.1860  -8.5888
     0.5520   0.8617   2.5985   3.0326

     occupation numbers 
     1.0000   1.0000   1.0000   1.0000   1.0000   1.0000   1.0000   1.0000
     0.0000   0.0000   0.0000   0.0000

          k = 0.0000 0.4811 0.0000 ( 13900 PWs)   bands (ev):

   -19.8533 -19.7871 -16.0304 -15.9836 -10.5272 -10.5129  -7.7013  -7.2196
    -1.6170  -1.2637   3.2499   3.3639

     occupation numbers 
     1.0000   1.0000   1.0000   1.0000   1.0000   1.0000   1.0000   1.0000
     0.0000   0.0000   0.0000   0.0000

          k = 0.0000-0.5774 0.0000 ( 13904 PWs)   bands (ev):

   -18.5607 -18.5280 -17.5392 -17.5142 -10.6908 -10.6763  -6.7434  -6.4970
    -2.6672  -2.4055   3.1673   3.2897

     occupation numbers 
     1.0000   1.0000   1.0000   1.0000   1.0000   1.0000   1.0000   1.0000
     0.0000   0.0000   0.0000   0.0000

          k = 0.0833 0.1443 0.0000 ( 14003 PWs)   bands (ev):

   -23.3676 -23.2804 -11.6518 -10.9685  -8.9734  -8.9648  -8.3060  -8.2998
    -0.2588   0.1138   1.4621   2.0774

     occupation numbers 
     1.0000   1.0000   1.0000   1.0000   1.0000   1.0000   1.0000   1.0000
     0.0000   0.0000   0.0000   0.0000

          k = 0.0833 0.2406 0.0000 ( 14001 PWs)   bands (ev):

   -22.7127 -22.6294 -10.8695 -10.6950 -10.6764 -10.2078  -9.3140  -9.3023
     0.6277   1.0101   2.3380   2.9701

     occupation numbers 
     1.0000   1.0000   1.0000   1.0000   1.0000   1.0000   1.0000   1.0000
     0.0000   0.0000   0.0000   0.0000

          k = 0.0833 0.3368 0.0000 ( 13973 PWs)   bands (ev):

   -21.7411 -21.6634 -12.7835 -12.7526 -10.2081 -10.1923  -9.7293  -9.1064
     1.6023   1.8462   1.9544   2.3781

     occupation numbers 
     1.0000   1.0000   1.0000   1.0000   1.0000   1.0000   1.0000   1.0000
     0.0000   0.0000   0.0000   0.0000

          k = 0.0833 0.4330 0.0000 ( 13937 PWs)   bands (ev):

   -20.4713 -20.4011 -14.9216 -14.8801 -10.8478 -10.8301  -8.3075  -7.7580
    -0.6484  -0.3300   3.6755   4.0277

     occupation numbers 
     1.0000   1.0000   1.0000   1.0000   1.0000   1.0000   1.0000   1.0000
     0.0000   0.0000   0.0000   0.0000

          k = 0.0833 0.5292 0.0000 ( 13904 PWs)   bands (ev):

   -18.9766 -18.9187 -16.8770 -16.8304 -11.1786 -11.1602  -6.9027  -6.5439
    -2.4076  -2.1179   3.9030   4.0337

     occupation numbers 
     1.0000   1.0000   1.0000   1.0000   1.0000   1.0000   1.0000   1.0000
     0.0000   0.0000   0.0000   0.0000

          k = 0.1667 0.2887 0.0000 ( 13969 PWs)   bands (ev):

   -21.9024 -21.8238 -12.0269 -12.0119 -10.6854 -10.6745  -9.9129  -9.2818
     1.7311   2.1064   2.1252   2.2646

     occupation numbers 
     1.0000   1.0000   1.0000   1.0000   1.0000   1.0000   1.0000   1.0000
     0.0000   0.0000   0.0000   0.0000

          k = 0.1667 0.3849 0.0000 ( 13953 PWs)   bands (ev):

   -20.7865 -20.7144 -13.7693 -13.7399 -11.7518 -11.7319  -8.6282  -8.0494
     0.1163   0.3305   3.2678   3.6683

     occupation numbers 
     1.0000   1.0000   1.0000   1.0000   1.0000   1.0000   1.0000   1.0000
     0.0000   0.0000   0.0000   0.0000

          k = 0.1667 0.4811 0.0000 ( 13903 PWs)   bands (ev):

   -19.3995 -19.3360 -15.6970 -15.6548 -12.3325 -12.3073  -7.1435  -6.6708
    -1.8311  -1.5670   5.1930   5.5566

     occupation numbers 
     1.0000   1.0000   1.0000   1.0000   1.0000   1.0000   1.0000   1.0000
     0.0000   0.0000   0.0000   0.0000

          k = 0.1667 0.5774 0.0000 ( 13896 PWs)   bands (ev):

   -18.1376 -18.1065 -17.1344 -17.1124 -12.5186 -12.4922  -6.1404  -5.8983
    -2.8308  -2.6975   5.6805   5.8695

     occupation numbers 
     1.0000   1.0000   1.0000   1.0000   1.0000   1.0000   1.0000   1.0000
     0.0000   0.0000   0.0000   0.0000

          k = 0.2500 0.4330 0.0000 ( 13939 PWs)   bands (ev):

   -19.5489 -19.4841 -14.8013 -14.7799 -13.2444 -13.2284  -7.2441  -6.7362
    -1.5035  -1.2992   4.9887   5.3212

     occupation numbers 
     1.0000   1.0000   1.0000   1.0000   1.0000   1.0000   1.0000   1.0000
     0.0000   0.0000   0.0000   0.0000

          k = 0.2500 0.5292 0.0000 ( 13893 PWs)   bands (ev):

   -18.1120 -18.0596 -16.2386 -16.2034 -13.9604 -13.9332  -5.7822  -5.4224
    -3.0199  -2.8321   6.5605   6.6281

     occupation numbers 
     1.0000   1.0000   1.0000   1.0000   1.0000   1.0000   1.0000   1.0000
     0.0000   0.0000   0.0000   0.0000

          k = 0.3333 0.5774 0.0000 ( 13848 PWs)   bands (ev):

   -16.8882 -16.8605 -16.8605 -16.8339 -14.8550 -14.8550  -4.4625  -4.2386
    -4.2386  -4.0019   6.3397   6.3397

     occupation numbers 
     1.0000   1.0000   1.0000   1.0000   1.0000   1.0000   1.0653   0.4663
     0.4663   0.0020   0.0000   0.0000

     the Fermi energy is    -4.2259 ev

!    total energy              =     -73.77469861 Ry
     total all-electron energy =      -304.831087 Ry
     estimated scf accuracy    <          1.4E-10 Ry
     smearing contrib. (-TS)   =      -0.00005494 Ry
     internal energy E=F+TS    =     -73.77464367 Ry

     The total energy is F=E-TS. E is the sum of the following terms:
     one-electron contribution =   -1221.78649333 Ry
     hartree contribution      =     612.65699184 Ry
     xc contribution           =     -18.57374023 Ry
     ewald contribution        =     578.59768792 Ry
     one-center paw contrib.   =     -24.66908988 Ry
      -> PAW hartree energy AE =      37.91769691 Ry
      -> PAW hartree energy PS =     -37.88293487 Ry
      -> PAW xc energy AE      =     -42.68797692 Ry
      -> PAW xc energy PS      =      17.98412500 Ry
      -> total E_H with PAW    =     612.69175388 Ry
      -> total E_XC with PAW   =     -43.27759215 Ry

     convergence has been achieved in   7 iterations

     negative rho (up, down):  1.636E-04 0.000E+00

     Forces acting on atoms (cartesian axes, Ry/au):

     atom    1 type  1   force =     0.00000000   -0.00000000    0.00097580
     atom    2 type  1   force =     0.00000000    0.00000000   -0.00272556
     atom    3 type  1   force =     0.00000000   -0.00000000    0.00272556
     atom    4 type  1   force =     0.00000000    0.00000000   -0.00097580
     The non-local contrib.  to forces
     atom    1 type  1   force =     0.00000000   -0.00000000    0.00258395
     atom    2 type  1   force =    -0.00000000    0.00000000   -0.00438299
     atom    3 type  1   force =     0.00000000   -0.00000000    0.00438299
     atom    4 type  1   force =     0.00000000   -0.00000000   -0.00258395
     The ionic contribution  to forces
     atom    1 type  1   force =     0.00000000   -0.00000000  -21.53161438
     atom    2 type  1   force =    -0.00000000    0.00000000  -21.44012557
     atom    3 type  1   force =    -0.00000000   -0.00000000   21.44012557
     atom    4 type  1   force =     0.00000000    0.00000000   21.53161438
     The local contribution  to forces
     atom    1 type  1   force =    -0.00000000    0.00000000   21.53004510
     atom    2 type  1   force =    -0.00000000    0.00000000   21.44177213
     atom    3 type  1   force =    -0.00000000    0.00000000  -21.44177213
     atom    4 type  1   force =    -0.00000000    0.00000000  -21.53004510
     The core correction contribution to forces
     atom    1 type  1   force =    -0.00000000   -0.00000000   -0.00001828
     atom    2 type  1   force =     0.00000000   -0.00000000    0.00003131
     atom    3 type  1   force =     0.00000000   -0.00000000   -0.00003131
     atom    4 type  1   force =     0.00000000   -0.00000000    0.00001828
     The Hubbard contrib.    to forces
     atom    1 type  1   force =     0.00000000    0.00000000    0.00000000
     atom    2 type  1   force =     0.00000000    0.00000000    0.00000000
     atom    3 type  1   force =     0.00000000    0.00000000    0.00000000
     atom    4 type  1   force =     0.00000000    0.00000000    0.00000000
     The SCF correction term to forces
     atom    1 type  1   force =     0.00000000    0.00000000   -0.00002059
     atom    2 type  1   force =     0.00000000   -0.00000000   -0.00002043
     atom    3 type  1   force =     0.00000000   -0.00000000    0.00002043
     atom    4 type  1   force =    -0.00000000   -0.00000000    0.00002059

     Total force =     0.004094     Total SCF correction =     0.000041
     Energy error            =      2.9E-04 Ry
     Gradient error          =      2.7E-03 Ry/Bohr

     number of scf cycles    =  11
     number of bfgs steps    =  10

     energy             old  =     -73.7744103487 Ry
     energy             new  =     -73.7746986061 Ry

     CASE: energy            _new < energy            _old

     new trust radius        =       0.1092622732 bohr
     new conv_thr            =       0.0000000003 Ry


ATOMIC_POSITIONS (angstrom)
C                0.0000000000        0.0000000000        9.8290726115
C                1.2300000000        0.7101408311        9.8317747738
C                1.2300000000        0.7101408311       13.5182252262
C                0.0000000000        1.4202816622       13.5209273885



     Writing config-only to output data dir /Users/memo/Desktop/New Horizons/Graphene Band Structure QE/outputs/bilayer/data/graphene.save/ :
     XML data file
     NEW-OLD atomic charge density approx. for the potential

     Check: negative core charge=   -0.000003

     negative rho (up, down):  1.396E-04 0.000E+00

     total cpu time spent up to now is      720.0 secs

     Self-consistent Calculation

     iteration #  1     ecut=   100.00 Ry     beta= 0.70
     Davidson diagonalization with overlap

---- Real-time Memory Report at c_bands before calling an iterative solver
             0 MiB given to the printing process from OS
             0 MiB allocation reported by mallinfo(arena+hblkhd)
             0 MiB available memory on the node where the printing process lives
------------------
     ethr =  1.00E-06,  avg # of iterations =  7.9

     negative rho (up, down):  1.414E-04 0.000E+00

     total cpu time spent up to now is      744.0 secs

     total energy              =     -73.77132851 Ry
     estimated scf accuracy    <       0.01002695 Ry

     iteration #  2     ecut=   100.00 Ry     beta= 0.70
     Davidson diagonalization with overlap

---- Real-time Memory Report at c_bands before calling an iterative solver
             0 MiB given to the printing process from OS
             0 MiB allocation reported by mallinfo(arena+hblkhd)
             0 MiB available memory on the node where the printing process lives
------------------
     ethr =  6.27E-05,  avg # of iterations =  3.9

     negative rho (up, down):  1.425E-04 0.000E+00

     total cpu time spent up to now is      752.3 secs

     total energy              =     -73.77287212 Ry
     estimated scf accuracy    <       0.00918990 Ry

     iteration #  3     ecut=   100.00 Ry     beta= 0.70
     Davidson diagonalization with overlap

---- Real-time Memory Report at c_bands before calling an iterative solver
             0 MiB given to the printing process from OS
             0 MiB allocation reported by mallinfo(arena+hblkhd)
             0 MiB available memory on the node where the printing process lives
------------------
     ethr =  5.74E-05,  avg # of iterations =  3.3

     negative rho (up, down):  1.431E-04 0.000E+00

     total cpu time spent up to now is      758.1 secs

     total energy              =     -73.77499090 Ry
     estimated scf accuracy    <       0.00011235 Ry

     iteration #  4     ecut=   100.00 Ry     beta= 0.70
     Davidson diagonalization with overlap

---- Real-time Memory Report at c_bands before calling an iterative solver
             0 MiB given to the printing process from OS
             0 MiB allocation reported by mallinfo(arena+hblkhd)
             0 MiB available memory on the node where the printing process lives
------------------
     ethr =  7.02E-07,  avg # of iterations =  5.1

     negative rho (up, down):  1.433E-04 0.000E+00

     total cpu time spent up to now is      770.6 secs

     total energy              =     -73.77500865 Ry
     estimated scf accuracy    <       0.00000369 Ry

     iteration #  5     ecut=   100.00 Ry     beta= 0.70
     Davidson diagonalization with overlap

---- Real-time Memory Report at c_bands before calling an iterative solver
             0 MiB given to the printing process from OS
             0 MiB allocation reported by mallinfo(arena+hblkhd)
             0 MiB available memory on the node where the printing process lives
------------------
     ethr =  2.31E-08,  avg # of iterations =  3.0

     negative rho (up, down):  1.433E-04 0.000E+00

     total cpu time spent up to now is      781.3 secs

     total energy              =     -73.77501060 Ry
     estimated scf accuracy    <       0.00000026 Ry

     iteration #  6     ecut=   100.00 Ry     beta= 0.70
     Davidson diagonalization with overlap

---- Real-time Memory Report at c_bands before calling an iterative solver
             0 MiB given to the printing process from OS
             0 MiB allocation reported by mallinfo(arena+hblkhd)
             0 MiB available memory on the node where the printing process lives
------------------
     ethr =  1.64E-09,  avg # of iterations =  2.0

     negative rho (up, down):  1.433E-04 0.000E+00

     total cpu time spent up to now is      787.5 secs

     total energy              =     -73.77501062 Ry
     estimated scf accuracy    <       0.00000004 Ry

     iteration #  7     ecut=   100.00 Ry     beta= 0.70
     Davidson diagonalization with overlap

---- Real-time Memory Report at c_bands before calling an iterative solver
             0 MiB given to the printing process from OS
             0 MiB allocation reported by mallinfo(arena+hblkhd)
             0 MiB available memory on the node where the printing process lives
------------------
     ethr =  2.69E-10,  avg # of iterations =  2.1

     negative rho (up, down):  1.433E-04 0.000E+00

     total cpu time spent up to now is      795.1 secs

     total energy              =     -73.77501063 Ry
     estimated scf accuracy    <          1.1E-09 Ry

     iteration #  8     ecut=   100.00 Ry     beta= 0.70
     Davidson diagonalization with overlap

---- Real-time Memory Report at c_bands before calling an iterative solver
             0 MiB given to the printing process from OS
             0 MiB allocation reported by mallinfo(arena+hblkhd)
             0 MiB available memory on the node where the printing process lives
------------------
     ethr =  6.62E-12,  avg # of iterations =  3.9

     negative rho (up, down):  1.433E-04 0.000E+00

     total cpu time spent up to now is      804.4 secs

     End of self-consistent calculation

          k = 0.0000 0.0000 0.0000 ( 14055 PWs)   bands (ev):

   -23.8481 -23.7793 -12.1895 -11.6038  -7.2779  -7.2779  -7.2747  -7.2747
    -0.9407  -0.5549   0.7755   1.4811

     occupation numbers 
     1.0000   1.0000   1.0000   1.0000   1.0000   1.0000   1.0000   1.0000
     0.0000   0.0000   0.0000   0.0000

          k = 0.0000 0.0962 0.0000 ( 14039 PWs)   bands (ev):

   -23.6831 -23.6150 -11.9904 -11.4089  -7.9323  -7.9260  -7.6200  -7.6149
    -0.7192  -0.3300   0.9943   1.7053

     occupation numbers 
     1.0000   1.0000   1.0000   1.0000   1.0000   1.0000   1.0000   1.0000
     0.0000   0.0000   0.0000   0.0000

          k = 0.0000 0.1925 0.0000 ( 14001 PWs)   bands (ev):

   -23.1898 -23.1241 -11.3980 -10.8298  -9.5795  -9.5669  -8.4199  -8.4124
    -0.0548   0.3435   1.6495   2.3764

     occupation numbers 
     1.0000   1.0000   1.0000   1.0000   1.0000   1.0000   1.0000   1.0000
     0.0000   0.0000   0.0000   0.0000

          k = 0.0000 0.2887 0.0000 ( 13973 PWs)   bands (ev):

   -22.3742 -22.3122 -11.6907 -11.6704 -10.4302  -9.8871  -9.3070  -9.2980
     1.0489   1.4546   2.6941   2.9761

     occupation numbers 
     1.0000   1.0000   1.0000   1.0000   1.0000   1.0000   1.0000   1.0000
     0.0000   0.0000   0.0000   0.0000

          k = 0.0000 0.3849 0.0000 ( 13957 PWs)   bands (ev):

   -21.2482 -21.1913 -13.9077 -13.8796 -10.0461 -10.0363  -9.1335  -8.6354
     0.5845   0.8373   2.5767   3.0361

     occupation numbers 
     1.0000   1.0000   1.0000   1.0000   1.0000   1.0000   1.0000   1.0000
     0.0000   0.0000   0.0000   0.0000

          k = 0.0000 0.4811 0.0000 ( 13900 PWs)   bands (ev):

   -19.8421 -19.7920 -16.0215 -15.9865 -10.5225 -10.5123  -7.6562  -7.2562
    -1.5845  -1.2903   3.2664   3.3538

     occupation numbers 
     1.0000   1.0000   1.0000   1.0000   1.0000   1.0000   1.0000   1.0000
     0.0000   0.0000   0.0000   0.0000

          k = 0.0000-0.5774 0.0000 ( 13904 PWs)   bands (ev):

   -18.5533 -18.5288 -17.5334 -17.5145 -10.6861 -10.6757  -6.7133  -6.5120
    -2.6495  -2.4236   3.1844   3.2794

     occupation numbers 
     1.0000   1.0000   1.0000   1.0000   1.0000   1.0000   1.0000   1.0000
     0.0000   0.0000   0.0000   0.0000

          k = 0.0833 0.1443 0.0000 ( 14003 PWs)   bands (ev):

   -23.3540 -23.2875 -11.5945 -11.0218  -8.9695  -8.9633  -8.3025  -8.2981
    -0.2760   0.1194   1.4321   2.1536

     occupation numbers 
     1.0000   1.0000   1.0000   1.0000   1.0000   1.0000   1.0000   1.0000
     0.0000   0.0000   0.0000   0.0000

          k = 0.0833 0.2406 0.0000 ( 14001 PWs)   bands (ev):

   -22.6995 -22.6361 -10.8134 -10.6897 -10.6761 -10.2595  -9.3097  -9.3013
     0.6094   1.0152   2.3031   3.0457

     occupation numbers 
     1.0000   1.0000   1.0000   1.0000   1.0000   1.0000   1.0000   1.0000
     0.0000   0.0000   0.0000   0.0000

          k = 0.0833 0.3368 0.0000 ( 13973 PWs)   bands (ev):

   -21.7286 -21.6695 -12.7766 -12.7538 -10.2032 -10.1918  -9.6754  -9.1551
     1.6302   1.8276   1.9328   2.3825

     occupation numbers 
     1.0000   1.0000   1.0000   1.0000   1.0000   1.0000   1.0000   1.0000
     0.0000   0.0000   0.0000   0.0000

          k = 0.0833 0.4330 0.0000 ( 13937 PWs)   bands (ev):

   -20.4597 -20.4064 -14.9134 -14.8825 -10.8427 -10.8299  -8.2580  -7.8006
    -0.6162  -0.3540   3.6531   4.0378

     occupation numbers 
     1.0000   1.0000   1.0000   1.0000   1.0000   1.0000   1.0000   1.0000
     0.0000   0.0000   0.0000   0.0000

          k = 0.0833 0.5292 0.0000 ( 13904 PWs)   bands (ev):

   -18.9663 -18.9228 -16.8682 -16.8332 -11.1734 -11.1601  -6.8654  -6.5690
    -2.3836  -2.1388   3.9206   4.0232

     occupation numbers 
     1.0000   1.0000   1.0000   1.0000   1.0000   1.0000   1.0000   1.0000
     0.0000   0.0000   0.0000   0.0000

          k = 0.1667 0.2887 0.0000 ( 13969 PWs)   bands (ev):

   -21.8898 -21.8300 -12.0221 -12.0111 -10.6812 -10.6733  -9.8585  -9.3311
     1.7121   2.1271   2.1298   2.2538

     occupation numbers 
     1.0000   1.0000   1.0000   1.0000   1.0000   1.0000   1.0000   1.0000
     0.0000   0.0000   0.0000   0.0000

          k = 0.1667 0.3849 0.0000 ( 13953 PWs)   bands (ev):

   -20.7746 -20.7199 -13.7626 -13.7409 -11.7464 -11.7318  -8.5769  -8.0946
     0.1419   0.3154   3.2455   3.6725

     occupation numbers 
     1.0000   1.0000   1.0000   1.0000   1.0000   1.0000   1.0000   1.0000
     0.0000   0.0000   0.0000   0.0000

          k = 0.1667 0.4811 0.0000 ( 13903 PWs)   bands (ev):

   -19.3886 -19.3407 -15.6887 -15.6572 -12.3263 -12.3079  -7.0989  -6.7069
    -1.8038  -1.5860   5.1673   5.5646

     occupation numbers 
     1.0000   1.0000   1.0000   1.0000   1.0000   1.0000   1.0000   1.0000
     0.0000   0.0000   0.0000   0.0000

          k = 0.1667 0.5774 0.0000 ( 13896 PWs)   bands (ev):

   -18.1304 -18.1071 -17.1290 -17.1123 -12.5123 -12.4929  -6.1104  -5.9127
    -2.8224  -2.7046   5.7025   5.8581

     occupation numbers 
     1.0000   1.0000   1.0000   1.0000   1.0000   1.0000   1.0000   1.0000
     0.0000   0.0000   0.0000   0.0000

          k = 0.2500 0.4330 0.0000 ( 13939 PWs)   bands (ev):

   -19.5378 -19.4890 -14.7956 -14.7797 -13.2396 -13.2277  -7.1973  -6.7756
    -1.4785  -1.3134   4.9631   5.3281

     occupation numbers 
     1.0000   1.0000   1.0000   1.0000   1.0000   1.0000   1.0000   1.0000
     0.0000   0.0000   0.0000   0.0000

          k = 0.2500 0.5292 0.0000 ( 13893 PWs)   bands (ev):

   -18.1025 -18.0630 -16.2312 -16.2049 -13.9540 -13.9338  -5.7447  -5.4481
    -2.9989  -2.8459   6.5822   6.5919

     occupation numbers 
     1.0000   1.0000   1.0000   1.0000   1.0000   1.0000   1.0000   1.0000
     0.0000   0.0000   0.0000   0.0000

          k = 0.3333 0.5774 0.0000 ( 13848 PWs)   bands (ev):

   -16.8779 -16.8578 -16.8578 -16.8375 -14.8521 -14.8521  -4.4149  -4.2332
    -4.2332  -4.0404   6.3423   6.3423

     occupation numbers 
     1.0000   1.0000   1.0000   1.0000   1.0000   1.0000   1.0833   0.4544
     0.4544   0.0079   0.0000   0.0000

     the Fermi energy is    -4.2227 ev

!    total energy              =     -73.77501063 Ry
     total all-electron energy =      -304.831400 Ry
     estimated scf accuracy    <          3.3E-11 Ry
     smearing contrib. (-TS)   =      -0.00004981 Ry
     internal energy E=F+TS    =     -73.77496082 Ry

     The total energy is F=E-TS. E is the sum of the following terms:
     one-electron contribution =   -1203.11984793 Ry
     hartree contribution      =     603.32465042 Ry
     xc contribution           =     -18.57268802 Ry
     ewald contribution        =     569.26199899 Ry
     one-center paw contrib.   =     -24.66907428 Ry
      -> PAW hartree energy AE =      37.91648584 Ry
      -> PAW hartree energy PS =     -37.88172538 Ry
      -> PAW xc energy AE      =     -42.68767801 Ry
      -> PAW xc energy PS      =      17.98384327 Ry
      -> total E_H with PAW    =     603.35941088 Ry
      -> total E_XC with PAW   =     -43.27652276 Ry

     convergence has been achieved in   8 iterations

     negative rho (up, down):  1.433E-04 0.000E+00

     Forces acting on atoms (cartesian axes, Ry/au):

     atom    1 type  1   force =     0.00000000    0.00000000    0.00101627
     atom    2 type  1   force =     0.00000000    0.00000000   -0.00195695
     atom    3 type  1   force =     0.00000000   -0.00000000    0.00195695
     atom    4 type  1   force =     0.00000000    0.00000000   -0.00101627
     The non-local contrib.  to forces
     atom    1 type  1   force =     0.00000000    0.00000000    0.00224403
     atom    2 type  1   force =    -0.00000000    0.00000000   -0.00336252
     atom    3 type  1   force =     0.00000000    0.00000000    0.00336252
     atom    4 type  1   force =     0.00000000   -0.00000000   -0.00224403
     The ionic contribution  to forces
     atom    1 type  1   force =     0.00000000   -0.00000000  -21.52272830
     atom    2 type  1   force =    -0.00000000    0.00000000  -21.44924428
     atom    3 type  1   force =    -0.00000000   -0.00000000   21.44924428
     atom    4 type  1   force =     0.00000000    0.00000000   21.52272830
     The local contribution  to forces
     atom    1 type  1   force =    -0.00000000    0.00000000   21.52143351
     atom    2 type  1   force =    -0.00000000    0.00000000   21.45055771
     atom    3 type  1   force =    -0.00000000    0.00000000  -21.45055771
     atom    4 type  1   force =     0.00000000    0.00000000  -21.52143351
     The core correction contribution to forces
     atom    1 type  1   force =     0.00000000   -0.00000000    0.00006449
     atom    2 type  1   force =     0.00000000   -0.00000000    0.00008934
     atom    3 type  1   force =     0.00000000   -0.00000000   -0.00008934
     atom    4 type  1   force =    -0.00000000   -0.00000000   -0.00006449
     The Hubbard contrib.    to forces
     atom    1 type  1   force =     0.00000000    0.00000000    0.00000000
     atom    2 type  1   force =     0.00000000    0.00000000    0.00000000
     atom    3 type  1   force =     0.00000000    0.00000000    0.00000000
     atom    4 type  1   force =     0.00000000    0.00000000    0.00000000
     The SCF correction term to forces
     atom    1 type  1   force =    -0.00000000   -0.00000000    0.00000254
     atom    2 type  1   force =     0.00000000   -0.00000000    0.00000280
     atom    3 type  1   force =     0.00000000   -0.00000000   -0.00000280
     atom    4 type  1   force =     0.00000000    0.00000000   -0.00000254

     Total force =     0.003118     Total SCF correction =     0.000005
     Energy error            =      3.1E-04 Ry
     Gradient error          =      2.0E-03 Ry/Bohr

     number of scf cycles    =  12
     number of bfgs steps    =  11

     energy             old  =     -73.7746986061 Ry
     energy             new  =     -73.7750106310 Ry

     CASE: energy            _new < energy            _old

     new trust radius        =       0.1287487280 bohr
     new conv_thr            =       0.0000000002 Ry


ATOMIC_POSITIONS (angstrom)
C                0.0000000000        0.0000000000        9.7622104329
C                1.2300000000        0.7101408311        9.7636438810
C                1.2300000000        0.7101408311       13.5863561190
C                0.0000000000        1.4202816622       13.5877895671



     Writing config-only to output data dir /Users/memo/Desktop/New Horizons/Graphene Band Structure QE/outputs/bilayer/data/graphene.save/ :
     XML data file
     NEW-OLD atomic charge density approx. for the potential

     Check: negative core charge=   -0.000003

     negative rho (up, down):  1.426E-04 0.000E+00

     total cpu time spent up to now is      805.5 secs

     Self-consistent Calculation

     iteration #  1     ecut=   100.00 Ry     beta= 0.70
     Davidson diagonalization with overlap

---- Real-time Memory Report at c_bands before calling an iterative solver
             0 MiB given to the printing process from OS
             0 MiB allocation reported by mallinfo(arena+hblkhd)
             0 MiB available memory on the node where the printing process lives
------------------
     ethr =  1.00E-06,  avg # of iterations =  8.8

     negative rho (up, down):  1.440E-04 0.000E+00

     total cpu time spent up to now is      838.4 secs

     total energy              =     -73.77017714 Ry
     estimated scf accuracy    <       0.01377545 Ry

     iteration #  2     ecut=   100.00 Ry     beta= 0.70
     Davidson diagonalization with overlap

---- Real-time Memory Report at c_bands before calling an iterative solver
             0 MiB given to the printing process from OS
             0 MiB allocation reported by mallinfo(arena+hblkhd)
             0 MiB available memory on the node where the printing process lives
------------------
     ethr =  8.61E-05,  avg # of iterations =  3.9

     negative rho (up, down):  1.452E-04 0.000E+00

     total cpu time spent up to now is      847.5 secs

     total energy              =     -73.77226864 Ry
     estimated scf accuracy    <       0.01265433 Ry

     iteration #  3     ecut=   100.00 Ry     beta= 0.70
     Davidson diagonalization with overlap

---- Real-time Memory Report at c_bands before calling an iterative solver
             0 MiB given to the printing process from OS
             0 MiB allocation reported by mallinfo(arena+hblkhd)
             0 MiB available memory on the node where the printing process lives
------------------
     ethr =  7.91E-05,  avg # of iterations =  3.3

     negative rho (up, down):  1.459E-04 0.000E+00

     total cpu time spent up to now is      853.9 secs

     total energy              =     -73.77519436 Ry
     estimated scf accuracy    <       0.00015931 Ry

     iteration #  4     ecut=   100.00 Ry     beta= 0.70
     Davidson diagonalization with overlap

---- Real-time Memory Report at c_bands before calling an iterative solver
             0 MiB given to the printing process from OS
             0 MiB allocation reported by mallinfo(arena+hblkhd)
             0 MiB available memory on the node where the printing process lives
------------------
     ethr =  9.96E-07,  avg # of iterations =  5.3

     negative rho (up, down):  1.461E-04 0.000E+00

     total cpu time spent up to now is      861.6 secs

     total energy              =     -73.77522011 Ry
     estimated scf accuracy    <       0.00000494 Ry

     iteration #  5     ecut=   100.00 Ry     beta= 0.70
     Davidson diagonalization with overlap

---- Real-time Memory Report at c_bands before calling an iterative solver
             0 MiB given to the printing process from OS
             0 MiB allocation reported by mallinfo(arena+hblkhd)
             0 MiB available memory on the node where the printing process lives
------------------
     ethr =  3.09E-08,  avg # of iterations =  3.0

     negative rho (up, down):  1.462E-04 0.000E+00

     total cpu time spent up to now is      872.3 secs

     total energy              =     -73.77522268 Ry
     estimated scf accuracy    <       0.00000041 Ry

     iteration #  6     ecut=   100.00 Ry     beta= 0.70
     Davidson diagonalization with overlap

---- Real-time Memory Report at c_bands before calling an iterative solver
             0 MiB given to the printing process from OS
             0 MiB allocation reported by mallinfo(arena+hblkhd)
             0 MiB available memory on the node where the printing process lives
------------------
     ethr =  2.57E-09,  avg # of iterations =  1.9

     negative rho (up, down):  1.461E-04 0.000E+00

     total cpu time spent up to now is      877.0 secs

     total energy              =     -73.77522270 Ry
     estimated scf accuracy    <       0.00000007 Ry

     iteration #  7     ecut=   100.00 Ry     beta= 0.70
     Davidson diagonalization with overlap

---- Real-time Memory Report at c_bands before calling an iterative solver
             0 MiB given to the printing process from OS
             0 MiB allocation reported by mallinfo(arena+hblkhd)
             0 MiB available memory on the node where the printing process lives
------------------
     ethr =  4.16E-10,  avg # of iterations =  2.1

     negative rho (up, down):  1.461E-04 0.000E+00

     total cpu time spent up to now is      882.1 secs

     total energy              =     -73.77522272 Ry
     estimated scf accuracy    <          1.7E-09 Ry

     iteration #  8     ecut=   100.00 Ry     beta= 0.70
     Davidson diagonalization with overlap

---- Real-time Memory Report at c_bands before calling an iterative solver
             0 MiB given to the printing process from OS
             0 MiB allocation reported by mallinfo(arena+hblkhd)
             0 MiB available memory on the node where the printing process lives
------------------
     ethr =  1.03E-11,  avg # of iterations =  3.9

     negative rho (up, down):  1.461E-04 0.000E+00

     total cpu time spent up to now is      888.9 secs

     End of self-consistent calculation

          k = 0.0000 0.0000 0.0000 ( 14055 PWs)   bands (ev):

   -23.8363 -23.7862 -12.1331 -11.6574  -7.2754  -7.2754  -7.2733  -7.2733
    -0.9669  -0.5591   0.7095   1.5526

     occupation numbers 
     1.0000   1.0000   1.0000   1.0000   1.0000   1.0000   1.0000   1.0000
     0.0000   0.0000   0.0000   0.0000

          k = 0.0000 0.0962 0.0000 ( 14039 PWs)   bands (ev):

   -23.6714 -23.6219 -11.9342 -11.4621  -7.9294  -7.9252  -7.6173  -7.6139
    -0.7456  -0.3343   0.9277   1.7765

     occupation numbers 
     1.0000   1.0000   1.0000   1.0000   1.0000   1.0000   1.0000   1.0000
     0.0000   0.0000   0.0000   0.0000

          k = 0.0000 0.1925 0.0000 ( 14001 PWs)   bands (ev):

   -23.1785 -23.1307 -11.3427 -10.8819  -9.5756  -9.5669  -8.4167  -8.4117
    -0.0820   0.3390   1.5805   2.4467

     occupation numbers 
     1.0000   1.0000   1.0000   1.0000   1.0000   1.0000   1.0000   1.0000
     0.0000   0.0000   0.0000   0.0000

          k = 0.0000 0.2887 0.0000 ( 13973 PWs)   bands (ev):

   -22.3633 -22.3184 -11.6856 -11.6715 -10.3766  -9.9370  -9.3036  -9.2976
     1.0207   1.4501   2.6163   3.0035

     occupation numbers 
     1.0000   1.0000   1.0000   1.0000   1.0000   1.0000   1.0000   1.0000
     0.0000   0.0000   0.0000   0.0000

          k = 0.0000 0.3849 0.0000 ( 13957 PWs)   bands (ev):

   -21.2380 -21.1969 -13.9015 -13.8817 -10.0425 -10.0360  -9.0831  -8.6812
     0.6143   0.8137   2.5466   3.0304

     occupation numbers 
     1.0000   1.0000   1.0000   1.0000   1.0000   1.0000   1.0000   1.0000
     0.0000   0.0000   0.0000   0.0000

          k = 0.0000 0.4811 0.0000 ( 13900 PWs)   bands (ev):

   -19.8328 -19.7968 -16.0143 -15.9895 -10.5189 -10.5120  -7.6133  -7.2923
    -1.5536  -1.3164   3.2805   3.3442

     occupation numbers 
     1.0000   1.0000   1.0000   1.0000   1.0000   1.0000   1.0000   1.0000
     0.0000   0.0000   0.0000   0.0000

          k = 0.0000-0.5774 0.0000 ( 13904 PWs)   bands (ev):

   -18.5474 -18.5299 -17.5287 -17.5151 -10.6824 -10.6755  -6.6859  -6.5276
    -2.6316  -2.4417   3.1993   3.2696

     occupation numbers 
     1.0000   1.0000   1.0000   1.0000   1.0000   1.0000   1.0000   1.0000
     0.0000   0.0000   0.0000   0.0000

          k = 0.0833 0.1443 0.0000 ( 14003 PWs)   bands (ev):

   -23.3425 -23.2941 -11.5389 -11.0742  -8.9665  -8.9623  -8.2998  -8.2969
    -0.3028   0.1149   1.3640   2.2243

     occupation numbers 
     1.0000   1.0000   1.0000   1.0000   1.0000   1.0000   1.0000   1.0000
     0.0000   0.0000   0.0000   0.0000

          k = 0.0833 0.2406 0.0000 ( 14001 PWs)   bands (ev):

   -22.6885 -22.6424 -10.7590 -10.6856 -10.6762 -10.3104  -9.3064  -9.3007
     0.5816   1.0106   2.2311   3.1153

     occupation numbers 
     1.0000   1.0000   1.0000   1.0000   1.0000   1.0000   1.0000   1.0000
     0.0000   0.0000   0.0000   0.0000

          k = 0.0833 0.3368 0.0000 ( 13973 PWs)   bands (ev):

   -21.7181 -21.6754 -12.7711 -12.7551 -10.1994 -10.1917  -9.6233  -9.2029
     1.6555   1.8091   1.9023   2.3774

     occupation numbers 
     1.0000   1.0000   1.0000   1.0000   1.0000   1.0000   1.0000   1.0000
     0.0000   0.0000   0.0000   0.0000

          k = 0.0833 0.4330 0.0000 ( 13937 PWs)   bands (ev):

   -20.4499 -20.4116 -14.9068 -14.8849 -10.8387 -10.8300  -8.2106  -7.8426
    -0.5861  -0.3776   3.6230   4.0422

     occupation numbers 
     1.0000   1.0000   1.0000   1.0000   1.0000   1.0000   1.0000   1.0000
     0.0000   0.0000   0.0000   0.0000

          k = 0.0833 0.5292 0.0000 ( 13904 PWs)   bands (ev):

   -18.9579 -18.9267 -16.8610 -16.8361 -11.1693 -11.1602  -6.8306  -6.5944
    -2.3603  -2.1595   3.9360   4.0130

     occupation numbers 
     1.0000   1.0000   1.0000   1.0000   1.0000   1.0000   1.0000   1.0000
     0.0000   0.0000   0.0000   0.0000

          k = 0.1667 0.2887 0.0000 ( 13969 PWs)   bands (ev):

   -21.8792 -21.8359 -12.0183 -12.0107 -10.6780 -10.6725  -9.8059  -9.3797
     1.6840   2.1250   2.1454   2.2430

     occupation numbers 
     1.0000   1.0000   1.0000   1.0000   1.0000   1.0000   1.0000   1.0000
     0.0000   0.0000   0.0000   0.0000

          k = 0.1667 0.3849 0.0000 ( 13953 PWs)   bands (ev):

   -20.7647 -20.7252 -13.7573 -13.7420 -11.7422 -11.7320  -8.5276  -8.1390
     0.1651   0.3004   3.2146   3.6681

     occupation numbers 
     1.0000   1.0000   1.0000   1.0000   1.0000   1.0000   1.0000   1.0000
     0.0000   0.0000   0.0000   0.0000

          k = 0.1667 0.4811 0.0000 ( 13903 PWs)   bands (ev):

   -19.3796 -19.3452 -15.6819 -15.6596 -12.3215 -12.3086  -7.0566  -6.7425
    -1.7784  -1.6048   5.1341   5.5662

     occupation numbers 
     1.0000   1.0000   1.0000   1.0000   1.0000   1.0000   1.0000   1.0000
     0.0000   0.0000   0.0000   0.0000

          k = 0.1667 0.5774 0.0000 ( 13896 PWs)   bands (ev):

   -18.1247 -18.1081 -17.1246 -17.1126 -12.5073 -12.4938  -6.0832  -5.9278
    -2.8136  -2.7122   5.7225   5.8464

     occupation numbers 
     1.0000   1.0000   1.0000   1.0000   1.0000   1.0000   1.0000   1.0000
     0.0000   0.0000   0.0000   0.0000

          k = 0.2500 0.4330 0.0000 ( 13939 PWs)   bands (ev):

   -19.5287 -19.4936 -14.7911 -14.7800 -13.2358 -13.2274  -7.1526  -6.8144
    -1.4559  -1.3276   4.9292   5.3284

     occupation numbers 
     1.0000   1.0000   1.0000   1.0000   1.0000   1.0000   1.0000   1.0000
     0.0000   0.0000   0.0000   0.0000

          k = 0.2500 0.5292 0.0000 ( 13893 PWs)   bands (ev):

   -18.0946 -18.0664 -16.2252 -16.2065 -13.9490 -13.9347  -5.7098  -5.4739
    -2.9796  -2.8596   6.5547   6.6055

     occupation numbers 
     1.0000   1.0000   1.0000   1.0000   1.0000   1.0000   1.0000   1.0000
     0.0000   0.0000   0.0000   0.0000

          k = 0.3333 0.5774 0.0000 ( 13848 PWs)   bands (ev):

   -16.8697 -16.8557 -16.8557 -16.8411 -14.8500 -14.8500  -4.3709  -4.2286
    -4.2286  -4.0780   6.3470   6.3470

     occupation numbers 
     1.0000   1.0000   1.0000   1.0000   1.0000   1.0000   1.0581   0.4575
     0.4575   0.0269   0.0000   0.0000

     the Fermi energy is    -4.2176 ev

!    total energy              =     -73.77522272 Ry
     total all-electron energy =      -304.831612 Ry
     estimated scf accuracy    <          6.6E-11 Ry
     smearing contrib. (-TS)   =      -0.00006429 Ry
     internal energy E=F+TS    =     -73.77515843 Ry

     The total energy is F=E-TS. E is the sum of the following terms:
     one-electron contribution =   -1181.19933399 Ry
     hartree contribution      =     592.36513708 Ry
     xc contribution           =     -18.57186077 Ry
     ewald contribution        =     558.29996055 Ry
     one-center paw contrib.   =     -24.66906130 Ry
      -> PAW hartree energy AE =      37.91588634 Ry
      -> PAW hartree energy PS =     -37.88112708 Ry
      -> PAW xc energy AE      =     -42.68752502 Ry
      -> PAW xc energy PS      =      17.98370446 Ry
      -> total E_H with PAW    =     592.39989634 Ry
      -> total E_XC with PAW   =     -43.27568132 Ry

     convergence has been achieved in   8 iterations

     negative rho (up, down):  1.461E-04 0.000E+00

     Forces acting on atoms (cartesian axes, Ry/au):

     atom    1 type  1   force =    -0.00000000   -0.00000000    0.00046838
     atom    2 type  1   force =     0.00000000   -0.00000000   -0.00098638
     atom    3 type  1   force =     0.00000000    0.00000000    0.00098638
     atom    4 type  1   force =    -0.00000000    0.00000000   -0.00046838
     The non-local contrib.  to forces
     atom    1 type  1   force =     0.00000000   -0.00000000    0.00105444
     atom    2 type  1   force =     0.00000000    0.00000000   -0.00176184
     atom    3 type  1   force =    -0.00000000   -0.00000000    0.00176184
     atom    4 type  1   force =     0.00000000    0.00000000   -0.00105444
     The ionic contribution  to forces
     atom    1 type  1   force =     0.00000000   -0.00000000  -21.50544388
     atom    2 type  1   force =    -0.00000000    0.00000000  -21.46671778
     atom    3 type  1   force =    -0.00000000   -0.00000000   21.46671778
     atom    4 type  1   force =     0.00000000    0.00000000   21.50544388
     The local contribution  to forces
     atom    1 type  1   force =    -0.00000000    0.00000000   21.50482735
     atom    2 type  1   force =    -0.00000000    0.00000000   21.46744440
     atom    3 type  1   force =    -0.00000000    0.00000000  -21.46744440
     atom    4 type  1   force =    -0.00000000    0.00000000  -21.50482735
     The core correction contribution to forces
     atom    1 type  1   force =     0.00000000    0.00000000    0.00002174
     atom    2 type  1   force =     0.00000000   -0.00000000    0.00003973
     atom    3 type  1   force =     0.00000000   -0.00000000   -0.00003973
     atom    4 type  1   force =    -0.00000000   -0.00000000   -0.00002174
     The Hubbard contrib.    to forces
     atom    1 type  1   force =     0.00000000    0.00000000    0.00000000
     atom    2 type  1   force =     0.00000000    0.00000000    0.00000000
     atom    3 type  1   force =     0.00000000    0.00000000    0.00000000
     atom    4 type  1   force =     0.00000000    0.00000000    0.00000000
     The SCF correction term to forces
     atom    1 type  1   force =    -0.00000000   -0.00000000    0.00000872
     atom    2 type  1   force =    -0.00000000   -0.00000000    0.00000910
     atom    3 type  1   force =    -0.00000000   -0.00000000   -0.00000910
     atom    4 type  1   force =     0.00000000    0.00000000   -0.00000872

     Total force =     0.001544     Total SCF correction =     0.000018
     Energy error            =      2.1E-04 Ry
     Gradient error          =      9.9E-04 Ry/Bohr

     number of scf cycles    =  13
     number of bfgs steps    =  12

     energy             old  =     -73.7750106310 Ry
     energy             new  =     -73.7752227221 Ry

     CASE: energy            _new < energy            _old

     new trust radius        =       0.1416236008 bohr
     new conv_thr            =            1.0E-10 Ry


ATOMIC_POSITIONS (angstrom)
C               -0.0000000000        0.0000000000        9.6885813258
C                1.2300000000        0.7101408311        9.6886998989
C                1.2300000000        0.7101408311       13.6613001011
C                0.0000000000        1.4202816622       13.6614186742



     Writing config-only to output data dir /Users/memo/Desktop/New Horizons/Graphene Band Structure QE/outputs/bilayer/data/graphene.save/ :
     XML data file
     NEW-OLD atomic charge density approx. for the potential

     Check: negative core charge=   -0.000003

     negative rho (up, down):  1.439E-04 0.000E+00

     total cpu time spent up to now is      890.5 secs

     Self-consistent Calculation

     iteration #  1     ecut=   100.00 Ry     beta= 0.70
     Davidson diagonalization with overlap

---- Real-time Memory Report at c_bands before calling an iterative solver
             0 MiB given to the printing process from OS
             0 MiB allocation reported by mallinfo(arena+hblkhd)
             0 MiB available memory on the node where the printing process lives
------------------
     ethr =  1.00E-06,  avg # of iterations =  9.9

     negative rho (up, down):  1.453E-04 0.000E+00

     total cpu time spent up to now is      909.1 secs

     total energy              =     -73.76925721 Ry
     estimated scf accuracy    <       0.01664486 Ry

     iteration #  2     ecut=   100.00 Ry     beta= 0.70
     Davidson diagonalization with overlap

---- Real-time Memory Report at c_bands before calling an iterative solver
             0 MiB given to the printing process from OS
             0 MiB allocation reported by mallinfo(arena+hblkhd)
             0 MiB available memory on the node where the printing process lives
------------------
     ethr =  1.04E-04,  avg # of iterations =  3.9

     negative rho (up, down):  1.465E-04 0.000E+00

     total cpu time spent up to now is      918.3 secs

     total energy              =     -73.77175219 Ry
     estimated scf accuracy    <       0.01530324 Ry

     iteration #  3     ecut=   100.00 Ry     beta= 0.70
     Davidson diagonalization with overlap

---- Real-time Memory Report at c_bands before calling an iterative solver
             0 MiB given to the printing process from OS
             0 MiB allocation reported by mallinfo(arena+hblkhd)
             0 MiB available memory on the node where the printing process lives
------------------
     ethr =  9.56E-05,  avg # of iterations =  3.5

     negative rho (up, down):  1.470E-04 0.000E+00

     total cpu time spent up to now is      929.4 secs

     total energy              =     -73.77530157 Ry
     estimated scf accuracy    <       0.00019894 Ry

     iteration #  4     ecut=   100.00 Ry     beta= 0.70
     Davidson diagonalization with overlap

---- Real-time Memory Report at c_bands before calling an iterative solver
             0 MiB given to the printing process from OS
             0 MiB allocation reported by mallinfo(arena+hblkhd)
             0 MiB available memory on the node where the printing process lives
------------------
     ethr =  1.24E-06,  avg # of iterations =  5.6

     negative rho (up, down):  1.473E-04 0.000E+00

     total cpu time spent up to now is      936.6 secs

     total energy              =     -73.77533431 Ry
     estimated scf accuracy    <       0.00000568 Ry

     iteration #  5     ecut=   100.00 Ry     beta= 0.70
     Davidson diagonalization with overlap

---- Real-time Memory Report at c_bands before calling an iterative solver
             0 MiB given to the printing process from OS
             0 MiB allocation reported by mallinfo(arena+hblkhd)
             0 MiB available memory on the node where the printing process lives
------------------
     ethr =  3.55E-08,  avg # of iterations =  3.1

     negative rho (up, down):  1.473E-04 0.000E+00

     total cpu time spent up to now is      945.8 secs

     total energy              =     -73.77533723 Ry
     estimated scf accuracy    <       0.00000050 Ry

     iteration #  6     ecut=   100.00 Ry     beta= 0.70
     Davidson diagonalization with overlap

---- Real-time Memory Report at c_bands before calling an iterative solver
             0 MiB given to the printing process from OS
             0 MiB allocation reported by mallinfo(arena+hblkhd)
             0 MiB available memory on the node where the printing process lives
------------------
     ethr =  3.14E-09,  avg # of iterations =  2.1

     negative rho (up, down):  1.473E-04 0.000E+00

     total cpu time spent up to now is      952.2 secs

     total energy              =     -73.77533730 Ry
     estimated scf accuracy    <       0.00000003 Ry

     iteration #  7     ecut=   100.00 Ry     beta= 0.70
     Davidson diagonalization with overlap

---- Real-time Memory Report at c_bands before calling an iterative solver
             0 MiB given to the printing process from OS
             0 MiB allocation reported by mallinfo(arena+hblkhd)
             0 MiB available memory on the node where the printing process lives
------------------
     ethr =  1.85E-10,  avg # of iterations =  3.1

     negative rho (up, down):  1.473E-04 0.000E+00

     total cpu time spent up to now is      961.0 secs

     total energy              =     -73.77533732 Ry
     estimated scf accuracy    <          2.3E-09 Ry

     iteration #  8     ecut=   100.00 Ry     beta= 0.70
     Davidson diagonalization with overlap

---- Real-time Memory Report at c_bands before calling an iterative solver
             0 MiB given to the printing process from OS
             0 MiB allocation reported by mallinfo(arena+hblkhd)
             0 MiB available memory on the node where the printing process lives
------------------
     ethr =  1.45E-11,  avg # of iterations =  2.3

     negative rho (up, down):  1.473E-04 0.000E+00

     total cpu time spent up to now is      967.5 secs

     End of self-consistent calculation

          k = 0.0000 0.0000 0.0000 ( 14055 PWs)   bands (ev):

   -23.8273 -23.7920 -12.0831 -11.7053  -7.2738  -7.2738  -7.2725  -7.2725
    -0.9961  -0.5618   0.6267   1.6371

     occupation numbers 
     1.0000   1.0000   1.0000   1.0000   1.0000   1.0000   1.0000   1.0000
     0.0000   0.0000   0.0000   0.0000

          k = 0.0000 0.0962 0.0000 ( 14039 PWs)   bands (ev):

   -23.6625 -23.6276 -11.8845 -11.5098  -7.9274  -7.9246  -7.6154  -7.6133
    -0.7751  -0.3372   0.8446   1.8606

     occupation numbers 
     1.0000   1.0000   1.0000   1.0000   1.0000   1.0000   1.0000   1.0000
     0.0000   0.0000   0.0000   0.0000

          k = 0.0000 0.1925 0.0000 ( 14001 PWs)   bands (ev):

   -23.1698 -23.1362 -11.2938 -10.9285  -9.5728  -9.5671  -8.4146  -8.4114
    -0.1121   0.3358   1.4964   2.5298

     occupation numbers 
     1.0000   1.0000   1.0000   1.0000   1.0000   1.0000   1.0000   1.0000
     0.0000   0.0000   0.0000   0.0000

          k = 0.0000 0.2887 0.0000 ( 13973 PWs)   bands (ev):

   -22.3551 -22.3235 -11.6819 -11.6725 -10.3293  -9.9816  -9.3012  -9.2974
     0.9895   1.4469   2.5286   3.0271

     occupation numbers 
     1.0000   1.0000   1.0000   1.0000   1.0000   1.0000   1.0000   1.0000
     0.0000   0.0000   0.0000   0.0000

          k = 0.0000 0.3849 0.0000 ( 13957 PWs)   bands (ev):

   -21.2303 -21.2015 -13.8969 -13.8835 -10.0401 -10.0359  -9.0390  -8.7221
     0.6392   0.7927   2.5141   3.0256

     occupation numbers 
     1.0000   1.0000   1.0000   1.0000   1.0000   1.0000   1.0000   1.0000
     0.0000   0.0000   0.0000   0.0000

          k = 0.0000 0.4811 0.0000 ( 13900 PWs)   bands (ev):

   -19.8258 -19.8008 -16.0090 -15.9919 -10.5164 -10.5120  -7.5761  -7.3247
    -1.5268  -1.3399   3.2914   3.3362

     occupation numbers 
     1.0000   1.0000   1.0000   1.0000   1.0000   1.0000   1.0000   1.0000
     0.0000   0.0000   0.0000   0.0000

          k = 0.0000-0.5774 0.0000 ( 13904 PWs)   bands (ev):

   -18.5431 -18.5311 -17.5253 -17.5158 -10.6799 -10.6754  -6.6633  -6.5420
    -2.6147  -2.4585   3.2109   3.2613

     occupation numbers 
     1.0000   1.0000   1.0000   1.0000   1.0000   1.0000   1.0000   1.0000
     0.0000   0.0000   0.0000   0.0000

          k = 0.0833 0.1443 0.0000 ( 14003 PWs)   bands (ev):

   -23.3338 -23.2997 -11.4898 -11.1212  -8.9645  -8.9618  -8.2981  -8.2962
    -0.3328   0.1118   1.2802   2.3078

     occupation numbers 
     1.0000   1.0000   1.0000   1.0000   1.0000   1.0000   1.0000   1.0000
     0.0000   0.0000   0.0000   0.0000

          k = 0.0833 0.2406 0.0000 ( 14001 PWs)   bands (ev):

   -22.6801 -22.6477 -10.7111 -10.6826 -10.6764 -10.3558  -9.3041  -9.3004
     0.5507   1.0072   2.1452   3.1974

     occupation numbers 
     1.0000   1.0000   1.0000   1.0000   1.0000   1.0000   1.0000   1.0000
     0.0000   0.0000   0.0000   0.0000

          k = 0.0833 0.3368 0.0000 ( 13973 PWs)   bands (ev):

   -21.7101 -21.6802 -12.7672 -12.7564 -10.1968 -10.1917  -9.5776  -9.2457
     1.6759   1.7921   1.8701   2.3732

     occupation numbers 
     1.0000   1.0000   1.0000   1.0000   1.0000   1.0000   1.0000   1.0000
     0.0000   0.0000   0.0000   0.0000

          k = 0.0833 0.4330 0.0000 ( 13937 PWs)   bands (ev):

   -20.4426 -20.4159 -14.9019 -14.8870 -10.8359 -10.8302  -8.1693  -7.8800
    -0.5606  -0.3987   3.5905   4.0438

     occupation numbers 
     1.0000   1.0000   1.0000   1.0000   1.0000   1.0000   1.0000   1.0000
     0.0000   0.0000   0.0000   0.0000

          k = 0.0833 0.5292 0.0000 ( 13904 PWs)   bands (ev):

   -18.9516 -18.9300 -16.8557 -16.8385 -11.1665 -11.1605  -6.8010  -6.6173
    -2.3395  -2.1784   3.9481   4.0043

     occupation numbers 
     1.0000   1.0000   1.0000   1.0000   1.0000   1.0000   1.0000   1.0000
     0.0000   0.0000   0.0000   0.0000

          k = 0.1667 0.2887 0.0000 ( 13969 PWs)   bands (ev):

   -21.8712 -21.8409 -12.0157 -12.0107 -10.6758 -10.6721  -9.7598  -9.4230
     1.6524   2.1211   2.1603   2.2335

     occupation numbers 
     1.0000   1.0000   1.0000   1.0000   1.0000   1.0000   1.0000   1.0000
     0.0000   0.0000   0.0000   0.0000

          k = 0.1667 0.3849 0.0000 ( 13953 PWs)   bands (ev):

   -20.7572 -20.7297 -13.7534 -13.7431 -11.7392 -11.7324  -8.4845  -8.1787
     0.1842   0.2869   3.1809   3.6645

     occupation numbers 
     1.0000   1.0000   1.0000   1.0000   1.0000   1.0000   1.0000   1.0000
     0.0000   0.0000   0.0000   0.0000

          k = 0.1667 0.4811 0.0000 ( 13903 PWs)   bands (ev):

   -19.3728 -19.3490 -15.6770 -15.6617 -12.3181 -12.3094  -7.0200  -6.7743
    -1.7568  -1.6218   5.0985   5.5671

     occupation numbers 
     1.0000   1.0000   1.0000   1.0000   1.0000   1.0000   1.0000   1.0000
     0.0000   0.0000   0.0000   0.0000

          k = 0.1667 0.5774 0.0000 ( 13896 PWs)   bands (ev):

   -18.1206 -18.1092 -17.1214 -17.1131 -12.5038 -12.4947  -6.0607  -5.9418
    -2.8050  -2.7199   5.7391   5.8358

     occupation numbers 
     1.0000   1.0000   1.0000   1.0000   1.0000   1.0000   1.0000   1.0000
     0.0000   0.0000   0.0000   0.0000

          k = 0.2500 0.4330 0.0000 ( 13939 PWs)   bands (ev):

   -19.5218 -19.4975 -14.7879 -14.7804 -13.2331 -13.2274  -7.1139  -6.8490
    -1.4374  -1.3403   4.8925   5.3291

     occupation numbers 
     1.0000   1.0000   1.0000   1.0000   1.0000   1.0000   1.0000   1.0000
     0.0000   0.0000   0.0000   0.0000

          k = 0.2500 0.5292 0.0000 ( 13893 PWs)   bands (ev):

   -18.0888 -18.0693 -16.2209 -16.2081 -13.9453 -13.9357  -5.6801  -5.4971
    -2.9635  -2.8716   6.5208   6.6265

     occupation numbers 
     1.0000   1.0000   1.0000   1.0000   1.0000   1.0000   1.0000   1.0000
     0.0000   0.0000   0.0000   0.0000

          k = 0.3333 0.5774 0.0000 ( 13848 PWs)   bands (ev):

   -16.8637 -16.8543 -16.8543 -16.8442 -14.8487 -14.8487  -4.3340  -4.2251
    -4.2251  -4.1109   6.3525   6.3525

     occupation numbers 
     1.0000   1.0000   1.0000   1.0000   1.0000   1.0000   0.9912   0.4698
     0.4698   0.0691   0.0000   0.0000

     the Fermi energy is    -4.2118 ev

!    total energy              =     -73.77533732 Ry
     total all-electron energy =      -304.831726 Ry
     estimated scf accuracy    <          2.5E-11 Ry
     smearing contrib. (-TS)   =      -0.00009239 Ry
     internal energy E=F+TS    =     -73.77524493 Ry

     The total energy is F=E-TS. E is the sum of the following terms:
     one-electron contribution =   -1157.07192839 Ry
     hartree contribution      =     580.30198401 Ry
     xc contribution           =     -18.57127117 Ry
     ewald contribution        =     546.23502159 Ry
     one-center paw contrib.   =     -24.66905097 Ry
      -> PAW hartree energy AE =      37.91558837 Ry
      -> PAW hartree energy PS =     -37.88083000 Ry
      -> PAW xc energy AE      =     -42.68744469 Ry
      -> PAW xc energy PS      =      17.98363536 Ry
      -> total E_H with PAW    =     580.33674237 Ry
      -> total E_XC with PAW   =     -43.27508050 Ry

     convergence has been achieved in   8 iterations

     negative rho (up, down):  1.473E-04 0.000E+00

     Forces acting on atoms (cartesian axes, Ry/au):

     atom    1 type  1   force =     0.00000000   -0.00000000   -0.00019744
     atom    2 type  1   force =     0.00000000    0.00000000   -0.00006001
     atom    3 type  1   force =     0.00000000    0.00000000    0.00006001
     atom    4 type  1   force =     0.00000000    0.00000000    0.00019744
     The non-local contrib.  to forces
     atom    1 type  1   force =     0.00000000    0.00000000   -0.00028751
     atom    2 type  1   force =     0.00000000   -0.00000000   -0.00015925
     atom    3 type  1   force =     0.00000000    0.00000000    0.00015925
     atom    4 type  1   force =     0.00000000   -0.00000000    0.00028751
     The ionic contribution  to forces
     atom    1 type  1   force =     0.00000000   -0.00000000  -21.48740836
     atom    2 type  1   force =    -0.00000000    0.00000000  -21.48489252
     atom    3 type  1   force =    -0.00000000   -0.00000000   21.48489252
     atom    4 type  1   force =     0.00000000    0.00000000   21.48740836
     The local contribution  to forces
     atom    1 type  1   force =    -0.00000000    0.00000000   21.48750575
     atom    2 type  1   force =    -0.00000000    0.00000000   21.48499181
     atom    3 type  1   force =    -0.00000000    0.00000000  -21.48499181
     atom    4 type  1   force =     0.00000000    0.00000000  -21.48750575
     The core correction contribution to forces
     atom    1 type  1   force =    -0.00000000    0.00000000    0.00000011
     atom    2 type  1   force =     0.00000000   -0.00000000    0.00000740
     atom    3 type  1   force =     0.00000000   -0.00000000   -0.00000740
     atom    4 type  1   force =    -0.00000000   -0.00000000   -0.00000011
     The Hubbard contrib.    to forces
     atom    1 type  1   force =     0.00000000    0.00000000    0.00000000
     atom    2 type  1   force =     0.00000000    0.00000000    0.00000000
     atom    3 type  1   force =     0.00000000    0.00000000    0.00000000
     atom    4 type  1   force =     0.00000000    0.00000000    0.00000000
     The SCF correction term to forces
     atom    1 type  1   force =    -0.00000000   -0.00000000   -0.00000743
     atom    2 type  1   force =     0.00000000    0.00000000   -0.00000745
     atom    3 type  1   force =     0.00000000    0.00000000    0.00000745
     atom    4 type  1   force =    -0.00000000    0.00000000    0.00000743

     Total force =     0.000292     Total SCF correction =     0.000015
     Energy error            =      1.1E-04 Ry
     Gradient error          =      2.0E-04 Ry/Bohr

     number of scf cycles    =  14
     number of bfgs steps    =  13

     energy             old  =     -73.7752227221 Ry
     energy             new  =     -73.7753373157 Ry

     CASE: energy            _new < energy            _old

     new trust radius        =       0.1338204518 bohr
     new conv_thr            =            1.0E-10 Ry


ATOMIC_POSITIONS (angstrom)
C               -0.0000000000        0.0000000000        9.6186408706
C                1.2300000000        0.7101408311        9.6178851655
C                1.2300000000        0.7101408311       13.7321148345
C                0.0000000000        1.4202816622       13.7313591294



     Writing config-only to output data dir /Users/memo/Desktop/New Horizons/Graphene Band Structure QE/outputs/bilayer/data/graphene.save/ :
     XML data file
     NEW-OLD atomic charge density approx. for the potential

     Check: negative core charge=   -0.000003

     negative rho (up, down):  1.366E-04 0.000E+00

     total cpu time spent up to now is      968.8 secs

     Self-consistent Calculation

     iteration #  1     ecut=   100.00 Ry     beta= 0.70
     Davidson diagonalization with overlap

---- Real-time Memory Report at c_bands before calling an iterative solver
             0 MiB given to the printing process from OS
             0 MiB allocation reported by mallinfo(arena+hblkhd)
             0 MiB available memory on the node where the printing process lives
------------------
     ethr =  1.00E-06,  avg # of iterations =  9.2

     negative rho (up, down):  1.381E-04 0.000E+00

     total cpu time spent up to now is      988.0 secs

     total energy              =     -73.76993860 Ry
     estimated scf accuracy    <       0.01493201 Ry

     iteration #  2     ecut=   100.00 Ry     beta= 0.70
     Davidson diagonalization with overlap

---- Real-time Memory Report at c_bands before calling an iterative solver
             0 MiB given to the printing process from OS
             0 MiB allocation reported by mallinfo(arena+hblkhd)
             0 MiB available memory on the node where the printing process lives
------------------
     ethr =  9.33E-05,  avg # of iterations =  3.4

     negative rho (up, down):  1.394E-04 0.000E+00

     total cpu time spent up to now is      996.6 secs

     total energy              =     -73.77215574 Ry
     estimated scf accuracy    <       0.01371518 Ry

     iteration #  3     ecut=   100.00 Ry     beta= 0.70
     Davidson diagonalization with overlap

---- Real-time Memory Report at c_bands before calling an iterative solver
             0 MiB given to the printing process from OS
             0 MiB allocation reported by mallinfo(arena+hblkhd)
             0 MiB available memory on the node where the printing process lives
------------------
     ethr =  8.57E-05,  avg # of iterations =  3.5

     negative rho (up, down):  1.400E-04 0.000E+00

     total cpu time spent up to now is     1004.8 secs

     total energy              =     -73.77534627 Ry
     estimated scf accuracy    <       0.00018156 Ry

     iteration #  4     ecut=   100.00 Ry     beta= 0.70
     Davidson diagonalization with overlap

---- Real-time Memory Report at c_bands before calling an iterative solver
             0 MiB given to the printing process from OS
             0 MiB allocation reported by mallinfo(arena+hblkhd)
             0 MiB available memory on the node where the printing process lives
------------------
     ethr =  1.13E-06,  avg # of iterations =  5.3

     negative rho (up, down):  1.402E-04 0.000E+00

     total cpu time spent up to now is     1012.6 secs

     total energy              =     -73.77537584 Ry
     estimated scf accuracy    <       0.00000525 Ry

     iteration #  5     ecut=   100.00 Ry     beta= 0.70
     Davidson diagonalization with overlap

---- Real-time Memory Report at c_bands before calling an iterative solver
             0 MiB given to the printing process from OS
             0 MiB allocation reported by mallinfo(arena+hblkhd)
             0 MiB available memory on the node where the printing process lives
------------------
     ethr =  3.28E-08,  avg # of iterations =  2.9

     negative rho (up, down):  1.402E-04 0.000E+00

     total cpu time spent up to now is     1018.3 secs

     total energy              =     -73.77537851 Ry
     estimated scf accuracy    <       0.00000053 Ry

     iteration #  6     ecut=   100.00 Ry     beta= 0.70
     Davidson diagonalization with overlap

---- Real-time Memory Report at c_bands before calling an iterative solver
             0 MiB given to the printing process from OS
             0 MiB allocation reported by mallinfo(arena+hblkhd)
             0 MiB available memory on the node where the printing process lives
------------------
     ethr =  3.29E-09,  avg # of iterations =  2.1

     negative rho (up, down):  1.402E-04 0.000E+00

     total cpu time spent up to now is     1024.3 secs

     total energy              =     -73.77537863 Ry
     estimated scf accuracy    <          4.5E-09 Ry

     iteration #  7     ecut=   100.00 Ry     beta= 0.70
     Davidson diagonalization with overlap

---- Real-time Memory Report at c_bands before calling an iterative solver
             0 MiB given to the printing process from OS
             0 MiB allocation reported by mallinfo(arena+hblkhd)
             0 MiB available memory on the node where the printing process lives
------------------
     ethr =  2.80E-11,  avg # of iterations =  4.4

     negative rho (up, down):  1.402E-04 0.000E+00

     total cpu time spent up to now is     1031.8 secs

     total energy              =     -73.77537863 Ry
     estimated scf accuracy    <          1.1E-09 Ry

     iteration #  8     ecut=   100.00 Ry     beta= 0.70
     Davidson diagonalization with overlap

---- Real-time Memory Report at c_bands before calling an iterative solver
             0 MiB given to the printing process from OS
             0 MiB allocation reported by mallinfo(arena+hblkhd)
             0 MiB available memory on the node where the printing process lives
------------------
     ethr =  6.67E-12,  avg # of iterations =  2.0

     negative rho (up, down):  1.402E-04 0.000E+00

     total cpu time spent up to now is     1036.7 secs

     End of self-consistent calculation

          k = 0.0000 0.0000 0.0000 ( 14055 PWs)   bands (ev):

   -23.8214 -23.7961 -12.0453 -11.7420  -7.2728  -7.2728  -7.2720  -7.2720
    -1.0234  -0.5603   0.5481   1.7296

     occupation numbers 
     1.0000   1.0000   1.0000   1.0000   1.0000   1.0000   1.0000   1.0000
     0.0000   0.0000   0.0000   0.0000

          k = 0.0000 0.0962 0.0000 ( 14039 PWs)   bands (ev):

   -23.6567 -23.6316 -11.8469 -11.5461  -7.9262  -7.9244  -7.6143  -7.6129
    -0.8026  -0.3358   0.7662   1.9528

     occupation numbers 
     1.0000   1.0000   1.0000   1.0000   1.0000   1.0000   1.0000   1.0000
     0.0000   0.0000   0.0000   0.0000

          k = 0.0000 0.1925 0.0000 ( 14001 PWs)   bands (ev):

   -23.1642 -23.1401 -11.2569 -10.9640  -9.5711  -9.5673  -8.4133  -8.4112
    -0.1402   0.3368   1.4182   2.6206

     occupation numbers 
     1.0000   1.0000   1.0000   1.0000   1.0000   1.0000   1.0000   1.0000
     0.0000   0.0000   0.0000   0.0000

          k = 0.0000 0.2887 0.0000 ( 13973 PWs)   bands (ev):

   -22.3497 -22.3272 -11.6797 -11.6732 -10.2938 -10.0155  -9.2998  -9.2973
     0.9604   1.4475   2.4509   3.0441

     occupation numbers 
     1.0000   1.0000   1.0000   1.0000   1.0000   1.0000   1.0000   1.0000
     0.0000   0.0000   0.0000   0.0000

          k = 0.0000 0.3849 0.0000 ( 13957 PWs)   bands (ev):

   -21.2252 -21.2048 -13.8941 -13.8848 -10.0386 -10.0359  -9.0058  -8.7532
     0.6572   0.7769   2.4845   3.0239

     occupation numbers 
     1.0000   1.0000   1.0000   1.0000   1.0000   1.0000   1.0000   1.0000
     0.0000   0.0000   0.0000   0.0000

          k = 0.0000 0.4811 0.0000 ( 13900 PWs)   bands (ev):

   -19.8213 -19.8036 -16.0056 -15.9937 -10.5149 -10.5120  -7.5486  -7.3493
    -1.5067  -1.3579   3.2987   3.3305

     occupation numbers 
     1.0000   1.0000   1.0000   1.0000   1.0000   1.0000   1.0000   1.0000
     0.0000   0.0000   0.0000   0.0000

          k = 0.0000-0.5774 0.0000 ( 13904 PWs)   bands (ev):

   -18.5404 -18.5320 -17.5231 -17.5164 -10.6784 -10.6755  -6.6472  -6.5531
    -2.6010  -2.4720   3.2186   3.2555

     occupation numbers 
     1.0000   1.0000   1.0000   1.0000   1.0000   1.0000   1.0000   1.0000
     0.0000   0.0000   0.0000   0.0000

          k = 0.0833 0.1443 0.0000 ( 14003 PWs)   bands (ev):

   -23.3280 -23.3037 -11.4526 -11.1570  -8.9633  -8.9615  -8.2970  -8.2958
    -0.3607   0.1130   1.2019   2.3993

     occupation numbers 
     1.0000   1.0000   1.0000   1.0000   1.0000   1.0000   1.0000   1.0000
     0.0000   0.0000   0.0000   0.0000

          k = 0.0833 0.2406 0.0000 ( 14001 PWs)   bands (ev):

   -22.6746 -22.6514 -10.6815 -10.6767 -10.6743 -10.3905  -9.3028  -9.3003
     0.5221   1.0079   2.0666   3.2871

     occupation numbers 
     1.0000   1.0000   1.0000   1.0000   1.0000   1.0000   1.0000   1.0000
     0.0000   0.0000   0.0000   0.0000

          k = 0.0833 0.3368 0.0000 ( 13973 PWs)   bands (ev):

   -21.7050 -21.6837 -12.7647 -12.7573 -10.1952 -10.1918  -9.5433  -9.2782
     1.6896   1.7781   1.8424   2.3728

     occupation numbers 
     1.0000   1.0000   1.0000   1.0000   1.0000   1.0000   1.0000   1.0000
     0.0000   0.0000   0.0000   0.0000

          k = 0.0833 0.4330 0.0000 ( 13937 PWs)   bands (ev):

   -20.4379 -20.4189 -14.8988 -14.8884 -10.8342 -10.8304  -8.1385  -7.9085
    -0.5419  -0.4147   3.5611   4.0445

     occupation numbers 
     1.0000   1.0000   1.0000   1.0000   1.0000   1.0000   1.0000   1.0000
     0.0000   0.0000   0.0000   0.0000

          k = 0.0833 0.5292 0.0000 ( 13904 PWs)   bands (ev):

   -18.9476 -18.9323 -16.8524 -16.8403 -11.1647 -11.1607  -6.7794  -6.6348
    -2.3235  -2.1931   3.9564   3.9981

     occupation numbers 
     1.0000   1.0000   1.0000   1.0000   1.0000   1.0000   1.0000   1.0000
     0.0000   0.0000   0.0000   0.0000

          k = 0.1667 0.2887 0.0000 ( 13969 PWs)   bands (ev):

   -21.8660 -21.8443 -12.0141 -12.0107 -10.6745 -10.6720  -9.7250  -9.4559
     1.6229   2.1212   2.1707   2.2265

     occupation numbers 
     1.0000   1.0000   1.0000   1.0000   1.0000   1.0000   1.0000   1.0000
     0.0000   0.0000   0.0000   0.0000

          k = 0.1667 0.3849 0.0000 ( 13953 PWs)   bands (ev):

   -20.7524 -20.7328 -13.7510 -13.7439 -11.7374 -11.7327  -8.4523  -8.2088
     0.1977   0.2767   3.1501   3.6645

     occupation numbers 
     1.0000   1.0000   1.0000   1.0000   1.0000   1.0000   1.0000   1.0000
     0.0000   0.0000   0.0000   0.0000

          k = 0.1667 0.4811 0.0000 ( 13903 PWs)   bands (ev):

   -19.3685 -19.3516 -15.6739 -15.6632 -12.3159 -12.3100  -6.9929  -6.7985
    -1.7410  -1.6347   5.0665   5.5699

     occupation numbers 
     1.0000   1.0000   1.0000   1.0000   1.0000   1.0000   1.0000   1.0000
     0.0000   0.0000   0.0000   0.0000

          k = 0.1667 0.5774 0.0000 ( 13896 PWs)   bands (ev):

   -18.1180 -18.1100 -17.1194 -17.1135 -12.5016 -12.4954  -6.0448  -5.9526
    -2.7978  -2.7263   5.7511   5.8276

     occupation numbers 
     1.0000   1.0000   1.0000   1.0000   1.0000   1.0000   1.0000   1.0000
     0.0000   0.0000   0.0000   0.0000

          k = 0.2500 0.4330 0.0000 ( 13939 PWs)   bands (ev):

   -19.5174 -19.5002 -14.7859 -14.7807 -13.2315 -13.2275  -7.0851  -6.8752
    -1.4243  -1.3499   4.8589   5.3319

     occupation numbers 
     1.0000   1.0000   1.0000   1.0000   1.0000   1.0000   1.0000   1.0000
     0.0000   0.0000   0.0000   0.0000

          k = 0.2500 0.5292 0.0000 ( 13893 PWs)   bands (ev):

   -18.0850 -18.0714 -16.2181 -16.2092 -13.9431 -13.9364  -5.6586  -5.5148
    -2.9519  -2.8807   6.4934   6.6437

     occupation numbers 
     1.0000   1.0000   1.0000   1.0000   1.0000   1.0000   1.0000   1.0000
     0.0000   0.0000   0.0000   0.0000

          k = 0.3333 0.5774 0.0000 ( 13848 PWs)   bands (ev):

   -16.8600 -16.8534 -16.8534 -16.8464 -14.8479 -14.8479  -4.3075  -4.2230
    -4.2230  -4.1351   6.3577   6.3577

     occupation numbers 
     1.0000   1.0000   1.0000   1.0000   1.0000   1.0000   0.9138   0.4805
     0.4805   0.1253   0.0000   0.0000

     the Fermi energy is    -4.2076 ev

!    total energy              =     -73.77537863 Ry
     total all-electron energy =      -304.831768 Ry
     estimated scf accuracy    <          3.6E-11 Ry
     smearing contrib. (-TS)   =      -0.00011906 Ry
     internal energy E=F+TS    =     -73.77525957 Ry

     The total energy is F=E-TS. E is the sum of the following terms:
     one-electron contribution =   -1134.21293593 Ry
     hartree contribution      =     568.87277612 Ry
     xc contribution           =     -18.57090026 Ry
     ewald contribution        =     534.80484451 Ry
     one-center paw contrib.   =     -24.66904401 Ry
      -> PAW hartree energy AE =      37.91543328 Ry
      -> PAW hartree energy PS =     -37.88067549 Ry
      -> PAW xc energy AE      =     -42.68740097 Ry
      -> PAW xc energy PS      =      17.98359917 Ry
      -> total E_H with PAW    =     568.90753391 Ry
      -> total E_XC with PAW   =     -43.27470206 Ry

     convergence has been achieved in   8 iterations

     negative rho (up, down):  1.402E-04 0.000E+00

     Forces acting on atoms (cartesian axes, Ry/au):

     atom    1 type  1   force =     0.00000000    0.00000000   -0.00068813
     atom    2 type  1   force =     0.00000000    0.00000000    0.00048809
     atom    3 type  1   force =     0.00000000   -0.00000000   -0.00048809
     atom    4 type  1   force =     0.00000000   -0.00000000    0.00068813
     The non-local contrib.  to forces
     atom    1 type  1   force =     0.00000000   -0.00000000   -0.00120208
     atom    2 type  1   force =     0.00000000    0.00000000    0.00088254
     atom    3 type  1   force =     0.00000000   -0.00000000   -0.00088254
     atom    4 type  1   force =    -0.00000000   -0.00000000    0.00120208
     The ionic contribution  to forces
     atom    1 type  1   force =     0.00000000   -0.00000000  -21.47540332
     atom    2 type  1   force =    -0.00000000    0.00000000  -21.49698524
     atom    3 type  1   force =    -0.00000000   -0.00000000   21.49698524
     atom    4 type  1   force =     0.00000000    0.00000000   21.47540332
     The local contribution  to forces
     atom    1 type  1   force =    -0.00000000    0.00000000   21.47597672
     atom    2 type  1   force =    -0.00000000    0.00000000   21.49666756
     atom    3 type  1   force =    -0.00000000    0.00000000  -21.49666756
     atom    4 type  1   force =    -0.00000000    0.00000000  -21.47597672
     The core correction contribution to forces
     atom    1 type  1   force =     0.00000000    0.00000000   -0.00004893
     atom    2 type  1   force =     0.00000000   -0.00000000   -0.00006631
     atom    3 type  1   force =     0.00000000   -0.00000000    0.00006631
     atom    4 type  1   force =    -0.00000000   -0.00000000    0.00004893
     The Hubbard contrib.    to forces
     atom    1 type  1   force =     0.00000000    0.00000000    0.00000000
     atom    2 type  1   force =     0.00000000    0.00000000    0.00000000
     atom    3 type  1   force =     0.00000000    0.00000000    0.00000000
     atom    4 type  1   force =     0.00000000    0.00000000    0.00000000
     The SCF correction term to forces
     atom    1 type  1   force =     0.00000000   -0.00000000   -0.00001051
     atom    2 type  1   force =    -0.00000000   -0.00000000   -0.00001046
     atom    3 type  1   force =    -0.00000000   -0.00000000    0.00001046
     atom    4 type  1   force =     0.00000000    0.00000000    0.00001051

     Total force =     0.001193     Total SCF correction =     0.000021
     Energy error            =      4.1E-05 Ry
     Gradient error          =      6.9E-04 Ry/Bohr

     bfgs converged in  15 scf cycles and  14 bfgs steps
     (criteria: energy <  1.0E-04 Ry, force <  1.0E-03 Ry/Bohr)

     End of BFGS Geometry Optimization

     Final energy             =     -73.7753786324 Ry

     File /Users/memo/Desktop/New Horizons/Graphene Band Structure QE/outputs/bilayer/data/graphene.bfgs deleted, as requested
Begin final coordinates

ATOMIC_POSITIONS (angstrom)
C               -0.0000000000        0.0000000000        9.6186408706
C                1.2300000000        0.7101408311        9.6178851655
C                1.2300000000        0.7101408311       13.7321148345
C                0.0000000000        1.4202816622       13.7313591294
End final coordinates



     Writing all to output data dir /Users/memo/Desktop/New Horizons/Graphene Band Structure QE/outputs/bilayer/data/graphene.save/ :
     XML data file, charge density, pseudopotentials, collected wavefunctions

     init_run     :     46.62s CPU     13.90s WALL (       1 calls)
     electrons    :   5541.47s CPU    994.06s WALL (      15 calls)
     update_pot   :     12.97s CPU      3.01s WALL (      14 calls)
     forces       :    106.26s CPU     18.41s WALL (      15 calls)

     Called by init_run:
     wfcinit      :     40.26s CPU     10.92s WALL (       1 calls)
     wfcinit:atom :      0.25s CPU      0.06s WALL (      19 calls)
     wfcinit:wfcr :     38.05s CPU     10.39s WALL (      19 calls)
     potinit      :      0.85s CPU      0.32s WALL (       1 calls)
     hinit0       :      3.58s CPU      2.09s WALL (       1 calls)

     Called by electrons:
     c_bands      :   4509.35s CPU    818.63s WALL (     107 calls)
     sum_band     :    861.67s CPU    145.17s WALL (     107 calls)
     v_of_rho     :     36.54s CPU      6.66s WALL (     119 calls)
     v_h          :      2.46s CPU      0.45s WALL (     119 calls)
     v_xc         :     38.02s CPU      6.98s WALL (     134 calls)
     newd         :     72.67s CPU     13.15s WALL (     119 calls)
     PAW_pot      :     83.26s CPU     15.64s WALL (     133 calls)
     mix_rho      :      7.02s CPU      1.32s WALL (     107 calls)

     Called by c_bands:
     init_us_2    :    126.81s CPU     21.16s WALL (    4636 calls)
     cegterg      :   4367.28s CPU    794.76s WALL (    2033 calls)

     Called by sum_band:
     sum_band:wei :      0.20s CPU      0.03s WALL (     107 calls)
     sum_band:loo :    797.69s CPU    134.07s WALL (     107 calls)
     sum_band:buf :      2.61s CPU      0.43s WALL (    2033 calls)
     sum_band:ini :     57.79s CPU      9.26s WALL (    2033 calls)
     sum_band:cal :    119.50s CPU     20.41s WALL (    2299 calls)
     sum_band:bec :      1.93s CPU      0.05s WALL (    2299 calls)
     addusdens    :     52.38s CPU      9.10s WALL (     107 calls)
                                        0.00s GPU  (     107 calls)
     addusd:skk   :      1.05s CPU      0.17s WALL (     107 calls)
                                        0.00s GPU  (     107 calls)

     Called by *egterg:
     cdiaghg      :     17.60s CPU      2.67s WALL (    8227 calls)
     cegterg:over :     62.31s CPU      9.40s WALL (    6517 calls)
     cegterg:upda :     41.88s CPU      7.57s WALL (    6517 calls)
     cegterg:last :     90.96s CPU     14.65s WALL (    4794 calls)
     h_psi        :   4070.94s CPU    752.06s WALL (    8569 calls)
     s_psi        :     54.16s CPU      8.89s WALL (    8569 calls)
     g_psi        :     22.90s CPU      3.29s WALL (    6517 calls)

     Called by h_psi:
     h_psi:calbec :    431.93s CPU     81.03s WALL (    8569 calls)
     vloc_psi     :   3563.49s CPU    660.97s WALL (    8569 calls)
                                        0.00s GPU  (    8569 calls)
     add_vuspsi   :     65.24s CPU      9.07s WALL (    8569 calls)

     General routines
     calbec       :    617.96s CPU    113.76s WALL (   12008 calls)
     fft          :     15.32s CPU      4.15s WALL (    1491 calls)
     ffts         :      1.04s CPU      0.16s WALL (     107 calls)
     fftw         :   3742.07s CPU    710.89s WALL (  164158 calls)

     Parallel routines

     PAW routines
     PAW_pot      :     83.26s CPU     15.64s WALL (     133 calls)
     PAW_symme    :      0.08s CPU      0.01s WALL (     240 calls)

     PWSCF        :      1h35m CPU  17m17.62s WALL


   This run was terminated on:   0:32: 8  30Aug2026            

=------------------------------------------------------------------------------=
   JOB DONE.
=------------------------------------------------------------------------------=
