&CONTROL
   calculation      = 'scf'
   verbosity        = 'high'
   tprnfor          = .true.
   outdir           = '/Users/memo/Desktop/New Horizons/Graphene Band Structure QE/outputs/bilayer/data'
   prefix           = 'graphene'
   pseudo_dir       = '/Users/memo/Desktop/New Horizons/Graphene Band Structure QE/pseudo'
/
&SYSTEM
   nbnd             = 12
   ecutwfc          = 100.0
   ecutrho          = 400.0
   occupations      = 'smearing'
   degauss          = 0.01
   smearing         = 'mv'
   assume_isolated  = '2D'
   ntyp             = 1
   nat              = 4
   ibrav            = 0
/
&ELECTRONS
   electron_maxstep = 200
   conv_thr         = 1e-08
   mixing_beta      = 0.7
/
&IONS
/
&CELL
/
&FCP
/
&RISM
/
ATOMIC_SPECIES
C 12.011 C.pbe-n-kjpaw_psl.1.0.0.UPF

K_POINTS automatic
12 12 1  0 0 0

CELL_PARAMETERS angstrom
2.45999984708052 0.00000000000000 0.00000000000000
-1.22999992354026 2.13042136756791 0.00000000000000
0.00000000000000 0.00000000000000 23.34999874850822

ATOMIC_POSITIONS angstrom
C 0.0000000000 0.0000000000 9.6186408706  
C 1.2300000000 0.7101408311 9.6178851655  
C 1.2300000000 0.7101408311 13.7321148345  
C 0.0000000000 1.4202816622 13.7313591294  

