
     Program PWSCF v.7.5 starts on 30Aug2026 at  0:32:11 

     This program is part of the open-source Quantum ESPRESSO suite
     for quantum simulation of materials; please cite
         "P. Giannozzi et al., J. Phys.:Condens. Matter 21 395502 (2009);
         "P. Giannozzi et al., J. Phys.:Condens. Matter 29 465901 (2017);
         "P. Giannozzi et al., J. Chem. Phys. 152 154105 (2020);
          URL http://www.quantum-espresso.org", 
     in publications or presentations arising from this work. More details at
     http://www.quantum-espresso.org/quote

     Parallel version (MPI & OpenMP), running on       8 processor cores
     Number of MPI processes:                 1
     Threads/MPI process:                     8

     MPI processes distributed on     1 nodes
     0 MiB available memory on the printing compute node when the environment starts

     Waiting for input...
     Reading input from standard input
Warning: card &CELL ignored
Warning: card &FCP ignored
Warning: card &RISM ignored

     Current dimensions of program PWSCF are:
     Max number of different atomic species (ntypx) = 10
     Max number of k-points (npk) =  40000
     Max angular momentum in pseudopotentials (lmaxx) =  4
     file C.pbe-n-kjpaw_psl.1.0.0.UPF: wavefunction(s)  2S 2P renormalized
     Message from routine setup:
     using ibrav=0 with symmetry is DISCOURAGED, use correct ibrav instead

     Subspace diagonalization in iterative solution of the eigenvalue problem:
     a serial algorithm will be used


     G-vector sticks info
     --------------------
     sticks:   dense  smooth     PW     G-vecs:    dense   smooth      PW
     Sum         595     595    169               111671   111671   17805

     Using Slab Decomposition



     bravais-lattice index     =            0
     lattice parameter (alat)  =       4.6487  a.u.
     unit-cell volume          =     825.8174 (a.u.)^3
     number of atoms/cell      =            4
     number of atomic types    =            1
     number of electrons       =        16.00
     number of Kohn-Sham states=           12
     kinetic-energy cutoff     =     100.0000  Ry
     charge density cutoff     =     400.0000  Ry
     scf convergence threshold =      1.0E-08
     mixing beta               =       0.7000
     number of iterations used =            8  plain     mixing
     Exchange-correlation= SLA  PW   PBX  PBC
                           (   1   4   3   4   0   0   0)

     celldm(1)=   4.648726  celldm(2)=   0.000000  celldm(3)=   0.000000
     celldm(4)=   0.000000  celldm(5)=   0.000000  celldm(6)=   0.000000

     crystal axes: (cart. coord. in units of alat)
               a(1) = (   1.000000   0.000000   0.000000 )  
               a(2) = (  -0.500000   0.866025   0.000000 )  
               a(3) = (   0.000000   0.000000   9.491870 )  

     reciprocal axes: (cart. coord. in units 2 pi/alat)
               b(1) = (  1.000000  0.577351 -0.000000 )  
               b(2) = (  0.000000  1.154701  0.000000 )  
               b(3) = (  0.000000 -0.000000  0.105353 )  


     PseudoPot. # 1 for C  read from file:
     /Users/memo/Desktop/New Horizons/Graphene Band Structure QE/pseudo/C.pbe-n-kjpaw_psl.1.0.0.UPF
     MD5 check sum: 5f16ad9a65e90284d1d834d4ab3b0f7d
     Pseudo is Projector augmented-wave + core cor, Zval =  4.0
     Generated using &quot;atomic&quot; code by A. Dal Corso  v.6.3
     Shape of augmentation charge: PSQ
     Using radial grid of 1073 points,  4 beta functions with: 
                l(1) =   0
                l(2) =   0
                l(3) =   1
                l(4) =   1
     Q(r) pseudized with 0 coefficients 


     atomic species   valence    mass     pseudopotential
     C                 4.00    12.01100     C ( 1.00)

     12 Sym. Ops., with inversion, found ( 6 have fractional translation)


                                    s                        frac. trans.

      isym =  1     identity                                     

 cryst.   s( 1) = (     1          0          0      )
                  (     0          1          0      )
                  (     0          0          1      )

 cart.    s( 1) = (  1.0000000  0.0000000  0.0000000 )
                  (  0.0000000  1.0000000  0.0000000 )
                  (  0.0000000  0.0000000  1.0000000 )


      isym =  2     180 deg rotation - cart. axis [1,0,0]        

 cryst.   s( 2) = (     1          0          0      )    f =( -0.3333335 )
                  (    -1         -1          0      )       (  0.3333330 )
                  (     0          0         -1      )       ( -0.0000001 )

 cart.    s( 2) = (  1.0000000  0.0000000  0.0000000 )    f =( -0.5000000 )
                  (  0.0000000 -1.0000000  0.0000000 )       (  0.2886747 )
                  (  0.0000000  0.0000000 -1.0000000 )       ( -0.0000005 )


      isym =  3     120 deg rotation - cryst. axis [0,0,1]       

 cryst.   s( 3) = (     0          1          0      )
                  (    -1         -1          0      )
                  (     0          0          1      )

 cart.    s( 3) = ( -0.5000000 -0.8660258  0.0000000 )
                  (  0.8660250 -0.5000000  0.0000000 )
                  (  0.0000000  0.0000000  1.0000000 )


      isym =  4     120 deg rotation - cryst. axis [0,0,-1]      

 cryst.   s( 4) = (    -1         -1          0      )
                  (     1          0          0      )
                  (     0          0          1      )

 cart.    s( 4) = ( -0.5000000  0.8660258  0.0000000 )
                  ( -0.8660250 -0.5000000  0.0000000 )
                  (  0.0000000  0.0000000  1.0000000 )


      isym =  5     180 deg rotation - cryst. axis [0,1,0]       

 cryst.   s( 5) = (    -1         -1          0      )    f =( -0.3333335 )
                  (     0          1          0      )       (  0.3333335 )
                  (     0          0         -1      )       ( -0.0000001 )

 cart.    s( 5) = ( -0.5000000 -0.8660258  0.0000000 )    f =( -0.5000003 )
                  ( -0.8660250  0.5000000  0.0000000 )       (  0.2886752 )
                  (  0.0000000  0.0000000 -1.0000000 )       ( -0.0000005 )


      isym =  6     180 deg rotation - cryst. axis [1,1,0]       

 cryst.   s( 6) = (     0          1          0      )    f =( -0.3333330 )
                  (     1          0          0      )       (  0.3333335 )
                  (     0          0         -1      )       ( -0.0000001 )

 cart.    s( 6) = ( -0.5000000  0.8660258  0.0000000 )    f =( -0.4999997 )
                  (  0.8660250  0.5000000  0.0000000 )       (  0.2886752 )
                  (  0.0000000  0.0000000 -1.0000000 )       ( -0.0000005 )


      isym =  7     inversion                                    

 cryst.   s( 7) = (    -1          0          0      )    f =( -0.3333335 )
                  (     0         -1          0      )       (  0.3333330 )
                  (     0          0         -1      )       ( -0.0000001 )

 cart.    s( 7) = ( -1.0000000  0.0000000  0.0000000 )    f =( -0.5000000 )
                  (  0.0000000 -1.0000000  0.0000000 )       (  0.2886747 )
                  (  0.0000000  0.0000000 -1.0000000 )       ( -0.0000005 )


      isym =  8     inv. 180 deg rotation - cart. axis [1,0,0]   

 cryst.   s( 8) = (    -1          0          0      )
                  (     1          1          0      )
                  (     0          0          1      )

 cart.    s( 8) = ( -1.0000000  0.0000000  0.0000000 )
                  (  0.0000000  1.0000000  0.0000000 )
                  (  0.0000000  0.0000000  1.0000000 )


      isym =  9     inv. 120 deg rotation - cryst. axis [0,0,1]  

 cryst.   s( 9) = (     0         -1          0      )    f =( -0.3333330 )
                  (     1          1          0      )       (  0.3333335 )
                  (     0          0         -1      )       ( -0.0000001 )

 cart.    s( 9) = (  0.5000000  0.8660258  0.0000000 )    f =( -0.4999997 )
                  ( -0.8660250  0.5000000  0.0000000 )       (  0.2886752 )
                  (  0.0000000  0.0000000 -1.0000000 )       ( -0.0000005 )


      isym = 10     inv. 120 deg rotation - cryst. axis [0,0,-1] 

 cryst.   s(10) = (     1          1          0      )    f =( -0.3333335 )
                  (    -1          0          0      )       (  0.3333335 )
                  (     0          0         -1      )       ( -0.0000001 )

 cart.    s(10) = (  0.5000000 -0.8660258  0.0000000 )    f =( -0.5000003 )
                  (  0.8660250  0.5000000  0.0000000 )       (  0.2886752 )
                  (  0.0000000  0.0000000 -1.0000000 )       ( -0.0000005 )


      isym = 11     inv. 180 deg rotation - cryst. axis [0,1,0]  

 cryst.   s(11) = (     1          1          0      )
                  (     0         -1          0      )
                  (     0          0          1      )

 cart.    s(11) = (  0.5000000  0.8660258  0.0000000 )
                  (  0.8660250 -0.5000000  0.0000000 )
                  (  0.0000000  0.0000000  1.0000000 )


      isym = 12     inv. 180 deg rotation - cryst. axis [1,1,0]  

 cryst.   s(12) = (     0         -1          0      )
                  (    -1          0          0      )
                  (     0          0          1      )

 cart.    s(12) = (  0.5000000 -0.8660258  0.0000000 )
                  ( -0.8660250 -0.5000000  0.0000000 )
                  (  0.0000000  0.0000000  1.0000000 )


   Cartesian axes

     site n.     atom                  positions (alat units)
         1        C      tau(   1) = (   0.0000000   0.0000000   3.9100169  )
         2        C      tau(   2) = (   0.5000000   0.2886752   3.9097097  )
         3        C      tau(   3) = (   0.5000000   0.2886752   5.5821608  )
         4        C      tau(   4) = (   0.0000000   0.5773503   5.5818537  )

   Crystallographic axes

     site n.     atom                  positions (cryst. coord.)
         1        C      tau(   1) = (  0.0000000  0.0000000  0.4119332  )
         2        C      tau(   2) = (  0.6666668  0.3333335  0.4119009  )
         3        C      tau(   3) = (  0.6666668  0.3333335  0.5880992  )
         4        C      tau(   4) = (  0.3333335  0.6666670  0.5880668  )

     number of k points=    19  Marzari-Vanderbilt smearing, width (Ry)=  0.0100
                       cart. coord. in units 2pi/alat
        k(    1) = (   0.0000000   0.0000000   0.0000000), wk =   0.0138889
        k(    2) = (   0.0000000   0.0962251   0.0000000), wk =   0.0833333
        k(    3) = (   0.0000000   0.1924502   0.0000000), wk =   0.0833333
        k(    4) = (   0.0000000   0.2886753   0.0000000), wk =   0.0833333
        k(    5) = (   0.0000000   0.3849004   0.0000000), wk =   0.0833333
        k(    6) = (   0.0000000   0.4811254   0.0000000), wk =   0.0833333
        k(    7) = (   0.0000000  -0.5773505   0.0000000), wk =   0.0416667
        k(    8) = (   0.0833333   0.1443376   0.0000000), wk =   0.0833333
        k(    9) = (   0.0833333   0.2405627   0.0000000), wk =   0.1666667
        k(   10) = (   0.0833333   0.3367878   0.0000000), wk =   0.1666667
        k(   11) = (   0.0833333   0.4330129   0.0000000), wk =   0.1666667
        k(   12) = (   0.0833333   0.5292380   0.0000000), wk =   0.1666667
        k(   13) = (   0.1666667   0.2886753   0.0000000), wk =   0.0833333
        k(   14) = (   0.1666667   0.3849004   0.0000000), wk =   0.1666667
        k(   15) = (   0.1666667   0.4811254   0.0000000), wk =   0.1666667
        k(   16) = (   0.1666667   0.5773505   0.0000000), wk =   0.0833333
        k(   17) = (   0.2500000   0.4330129   0.0000000), wk =   0.0833333
        k(   18) = (   0.2500000   0.5292380   0.0000000), wk =   0.1666667
        k(   19) = (   0.3333333   0.5773505   0.0000000), wk =   0.0277778

                       cryst. coord.
        k(    1) = (   0.0000000   0.0000000   0.0000000), wk =   0.0138889
        k(    2) = (   0.0000000   0.0833333   0.0000000), wk =   0.0833333
        k(    3) = (   0.0000000   0.1666667   0.0000000), wk =   0.0833333
        k(    4) = (   0.0000000   0.2500000   0.0000000), wk =   0.0833333
        k(    5) = (   0.0000000   0.3333333   0.0000000), wk =   0.0833333
        k(    6) = (   0.0000000   0.4166667   0.0000000), wk =   0.0833333
        k(    7) = (   0.0000000  -0.5000000   0.0000000), wk =   0.0416667
        k(    8) = (   0.0833333   0.0833333   0.0000000), wk =   0.0833333
        k(    9) = (   0.0833333   0.1666667   0.0000000), wk =   0.1666667
        k(   10) = (   0.0833333   0.2500000   0.0000000), wk =   0.1666667
        k(   11) = (   0.0833333   0.3333333   0.0000000), wk =   0.1666667
        k(   12) = (   0.0833333   0.4166667   0.0000000), wk =   0.1666667
        k(   13) = (   0.1666667   0.1666667   0.0000000), wk =   0.0833333
        k(   14) = (   0.1666667   0.2500000   0.0000000), wk =   0.1666667
        k(   15) = (   0.1666667   0.3333333   0.0000000), wk =   0.1666667
        k(   16) = (   0.1666667   0.4166667   0.0000000), wk =   0.0833333
        k(   17) = (   0.2500000   0.2500000   0.0000000), wk =   0.0833333
        k(   18) = (   0.2500000   0.3333333   0.0000000), wk =   0.1666667
        k(   19) = (   0.3333333   0.3333333   0.0000000), wk =   0.0277778

     Dense  grid:   111671 G-vectors     FFT dimensions: (  30,  30, 288)

     Dynamical RAM for                 wfc:       2.55 MB

     Dynamical RAM for     wfc (w. buffer):      51.07 MB

     Dynamical RAM for           str. fact:       1.70 MB

     Dynamical RAM for           local pot:       0.00 MB

     Dynamical RAM for          nlocal pot:       6.81 MB

     Dynamical RAM for                qrad:       0.46 MB

     Dynamical RAM for          rho,v,vnew:      11.04 MB

     Dynamical RAM for               rhoin:       3.68 MB

     Dynamical RAM for            rho*nmix:      27.26 MB

     Dynamical RAM for           G-vectors:       7.24 MB

     Dynamical RAM for          h,s,v(r/c):       0.03 MB

     Dynamical RAM for          <psi|beta>:       0.01 MB

     Dynamical RAM for                 psi:       5.11 MB

     Dynamical RAM for                hpsi:       5.11 MB

     Dynamical RAM for                spsi:       5.11 MB

     Dynamical RAM for      wfcinit/wfcrot:       5.11 MB

     Dynamical RAM for           addusdens:      80.09 MB

     Dynamical RAM for          addusforce:      91.17 MB

     Estimated static dynamical RAM per process >      95.30 MB

     Estimated max dynamical RAM per process >     213.73 MB
 ----2D----2D----2D----2D----2D----2D----2D----2D----2D----2D----2D----2D
  The code is running with the 2D cutoff
  Please refer to:
  Sohier, T., Calandra, M., & Mauri, F. (2017), 
  Density functional perturbation theory for gated two-dimensional heterostructures:
  Theoretical developments and application to flexural phonons in graphene.
  Physical Review B, 96(7), 75448. https://doi.org/10.1103/PhysRevB.96.075448
 ----2D----2D----2D----2D----2D----2D----2D----2D----2D----2D----2D----2D

     Check: negative core charge=   -0.000003

     Initial potential from superposition of free atoms

     starting charge      15.9998, renormalised to      16.0000

     negative rho (up, down):  1.185E-04 0.000E+00
     Starting wfcs are   16 randomized atomic wfcs
     Checking if some PAW data can be deallocated... 

     total cpu time spent up to now is       11.3 secs

     Self-consistent Calculation

     iteration #  1     ecut=   100.00 Ry     beta= 0.70
     Davidson diagonalization with overlap

---- Real-time Memory Report at c_bands before calling an iterative solver
             0 MiB given to the printing process from OS
             0 MiB allocation reported by mallinfo(arena+hblkhd)
             0 MiB available memory on the node where the printing process lives
------------------
     ethr =  1.00E-02,  avg # of iterations =  2.9

     negative rho (up, down):  1.033E-04 0.000E+00

     total cpu time spent up to now is       22.1 secs

     total energy              =     -73.73311524 Ry
     estimated scf accuracy    <       0.36426786 Ry

     iteration #  2     ecut=   100.00 Ry     beta= 0.70
     Davidson diagonalization with overlap

---- Real-time Memory Report at c_bands before calling an iterative solver
             0 MiB given to the printing process from OS
             0 MiB allocation reported by mallinfo(arena+hblkhd)
             0 MiB available memory on the node where the printing process lives
------------------
     ethr =  2.28E-03,  avg # of iterations =  3.8

     negative rho (up, down):  1.222E-04 0.000E+00

     total cpu time spent up to now is       32.2 secs

     total energy              =     -73.77435302 Ry
     estimated scf accuracy    <       0.00450304 Ry

     iteration #  3     ecut=   100.00 Ry     beta= 0.70
     Davidson diagonalization with overlap

---- Real-time Memory Report at c_bands before calling an iterative solver
             0 MiB given to the printing process from OS
             0 MiB allocation reported by mallinfo(arena+hblkhd)
             0 MiB available memory on the node where the printing process lives
------------------
     c_bands:  1 eigenvalues not converged
     c_bands:  1 eigenvalues not converged
     ethr =  2.81E-05,  avg # of iterations = 11.6

     negative rho (up, down):  1.379E-04 0.000E+00

     total cpu time spent up to now is       43.2 secs

     total energy              =     -73.77531875 Ry
     estimated scf accuracy    <       0.00037714 Ry

     iteration #  4     ecut=   100.00 Ry     beta= 0.70
     Davidson diagonalization with overlap

---- Real-time Memory Report at c_bands before calling an iterative solver
             0 MiB given to the printing process from OS
             0 MiB allocation reported by mallinfo(arena+hblkhd)
             0 MiB available memory on the node where the printing process lives
------------------
     ethr =  2.36E-06,  avg # of iterations =  4.9

     negative rho (up, down):  1.390E-04 0.000E+00

     total cpu time spent up to now is       49.4 secs

     total energy              =     -73.77536419 Ry
     estimated scf accuracy    <       0.00006733 Ry

     iteration #  5     ecut=   100.00 Ry     beta= 0.70
     Davidson diagonalization with overlap

---- Real-time Memory Report at c_bands before calling an iterative solver
             0 MiB given to the printing process from OS
             0 MiB allocation reported by mallinfo(arena+hblkhd)
             0 MiB available memory on the node where the printing process lives
------------------
     ethr =  4.21E-07,  avg # of iterations =  2.0

     negative rho (up, down):  1.400E-04 0.000E+00

     total cpu time spent up to now is       54.1 secs

     total energy              =     -73.77537590 Ry
     estimated scf accuracy    <       0.00000427 Ry

     iteration #  6     ecut=   100.00 Ry     beta= 0.70
     Davidson diagonalization with overlap

---- Real-time Memory Report at c_bands before calling an iterative solver
             0 MiB given to the printing process from OS
             0 MiB allocation reported by mallinfo(arena+hblkhd)
             0 MiB available memory on the node where the printing process lives
------------------
     ethr =  2.67E-08,  avg # of iterations =  2.6

     negative rho (up, down):  1.401E-04 0.000E+00

     total cpu time spent up to now is       61.3 secs

     total energy              =     -73.77537755 Ry
     estimated scf accuracy    <       0.00000039 Ry

     iteration #  7     ecut=   100.00 Ry     beta= 0.70
     Davidson diagonalization with overlap

---- Real-time Memory Report at c_bands before calling an iterative solver
             0 MiB given to the printing process from OS
             0 MiB allocation reported by mallinfo(arena+hblkhd)
             0 MiB available memory on the node where the printing process lives
------------------
     ethr =  2.43E-09,  avg # of iterations =  1.9

     negative rho (up, down):  1.402E-04 0.000E+00

     total cpu time spent up to now is       65.7 secs

     total energy              =     -73.77537754 Ry
     estimated scf accuracy    <       0.00000012 Ry

     iteration #  8     ecut=   100.00 Ry     beta= 0.70
     Davidson diagonalization with overlap

---- Real-time Memory Report at c_bands before calling an iterative solver
             0 MiB given to the printing process from OS
             0 MiB allocation reported by mallinfo(arena+hblkhd)
             0 MiB available memory on the node where the printing process lives
------------------
     ethr =  7.31E-10,  avg # of iterations =  2.0

     negative rho (up, down):  1.402E-04 0.000E+00

     total cpu time spent up to now is       73.4 secs

     End of self-consistent calculation

          k = 0.0000 0.0000 0.0000 ( 14055 PWs)   bands (ev):

   -23.8213 -23.7959 -12.0451 -11.7418  -7.2727  -7.2727  -7.2719  -7.2719
    -1.0233  -0.5603   0.5482   1.7297

     occupation numbers 
     1.0000   1.0000   1.0000   1.0000   1.0000   1.0000   1.0000   1.0000
     0.0000   0.0000   0.0000   0.0000

          k = 0.0000 0.0962 0.0000 ( 14039 PWs)   bands (ev):

   -23.6565 -23.6315 -11.8468 -11.5460  -7.9260  -7.9243  -7.6142  -7.6128
    -0.8025  -0.3357   0.7663   1.9528

     occupation numbers 
     1.0000   1.0000   1.0000   1.0000   1.0000   1.0000   1.0000   1.0000
     0.0000   0.0000   0.0000   0.0000

          k = 0.0000 0.1925 0.0000 ( 14001 PWs)   bands (ev):

   -23.1640 -23.1400 -11.2568 -10.9639  -9.5710  -9.5672  -8.4132  -8.4111
    -0.1401   0.3369   1.4184   2.6207

     occupation numbers 
     1.0000   1.0000   1.0000   1.0000   1.0000   1.0000   1.0000   1.0000
     0.0000   0.0000   0.0000   0.0000

          k = 0.0000 0.2887 0.0000 ( 13973 PWs)   bands (ev):

   -22.3495 -22.3270 -11.6795 -11.6731 -10.2936 -10.0154  -9.2997  -9.2972
     0.9605   1.4476   2.4512   3.0454

     occupation numbers 
     1.0000   1.0000   1.0000   1.0000   1.0000   1.0000   1.0000   1.0000
     0.0000   0.0000   0.0000   0.0000

          k = 0.0000 0.3849 0.0000 ( 13957 PWs)   bands (ev):

   -21.2251 -21.2047 -13.8939 -13.8846 -10.0385 -10.0357  -9.0057  -8.7531
     0.6573   0.7770   2.4846   3.0239

     occupation numbers 
     1.0000   1.0000   1.0000   1.0000   1.0000   1.0000   1.0000   1.0000
     0.0000   0.0000   0.0000   0.0000

          k = 0.0000 0.4811 0.0000 ( 13900 PWs)   bands (ev):

   -19.8212 -19.8035 -16.0055 -15.9936 -10.5148 -10.5119  -7.5484  -7.3491
    -1.5066  -1.3577   3.2988   3.3307

     occupation numbers 
     1.0000   1.0000   1.0000   1.0000   1.0000   1.0000   1.0000   1.0000
     0.0000   0.0000   0.0000   0.0000

          k = 0.0000-0.5774 0.0000 ( 13904 PWs)   bands (ev):

   -18.5403 -18.5318 -17.5230 -17.5163 -10.6783 -10.6753  -6.6471  -6.5529
    -2.6009  -2.4719   3.2188   3.2556

     occupation numbers 
     1.0000   1.0000   1.0000   1.0000   1.0000   1.0000   1.0000   1.0000
     0.0000   0.0000   0.0000   0.0000

          k = 0.0833 0.1443 0.0000 ( 14003 PWs)   bands (ev):

   -23.3279 -23.3035 -11.4525 -11.1569  -8.9632  -8.9614  -8.2969  -8.2957
    -0.3606   0.1131   1.2020   2.3993

     occupation numbers 
     1.0000   1.0000   1.0000   1.0000   1.0000   1.0000   1.0000   1.0000
     0.0000   0.0000   0.0000   0.0000

          k = 0.0833 0.2406 0.0000 ( 14001 PWs)   bands (ev):

   -22.6744 -22.6513 -10.6814 -10.6766 -10.6742 -10.3903  -9.3027  -9.3002
     0.5222   1.0079   2.0668   3.2875

     occupation numbers 
     1.0000   1.0000   1.0000   1.0000   1.0000   1.0000   1.0000   1.0000
     0.0000   0.0000   0.0000   0.0000

          k = 0.0833 0.3368 0.0000 ( 13973 PWs)   bands (ev):

   -21.7048 -21.6835 -12.7646 -12.7572 -10.1951 -10.1917  -9.5431  -9.2780
     1.6897   1.7782   1.8425   2.3728

     occupation numbers 
     1.0000   1.0000   1.0000   1.0000   1.0000   1.0000   1.0000   1.0000
     0.0000   0.0000   0.0000   0.0000

          k = 0.0833 0.4330 0.0000 ( 13937 PWs)   bands (ev):

   -20.4377 -20.4188 -14.8987 -14.8883 -10.8341 -10.8302  -8.1384  -7.9084
    -0.5418  -0.4146   3.5613   4.0449

     occupation numbers 
     1.0000   1.0000   1.0000   1.0000   1.0000   1.0000   1.0000   1.0000
     0.0000   0.0000   0.0000   0.0000

          k = 0.0833 0.5292 0.0000 ( 13904 PWs)   bands (ev):

   -18.9475 -18.9322 -16.8522 -16.8402 -11.1646 -11.1606  -6.7793  -6.6347
    -2.3234  -2.1930   3.9565   3.9982

     occupation numbers 
     1.0000   1.0000   1.0000   1.0000   1.0000   1.0000   1.0000   1.0000
     0.0000   0.0000   0.0000   0.0000

          k = 0.1667 0.2887 0.0000 ( 13969 PWs)   bands (ev):

   -21.8658 -21.8442 -12.0140 -12.0106 -10.6744 -10.6719  -9.7249  -9.4558
     1.6230   2.1213   2.1709   2.2266

     occupation numbers 
     1.0000   1.0000   1.0000   1.0000   1.0000   1.0000   1.0000   1.0000
     0.0000   0.0000   0.0000   0.0000

          k = 0.1667 0.3849 0.0000 ( 13953 PWs)   bands (ev):

   -20.7523 -20.7327 -13.7509 -13.7438 -11.7372 -11.7326  -8.4521  -8.2086
     0.1978   0.2768   3.1501   3.6646

     occupation numbers 
     1.0000   1.0000   1.0000   1.0000   1.0000   1.0000   1.0000   1.0000
     0.0000   0.0000   0.0000   0.0000

          k = 0.1667 0.4811 0.0000 ( 13903 PWs)   bands (ev):

   -19.3684 -19.3515 -15.6738 -15.6631 -12.3158 -12.3099  -6.9928  -6.7983
    -1.7409  -1.6346   5.0665   5.5697

     occupation numbers 
     1.0000   1.0000   1.0000   1.0000   1.0000   1.0000   1.0000   1.0000
     0.0000   0.0000   0.0000   0.0000

          k = 0.1667 0.5774 0.0000 ( 13896 PWs)   bands (ev):

   -18.1178 -18.1098 -17.1193 -17.1134 -12.5015 -12.4952  -6.0447  -5.9524
    -2.7977  -2.7262   5.7512   5.8277

     occupation numbers 
     1.0000   1.0000   1.0000   1.0000   1.0000   1.0000   1.0000   1.0000
     0.0000   0.0000   0.0000   0.0000

          k = 0.2500 0.4330 0.0000 ( 13939 PWs)   bands (ev):

   -19.5173 -19.5000 -14.7858 -14.7806 -13.2313 -13.2274  -7.0850  -6.8751
    -1.4242  -1.3497   4.8590   5.3320

     occupation numbers 
     1.0000   1.0000   1.0000   1.0000   1.0000   1.0000   1.0000   1.0000
     0.0000   0.0000   0.0000   0.0000

          k = 0.2500 0.5292 0.0000 ( 13893 PWs)   bands (ev):

   -18.0849 -18.0712 -16.2180 -16.2091 -13.9429 -13.9362  -5.6584  -5.5147
    -2.9518  -2.8805   6.4935   6.6438

     occupation numbers 
     1.0000   1.0000   1.0000   1.0000   1.0000   1.0000   1.0000   1.0000
     0.0000   0.0000   0.0000   0.0000

          k = 0.3333 0.5774 0.0000 ( 13848 PWs)   bands (ev):

   -16.8599 -16.8532 -16.8532 -16.8463 -14.8478 -14.8478  -4.3074  -4.2228
    -4.2228  -4.1350   6.3578   6.3578

     occupation numbers 
     1.0000   1.0000   1.0000   1.0000   1.0000   1.0000   0.9141   0.4802
     0.4802   0.1255   0.0000   0.0000

     the Fermi energy is    -4.2075 ev

!    total energy              =     -73.77537757 Ry
     total all-electron energy =      -304.831766 Ry
     estimated scf accuracy    <          1.1E-09 Ry
     smearing contrib. (-TS)   =      -0.00011904 Ry
     internal energy E=F+TS    =     -73.77525852 Ry

     The total energy is F=E-TS. E is the sum of the following terms:
     one-electron contribution =   -1134.21325983 Ry
     hartree contribution      =     568.87280325 Ry
     xc contribution           =     -18.57089097 Ry
     ewald contribution        =     534.80513294 Ry
     one-center paw contrib.   =     -24.66904392 Ry
      -> PAW hartree energy AE =      37.91545950 Ry
      -> PAW hartree energy PS =     -37.88070177 Ry
      -> PAW xc energy AE      =     -42.68740666 Ry
      -> PAW xc energy PS      =      17.98360501 Ry
      -> total E_H with PAW    =     568.90756098 Ry
      -> total E_XC with PAW   =     -43.27469261 Ry

     convergence has been achieved in   8 iterations

     negative rho (up, down):  1.402E-04 0.000E+00

     Forces acting on atoms (cartesian axes, Ry/au):

     atom    1 type  1   force =     0.00000000   -0.00000000   -0.00068399
     atom    2 type  1   force =    -0.00000000    0.00000000    0.00049225
     atom    3 type  1   force =     0.00000000   -0.00000000   -0.00049225
     atom    4 type  1   force =     0.00000000    0.00000000    0.00068399
     The non-local contrib.  to forces
     atom    1 type  1   force =     0.00000000    0.00000000   -0.00120077
     atom    2 type  1   force =     0.00000000   -0.00000000    0.00088615
     atom    3 type  1   force =     0.00000000    0.00000000   -0.00088615
     atom    4 type  1   force =     0.00000000    0.00000000    0.00120077
     The ionic contribution  to forces
     atom    1 type  1   force =     0.00000053    0.00000661  -21.47541600
     atom    2 type  1   force =    -0.00000053   -0.00000661  -21.49699793
     atom    3 type  1   force =    -0.00000053    0.00000661   21.49699793
     atom    4 type  1   force =     0.00000053   -0.00000661   21.47541600
     The local contribution  to forces
     atom    1 type  1   force =    -0.00000000   -0.00000189   21.47596240
     atom    2 type  1   force =    -0.00000038    0.00000001   21.49665181
     atom    3 type  1   force =    -0.00000038   -0.00000377  -21.49665181
     atom    4 type  1   force =    -0.00000000   -0.00000186  -21.47596241
     The core correction contribution to forces
     atom    1 type  1   force =    -0.00000000   -0.00000000   -0.00004898
     atom    2 type  1   force =     0.00000004    0.00000021   -0.00006637
     atom    3 type  1   force =     0.00000004    0.00000020    0.00006637
     atom    4 type  1   force =    -0.00000000    0.00000041    0.00004898
     The Hubbard contrib.    to forces
     atom    1 type  1   force =     0.00000000    0.00000000    0.00000000
     atom    2 type  1   force =     0.00000000    0.00000000    0.00000000
     atom    3 type  1   force =     0.00000000    0.00000000    0.00000000
     atom    4 type  1   force =     0.00000000    0.00000000    0.00000000
     The SCF correction term to forces
     atom    1 type  1   force =     0.00000000    0.00000000    0.00001936
     atom    2 type  1   force =     0.00000000    0.00000000    0.00001859
     atom    3 type  1   force =     0.00000000    0.00000000   -0.00001859
     atom    4 type  1   force =     0.00000000   -0.00000000   -0.00001936

     Total force =     0.001192     Total SCF correction =     0.000038

     Writing all to output data dir /Users/memo/Desktop/New Horizons/Graphene Band Structure QE/outputs/bilayer/data/graphene.save/ :
     XML data file, charge density, pseudopotentials, collected wavefunctions

     init_run     :     36.35s CPU     11.25s WALL (       1 calls)
     electrons    :    357.31s CPU     62.04s WALL (       1 calls)
     forces       :      5.25s CPU      0.91s WALL (       1 calls)

     Called by init_run:
     wfcinit      :     29.16s CPU      8.87s WALL (       1 calls)
     wfcinit:atom :      0.27s CPU      0.05s WALL (      19 calls)
     wfcinit:wfcr :     26.70s CPU      8.41s WALL (      19 calls)
     potinit      :      0.90s CPU      0.18s WALL (       1 calls)
     hinit0       :      3.84s CPU      1.68s WALL (       1 calls)

     Called by electrons:
     c_bands      :    295.13s CPU     51.43s WALL (       8 calls)
     sum_band     :     49.64s CPU      8.12s WALL (       8 calls)
     v_of_rho     :      2.63s CPU      0.66s WALL (       9 calls)
     v_h          :      0.18s CPU      0.04s WALL (       9 calls)
     v_xc         :      2.73s CPU      0.67s WALL (      10 calls)
     newd         :      6.66s CPU      1.16s WALL (       9 calls)
     PAW_pot      :      5.54s CPU      1.09s WALL (       9 calls)
     mix_rho      :      0.65s CPU      0.13s WALL (       8 calls)

     Called by c_bands:
     init_us_2    :      9.47s CPU      1.54s WALL (     342 calls)
     cegterg      :    284.49s CPU     49.67s WALL (     152 calls)

     Called by sum_band:
     sum_band:wei :      0.02s CPU      0.00s WALL (       8 calls)
     sum_band:loo :     45.08s CPU      7.02s WALL (       8 calls)
     sum_band:buf :      0.18s CPU      0.03s WALL (     152 calls)
     sum_band:ini :      4.36s CPU      0.67s WALL (     152 calls)
     sum_band:cal :      3.86s CPU      0.79s WALL (     152 calls)
     sum_band:bec :      0.17s CPU      0.00s WALL (     152 calls)
     addusdens    :      3.65s CPU      0.65s WALL (       8 calls)
                                        0.00s GPU  (       8 calls)
     addusd:skk   :      0.07s CPU      0.01s WALL (       8 calls)
                                        0.00s GPU  (       8 calls)

     Called by *egterg:
     cdiaghg      :      1.58s CPU      0.24s WALL (     754 calls)
     cegterg:over :      4.77s CPU      0.73s WALL (     602 calls)
     cegterg:upda :      3.38s CPU      0.60s WALL (     602 calls)
     cegterg:last :      6.92s CPU      1.12s WALL (     368 calls)
     h_psi        :    284.60s CPU     53.82s WALL (     773 calls)
     s_psi        :      4.41s CPU      0.75s WALL (     773 calls)
     g_psi        :      1.69s CPU      0.24s WALL (     602 calls)

     Called by h_psi:
     h_psi:calbec :     27.59s CPU      4.90s WALL (     773 calls)
     vloc_psi     :    250.39s CPU     48.08s WALL (     773 calls)
                                        0.00s GPU  (     773 calls)
     add_vuspsi   :      5.77s CPU      0.76s WALL (     773 calls)

     General routines
     calbec       :     34.22s CPU      6.18s WALL (    1001 calls)
     fft          :      4.28s CPU      1.61s WALL (     110 calls)
     ffts         :      0.08s CPU      0.01s WALL (       8 calls)
     fftw         :    252.99s CPU     49.21s WALL (   12932 calls)

     Parallel routines

     PAW routines
     PAW_pot      :      5.54s CPU      1.09s WALL (       9 calls)
     PAW_symme    :      0.01s CPU      0.00s WALL (      17 calls)

     PWSCF        :   6m39.83s CPU   1m14.47s WALL


   This run was terminated on:   0:33:25  30Aug2026            

=------------------------------------------------------------------------------=
   JOB DONE.
=------------------------------------------------------------------------------=
