
     Program PWSCF v.7.6 starts on 19Sep2026 at 20:41:24 

     This program is part of the open-source Quantum ESPRESSO suite
     for quantum simulation of materials; please cite
         "P. Giannozzi et al., J. Phys.:Condens. Matter 21 395502 (2009);
         "P. Giannozzi et al., J. Phys.:Condens. Matter 29 465901 (2017);
         "P. Giannozzi et al., J. Chem. Phys. 152 154105 (2020);
          URL http://www.quantum-espresso.org", 
     in publications or presentations arising from this work. More details at
     http://www.quantum-espresso.org/quote

     Parallel version (MPI), running on     4 processors

     MPI processes distributed on     1 nodes
     307 MiB available memory on the printing compute node when the environment starts

     Waiting for input...
     Reading input from standard input
Warning: card &CELL ignored
Warning: card &FCP ignored
Warning: card &RISM ignored

     Current dimensions of program PWSCF are:
     Max number of different atomic species (ntypx) = 10
     Max number of k-points (npk) =  40000
     Max angular momentum in pseudopotentials (lmaxx) =  4
     Presently no symmetry can be used with electric field

     file C.pbe-n-kjpaw_psl.1.0.0.UPF: wavefunction(s)  2S 2P renormalized

     K-points division:     npool     =       4
     Subspace diagonalization in iterative solution of the eigenvalue problem:
     a serial algorithm will be used


     G-vector sticks info
     --------------------
     sticks:   dense  smooth     PW     G-vecs:    dense   smooth      PW
     Sum         595     361    121               111671    52021   10303

     Using Slab Decomposition



     bravais-lattice index     =            0
     lattice parameter (alat)  =       4.6487  a.u.
     unit-cell volume          =     825.8174 (a.u.)^3
     number of atoms/cell      =            2
     number of atomic types    =            1
     number of electrons       =         8.00
     number of Kohn-Sham states=           10
     kinetic-energy cutoff     =      60.0000  Ry
     charge density cutoff     =     400.0000  Ry
     scf convergence threshold =      1.0E-08
     mixing beta               =       0.7000
     number of iterations used =            8  plain     mixing
     Exchange-correlation= SLA  PW   PBX  PBC
                           (   1   4   3   4   0   0   0)

     celldm(1)=   4.648726  celldm(2)=   0.000000  celldm(3)=   0.000000
     celldm(4)=   0.000000  celldm(5)=   0.000000  celldm(6)=   0.000000

     crystal axes: (cart. coord. in units of alat)
               a(1) = (   1.000000   0.000000   0.000000 )  
               a(2) = (  -0.500000   0.866025   0.000000 )  
               a(3) = (   0.000000   0.000000   9.491870 )  

     reciprocal axes: (cart. coord. in units 2 pi/alat)
               b(1) = (  1.000000  0.577351 -0.000000 )  
               b(2) = (  0.000000  1.154701  0.000000 )  
               b(3) = (  0.000000 -0.000000  0.105353 )  


     PseudoPot. # 1 for C  read from file:
     /home/ubuntu/projects/Graphene-Band-Structure-Quantum-Espresso/pseudo/C.pbe-n-kjpaw_psl.1.0.0.UPF
     MD5 check sum: 5f16ad9a65e90284d1d834d4ab3b0f7d
     Pseudo is Projector augmented-wave + core cor, Zval =  4.0
     Generated using &quot;atomic&quot; code by A. Dal Corso  v.6.3
     Shape of augmentation charge: PSQ
     Using radial grid of 1073 points,  4 beta functions with: 
                l(1) =   0
                l(2) =   0
                l(3) =   1
                l(4) =   1
     Q(r) pseudized with 0 coefficients 


     atomic species   valence    mass     pseudopotential
     C                 4.00    12.01100     C ( 1.00)

     No symmetry found


                                    s                        frac. trans.

      isym =  1     identity                                     

 cryst.   s( 1) = (     1          0          0      )
                  (     0          1          0      )
                  (     0          0          1      )

 cart.    s( 1) = (  1.0000000  0.0000000  0.0000000 )
                  (  0.0000000  1.0000000  0.0000000 )
                  (  0.0000000  0.0000000  1.0000000 )


   Cartesian axes

     site n.     atom                  positions (alat units)
         1        C      tau(   1) = (   0.4889866   0.2879179   8.6128408  )
         2        C      tau(   2) = (   0.0110239   0.5781039   8.5677612  )

     --------------------------------------------
     DFT-D3 Dispersion Correction (3-body terms):
     --------------------------------------------
       Reference C6 values for interpolation: 

         atom   Coordination number   C6
         C          0.000            98.23
         C          0.987            86.49
         C          1.998            58.72
         C          2.999            51.56
         C          3.984            36.41

       Values used:

         atom   Coordination number  R0_AB[au]  C6      C8
         C          3.314            2.750     48.29   1396.55
         C          3.314            2.750     48.29   1396.55

         Molecular C6 ( Ry / a.u.^6 ) =       193.15


   Crystallographic axes

     site n.     atom                  positions (cryst. coord.)
         1        C      tau(   1) = (  0.6552161  0.3324591  0.9073914  )
         2        C      tau(   2) = (  0.3447925  0.6675372  0.9026421  )

     number of k points=   113  Gaussian smearing, width (Ry)=  0.0100
                       cart. coord. in units 2pi/alat
        k(    1) = (   0.0000000   0.0000000   0.0000000), wk =   0.0088889
        k(    2) = (   0.0000000   0.0769801   0.0000000), wk =   0.0177778
        k(    3) = (   0.0000000   0.1539601   0.0000000), wk =   0.0177778
        k(    4) = (   0.0000000   0.2309402   0.0000000), wk =   0.0177778
        k(    5) = (   0.0000000   0.3079203   0.0000000), wk =   0.0177778
        k(    6) = (   0.0000000   0.3849004   0.0000000), wk =   0.0177778
        k(    7) = (   0.0000000   0.4618804   0.0000000), wk =   0.0177778
        k(    8) = (   0.0000000   0.5388605   0.0000000), wk =   0.0177778
        k(    9) = (   0.0666667   0.0384900   0.0000000), wk =   0.0177778
        k(   10) = (   0.0666667   0.1154701   0.0000000), wk =   0.0177778
        k(   11) = (   0.0666667   0.1924502   0.0000000), wk =   0.0177778
        k(   12) = (   0.0666667   0.2694303   0.0000000), wk =   0.0177778
        k(   13) = (   0.0666667   0.3464103   0.0000000), wk =   0.0177778
        k(   14) = (   0.0666667   0.4233904   0.0000000), wk =   0.0177778
        k(   15) = (   0.0666667   0.5003705   0.0000000), wk =   0.0177778
        k(   16) = (   0.0666667   0.5773505   0.0000000), wk =   0.0177778
        k(   17) = (   0.0666667  -0.5003705   0.0000000), wk =   0.0177778
        k(   18) = (   0.0666667  -0.4233904   0.0000000), wk =   0.0177778
        k(   19) = (   0.0666667  -0.3464103   0.0000000), wk =   0.0177778
        k(   20) = (   0.0666667  -0.2694303   0.0000000), wk =   0.0177778
        k(   21) = (   0.0666667  -0.1924502   0.0000000), wk =   0.0177778
        k(   22) = (   0.0666667  -0.1154701   0.0000000), wk =   0.0177778
        k(   23) = (   0.0666667  -0.0384900   0.0000000), wk =   0.0177778
        k(   24) = (   0.1333333   0.0769801   0.0000000), wk =   0.0177778
        k(   25) = (   0.1333333   0.1539601   0.0000000), wk =   0.0177778
        k(   26) = (   0.1333333   0.2309402   0.0000000), wk =   0.0177778
        k(   27) = (   0.1333333   0.3079203   0.0000000), wk =   0.0177778
        k(   28) = (   0.1333333   0.3849004   0.0000000), wk =   0.0177778
        k(   29) = (   0.1333333   0.4618804   0.0000000), wk =   0.0177778
        k(   30) = (   0.1333333   0.5388605   0.0000000), wk =   0.0177778
        k(   31) = (   0.1333333   0.6158406   0.0000000), wk =   0.0177778
        k(   32) = (   0.1333333  -0.4618804   0.0000000), wk =   0.0177778
        k(   33) = (   0.1333333  -0.3849004   0.0000000), wk =   0.0177778
        k(   34) = (   0.1333333  -0.3079203   0.0000000), wk =   0.0177778
        k(   35) = (   0.1333333  -0.2309402   0.0000000), wk =   0.0177778
        k(   36) = (   0.1333333  -0.1539601   0.0000000), wk =   0.0177778
        k(   37) = (   0.1333333  -0.0769801   0.0000000), wk =   0.0177778
        k(   38) = (   0.1333333   0.0000000   0.0000000), wk =   0.0177778
        k(   39) = (   0.2000000   0.1154701   0.0000000), wk =   0.0177778
        k(   40) = (   0.2000000   0.1924502   0.0000000), wk =   0.0177778
        k(   41) = (   0.2000000   0.2694303   0.0000000), wk =   0.0177778
        k(   42) = (   0.2000000   0.3464103   0.0000000), wk =   0.0177778
        k(   43) = (   0.2000000   0.4233904   0.0000000), wk =   0.0177778
        k(   44) = (   0.2000000   0.5003705   0.0000000), wk =   0.0177778
        k(   45) = (   0.2000000   0.5773505   0.0000000), wk =   0.0177778
        k(   46) = (   0.2000000   0.6543306   0.0000000), wk =   0.0177778
        k(   47) = (   0.2000000  -0.4233904   0.0000000), wk =   0.0177778
        k(   48) = (   0.2000000  -0.3464103   0.0000000), wk =   0.0177778
        k(   49) = (   0.2000000  -0.2694303   0.0000000), wk =   0.0177778
        k(   50) = (   0.2000000  -0.1924502   0.0000000), wk =   0.0177778
        k(   51) = (   0.2000000  -0.1154701   0.0000000), wk =   0.0177778
        k(   52) = (   0.2000000  -0.0384900   0.0000000), wk =   0.0177778
        k(   53) = (   0.2000000   0.0384900   0.0000000), wk =   0.0177778
        k(   54) = (   0.2666667   0.1539601   0.0000000), wk =   0.0177778
        k(   55) = (   0.2666667   0.2309402   0.0000000), wk =   0.0177778
        k(   56) = (   0.2666667   0.3079203   0.0000000), wk =   0.0177778
        k(   57) = (   0.2666667   0.3849004   0.0000000), wk =   0.0177778
        k(   58) = (   0.2666667   0.4618804   0.0000000), wk =   0.0177778
        k(   59) = (   0.2666667   0.5388605   0.0000000), wk =   0.0177778
        k(   60) = (   0.2666667   0.6158406   0.0000000), wk =   0.0177778
        k(   61) = (   0.2666667   0.6928206   0.0000000), wk =   0.0177778
        k(   62) = (   0.2666667  -0.3849004   0.0000000), wk =   0.0177778
        k(   63) = (   0.2666667  -0.3079203   0.0000000), wk =   0.0177778
        k(   64) = (   0.2666667  -0.2309402   0.0000000), wk =   0.0177778
        k(   65) = (   0.2666667  -0.1539601   0.0000000), wk =   0.0177778
        k(   66) = (   0.2666667  -0.0769801   0.0000000), wk =   0.0177778
        k(   67) = (   0.2666667   0.0000000   0.0000000), wk =   0.0177778
        k(   68) = (   0.2666667   0.0769801   0.0000000), wk =   0.0177778
        k(   69) = (   0.3333333   0.1924502   0.0000000), wk =   0.0177778
        k(   70) = (   0.3333333   0.2694303   0.0000000), wk =   0.0177778
        k(   71) = (   0.3333333   0.3464103   0.0000000), wk =   0.0177778
        k(   72) = (   0.3333333   0.4233904   0.0000000), wk =   0.0177778
        k(   73) = (   0.3333333   0.5003705   0.0000000), wk =   0.0177778
        k(   74) = (   0.3333333   0.5773505   0.0000000), wk =   0.0177778
        k(   75) = (   0.3333333   0.6543306   0.0000000), wk =   0.0177778
        k(   76) = (   0.3333333   0.7313107   0.0000000), wk =   0.0177778
        k(   77) = (   0.3333333  -0.3464103   0.0000000), wk =   0.0177778
        k(   78) = (   0.3333333  -0.2694303   0.0000000), wk =   0.0177778
        k(   79) = (   0.3333333  -0.1924502   0.0000000), wk =   0.0177778
        k(   80) = (   0.3333333  -0.1154701   0.0000000), wk =   0.0177778
        k(   81) = (   0.3333333  -0.0384900   0.0000000), wk =   0.0177778
        k(   82) = (   0.3333333   0.0384900   0.0000000), wk =   0.0177778
        k(   83) = (   0.3333333   0.1154701   0.0000000), wk =   0.0177778
        k(   84) = (   0.4000000   0.2309402   0.0000000), wk =   0.0177778
        k(   85) = (   0.4000000   0.3079203   0.0000000), wk =   0.0177778
        k(   86) = (   0.4000000   0.3849004   0.0000000), wk =   0.0177778
        k(   87) = (   0.4000000   0.4618804   0.0000000), wk =   0.0177778
        k(   88) = (   0.4000000   0.5388605   0.0000000), wk =   0.0177778
        k(   89) = (   0.4000000   0.6158406   0.0000000), wk =   0.0177778
        k(   90) = (   0.4000000   0.6928206   0.0000000), wk =   0.0177778
        k(   91) = (   0.4000000   0.7698007   0.0000000), wk =   0.0177778
        k(   92) = (   0.4000000  -0.3079203   0.0000000), wk =   0.0177778
        k(   93) = (   0.4000000  -0.2309402   0.0000000), wk =   0.0177778
        k(   94) = (   0.4000000  -0.1539601   0.0000000), wk =   0.0177778
        k(   95) = (   0.4000000  -0.0769801   0.0000000), wk =   0.0177778
        k(   96) = (   0.4000000   0.0000000   0.0000000), wk =   0.0177778
        k(   97) = (   0.4000000   0.0769801   0.0000000), wk =   0.0177778
        k(   98) = (   0.4000000   0.1539601   0.0000000), wk =   0.0177778
        k(   99) = (   0.4666667   0.2694303   0.0000000), wk =   0.0177778
        k(  100) = (   0.4666667   0.3464103   0.0000000), wk =   0.0177778
        k(  101) = (   0.4666667   0.4233904   0.0000000), wk =   0.0177778
        k(  102) = (   0.4666667   0.5003705   0.0000000), wk =   0.0177778
        k(  103) = (   0.4666667   0.5773505   0.0000000), wk =   0.0177778
        k(  104) = (   0.4666667   0.6543306   0.0000000), wk =   0.0177778
        k(  105) = (   0.4666667   0.7313107   0.0000000), wk =   0.0177778
        k(  106) = (   0.4666667   0.8082908   0.0000000), wk =   0.0177778
        k(  107) = (   0.4666667  -0.2694303   0.0000000), wk =   0.0177778
        k(  108) = (   0.4666667  -0.1924502   0.0000000), wk =   0.0177778
        k(  109) = (   0.4666667  -0.1154701   0.0000000), wk =   0.0177778
        k(  110) = (   0.4666667  -0.0384900   0.0000000), wk =   0.0177778
        k(  111) = (   0.4666667   0.0384900   0.0000000), wk =   0.0177778
        k(  112) = (   0.4666667   0.1154701   0.0000000), wk =   0.0177778
        k(  113) = (   0.4666667   0.1924502   0.0000000), wk =   0.0177778

                       cryst. coord.
        k(    1) = (   0.0000000   0.0000000   0.0000000), wk =   0.0088889
        k(    2) = (   0.0000000   0.0666667   0.0000000), wk =   0.0177778
        k(    3) = (   0.0000000   0.1333333   0.0000000), wk =   0.0177778
        k(    4) = (   0.0000000   0.2000000   0.0000000), wk =   0.0177778
        k(    5) = (   0.0000000   0.2666667   0.0000000), wk =   0.0177778
        k(    6) = (   0.0000000   0.3333333   0.0000000), wk =   0.0177778
        k(    7) = (   0.0000000   0.4000000   0.0000000), wk =   0.0177778
        k(    8) = (   0.0000000   0.4666667   0.0000000), wk =   0.0177778
        k(    9) = (   0.0666667   0.0000000   0.0000000), wk =   0.0177778
        k(   10) = (   0.0666667   0.0666667   0.0000000), wk =   0.0177778
        k(   11) = (   0.0666667   0.1333333   0.0000000), wk =   0.0177778
        k(   12) = (   0.0666667   0.2000000   0.0000000), wk =   0.0177778
        k(   13) = (   0.0666667   0.2666667   0.0000000), wk =   0.0177778
        k(   14) = (   0.0666667   0.3333333   0.0000000), wk =   0.0177778
        k(   15) = (   0.0666667   0.4000000   0.0000000), wk =   0.0177778
        k(   16) = (   0.0666667   0.4666667   0.0000000), wk =   0.0177778
        k(   17) = (   0.0666667  -0.4666667   0.0000000), wk =   0.0177778
        k(   18) = (   0.0666667  -0.4000000   0.0000000), wk =   0.0177778
        k(   19) = (   0.0666667  -0.3333333   0.0000000), wk =   0.0177778
        k(   20) = (   0.0666667  -0.2666667   0.0000000), wk =   0.0177778
        k(   21) = (   0.0666667  -0.2000000   0.0000000), wk =   0.0177778
        k(   22) = (   0.0666667  -0.1333333   0.0000000), wk =   0.0177778
        k(   23) = (   0.0666667  -0.0666667   0.0000000), wk =   0.0177778
        k(   24) = (   0.1333333   0.0000000   0.0000000), wk =   0.0177778
        k(   25) = (   0.1333333   0.0666667   0.0000000), wk =   0.0177778
        k(   26) = (   0.1333333   0.1333333   0.0000000), wk =   0.0177778
        k(   27) = (   0.1333333   0.2000000   0.0000000), wk =   0.0177778
        k(   28) = (   0.1333333   0.2666667   0.0000000), wk =   0.0177778
        k(   29) = (   0.1333333   0.3333333   0.0000000), wk =   0.0177778
        k(   30) = (   0.1333333   0.4000000   0.0000000), wk =   0.0177778
        k(   31) = (   0.1333333   0.4666667   0.0000000), wk =   0.0177778
        k(   32) = (   0.1333333  -0.4666667   0.0000000), wk =   0.0177778
        k(   33) = (   0.1333333  -0.4000000   0.0000000), wk =   0.0177778
        k(   34) = (   0.1333333  -0.3333333   0.0000000), wk =   0.0177778
        k(   35) = (   0.1333333  -0.2666667   0.0000000), wk =   0.0177778
        k(   36) = (   0.1333333  -0.2000000   0.0000000), wk =   0.0177778
        k(   37) = (   0.1333333  -0.1333333   0.0000000), wk =   0.0177778
        k(   38) = (   0.1333333  -0.0666667   0.0000000), wk =   0.0177778
        k(   39) = (   0.2000000   0.0000000   0.0000000), wk =   0.0177778
        k(   40) = (   0.2000000   0.0666667   0.0000000), wk =   0.0177778
        k(   41) = (   0.2000000   0.1333333   0.0000000), wk =   0.0177778
        k(   42) = (   0.2000000   0.2000000   0.0000000), wk =   0.0177778
        k(   43) = (   0.2000000   0.2666667   0.0000000), wk =   0.0177778
        k(   44) = (   0.2000000   0.3333333   0.0000000), wk =   0.0177778
        k(   45) = (   0.2000000   0.4000000   0.0000000), wk =   0.0177778
        k(   46) = (   0.2000000   0.4666667   0.0000000), wk =   0.0177778
        k(   47) = (   0.2000000  -0.4666667   0.0000000), wk =   0.0177778
        k(   48) = (   0.2000000  -0.4000000   0.0000000), wk =   0.0177778
        k(   49) = (   0.2000000  -0.3333333   0.0000000), wk =   0.0177778
        k(   50) = (   0.2000000  -0.2666667   0.0000000), wk =   0.0177778
        k(   51) = (   0.2000000  -0.2000000   0.0000000), wk =   0.0177778
        k(   52) = (   0.2000000  -0.1333333   0.0000000), wk =   0.0177778
        k(   53) = (   0.2000000  -0.0666667   0.0000000), wk =   0.0177778
        k(   54) = (   0.2666667   0.0000000   0.0000000), wk =   0.0177778
        k(   55) = (   0.2666667   0.0666667   0.0000000), wk =   0.0177778
        k(   56) = (   0.2666667   0.1333333   0.0000000), wk =   0.0177778
        k(   57) = (   0.2666667   0.2000000   0.0000000), wk =   0.0177778
        k(   58) = (   0.2666667   0.2666667   0.0000000), wk =   0.0177778
        k(   59) = (   0.2666667   0.3333333   0.0000000), wk =   0.0177778
        k(   60) = (   0.2666667   0.4000000   0.0000000), wk =   0.0177778
        k(   61) = (   0.2666667   0.4666667   0.0000000), wk =   0.0177778
        k(   62) = (   0.2666667  -0.4666667   0.0000000), wk =   0.0177778
        k(   63) = (   0.2666667  -0.4000000   0.0000000), wk =   0.0177778
        k(   64) = (   0.2666667  -0.3333333   0.0000000), wk =   0.0177778
        k(   65) = (   0.2666667  -0.2666667   0.0000000), wk =   0.0177778
        k(   66) = (   0.2666667  -0.2000000   0.0000000), wk =   0.0177778
        k(   67) = (   0.2666667  -0.1333333   0.0000000), wk =   0.0177778
        k(   68) = (   0.2666667  -0.0666667   0.0000000), wk =   0.0177778
        k(   69) = (   0.3333333   0.0000000   0.0000000), wk =   0.0177778
        k(   70) = (   0.3333333   0.0666667   0.0000000), wk =   0.0177778
        k(   71) = (   0.3333333   0.1333333   0.0000000), wk =   0.0177778
        k(   72) = (   0.3333333   0.2000000   0.0000000), wk =   0.0177778
        k(   73) = (   0.3333333   0.2666667   0.0000000), wk =   0.0177778
        k(   74) = (   0.3333333   0.3333333   0.0000000), wk =   0.0177778
        k(   75) = (   0.3333333   0.4000000   0.0000000), wk =   0.0177778
        k(   76) = (   0.3333333   0.4666667   0.0000000), wk =   0.0177778
        k(   77) = (   0.3333333  -0.4666667   0.0000000), wk =   0.0177778
        k(   78) = (   0.3333333  -0.4000000   0.0000000), wk =   0.0177778
        k(   79) = (   0.3333333  -0.3333333   0.0000000), wk =   0.0177778
        k(   80) = (   0.3333333  -0.2666667   0.0000000), wk =   0.0177778
        k(   81) = (   0.3333333  -0.2000000   0.0000000), wk =   0.0177778
        k(   82) = (   0.3333333  -0.1333333   0.0000000), wk =   0.0177778
        k(   83) = (   0.3333333  -0.0666667   0.0000000), wk =   0.0177778
        k(   84) = (   0.4000000   0.0000000   0.0000000), wk =   0.0177778
        k(   85) = (   0.4000000   0.0666667   0.0000000), wk =   0.0177778
        k(   86) = (   0.4000000   0.1333333   0.0000000), wk =   0.0177778
        k(   87) = (   0.4000000   0.2000000   0.0000000), wk =   0.0177778
        k(   88) = (   0.4000000   0.2666667   0.0000000), wk =   0.0177778
        k(   89) = (   0.4000000   0.3333333   0.0000000), wk =   0.0177778
        k(   90) = (   0.4000000   0.4000000   0.0000000), wk =   0.0177778
        k(   91) = (   0.4000000   0.4666667   0.0000000), wk =   0.0177778
        k(   92) = (   0.4000000  -0.4666667   0.0000000), wk =   0.0177778
        k(   93) = (   0.4000000  -0.4000000   0.0000000), wk =   0.0177778
        k(   94) = (   0.4000000  -0.3333333   0.0000000), wk =   0.0177778
        k(   95) = (   0.4000000  -0.2666667   0.0000000), wk =   0.0177778
        k(   96) = (   0.4000000  -0.2000000   0.0000000), wk =   0.0177778
        k(   97) = (   0.4000000  -0.1333333   0.0000000), wk =   0.0177778
        k(   98) = (   0.4000000  -0.0666667   0.0000000), wk =   0.0177778
        k(   99) = (   0.4666667   0.0000000   0.0000000), wk =   0.0177778
        k(  100) = (   0.4666667   0.0666667   0.0000000), wk =   0.0177778
        k(  101) = (   0.4666667   0.1333333   0.0000000), wk =   0.0177778
        k(  102) = (   0.4666667   0.2000000   0.0000000), wk =   0.0177778
        k(  103) = (   0.4666667   0.2666667   0.0000000), wk =   0.0177778
        k(  104) = (   0.4666667   0.3333333   0.0000000), wk =   0.0177778
        k(  105) = (   0.4666667   0.4000000   0.0000000), wk =   0.0177778
        k(  106) = (   0.4666667   0.4666667   0.0000000), wk =   0.0177778
        k(  107) = (   0.4666667  -0.4666667   0.0000000), wk =   0.0177778
        k(  108) = (   0.4666667  -0.4000000   0.0000000), wk =   0.0177778
        k(  109) = (   0.4666667  -0.3333333   0.0000000), wk =   0.0177778
        k(  110) = (   0.4666667  -0.2666667   0.0000000), wk =   0.0177778
        k(  111) = (   0.4666667  -0.2000000   0.0000000), wk =   0.0177778
        k(  112) = (   0.4666667  -0.1333333   0.0000000), wk =   0.0177778
        k(  113) = (   0.4666667  -0.0666667   0.0000000), wk =   0.0177778

     Dense  grid:   111671 G-vectors     FFT dimensions: (  30,  30, 288)

     Smooth grid:    52021 G-vectors     FFT dimensions: (  24,  24, 225)

     Dynamical RAM for                 wfc:       0.99 MB

     Dynamical RAM for     wfc (w. buffer):      29.67 MB

     Dynamical RAM for           str. fact:       1.70 MB

     Dynamical RAM for           local pot:       0.00 MB

     Dynamical RAM for          nlocal pot:       1.58 MB

     Dynamical RAM for                qrad:       0.46 MB

     Dynamical RAM for          rho,v,vnew:      11.04 MB

     Dynamical RAM for               rhoin:       3.68 MB

     Dynamical RAM for            rho*nmix:      27.26 MB

     Dynamical RAM for           G-vectors:       6.79 MB

     Dynamical RAM for          h,s,v(r/c):       0.02 MB

     Dynamical RAM for          <psi|beta>:       0.00 MB

     Dynamical RAM for                 psi:       1.98 MB

     Dynamical RAM for                hpsi:       1.98 MB

     Dynamical RAM for                spsi:       1.98 MB

     Dynamical RAM for      wfcinit/wfcrot:       1.98 MB

     Dynamical RAM for           addusdens:      20.45 MB

     Dynamical RAM for          addusforce:      20.87 MB

     Estimated static dynamical RAM per process >      68.22 MB

     Estimated max dynamical RAM per process >     116.36 MB

     Estimated total dynamical RAM >     383.65 MB

     Adding external electric field
        E field amplitude [Ha a.u.]:  1.0000E-01
        Potential amp.        7.9425 Ry
        Total length         39.7126 bohr


     Check: negative core charge=   -0.000002

     Initial potential from superposition of free atoms

     starting charge       7.9999, renormalised to       8.0000

     negative rho (up, down):  1.258E-04 0.000E+00
     Starting wfcs are    8 randomized atomic wfcs +    2 random wfcs
     Checking if some PAW data can be deallocated... 

     total cpu time spent up to now is        3.6 secs

     Self-consistent Calculation

     iteration #  1     ecut=    60.00 Ry     beta= 0.70
     Davidson diagonalization with overlap

---- Real-time Memory Report at c_bands before calling an iterative solver
            99 MiB given to the printing process from OS
             0 MiB allocation reported by mallinfo(arena+hblkhd)
           310 MiB available memory on the node where the printing process lives
------------------
     ethr =  1.00E-02,  avg # of iterations = 14.3

     negative rho (up, down):  1.697E-05 0.000E+00

     total cpu time spent up to now is       20.6 secs

     total energy              =      63.45608547 Ry
     estimated scf accuracy    <     159.45704842 Ry

     iteration #  2     ecut=    60.00 Ry     beta= 0.70
     Davidson diagonalization with overlap

---- Real-time Memory Report at c_bands before calling an iterative solver
           138 MiB given to the printing process from OS
             0 MiB allocation reported by mallinfo(arena+hblkhd)
           412 MiB available memory on the node where the printing process lives
------------------
     c_bands:  2 eigenvalues not converged
     c_bands:  1 eigenvalues not converged
     c_bands:  2 eigenvalues not converged
     c_bands:  1 eigenvalues not converged
     c_bands:  1 eigenvalues not converged
     c_bands:  1 eigenvalues not converged
     c_bands:  1 eigenvalues not converged
     c_bands:  2 eigenvalues not converged
     ethr =  1.00E-02,  avg # of iterations = 18.9

     negative rho (up, down):  1.602E-04 0.000E+00

     total cpu time spent up to now is       44.8 secs

     total energy              =     -65.09413462 Ry
     estimated scf accuracy    <      97.22943446 Ry

     iteration #  3     ecut=    60.00 Ry     beta= 0.70
     Davidson diagonalization with overlap

---- Real-time Memory Report at c_bands before calling an iterative solver
           139 MiB given to the printing process from OS
             0 MiB allocation reported by mallinfo(arena+hblkhd)
           412 MiB available memory on the node where the printing process lives
------------------
     ethr =  1.00E-02,  avg # of iterations =  4.5

     negative rho (up, down):  2.201E-04 0.000E+00

     total cpu time spent up to now is       51.1 secs

     total energy              =     -58.98543692 Ry
     estimated scf accuracy    <      29.42066292 Ry

     iteration #  4     ecut=    60.00 Ry     beta= 0.70
     Davidson diagonalization with overlap

---- Real-time Memory Report at c_bands before calling an iterative solver
           141 MiB given to the printing process from OS
             0 MiB allocation reported by mallinfo(arena+hblkhd)
           408 MiB available memory on the node where the printing process lives
------------------
     ethr =  1.00E-02,  avg # of iterations =  1.8

     negative rho (up, down):  2.071E-04 0.000E+00

     total cpu time spent up to now is       54.8 secs

     total energy              =     -52.49999478 Ry
     estimated scf accuracy    <      19.38090494 Ry

     iteration #  5     ecut=    60.00 Ry     beta= 0.70
     Davidson diagonalization with overlap

---- Real-time Memory Report at c_bands before calling an iterative solver
           143 MiB given to the printing process from OS
             0 MiB allocation reported by mallinfo(arena+hblkhd)
           394 MiB available memory on the node where the printing process lives
------------------
     ethr =  1.00E-02,  avg # of iterations =  3.3

     negative rho (up, down):  1.850E-04 0.000E+00

     total cpu time spent up to now is       58.0 secs

     total energy              =     -49.20085037 Ry
     estimated scf accuracy    <      11.68659175 Ry

     iteration #  6     ecut=    60.00 Ry     beta= 0.70
     Davidson diagonalization with overlap

---- Real-time Memory Report at c_bands before calling an iterative solver
           144 MiB given to the printing process from OS
             0 MiB allocation reported by mallinfo(arena+hblkhd)
           412 MiB available memory on the node where the printing process lives
------------------
     ethr =  1.00E-02,  avg # of iterations =  2.8

     negative rho (up, down):  1.653E-04 0.000E+00

     total cpu time spent up to now is       62.4 secs

     total energy              =     -49.19645053 Ry
     estimated scf accuracy    <       7.42511366 Ry

     iteration #  7     ecut=    60.00 Ry     beta= 0.70
     Davidson diagonalization with overlap

---- Real-time Memory Report at c_bands before calling an iterative solver
           146 MiB given to the printing process from OS
             0 MiB allocation reported by mallinfo(arena+hblkhd)
           385 MiB available memory on the node where the printing process lives
------------------
     ethr =  1.00E-02,  avg # of iterations =  1.0

     negative rho (up, down):  1.828E-04 0.000E+00

     total cpu time spent up to now is       65.2 secs

     total energy              =     -45.63084832 Ry
     estimated scf accuracy    <       7.33720417 Ry

     iteration #  8     ecut=    60.00 Ry     beta= 0.70
     Davidson diagonalization with overlap

---- Real-time Memory Report at c_bands before calling an iterative solver
           147 MiB given to the printing process from OS
             0 MiB allocation reported by mallinfo(arena+hblkhd)
           409 MiB available memory on the node where the printing process lives
------------------
     ethr =  1.00E-02,  avg # of iterations =  3.1

     negative rho (up, down):  9.945E-05 0.000E+00

     total cpu time spent up to now is       70.0 secs

     total energy              =     -46.39890309 Ry
     estimated scf accuracy    <       1.38722570 Ry

     iteration #  9     ecut=    60.00 Ry     beta= 0.70
     Davidson diagonalization with overlap

---- Real-time Memory Report at c_bands before calling an iterative solver
           149 MiB given to the printing process from OS
             0 MiB allocation reported by mallinfo(arena+hblkhd)
           396 MiB available memory on the node where the printing process lives
------------------
     ethr =  1.00E-02,  avg # of iterations =  1.0

     negative rho (up, down):  1.131E-04 0.000E+00

     total cpu time spent up to now is       73.6 secs

     total energy              =     -46.38426793 Ry
     estimated scf accuracy    <       1.37062460 Ry

     iteration # 10     ecut=    60.00 Ry     beta= 0.70
     Davidson diagonalization with overlap

---- Real-time Memory Report at c_bands before calling an iterative solver
           151 MiB given to the printing process from OS
             0 MiB allocation reported by mallinfo(arena+hblkhd)
           392 MiB available memory on the node where the printing process lives
------------------
     ethr =  1.00E-02,  avg # of iterations =  1.0

     negative rho (up, down):  4.849E-02 0.000E+00

     total cpu time spent up to now is       76.7 secs

     total energy              =     -48.27363083 Ry
     estimated scf accuracy    <       1.17131117 Ry

     iteration # 11     ecut=    60.00 Ry     beta= 0.70
     Davidson diagonalization with overlap

---- Real-time Memory Report at c_bands before calling an iterative solver
           151 MiB given to the printing process from OS
             0 MiB allocation reported by mallinfo(arena+hblkhd)
           400 MiB available memory on the node where the printing process lives
------------------
     ethr =  1.00E-02,  avg # of iterations =  8.7

     negative rho (up, down):  4.073E-04 0.000E+00

     total cpu time spent up to now is       87.5 secs

     total energy              =     -58.49022661 Ry
     estimated scf accuracy    <     163.41999376 Ry

     iteration # 12     ecut=    60.00 Ry     beta= 0.70
     Davidson diagonalization with overlap

---- Real-time Memory Report at c_bands before calling an iterative solver
           151 MiB given to the printing process from OS
             0 MiB allocation reported by mallinfo(arena+hblkhd)
           407 MiB available memory on the node where the printing process lives
------------------
     ethr =  1.00E-02,  avg # of iterations =  1.9

     negative rho (up, down):  4.403E-04 0.000E+00

     total cpu time spent up to now is       92.3 secs

     total energy              =     -44.47748384 Ry
     estimated scf accuracy    <     140.42058313 Ry

     iteration # 13     ecut=    60.00 Ry     beta= 0.70
     Davidson diagonalization with overlap

---- Real-time Memory Report at c_bands before calling an iterative solver
           151 MiB given to the printing process from OS
             0 MiB allocation reported by mallinfo(arena+hblkhd)
           383 MiB available memory on the node where the printing process lives
------------------
     ethr =  1.00E-02,  avg # of iterations =  6.4

     negative rho (up, down):  2.958E-04 0.000E+00

     total cpu time spent up to now is       99.9 secs

     total energy              =     -43.81901320 Ry
     estimated scf accuracy    <      27.88918797 Ry

     iteration # 14     ecut=    60.00 Ry     beta= 0.70
     Davidson diagonalization with overlap

---- Real-time Memory Report at c_bands before calling an iterative solver
           151 MiB given to the printing process from OS
             0 MiB allocation reported by mallinfo(arena+hblkhd)
           407 MiB available memory on the node where the printing process lives
------------------
     ethr =  1.00E-02,  avg # of iterations =  5.3

     negative rho (up, down):  1.807E-04 0.000E+00

     total cpu time spent up to now is      107.1 secs

     total energy              =     -46.82535625 Ry
     estimated scf accuracy    <       0.92473148 Ry

     iteration # 15     ecut=    60.00 Ry     beta= 0.70
     Davidson diagonalization with overlap

---- Real-time Memory Report at c_bands before calling an iterative solver
           151 MiB given to the printing process from OS
             0 MiB allocation reported by mallinfo(arena+hblkhd)
           389 MiB available memory on the node where the printing process lives
------------------
     ethr =  1.00E-02,  avg # of iterations =  2.9

     negative rho (up, down):  9.406E-05 0.000E+00

     total cpu time spent up to now is      112.1 secs

     total energy              =     -47.22276780 Ry
     estimated scf accuracy    <       4.71223620 Ry

     iteration # 16     ecut=    60.00 Ry     beta= 0.70
     Davidson diagonalization with overlap

---- Real-time Memory Report at c_bands before calling an iterative solver
           151 MiB given to the printing process from OS
             0 MiB allocation reported by mallinfo(arena+hblkhd)
           391 MiB available memory on the node where the printing process lives
------------------
     ethr =  1.00E-02,  avg # of iterations =  1.0

     negative rho (up, down):  1.045E-04 0.000E+00

     total cpu time spent up to now is      116.2 secs

     total energy              =     -46.71024161 Ry
     estimated scf accuracy    <       4.16262831 Ry

     iteration # 17     ecut=    60.00 Ry     beta= 0.70
     Davidson diagonalization with overlap

---- Real-time Memory Report at c_bands before calling an iterative solver
           151 MiB given to the printing process from OS
             0 MiB allocation reported by mallinfo(arena+hblkhd)
           382 MiB available memory on the node where the printing process lives
------------------
     ethr =  1.00E-02,  avg # of iterations =  1.0

     negative rho (up, down):  9.321E-05 0.000E+00

     total cpu time spent up to now is      119.3 secs

     total energy              =     -46.71822538 Ry
     estimated scf accuracy    <       2.01627058 Ry

     iteration # 18     ecut=    60.00 Ry     beta= 0.70
     Davidson diagonalization with overlap

---- Real-time Memory Report at c_bands before calling an iterative solver
           151 MiB given to the printing process from OS
             0 MiB allocation reported by mallinfo(arena+hblkhd)
           391 MiB available memory on the node where the printing process lives
------------------
     ethr =  1.00E-02,  avg # of iterations =  1.0

     negative rho (up, down):  9.196E-05 0.000E+00

     total cpu time spent up to now is      123.0 secs

     total energy              =     -46.60758381 Ry
     estimated scf accuracy    <       1.78660912 Ry

     iteration # 19     ecut=    60.00 Ry     beta= 0.70
     Davidson diagonalization with overlap

---- Real-time Memory Report at c_bands before calling an iterative solver
           151 MiB given to the printing process from OS
             0 MiB allocation reported by mallinfo(arena+hblkhd)
           386 MiB available memory on the node where the printing process lives
------------------
     ethr =  1.00E-02,  avg # of iterations =  1.0

     negative rho (up, down):  9.384E-05 0.000E+00

     total cpu time spent up to now is      126.2 secs

     total energy              =     -46.54361328 Ry
     estimated scf accuracy    <       1.35185813 Ry

     iteration # 20     ecut=    60.00 Ry     beta= 0.70
     Davidson diagonalization with overlap

---- Real-time Memory Report at c_bands before calling an iterative solver
           151 MiB given to the printing process from OS
             0 MiB allocation reported by mallinfo(arena+hblkhd)
           396 MiB available memory on the node where the printing process lives
------------------
     ethr =  1.00E-02,  avg # of iterations =  1.0

     negative rho (up, down):  9.077E-05 0.000E+00

     total cpu time spent up to now is      129.5 secs

     total energy              =     -46.50800204 Ry
     estimated scf accuracy    <       1.12690200 Ry

     iteration # 21     ecut=    60.00 Ry     beta= 0.70
     Davidson diagonalization with overlap

---- Real-time Memory Report at c_bands before calling an iterative solver
           151 MiB given to the printing process from OS
             0 MiB allocation reported by mallinfo(arena+hblkhd)
           397 MiB available memory on the node where the printing process lives
------------------
     ethr =  1.00E-02,  avg # of iterations =  1.0

     negative rho (up, down):  5.956E-01 0.000E+00

     total cpu time spent up to now is      133.8 secs

     total energy              =     -48.43314491 Ry
     estimated scf accuracy    <       0.98914996 Ry

     iteration # 22     ecut=    60.00 Ry     beta= 0.70
     Davidson diagonalization with overlap

---- Real-time Memory Report at c_bands before calling an iterative solver
           151 MiB given to the printing process from OS
             0 MiB allocation reported by mallinfo(arena+hblkhd)
           367 MiB available memory on the node where the printing process lives
------------------
     ethr =  1.00E-02,  avg # of iterations =  2.0

     negative rho (up, down):  1.595E-02 0.000E+00

     total cpu time spent up to now is      137.8 secs

     total energy              =     -45.41374535 Ry
     estimated scf accuracy    <       3.61171386 Ry

     iteration # 23     ecut=    60.00 Ry     beta= 0.70
     Davidson diagonalization with overlap

---- Real-time Memory Report at c_bands before calling an iterative solver
           151 MiB given to the printing process from OS
             0 MiB allocation reported by mallinfo(arena+hblkhd)
           390 MiB available memory on the node where the printing process lives
------------------
     ethr =  1.00E-02,  avg # of iterations =  4.9

     negative rho (up, down):  4.970E-03 0.000E+00

     total cpu time spent up to now is      143.7 secs

     total energy              =     -45.54435434 Ry
     estimated scf accuracy    <       1.53082264 Ry

     iteration # 24     ecut=    60.00 Ry     beta= 0.70
     Davidson diagonalization with overlap

---- Real-time Memory Report at c_bands before calling an iterative solver
           151 MiB given to the printing process from OS
             0 MiB allocation reported by mallinfo(arena+hblkhd)
           394 MiB available memory on the node where the printing process lives
------------------
     ethr =  1.00E-02,  avg # of iterations =  3.1

     negative rho (up, down):  6.584E-05 0.000E+00

     total cpu time spent up to now is      147.7 secs

     total energy              =     -45.70374998 Ry
     estimated scf accuracy    <       0.98169333 Ry

     iteration # 25     ecut=    60.00 Ry     beta= 0.70
     Davidson diagonalization with overlap

---- Real-time Memory Report at c_bands before calling an iterative solver
           151 MiB given to the printing process from OS
             0 MiB allocation reported by mallinfo(arena+hblkhd)
           388 MiB available memory on the node where the printing process lives
------------------
     ethr =  1.00E-02,  avg # of iterations =  2.3

     negative rho (up, down):  7.050E-04 0.000E+00

     total cpu time spent up to now is      152.7 secs

     total energy              =     -45.87471430 Ry
     estimated scf accuracy    <       0.39370843 Ry

     iteration # 26     ecut=    60.00 Ry     beta= 0.70
     Davidson diagonalization with overlap

---- Real-time Memory Report at c_bands before calling an iterative solver
           151 MiB given to the printing process from OS
             0 MiB allocation reported by mallinfo(arena+hblkhd)
           387 MiB available memory on the node where the printing process lives
------------------
     ethr =  4.92E-03,  avg # of iterations =  1.1

     negative rho (up, down):  1.135E-03 0.000E+00

     total cpu time spent up to now is      156.5 secs

     total energy              =     -45.89456958 Ry
     estimated scf accuracy    <       0.03045341 Ry

     iteration # 27     ecut=    60.00 Ry     beta= 0.70
     Davidson diagonalization with overlap

---- Real-time Memory Report at c_bands before calling an iterative solver
           151 MiB given to the printing process from OS
             0 MiB allocation reported by mallinfo(arena+hblkhd)
           382 MiB available memory on the node where the printing process lives
------------------
     ethr =  3.81E-04,  avg # of iterations =  7.2

     negative rho (up, down):  4.796E-04 0.000E+00

     total cpu time spent up to now is      162.8 secs

     total energy              =     -45.89302282 Ry
     estimated scf accuracy    <       0.01634876 Ry

     iteration # 28     ecut=    60.00 Ry     beta= 0.70
     Davidson diagonalization with overlap

---- Real-time Memory Report at c_bands before calling an iterative solver
           151 MiB given to the printing process from OS
             0 MiB allocation reported by mallinfo(arena+hblkhd)
           396 MiB available memory on the node where the printing process lives
------------------
     ethr =  2.04E-04,  avg # of iterations =  1.7

     negative rho (up, down):  9.974E-05 0.000E+00

     total cpu time spent up to now is      167.0 secs

     total energy              =     -45.89342195 Ry
     estimated scf accuracy    <       0.00170645 Ry

     iteration # 29     ecut=    60.00 Ry     beta= 0.70
     Davidson diagonalization with overlap

---- Real-time Memory Report at c_bands before calling an iterative solver
           151 MiB given to the printing process from OS
             0 MiB allocation reported by mallinfo(arena+hblkhd)
           374 MiB available memory on the node where the printing process lives
------------------
     ethr =  2.13E-05,  avg # of iterations =  7.0

     negative rho (up, down):  8.087E-05 0.000E+00

     total cpu time spent up to now is      172.3 secs

     total energy              =     -45.89353833 Ry
     estimated scf accuracy    <       0.00001581 Ry

     iteration # 30     ecut=    60.00 Ry     beta= 0.70
     Davidson diagonalization with overlap

---- Real-time Memory Report at c_bands before calling an iterative solver
           151 MiB given to the printing process from OS
             0 MiB allocation reported by mallinfo(arena+hblkhd)
           395 MiB available memory on the node where the printing process lives
------------------
     ethr =  1.98E-07,  avg # of iterations =  4.9

     negative rho (up, down):  8.712E-05 0.000E+00

     total cpu time spent up to now is      177.4 secs

     total energy              =     -45.89354074 Ry
     estimated scf accuracy    <       0.00000079 Ry

     iteration # 31     ecut=    60.00 Ry     beta= 0.70
     Davidson diagonalization with overlap

---- Real-time Memory Report at c_bands before calling an iterative solver
           151 MiB given to the printing process from OS
             0 MiB allocation reported by mallinfo(arena+hblkhd)
           394 MiB available memory on the node where the printing process lives
------------------
     ethr =  9.92E-09,  avg # of iterations =  2.0

     negative rho (up, down):  8.925E-05 0.000E+00

     total cpu time spent up to now is      181.0 secs

     total energy              =     -45.89354092 Ry
     estimated scf accuracy    <       0.00000020 Ry

     iteration # 32     ecut=    60.00 Ry     beta= 0.70
     Davidson diagonalization with overlap

---- Real-time Memory Report at c_bands before calling an iterative solver
           151 MiB given to the printing process from OS
             0 MiB allocation reported by mallinfo(arena+hblkhd)
           388 MiB available memory on the node where the printing process lives
------------------
     ethr =  2.46E-09,  avg # of iterations =  1.9

     negative rho (up, down):  9.104E-05 0.000E+00

     total cpu time spent up to now is      185.4 secs

     End of self-consistent calculation

          k = 0.0000 0.0000 0.0000 (  6469 PWs)   bands (ev):

   -18.4755 -10.7797  -7.3277  -1.9375  -0.3244   0.2423   1.4637   1.9472
     2.1052   3.1559

     occupation numbers 
     1.0000   1.0000   1.0000   0.0000   0.0000   0.0000   0.0000   0.0000
     0.0000   0.0000

          k = 0.0000 0.0770 0.0000 (  6464 PWs)   bands (ev):

   -18.3663 -10.6391  -7.1973  -2.2587  -0.6743   0.3865   1.6103   2.0932
     2.2507   3.3014

     occupation numbers 
     1.0000   1.0000   1.0000   0.0000   0.0000   0.0000   0.0000   0.0000
     0.0000   0.0000

          k = 0.0000 0.1540 0.0000 (  6496 PWs)   bands (ev):

   -18.0396 -10.2180  -6.8079  -3.1995  -1.4801   0.8207   2.0503   2.5308
     2.6873   3.7375

     occupation numbers 
     1.0000   1.0000   1.0000   0.0000   0.0000   0.0000   0.0000   0.0000
     0.0000   0.0000

          k = 0.0000 0.2309 0.0000 (  6474 PWs)   bands (ev):

   -17.4987  -9.5183  -6.1659  -4.6443  -2.3467   1.5435   2.7828   3.2584
     3.4129   4.4621

     occupation numbers 
     1.0000   1.0000   1.0000   1.0000   0.0000   0.0000   0.0000   0.0000
     0.0000   0.0000

          k = 0.0000 0.3079 0.0000 (  6492 PWs)   bands (ev):

   -16.7493  -8.5450  -6.3700  -5.2711  -3.1042   2.5473   3.8016   4.2567
     4.4063   5.2766

     occupation numbers 
     1.0000   1.0000   1.0000   1.0000   0.0000   0.0000   0.0000   0.0000
     0.0000   0.0000

          k = 0.0000 0.3849 0.0000 (  6484 PWs)   bands (ev):

   -15.8030  -8.1526  -7.3088  -4.1714  -3.7034   3.0324   3.9118   5.1233
     5.5277   5.6404

     occupation numbers 
     1.0000   1.0000   1.0000   1.0000   0.6239   0.0000   0.0000   0.0000
     0.0000   0.0000

          k = 0.0000 0.4619 0.0000 (  6490 PWs)   bands (ev):

   -14.6873  -9.8703  -5.8462  -4.1167  -2.9394   0.8799   3.4628   5.5026
     6.7560   7.1918

     occupation numbers 
     1.0000   1.0000   1.0000   1.0000   0.0000   0.0000   0.0000   0.0000
     0.0000   0.0000

          k = 0.0000 0.5389 0.0000 (  6524 PWs)   bands (ev):

   -13.5385 -11.3316  -4.4110  -4.2524  -2.1705  -0.6131   1.8334   7.3471
     8.4466   8.6574

     occupation numbers 
     1.0000   1.0000   1.0000   1.0000   0.0000   0.0000   0.0000   0.0000
     0.0000   0.0000

          k = 0.0667 0.0385 0.0000 (  6464 PWs)   bands (ev):

   -18.3658 -10.6395  -7.1990  -2.1280  -0.8335   0.3862   1.6103   2.0930
     2.2506   3.3011

     occupation numbers 
     1.0000   1.0000   1.0000   0.0000   0.0000   0.0000   0.0000   0.0000
     0.0000   0.0000

          k = 0.0667 0.1155 0.0000 (  6499 PWs)   bands (ev):

   -18.1472 -10.3592  -6.9421  -2.5723  -1.6161   0.6757   1.9036   2.3845
     2.5417   3.5915

     occupation numbers 
     1.0000   1.0000   1.0000   0.0000   0.0000   0.0000   0.0000   0.0000
     0.0000   0.0000

          k = 0.0667 0.1925 0.0000 (  6491 PWs)   bands (ev):

   -17.7128  -9.7995  -6.4288  -3.7484  -2.4685   1.2546   2.4900   2.9671
     3.1231   4.1719

     occupation numbers 
     1.0000   1.0000   1.0000   0.7833   0.0000   0.0000   0.0000   0.0000
     0.0000   0.0000

          k = 0.0667 0.2694 0.0000 (  6480 PWs)   bands (ev):

   -17.0672  -8.9636  -5.6798  -5.3767  -3.2144   2.1196   3.3675   3.8366
     3.9892   5.0364

     occupation numbers 
     1.0000   1.0000   1.0000   1.0000   0.0000   0.0000   0.0000   0.0000
     0.0000   0.0000

          k = 0.0667 0.3464 0.0000 (  6491 PWs)   bands (ev):

   -16.2189  -7.8597  -7.1821  -4.6679  -3.8493   3.2369   4.2086   4.5888
     5.0310   5.2197

     occupation numbers 
     1.0000   1.0000   1.0000   1.0000   0.9665   0.0000   0.0000   0.0000
     0.0000   0.0000

          k = 0.0667 0.4234 0.0000 (  6487 PWs)   bands (ev):

   -15.1851  -8.9553  -6.5056  -4.3386  -3.4763   2.0224   4.4300   4.8871
     6.0284   6.4657

     occupation numbers 
     1.0000   1.0000   1.0000   1.0000   0.0204   0.0000   0.0000   0.0000
     0.0000   0.0000

          k = 0.0667 0.5004 0.0000 (  6503 PWs)   bands (ev):

   -14.0198 -10.5899  -4.9846  -4.6224  -2.2968   0.0097   2.5957   6.4922
     7.7798   8.1639

     occupation numbers 
     1.0000   1.0000   1.0000   1.0000   0.0000   0.0000   0.0000   0.0000
     0.0000   0.0000

          k = 0.0667 0.5774 0.0000 (  6480 PWs)   bands (ev):

   -13.1806 -11.5970  -4.7343  -3.8486  -2.1901  -0.5704   1.5115   8.3473
     8.5358   8.8870

     occupation numbers 
     1.0000   1.0000   1.0000   0.9660   0.0000   0.0000   0.0000   0.0000
     0.0000   0.0000

          k = 0.0667-0.5004 0.0000 (  6503 PWs)   bands (ev):

   -14.0184 -10.6198  -4.9685  -4.5856  -2.2862   0.0096   2.5253   6.4920
     7.7794   8.1844

     occupation numbers 
     1.0000   1.0000   1.0000   1.0000   0.0000   0.0000   0.0000   0.0000
     0.0000   0.0000

          k = 0.0667-0.4234 0.0000 (  6487 PWs)   bands (ev):

   -15.1873  -9.0222  -6.4940  -4.2525  -3.4476   1.9710   4.3809   4.8672
     6.0273   6.4726

     occupation numbers 
     1.0000   1.0000   1.0000   1.0000   0.0096   0.0000   0.0000   0.0000
     0.0000   0.0000

          k = 0.0667-0.3464 0.0000 (  6491 PWs)   bands (ev):

   -16.2227  -7.8517  -7.3183  -4.6408  -3.6812   3.2292   4.1290   4.5816
     5.0340   5.2171

     occupation numbers 
     1.0000   1.0000   1.0000   1.0000   0.5338   0.0000   0.0000   0.0000
     0.0000   0.0000

          k = 0.0667-0.2694 0.0000 (  6480 PWs)   bands (ev):

   -17.0712  -8.9584  -5.7111  -5.5864  -2.9024   2.1194   3.3671   3.8380
     3.9881   5.0375

     occupation numbers 
     1.0000   1.0000   1.0000   1.0000   0.0000   0.0000   0.0000   0.0000
     0.0000   0.0000

          k = 0.0667-0.1925 0.0000 (  6491 PWs)   bands (ev):

   -17.7161  -9.7962  -6.4140  -4.1865  -1.9613   1.2547   2.4899   2.9685
     3.1231   4.1739

     occupation numbers 
     1.0000   1.0000   1.0000   1.0000   0.0000   0.0000   0.0000   0.0000
     0.0000   0.0000

          k = 0.0667-0.1155 0.0000 (  6499 PWs)   bands (ev):

   -18.1494 -10.3574  -6.9333  -3.0490  -1.0653   0.6760   1.9036   2.3854
     2.5419   3.5927

     occupation numbers 
     1.0000   1.0000   1.0000   0.0000   0.0000   0.0000   0.0000   0.0000
     0.0000   0.0000

          k = 0.0667-0.0385 0.0000 (  6464 PWs)   bands (ev):

   -18.3666 -10.6389  -7.1961  -2.3254  -0.6004   0.3864   1.6103   2.0933
     2.2507   3.3018

     occupation numbers 
     1.0000   1.0000   1.0000   0.0000   0.0000   0.0000   0.0000   0.0000
     0.0000   0.0000

          k = 0.1333 0.0770 0.0000 (  6496 PWs)   bands (ev):

   -18.0380 -10.2195  -6.8151  -2.6999  -2.0586   0.8203   2.0503   2.5301
     2.6872   3.7364

     occupation numbers 
     1.0000   1.0000   1.0000   0.0000   0.0000   0.0000   0.0000   0.0000
     0.0000   0.0000

          k = 0.1333 0.1540 0.0000 (  6491 PWs)   bands (ev):

   -17.7117  -9.8008  -6.4347  -3.1465  -3.1182   1.2543   2.4900   2.9665
     3.1232   4.1708

     occupation numbers 
     1.0000   1.0000   1.0000   0.0000   0.0000   0.0000   0.0000   0.0000
     0.0000   0.0000

          k = 0.1333 0.2309 0.0000 (  6457 PWs)   bands (ev):

   -17.1727  -9.1048  -5.8035  -4.5661  -3.8060   1.9759   3.2218   3.6920
     3.8466   4.8935

     occupation numbers 
     1.0000   1.0000   1.0000   1.0000   0.9166   0.0000   0.0000   0.0000
     0.0000   0.0000

          k = 0.1333 0.3079 0.0000 (  6480 PWs)   bands (ev):

   -16.4278  -8.1373  -6.2206  -4.9391  -4.4867   2.9752   4.2305   4.6662
     4.7994   5.3042

     occupation numbers 
     1.0000   1.0000   1.0000   1.0000   1.0000   0.0000   0.0000   0.0000
     0.0000   0.0000

          k = 0.1333 0.3849 0.0000 (  6474 PWs)   bands (ev):

   -15.4895  -7.9527  -6.9098  -5.0844  -3.8204   3.1504   4.3270   5.5443
     5.7604   6.0313

     occupation numbers 
     1.0000   1.0000   1.0000   1.0000   0.9373   0.0000   0.0000   0.0000
     0.0000   0.0000

          k = 0.1333 0.4619 0.0000 (  6494 PWs)   bands (ev):

   -14.3870  -9.6368  -5.5248  -5.4100  -2.5794   1.1176   3.5661   5.9117
     7.1956   7.5616

     occupation numbers 
     1.0000   1.0000   1.0000   1.0000   0.0000   0.0000   0.0000   0.0000
     0.0000   0.0000

          k = 0.1333 0.5389 0.0000 (  6490 PWs)   bands (ev):

   -13.2531 -11.0874  -5.6657  -3.9535  -1.7480  -0.3113   1.8461   7.6927
     8.0947   9.0963

     occupation numbers 
     1.0000   1.0000   1.0000   0.9982   0.0000   0.0000   0.0000   0.0000
     0.0000   0.0000

          k = 0.1333 0.6158 0.0000 (  6490 PWs)   bands (ev):

   -13.2430 -11.1315  -5.6245  -3.9148  -1.7902  -0.2421   1.7352   7.6890
     8.1313   9.0934

     occupation numbers 
     1.0000   1.0000   1.0000   0.9940   0.0000   0.0000   0.0000   0.0000
     0.0000   0.0000

          k = 0.1333-0.4619 0.0000 (  6494 PWs)   bands (ev):

   -14.3852  -9.7565  -5.4635  -5.2960  -2.5239   1.0384   3.4259   5.9137
     7.1945   7.5926

     occupation numbers 
     1.0000   1.0000   1.0000   1.0000   0.0000   0.0000   0.0000   0.0000
     0.0000   0.0000

          k = 0.1333-0.3849 0.0000 (  6474 PWs)   bands (ev):

   -15.4943  -8.2046  -6.8892  -4.7815  -3.7589   2.9637   4.3296   5.5314
     5.6991   6.0359

     occupation numbers 
     1.0000   1.0000   1.0000   1.0000   0.8141   0.0000   0.0000   0.0000
     0.0000   0.0000

          k = 0.1333-0.3079 0.0000 (  6480 PWs)   bands (ev):

   -16.4349  -8.1232  -6.7110  -4.8776  -3.9269   2.9715   4.2191   4.6157
     4.7748   5.1414

     occupation numbers 
     1.0000   1.0000   1.0000   1.0000   0.9958   0.0000   0.0000   0.0000
     0.0000   0.0000

          k = 0.1333-0.2309 0.0000 (  6457 PWs)   bands (ev):

   -17.1796  -9.0957  -5.7683  -5.3918  -2.8648   1.9760   3.2212   3.6956
     3.8449   4.8994

     occupation numbers 
     1.0000   1.0000   1.0000   1.0000   0.0000   0.0000   0.0000   0.0000
     0.0000   0.0000

          k = 0.1333-0.1540 0.0000 (  6491 PWs)   bands (ev):

   -17.7169  -9.7953  -6.4097  -4.2859  -1.8454   1.2547   2.4898   2.9688
     3.1229   4.1747

     occupation numbers 
     1.0000   1.0000   1.0000   1.0000   0.0000   0.0000   0.0000   0.0000
     0.0000   0.0000

          k = 0.1333-0.0770 0.0000 (  6496 PWs)   bands (ev):

   -18.0408 -10.2169  -6.8028  -3.3827  -1.2741   0.8206   2.0502   2.5312
     2.6871   3.7382

     occupation numbers 
     1.0000   1.0000   1.0000   0.0013   0.0000   0.0000   0.0000   0.0000
     0.0000   0.0000

          k = 0.1333 0.0000 0.0000 (  6499 PWs)   bands (ev):

   -18.1481 -10.3585  -6.9384  -2.7947  -1.3797   0.6756   1.9036   2.3848
     2.5417   3.5920

     occupation numbers 
     1.0000   1.0000   1.0000   0.0000   0.0000   0.0000   0.0000   0.0000
     0.0000   0.0000

          k = 0.2000 0.1155 0.0000 (  6474 PWs)   bands (ev):

   -17.4954  -9.5223  -6.1836  -4.0790  -3.0283   1.5429   2.7830   3.2564
     3.4133   4.4584

     occupation numbers 
     1.0000   1.0000   1.0000   1.0000   0.0000   0.0000   0.0000   0.0000
     0.0000   0.0000

          k = 0.2000 0.1925 0.0000 (  6480 PWs)   bands (ev):

   -17.0648  -8.9680  -5.6913  -4.9387  -3.7450   2.1190   3.3679   3.8338
     3.9904   5.0299

     occupation numbers 
     1.0000   1.0000   1.0000   1.0000   0.7728   0.0000   0.0000   0.0000
     0.0000   0.0000

          k = 0.2000 0.2694 0.0000 (  6480 PWs)   bands (ev):

   -16.4268  -8.1408  -5.9410  -4.9839  -4.7748   2.9748   4.2323   4.6621
     4.8106   5.3546

     occupation numbers 
     1.0000   1.0000   1.0000   1.0000   1.0000   0.0000   0.0000   0.0000
     0.0000   0.0000

          k = 0.2000 0.3464 0.0000 (  6482 PWs)   bands (ev):

   -15.5920  -7.1721  -7.0407  -5.8399  -3.9510   3.6846   4.2587   5.4416
     5.8537   6.0722

     occupation numbers 
     1.0000   1.0000   1.0000   1.0000   0.9981   0.0000   0.0000   0.0000
     0.0000   0.0000

          k = 0.2000 0.4234 0.0000 (  6465 PWs)   bands (ev):

   -14.5804  -8.6587  -6.4806  -5.7137  -2.7720   2.1344   4.6221   5.6105
     6.4947   6.9094

     occupation numbers 
     1.0000   1.0000   1.0000   1.0000   0.0000   0.0000   0.0000   0.0000
     0.0000   0.0000

          k = 0.2000 0.5004 0.0000 (  6474 PWs)   bands (ev):

   -13.4469 -10.1744  -6.8109  -4.2106  -1.5141   0.3952   2.6478   5.8781
     7.3351   8.6580

     occupation numbers 
     1.0000   1.0000   1.0000   1.0000   0.0000   0.0000   0.0000   0.0000
     0.0000   0.0000

          k = 0.2000 0.5774 0.0000 (  6484 PWs)   bands (ev):

   -12.6055 -11.1971  -6.8662  -3.0688  -1.4756   0.2381   1.2335   5.7013
     9.1394   9.3989

     occupation numbers 
     1.0000   1.0000   1.0000   0.0000   0.0000   0.0000   0.0000   0.0000
     0.0000   0.0000

          k = 0.2000 0.6543 0.0000 (  6474 PWs)   bands (ev):

   -13.4236 -10.3583  -6.6256  -4.1374  -1.4698   0.3269   2.4646   5.8919
     7.3457   8.6560

     occupation numbers 
     1.0000   1.0000   1.0000   1.0000   0.0000   0.0000   0.0000   0.0000
     0.0000   0.0000

          k = 0.2000-0.4234 0.0000 (  6465 PWs)   bands (ev):

   -14.5761  -9.0549  -6.0442  -5.6553  -2.6633   1.8432   4.5390   5.6117
     6.4982   6.9067

     occupation numbers 
     1.0000   1.0000   1.0000   1.0000   0.0000   0.0000   0.0000   0.0000
     0.0000   0.0000

          k = 0.2000-0.3464 0.0000 (  6482 PWs)   bands (ev):

   -15.5975  -7.8530  -7.0181  -5.0573  -3.8545   3.3411   4.2212   5.4389
     5.8712   6.0698

     occupation numbers 
     1.0000   1.0000   1.0000   1.0000   0.9704   0.0000   0.0000   0.0000
     0.0000   0.0000

          k = 0.2000-0.2694 0.0000 (  6480 PWs)   bands (ev):

   -16.4355  -8.1212  -6.7977  -4.8677  -3.8226   2.9715   4.2162   4.6114
     4.7635   5.1145

     occupation numbers 
     1.0000   1.0000   1.0000   1.0000   0.9400   0.0000   0.0000   0.0000
     0.0000   0.0000

          k = 0.2000-0.1925 0.0000 (  6480 PWs)   bands (ev):

   -17.0729  -8.9555  -5.8287  -5.6168  -2.7076   2.1195   3.3667   3.8400
     3.9867   5.0433

     occupation numbers 
     1.0000   1.0000   1.0000   1.0000   0.0000   0.0000   0.0000   0.0000
     0.0000   0.0000

          k = 0.2000-0.1155 0.0000 (  6474 PWs)   bands (ev):

   -17.5009  -9.5155  -6.1529  -4.8756  -2.0764   1.5435   2.7826   3.2596
     3.4123   4.4645

     occupation numbers 
     1.0000   1.0000   1.0000   1.0000   0.0000   0.0000   0.0000   0.0000
     0.0000   0.0000

          k = 0.2000-0.0385 0.0000 (  6491 PWs)   bands (ev):

   -17.7150  -9.7972  -6.4184  -4.0750  -2.1133   1.2545   2.4899   2.9680
     3.1228   4.1735

     occupation numbers 
     1.0000   1.0000   1.0000   1.0000   0.0000   0.0000   0.0000   0.0000
     0.0000   0.0000

          k = 0.2000 0.0385 0.0000 (  6491 PWs)   bands (ev):

   -17.7130  -9.7994  -6.4285  -3.6763  -2.5763   1.2543   2.4900   2.9670
     3.1232   4.1715

     occupation numbers 
     1.0000   1.0000   1.0000   0.5136   0.0000   0.0000   0.0000   0.0000
     0.0000   0.0000

          k = 0.2667 0.1540 0.0000 (  6492 PWs)   bands (ev):

   -16.7451  -8.5543  -5.9477  -5.2972  -3.6747   2.5465   3.8034   4.2502
     4.4136   5.3287

     occupation numbers 
     1.0000   1.0000   1.0000   1.0000   0.5069   0.0000   0.0000   0.0000
     0.0000   0.0000

          k = 0.2667 0.2309 0.0000 (  6491 PWs)   bands (ev):

   -16.2167  -7.8709  -6.8309  -4.7066  -4.3126   3.2390   4.3138   4.6017
     5.0470   5.2316

     occupation numbers 
     1.0000   1.0000   1.0000   1.0000   1.0000   0.0000   0.0000   0.0000
     0.0000   0.0000

          k = 0.2667 0.3079 0.0000 (  6474 PWs)   bands (ev):

   -15.4909  -7.6637  -6.9207  -5.4404  -3.8612   3.2759   4.3347   5.5445
     5.7663   6.0314

     occupation numbers 
     1.0000   1.0000   1.0000   1.0000   0.9748   0.0000   0.0000   0.0000
     0.0000   0.0000

          k = 0.2667 0.3849 0.0000 (  6465 PWs)   bands (ev):

   -14.5853  -8.4595  -6.7025  -5.7273  -2.8042   2.2375   4.5878   5.6059
     6.5269   6.9101

     occupation numbers 
     1.0000   1.0000   1.0000   1.0000   0.0000   0.0000   0.0000   0.0000
     0.0000   0.0000

          k = 0.2667 0.4619 0.0000 (  6452 PWs)   bands (ev):

   -13.5361  -9.4354  -7.6378  -4.3302  -1.5480   1.0005   3.4234   4.4956
     7.1731   8.5130

     occupation numbers 
     1.0000   1.0000   1.0000   1.0000   0.0000   0.0000   0.0000   0.0000
     0.0000   0.0000

          k = 0.2667 0.5389 0.0000 (  6444 PWs)   bands (ev):

   -12.4554 -10.6298  -7.9731  -2.8717  -0.6165   0.0526   1.8570   3.6617
     8.8743   9.9333

     occupation numbers 
     1.0000   1.0000   1.0000   0.0000   0.0000   0.0000   0.0000   0.0000
     0.0000   0.0000

          k = 0.2667 0.6158 0.0000 (  6444 PWs)   bands (ev):

   -12.3659 -10.8866  -7.7882  -2.7234  -0.8816   0.2703   1.6892   3.6410
     8.9187   9.9892

     occupation numbers 
     1.0000   1.0000   1.0000   0.0000   0.0000   0.0000   0.0000   0.0000
     0.0000   0.0000

          k = 0.2667 0.6928 0.0000 (  6452 PWs)   bands (ev):

   -13.4895  -9.9788  -7.0871  -4.2183  -1.3645   0.5805   3.4348   4.3719
     7.1858   8.5104

     occupation numbers 
     1.0000   1.0000   1.0000   1.0000   0.0000   0.0000   0.0000   0.0000
     0.0000   0.0000

          k = 0.2667-0.3849 0.0000 (  6465 PWs)   bands (ev):

   -14.5724  -9.1407  -5.9484  -5.6475  -2.6357   1.7665   4.5603   5.6156
     6.4779   6.9063

     occupation numbers 
     1.0000   1.0000   1.0000   1.0000   0.0000   0.0000   0.0000   0.0000
     0.0000   0.0000

          k = 0.2667-0.3079 0.0000 (  6474 PWs)   bands (ev):

   -15.4932  -8.3436  -6.8780  -4.6171  -3.7268   2.8681   4.3246   5.5315
     5.6969   6.0362

     occupation numbers 
     1.0000   1.0000   1.0000   1.0000   0.7121   0.0000   0.0000   0.0000
     0.0000   0.0000

          k = 0.2667-0.2309 0.0000 (  6491 PWs)   bands (ev):

   -16.2241  -7.8490  -7.4898  -4.6116  -3.4577   3.2254   4.0382   4.5772
     5.0253   5.2115

     occupation numbers 
     1.0000   1.0000   1.0000   1.0000   0.0126   0.0000   0.0000   0.0000
     0.0000   0.0000

          k = 0.2667-0.1540 0.0000 (  6492 PWs)   bands (ev):

   -16.7522  -8.5389  -6.5889  -5.2475  -2.8299   2.5474   3.7999   4.2617
     4.3986   5.2091

     occupation numbers 
     1.0000   1.0000   1.0000   1.0000   0.0000   0.0000   0.0000   0.0000
     0.0000   0.0000

          k = 0.2667-0.0770 0.0000 (  6480 PWs)   bands (ev):

   -17.0705  -8.9586  -5.7197  -5.6080  -2.8800   2.1196   3.3670   3.8390
     3.9874   5.0418

     occupation numbers 
     1.0000   1.0000   1.0000   1.0000   0.0000   0.0000   0.0000   0.0000
     0.0000   0.0000

          k = 0.2667 0.0000 0.0000 (  6457 PWs)   bands (ev):

   -17.1755  -9.1011  -5.7880  -5.0056  -3.3434   1.9758   3.2216   3.6933
     3.8459   4.8953

     occupation numbers 
     1.0000   1.0000   1.0000   1.0000   0.0003   0.0000   0.0000   0.0000
     0.0000   0.0000

          k = 0.2667 0.0770 0.0000 (  6480 PWs)   bands (ev):

   -17.0663  -8.9658  -5.6843  -5.1216  -3.5526   2.1188   3.3677   3.8341
     3.9900   5.0291

     occupation numbers 
     1.0000   1.0000   1.0000   1.0000   0.1054   0.0000   0.0000   0.0000
     0.0000   0.0000

          k = 0.3333 0.1925 0.0000 (  6484 PWs)   bands (ev):

   -15.8018  -7.8108  -7.3279  -4.2383  -4.1960   3.1926   3.9253   5.1249
     5.5362   5.6687

     occupation numbers 
     1.0000   1.0000   1.0000   1.0000   1.0000   0.0000   0.0000   0.0000
     0.0000   0.0000

          k = 0.3333 0.2694 0.0000 (  6487 PWs)   bands (ev):

   -15.1908  -8.6495  -6.5329  -4.7643  -3.5582   2.1902   4.4785   4.9433
     6.0296   6.4719

     occupation numbers 
     1.0000   1.0000   1.0000   1.0000   0.1164   0.0000   0.0000   0.0000
     0.0000   0.0000

          k = 0.3333 0.3464 0.0000 (  6494 PWs)   bands (ev):

   -14.4055  -9.3459  -5.8378  -5.4956  -2.6753   1.2986   3.6547   5.9154
     7.1961   7.5624

     occupation numbers 
     1.0000   1.0000   1.0000   1.0000   0.0000   0.0000   0.0000   0.0000
     0.0000   0.0000

          k = 0.3333 0.4234 0.0000 (  6474 PWs)   bands (ev):

   -13.4872  -9.8872  -7.1063  -4.2692  -1.6254   0.6164   2.6765   5.9046
     7.3399   8.6584

     occupation numbers 
     1.0000   1.0000   1.0000   1.0000   0.0000   0.0000   0.0000   0.0000
     0.0000   0.0000

          k = 0.3333 0.5004 0.0000 (  6444 PWs)   bands (ev):

   -12.5253 -10.3847  -8.1685  -2.9537  -0.6610   0.2473   1.7818   3.7309
     8.8649   9.8972

     occupation numbers 
     1.0000   1.0000   1.0000   0.0000   0.0000   0.0000   0.0000   0.0000
     0.0000   0.0000

          k = 0.3333 0.5774 0.0000 (  6450 PWs)   bands (ev):

   -11.6927 -11.1740  -8.4065  -1.7730  -1.2270   0.7821   1.7467   2.1578
     9.4629  10.9722

     occupation numbers 
     1.0000   1.0000   1.0000   0.0000   0.0000   0.0000   0.0000   0.0000
     0.0000   0.0000

          k = 0.3333 0.6543 0.0000 (  6444 PWs)   bands (ev):

   -12.2906 -11.0532  -7.6879  -2.6501  -0.8851   0.1418   1.7512   3.5943
     8.9229  10.0186

     occupation numbers 
     1.0000   1.0000   1.0000   0.0000   0.0000   0.0000   0.0000   0.0000
     0.0000   0.0000

          k = 0.3333 0.7313 0.0000 (  6474 PWs)   bands (ev):

   -13.3905 -10.5244  -6.4702  -4.0956  -1.3469   0.1120   2.4571   5.8760
     7.3418   8.6558

     occupation numbers 
     1.0000   1.0000   1.0000   1.0000   0.0000   0.0000   0.0000   0.0000
     0.0000   0.0000

          k = 0.3333-0.3464 0.0000 (  6494 PWs)   bands (ev):

   -14.3711  -9.9263  -5.4047  -5.1329  -2.4393   0.8805   3.3777   5.9116
     7.1941   7.5914

     occupation numbers 
     1.0000   1.0000   1.0000   1.0000   0.0000   0.0000   0.0000   0.0000
     0.0000   0.0000

          k = 0.3333-0.2694 0.0000 (  6487 PWs)   bands (ev):

   -15.1829  -9.2029  -6.4719  -4.0251  -3.3824   1.8336   4.3408   4.8432
     6.0265   6.4689

     occupation numbers 
     1.0000   1.0000   1.0000   0.9999   0.0013   0.0000   0.0000   0.0000
     0.0000   0.0000

          k = 0.3333-0.1925 0.0000 (  6484 PWs)   bands (ev):

   -15.8037  -8.3559  -7.2911  -4.1206  -3.4433   2.9044   3.9033   5.1219
     5.5132   5.6227

     occupation numbers 
     1.0000   1.0000   1.0000   1.0000   0.0085   0.0000   0.0000   0.0000
     0.0000   0.0000

          k = 0.3333-0.1155 0.0000 (  6491 PWs)   bands (ev):

   -16.2218  -7.8532  -7.4194  -4.6284  -3.5559   3.2306   4.0861   4.5800
     5.0236   5.2127

     occupation numbers 
     1.0000   1.0000   1.0000   1.0000   0.1117   0.0000   0.0000   0.0000
     0.0000   0.0000

          k = 0.3333-0.0385 0.0000 (  6480 PWs)   bands (ev):

   -16.4312  -8.1296  -6.5546  -4.9023  -4.1258   2.9737   4.2244   4.6489
     4.7789   5.1956

     occupation numbers 
     1.0000   1.0000   1.0000   1.0000   1.0000   0.0000   0.0000   0.0000
     0.0000   0.0000

          k = 0.3333 0.0385 0.0000 (  6480 PWs)   bands (ev):

   -16.4296  -8.1351  -6.2484  -4.9323  -4.4825   2.9732   4.2287   4.6463
     4.8024   5.2753

     occupation numbers 
     1.0000   1.0000   1.0000   1.0000   1.0000   0.0000   0.0000   0.0000
     0.0000   0.0000

          k = 0.3333 0.1155 0.0000 (  6491 PWs)   bands (ev):

   -16.2182  -7.8678  -6.9044  -4.6968  -4.2333   3.2363   4.2840   4.5961
     5.0481   5.2298

     occupation numbers 
     1.0000   1.0000   1.0000   1.0000   1.0000   0.0000   0.0000   0.0000
     0.0000   0.0000

          k = 0.4000 0.2309 0.0000 (  6490 PWs)   bands (ev):

   -14.7048  -9.5598  -5.8962  -4.5652  -3.0634   1.0559   3.6592   5.5142
     6.7569   7.1949

     occupation numbers 
     1.0000   1.0000   1.0000   1.0000   0.0000   0.0000   0.0000   0.0000
     0.0000   0.0000

          k = 0.4000 0.3079 0.0000 (  6503 PWs)   bands (ev):

   -14.0654 -10.2712  -5.0795  -5.0171  -2.4378   0.1759   2.8463   6.4973
     7.7806   8.1647

     occupation numbers 
     1.0000   1.0000   1.0000   1.0000   0.0000   0.0000   0.0000   0.0000
     0.0000   0.0000

          k = 0.4000 0.3849 0.0000 (  6490 PWs)   bands (ev):

   -13.3562 -10.7153  -6.0305  -4.0972  -1.8139  -0.2185   2.1373   7.6750
     8.0946   9.0964

     occupation numbers 
     1.0000   1.0000   1.0000   1.0000   0.0000   0.0000   0.0000   0.0000
     0.0000   0.0000

          k = 0.4000 0.4619 0.0000 (  6484 PWs)   bands (ev):

   -12.7757 -10.7484  -7.2062  -3.2867  -1.3505   0.1615   1.5331   5.7221
     9.1229   9.3943

     occupation numbers 
     1.0000   1.0000   1.0000   0.0000   0.0000   0.0000   0.0000   0.0000
     0.0000   0.0000

          k = 0.4000 0.5389 0.0000 (  6444 PWs)   bands (ev):

   -12.4955 -10.4995  -8.0791  -2.8991  -0.7554   0.3350   1.7074   3.7192
     8.8863   9.9207

     occupation numbers 
     1.0000   1.0000   1.0000   0.0000   0.0000   0.0000   0.0000   0.0000
     0.0000   0.0000

          k = 0.4000 0.6158 0.0000 (  6444 PWs)   bands (ev):

   -12.3557 -10.9001  -7.7891  -2.7462  -0.7146   0.0141   1.8450   3.6033
     8.8997   9.9864

     occupation numbers 
     1.0000   1.0000   1.0000   0.0000   0.0000   0.0000   0.0000   0.0000
     0.0000   0.0000

          k = 0.4000 0.6928 0.0000 (  6484 PWs)   bands (ev):

   -12.4058 -11.5646  -6.6717  -2.8753  -1.6016   0.3231   0.9873   5.6885
     9.1479   9.4065

     occupation numbers 
     1.0000   1.0000   1.0000   0.0000   0.0000   0.0000   0.0000   0.0000
     0.0000   0.0000

          k = 0.4000 0.7698 0.0000 (  6490 PWs)   bands (ev):

   -13.1476 -11.3927  -5.4144  -3.8070  -1.7290  -0.3319   1.5310   7.7035
     8.1373   9.0933

     occupation numbers 
     1.0000   1.0000   1.0000   0.9181   0.0000   0.0000   0.0000   0.0000
     0.0000   0.0000

          k = 0.4000-0.3079 0.0000 (  6503 PWs)   bands (ev):

   -13.9817 -10.8274  -4.8982  -4.3679  -2.1511  -0.1566   2.3612   6.4888
     7.7786   8.1846

     occupation numbers 
     1.0000   1.0000   1.0000   1.0000   0.0000   0.0000   0.0000   0.0000
     0.0000   0.0000

          k = 0.4000-0.2309 0.0000 (  6490 PWs)   bands (ev):

   -14.6736 -10.0676  -5.8071  -3.8709  -2.8367   0.7271   3.3338   5.4957
     6.7552   7.1909

     occupation numbers 
     1.0000   1.0000   1.0000   0.9802   0.0000   0.0000   0.0000   0.0000
     0.0000   0.0000

          k = 0.4000-0.1540 0.0000 (  6487 PWs)   bands (ev):

   -15.1814  -9.1675  -6.4784  -4.0783  -3.3999   1.8665   4.3693   4.8512
     6.0271   6.4654

     occupation numbers 
     1.0000   1.0000   1.0000   1.0000   0.0023   0.0000   0.0000   0.0000
     0.0000   0.0000

          k = 0.4000-0.0770 0.0000 (  6474 PWs)   bands (ev):

   -15.4901  -8.2141  -6.8890  -4.7900  -3.7637   2.9780   4.3233   5.5395
     5.7283   6.0347

     occupation numbers 
     1.0000   1.0000   1.0000   1.0000   0.8270   0.0000   0.0000   0.0000
     0.0000   0.0000

          k = 0.4000 0.0000 0.0000 (  6482 PWs)   bands (ev):

   -15.5939  -7.5096  -7.0303  -5.4793  -3.9113   3.5419   4.2388   5.4404
     5.8627   6.0714

     occupation numbers 
     1.0000   1.0000   1.0000   1.0000   0.9934   0.0000   0.0000   0.0000
     0.0000   0.0000

          k = 0.4000 0.0770 0.0000 (  6474 PWs)   bands (ev):

   -15.4926  -7.8006  -6.9116  -5.2951  -3.8366   3.1993   4.3359   5.5395
     5.7359   6.0349

     occupation numbers 
     1.0000   1.0000   1.0000   1.0000   0.9555   0.0000   0.0000   0.0000
     0.0000   0.0000

          k = 0.4000 0.1540 0.0000 (  6487 PWs)   bands (ev):

   -15.1915  -8.6826  -6.5279  -4.7291  -3.5472   2.1716   4.4592   4.9297
     6.0290   6.4755

     occupation numbers 
     1.0000   1.0000   1.0000   1.0000   0.0955   0.0000   0.0000   0.0000
     0.0000   0.0000

          k = 0.4667 0.2694 0.0000 (  6524 PWs)   bands (ev):

   -13.6414 -10.9593  -4.7613  -4.4834  -2.2315  -0.5718   2.2254   7.3506
     8.4132   8.6584

     occupation numbers 
     1.0000   1.0000   1.0000   1.0000   0.0000   0.0000   0.0000   0.0000
     0.0000   0.0000

          k = 0.4667 0.3464 0.0000 (  6480 PWs)   bands (ev):

   -13.3413 -11.1676  -5.1364  -4.0769  -2.1053  -0.6670   1.9589   8.3322
     8.5292   8.8715

     occupation numbers 
     1.0000   1.0000   1.0000   1.0000   0.0000   0.0000   0.0000   0.0000
     0.0000   0.0000

          k = 0.4667 0.4234 0.0000 (  6490 PWs)   bands (ev):

   -13.3527 -10.7351  -6.0134  -4.0823  -1.8293  -0.1935   2.0924   7.6732
     8.1138   9.0951

     occupation numbers 
     1.0000   1.0000   1.0000   1.0000   0.0000   0.0000   0.0000   0.0000
     0.0000   0.0000

          k = 0.4667 0.5004 0.0000 (  6474 PWs)   bands (ev):

   -13.4779  -9.9784  -7.0194  -4.2392  -1.6147   0.6021   2.5915   5.9097
     7.3455   8.6575

     occupation numbers 
     1.0000   1.0000   1.0000   1.0000   0.0000   0.0000   0.0000   0.0000
     0.0000   0.0000

          k = 0.4667 0.5774 0.0000 (  6452 PWs)   bands (ev):

   -13.5165  -9.6880  -7.3910  -4.2839  -1.4817   0.8355   3.4290   4.4393
     7.1796   8.5118

     occupation numbers 
     1.0000   1.0000   1.0000   1.0000   0.0000   0.0000   0.0000   0.0000
     0.0000   0.0000

          k = 0.4667 0.6543 0.0000 (  6474 PWs)   bands (ev):

   -13.4047 -10.4258  -6.5743  -4.1387  -1.3869   0.1721   2.5557   5.8675
     7.3367   8.6570

     occupation numbers 
     1.0000   1.0000   1.0000   1.0000   0.0000   0.0000   0.0000   0.0000
     0.0000   0.0000

          k = 0.4667 0.7313 0.0000 (  6490 PWs)   bands (ev):

   -13.1547 -11.3672  -5.4391  -3.8310  -1.7009  -0.3772   1.5974   7.7047
     8.1204   9.0950

     occupation numbers 
     1.0000   1.0000   1.0000   0.9497   0.0000   0.0000   0.0000   0.0000
     0.0000   0.0000

          k = 0.4667 0.8083 0.0000 (  6480 PWs)   bands (ev):

   -13.0032 -11.9468  -4.4973  -3.6664  -2.2724  -0.4726   1.1582   8.3719
     8.5480   9.0215

     occupation numbers 
     1.0000   1.0000   1.0000   0.4728   0.0000   0.0000   0.0000   0.0000
     0.0000   0.0000

          k = 0.4667-0.2694 0.0000 (  6524 PWs)   bands (ev):

   -13.4451 -11.5984  -4.2286  -4.0771  -2.1096  -0.6603   1.5485   7.3454
     8.6259   8.6603

     occupation numbers 
     1.0000   1.0000   1.0000   1.0000   0.0000   0.0000   0.0000   0.0000
     0.0000   0.0000

          k = 0.4667-0.1925 0.0000 (  6503 PWs)   bands (ev):

   -13.9824 -10.8113  -4.9076  -4.3908  -2.1600  -0.1530   2.4000   6.4888
     7.7789   8.1758

     occupation numbers 
     1.0000   1.0000   1.0000   1.0000   0.0000   0.0000   0.0000   0.0000
     0.0000   0.0000

          k = 0.4667-0.1155 0.0000 (  6494 PWs)   bands (ev):

   -14.3718  -9.8628  -5.4202  -5.2203  -2.4766   0.9355   3.4519   5.9106
     7.1947   7.5760

     occupation numbers 
     1.0000   1.0000   1.0000   1.0000   0.0000   0.0000   0.0000   0.0000
     0.0000   0.0000

          k = 0.4667-0.0385 0.0000 (  6465 PWs)   bands (ev):

   -14.5744  -8.9376  -6.1825  -5.6854  -2.7033   1.9393   4.6067   5.6154
     6.4745   6.9078

     occupation numbers 
     1.0000   1.0000   1.0000   1.0000   0.0000   0.0000   0.0000   0.0000
     0.0000   0.0000

          k = 0.4667 0.0385 0.0000 (  6465 PWs)   bands (ev):

   -14.5830  -8.6726  -6.4809  -5.7060  -2.7626   2.1188   4.5513   5.6069
     6.5266   6.9089

     occupation numbers 
     1.0000   1.0000   1.0000   1.0000   0.0000   0.0000   0.0000   0.0000
     0.0000   0.0000

          k = 0.4667 0.1155 0.0000 (  6494 PWs)   bands (ev):

   -14.4044  -9.4052  -5.7786  -5.4791  -2.6560   1.2734   3.5882   5.9164
     7.1957   7.5783

     occupation numbers 
     1.0000   1.0000   1.0000   1.0000   0.0000   0.0000   0.0000   0.0000
     0.0000   0.0000

          k = 0.4667 0.1925 0.0000 (  6503 PWs)   bands (ev):

   -14.0647 -10.2854  -5.0751  -5.0005  -2.4352   0.1781   2.8151   6.4972
     7.7805   8.1757

     occupation numbers 
     1.0000   1.0000   1.0000   1.0000   0.0000   0.0000   0.0000   0.0000
     0.0000   0.0000

     the Fermi energy is    -3.6730 ev

!    total energy              =     -45.89354095 Ry
     total all-electron energy =      -161.421735 Ry
     estimated scf accuracy    <          3.8E-09 Ry
     smearing contrib. (-TS)   =      -0.00068473 Ry
     internal energy E=F+TS    =     -45.89285622 Ry

     The total energy is F=E-TS. E is the sum of the following terms:
     one-electron contribution =    -233.06741546 Ry
     hartree contribution      =     118.07276546 Ry
     xc contribution           =      -8.26064245 Ry
     ewald contribution        =     118.26270013 Ry
     DFT-D3 Dispersion         =      -0.00522333 Ry
     electric field correction =     -28.58244482 Ry
     one-center paw contrib.   =     -12.31259575 Ry
      -> PAW hartree energy AE =       6.19955665 Ry
      -> PAW hartree energy PS =      -6.19273922 Ry
      -> PAW xc energy AE      =      -9.82309839 Ry
      -> PAW xc energy PS      =       3.65890396 Ry
      -> total E_H with PAW    =     118.07958290 Ry
      -> total E_XC with PAW   =     -14.42483688 Ry

     convergence has been achieved in  32 iterations

     negative rho (up, down):  9.104E-05 0.000E+00

     Forces acting on atoms (cartesian axes, Ry/au):

     atom    1 type  1   force =     0.05263941   -0.00349313    0.32283995
     atom    2 type  1   force =    -0.05263941    0.00349313   -0.32283995
     The non-local contrib.  to forces
     atom    1 type  1   force =     0.11329217   -0.00611339   -0.32216692
     atom    2 type  1   force =    -0.11797816    0.00643273   -0.14417605
     The ionic contribution  to forces
     atom    1 type  1   force =     0.36618976   -0.00844471    1.43681602
     atom    2 type  1   force =    -0.36618976    0.00844471   -1.43681602
     The local contribution  to forces
     atom    1 type  1   force =    -0.42265673    0.01089203    3.15164463
     atom    2 type  1   force =     0.42723060   -0.01120649    5.20845542
     The core correction contribution to forces
     atom    1 type  1   force =    -0.00411648    0.00017899    0.01624804
     atom    2 type  1   force =     0.00422938   -0.00018907    0.00936730
     The Hubbard contrib.    to forces
     atom    1 type  1   force =     0.00000000    0.00000000    0.00000000
     atom    2 type  1   force =     0.00000000    0.00000000    0.00000000
     The SCF correction term to forces
     atom    1 type  1   force =    -0.00000882    0.00000076    0.00001681
     atom    2 type  1   force =     0.00000933   -0.00000101    0.00002944

     DFT-D3 dispersion contribution to forces:
     atom    1 type  1   force =    -0.00005986   -0.00000954   -0.00000930
     atom    2 type  1   force =     0.00005986    0.00000954    0.00000930

     Total force =     0.462620     Total SCF correction =     0.000036

     DFT-D3 dispersion Force =     0.000087

     Writing all to output data dir /home/ubuntu/projects/Graphene-Band-Structure-Quantum-Espresso/outputs/field_0.1/top/data/top.save/ :
     XML data file, charge density, pseudopotentials, collected wavefunctions

     init_run     :      3.27s CPU      3.42s WALL (       1 calls)
     electrons    :    180.85s CPU    181.89s WALL (       1 calls)
     forces       :      0.52s CPU      0.56s WALL (       1 calls)
     force_dftd3  :      0.02s CPU      0.02s WALL (       1 calls)

     Called by init_run:
     wfcinit      :      1.60s CPU      1.64s WALL (       1 calls)
     wfcinit:atom :      0.03s CPU      0.03s WALL (      29 calls)
     wfcinit:wfcr :      1.50s CPU      1.53s WALL (      29 calls)
     potinit      :      0.56s CPU      0.62s WALL (       1 calls)
     hinit0       :      0.97s CPU      1.00s WALL (       1 calls)

     Called by electrons:
     c_bands      :    156.58s CPU    157.28s WALL (      32 calls)
     sum_band     :     16.27s CPU     16.45s WALL (      32 calls)
     v_of_rho     :      3.14s CPU      3.27s WALL (      33 calls)
     v_h          :      0.14s CPU      0.15s WALL (      33 calls)
     v_xc         :      3.09s CPU      3.23s WALL (      34 calls)
     newd         :      1.18s CPU      1.20s WALL (      33 calls)
     PAW_pot      :      2.88s CPU      2.91s WALL (      33 calls)
     mix_rho      :      0.55s CPU      0.56s WALL (      32 calls)
     energy_dftd3 :      0.02s CPU      0.02s WALL (       1 calls)

     Called by c_bands:
     init_us_2    :      2.16s CPU      2.18s WALL (    1914 calls)
     cegterg      :    117.95s CPU    118.52s WALL (     928 calls)

     Called by sum_band:
     sum_band:wei :      0.02s CPU      0.03s WALL (      32 calls)
     sum_band:loo :     12.34s CPU     12.41s WALL (      32 calls)
     sum_band:buf :      0.21s CPU      0.21s WALL (     928 calls)
     sum_band:ini :      0.98s CPU      0.99s WALL (     928 calls)
     sum_band:cal :      1.88s CPU      1.89s WALL (     928 calls)
     sum_band:bec :      0.01s CPU      0.01s WALL (     928 calls)
     addusdens    :      0.98s CPU      1.04s WALL (      32 calls)
     addusd:skk   :      0.01s CPU      0.01s WALL (      32 calls)

     Called by *egterg:
     cdiaghg      :      0.71s CPU      0.72s WALL (    4485 calls)
     cegterg:over :     10.07s CPU     10.12s WALL (    3557 calls)
     cegterg:upda :      6.04s CPU      6.08s WALL (    3557 calls)
     cegterg:last :     15.35s CPU     15.40s WALL (    2675 calls)
     h_psi        :     76.75s CPU     77.16s WALL (    4514 calls)
     s_psi        :      6.36s CPU      6.40s WALL (    4514 calls)
     g_psi        :      0.65s CPU      0.65s WALL (    3557 calls)

     Called by h_psi:
     h_psi:calbec :      6.70s CPU      6.73s WALL (    4514 calls)
     vloc_psi     :     63.18s CPU     63.54s WALL (    4514 calls)
     add_vuspsi   :      6.44s CPU      6.46s WALL (    4514 calls)

     General routines
     calbec       :      8.81s CPU      8.86s WALL (    5558 calls)
     fft          :      1.83s CPU      1.84s WALL (     438 calls)
     ffts         :      0.36s CPU      0.36s WALL (      65 calls)
     fftw         :     63.07s CPU     63.43s WALL (   72550 calls)
     interpolate  :      0.44s CPU      0.44s WALL (      33 calls)

     Parallel routines

     PAW routines
     PAW_pot      :      2.88s CPU      2.91s WALL (      33 calls)

     PWSCF        :   3m 4.81s CPU   3m 6.15s WALL


   This run was terminated on:  20:44:30  19Sep2026            

=------------------------------------------------------------------------------=
   JOB DONE.
=------------------------------------------------------------------------------=
Note: The following floating-point exceptions are signalling: IEEE_DENORMAL
Note: The following floating-point exceptions are signalling: IEEE_DENORMAL
Note: The following floating-point exceptions are signalling: IEEE_DENORMAL
