
     Program PWSCF v.7.6 starts on  3Oct2026 at 15:32:53 

     This program is part of the open-source Quantum ESPRESSO suite
     for quantum simulation of materials; please cite
         "P. Giannozzi et al., J. Phys.:Condens. Matter 21 395502 (2009);
         "P. Giannozzi et al., J. Phys.:Condens. Matter 29 465901 (2017);
         "P. Giannozzi et al., J. Chem. Phys. 152 154105 (2020);
          URL http://www.quantum-espresso.org", 
     in publications or presentations arising from this work. More details at
     http://www.quantum-espresso.org/quote

     Parallel version (MPI), running on    16 processors

     MPI processes distributed on     1 nodes
     31083 MiB available memory on the printing compute node when the environment starts

     Waiting for input...
     Reading input from standard input
Warning: card &IONS ignored
Warning: card &CELL ignored
Warning: card &FCP ignored
Warning: card &RISM ignored

     Current dimensions of program PWSCF are:
     Max number of different atomic species (ntypx) = 10
     Max number of k-points (npk) =  40000
     Max angular momentum in pseudopotentials (lmaxx) =  4

     Atomic positions and unit cell read from directory:
     /home/ubuntu/projects/Graphene-Band-Structure-Quantum-Espresso/outputs/field_0/PBE-d3/coupled/data/coupled.save/

     Message from routine setup:
     using ibrav=0 with symmetry is DISCOURAGED, use correct ibrav instead

     K-points division:     npool     =      16
     Subspace diagonalization in iterative solution of the eigenvalue problem:
     a serial algorithm will be used


     G-vector sticks info
     --------------------
     sticks:   dense  smooth     PW     G-vecs:    dense   smooth      PW
     Sum         535     535    163                94953    94953   15739

     Using Slab Decomposition



     bravais-lattice index     =            0
     lattice parameter (alat)  =       4.6487  a.u.
     unit-cell volume          =     825.8174 (a.u.)^3
     number of atoms/cell      =            4
     number of atomic types    =            1
     number of electrons       =        16.00
     number of Kohn-Sham states=           30
     kinetic-energy cutoff     =      90.0000  Ry
     charge density cutoff     =     360.0000  Ry
     Exchange-correlation= PBE
                           (   1   4   3   4   0   0   0)

     celldm(1)=   4.648726  celldm(2)=   0.000000  celldm(3)=   0.000000
     celldm(4)=   0.000000  celldm(5)=   0.000000  celldm(6)=   0.000000

     crystal axes: (cart. coord. in units of alat)
               a(1) = (   1.000000   0.000000   0.000000 )  
               a(2) = (  -0.500000   0.866025   0.000000 )  
               a(3) = (   0.000000   0.000000   9.491870 )  

     reciprocal axes: (cart. coord. in units 2 pi/alat)
               b(1) = (  1.000000  0.577351 -0.000000 )  
               b(2) = (  0.000000  1.154701  0.000000 )  
               b(3) = (  0.000000 -0.000000  0.105353 )  


     PseudoPot. # 1 for C  read from file:
     /home/ubuntu/projects/Graphene-Band-Structure-Quantum-Espresso/pseudo/C.upf
     MD5 check sum: 34a24e64c0a39f27c6c36b90a16ac686
     Pseudo is Norm-conserving + core correction, Zval =  4.0
     Generated using ONCVPSP code by D. R. Hamann
     Using radial grid of 1248 points,  4 beta functions with: 
                l(1) =   0
                l(2) =   0
                l(3) =   1
                l(4) =   1

     atomic species   valence    mass     pseudopotential
     C                 4.00    12.01100     C ( 1.00)

     12 Sym. Ops., with inversion, found ( 6 have fractional translation)


                                    s                        frac. trans.

      isym =  1     identity                                     

 cryst.   s( 1) = (     1          0          0      )
                  (     0          1          0      )
                  (     0          0          1      )

 cart.    s( 1) = (  1.0000000  0.0000000  0.0000000 )
                  (  0.0000000  1.0000000  0.0000000 )
                  (  0.0000000  0.0000000  1.0000000 )


      isym =  2     180 deg rotation - cart. axis [1,0,0]        

 cryst.   s( 2) = (     1          0          0      )    f =( -0.3333335 )
                  (    -1         -1          0      )       (  0.3333330 )
                  (     0          0         -1      )       ( -0.0000001 )

 cart.    s( 2) = (  1.0000000  0.0000000  0.0000000 )    f =( -0.5000000 )
                  (  0.0000000 -1.0000000  0.0000000 )       (  0.2886747 )
                  (  0.0000000  0.0000000 -1.0000000 )       ( -0.0000005 )


      isym =  3     120 deg rotation - cryst. axis [0,0,1]       

 cryst.   s( 3) = (     0          1          0      )
                  (    -1         -1          0      )
                  (     0          0          1      )

 cart.    s( 3) = ( -0.5000000 -0.8660258  0.0000000 )
                  (  0.8660250 -0.5000000  0.0000000 )
                  (  0.0000000  0.0000000  1.0000000 )


      isym =  4     120 deg rotation - cryst. axis [0,0,-1]      

 cryst.   s( 4) = (    -1         -1          0      )
                  (     1          0          0      )
                  (     0          0          1      )

 cart.    s( 4) = ( -0.5000000  0.8660258  0.0000000 )
                  ( -0.8660250 -0.5000000  0.0000000 )
                  (  0.0000000  0.0000000  1.0000000 )


      isym =  5     180 deg rotation - cryst. axis [0,1,0]       

 cryst.   s( 5) = (    -1         -1          0      )    f =( -0.3333335 )
                  (     0          1          0      )       (  0.3333335 )
                  (     0          0         -1      )       ( -0.0000001 )

 cart.    s( 5) = ( -0.5000000 -0.8660258  0.0000000 )    f =( -0.5000003 )
                  ( -0.8660250  0.5000000  0.0000000 )       (  0.2886752 )
                  (  0.0000000  0.0000000 -1.0000000 )       ( -0.0000005 )


      isym =  6     180 deg rotation - cryst. axis [1,1,0]       

 cryst.   s( 6) = (     0          1          0      )    f =( -0.3333330 )
                  (     1          0          0      )       (  0.3333335 )
                  (     0          0         -1      )       ( -0.0000001 )

 cart.    s( 6) = ( -0.5000000  0.8660258  0.0000000 )    f =( -0.4999997 )
                  (  0.8660250  0.5000000  0.0000000 )       (  0.2886752 )
                  (  0.0000000  0.0000000 -1.0000000 )       ( -0.0000005 )


      isym =  7     inversion                                    

 cryst.   s( 7) = (    -1          0          0      )    f =( -0.3333335 )
                  (     0         -1          0      )       (  0.3333330 )
                  (     0          0         -1      )       ( -0.0000001 )

 cart.    s( 7) = ( -1.0000000  0.0000000  0.0000000 )    f =( -0.5000000 )
                  (  0.0000000 -1.0000000  0.0000000 )       (  0.2886747 )
                  (  0.0000000  0.0000000 -1.0000000 )       ( -0.0000005 )


      isym =  8     inv. 180 deg rotation - cart. axis [1,0,0]   

 cryst.   s( 8) = (    -1          0          0      )
                  (     1          1          0      )
                  (     0          0          1      )

 cart.    s( 8) = ( -1.0000000  0.0000000  0.0000000 )
                  (  0.0000000  1.0000000  0.0000000 )
                  (  0.0000000  0.0000000  1.0000000 )


      isym =  9     inv. 120 deg rotation - cryst. axis [0,0,1]  

 cryst.   s( 9) = (     0         -1          0      )    f =( -0.3333330 )
                  (     1          1          0      )       (  0.3333335 )
                  (     0          0         -1      )       ( -0.0000001 )

 cart.    s( 9) = (  0.5000000  0.8660258  0.0000000 )    f =( -0.4999997 )
                  ( -0.8660250  0.5000000  0.0000000 )       (  0.2886752 )
                  (  0.0000000  0.0000000 -1.0000000 )       ( -0.0000005 )


      isym = 10     inv. 120 deg rotation - cryst. axis [0,0,-1] 

 cryst.   s(10) = (     1          1          0      )    f =( -0.3333335 )
                  (    -1          0          0      )       (  0.3333335 )
                  (     0          0         -1      )       ( -0.0000001 )

 cart.    s(10) = (  0.5000000 -0.8660258  0.0000000 )    f =( -0.5000003 )
                  (  0.8660250  0.5000000  0.0000000 )       (  0.2886752 )
                  (  0.0000000  0.0000000 -1.0000000 )       ( -0.0000005 )


      isym = 11     inv. 180 deg rotation - cryst. axis [0,1,0]  

 cryst.   s(11) = (     1          1          0      )
                  (     0         -1          0      )
                  (     0          0          1      )

 cart.    s(11) = (  0.5000000  0.8660258  0.0000000 )
                  (  0.8660250 -0.5000000  0.0000000 )
                  (  0.0000000  0.0000000  1.0000000 )


      isym = 12     inv. 180 deg rotation - cryst. axis [1,1,0]  

 cryst.   s(12) = (     0         -1          0      )
                  (    -1          0          0      )
                  (     0          0          1      )

 cart.    s(12) = (  0.5000000 -0.8660258  0.0000000 )
                  ( -0.8660250 -0.5000000  0.0000000 )
                  (  0.0000000  0.0000000  1.0000000 )


   Cartesian axes

     site n.     atom                  positions (alat units)
         1        C      tau(   1) = (   0.0000000   0.0000000   4.0321860  )
         2        C      tau(   2) = (   0.5000000   0.2886752   4.0328411  )
         3        C      tau(   3) = (   0.5000000   0.2886752   5.4590294  )
         4        C      tau(   4) = (   0.0000000   0.5773503   5.4596845  )

     --------------------------------------------
     DFT-D3 Dispersion Correction (3-body terms):
     --------------------------------------------
       Reference C6 values for interpolation: 

         atom   Coordination number   C6
         C          0.000            98.23
         C          0.987            86.49
         C          1.998            58.72
         C          2.999            51.56
         C          3.984            36.41

       Values used:

         atom   Coordination number  R0_AB[au]  C6      C8
         C          3.321            2.750     48.15   1392.48
         C          3.321            2.750     48.14   1392.42
         C          3.321            2.750     48.14   1392.42
         C          3.321            2.750     48.15   1392.48

         Molecular C6 ( Ry / a.u.^6 ) =       770.33


   Crystallographic axes

     site n.     atom                  positions (cryst. coord.)
         1        C      tau(   1) = (  0.0000000  0.0000000  0.4248042  )
         2        C      tau(   2) = (  0.6666668  0.3333335  0.4248732  )
         3        C      tau(   3) = (  0.6666668  0.3333335  0.5751269  )
         4        C      tau(   4) = (  0.3333335  0.6666670  0.5751959  )

     number of k points=   507  Gaussian smearing, width (Ry)=  0.0100
                       cart. coord. in units 2pi/alat
        k(    1) = (   0.0000000   0.0000000   0.0000000), wk =   0.0003556
        k(    2) = (   0.0000000   0.0153960   0.0000000), wk =   0.0021333
        k(    3) = (   0.0000000   0.0307920   0.0000000), wk =   0.0021333
        k(    4) = (   0.0000000   0.0461880   0.0000000), wk =   0.0021333
        k(    5) = (   0.0000000   0.0615841   0.0000000), wk =   0.0021333
        k(    6) = (   0.0000000   0.0769801   0.0000000), wk =   0.0021333
        k(    7) = (   0.0000000   0.0923761   0.0000000), wk =   0.0021333
        k(    8) = (   0.0000000   0.1077721   0.0000000), wk =   0.0021333
        k(    9) = (   0.0000000   0.1231681   0.0000000), wk =   0.0021333
        k(   10) = (   0.0000000   0.1385641   0.0000000), wk =   0.0021333
        k(   11) = (   0.0000000   0.1539601   0.0000000), wk =   0.0021333
        k(   12) = (   0.0000000   0.1693562   0.0000000), wk =   0.0021333
        k(   13) = (   0.0000000   0.1847522   0.0000000), wk =   0.0021333
        k(   14) = (   0.0000000   0.2001482   0.0000000), wk =   0.0021333
        k(   15) = (   0.0000000   0.2155442   0.0000000), wk =   0.0021333
        k(   16) = (   0.0000000   0.2309402   0.0000000), wk =   0.0021333
        k(   17) = (   0.0000000   0.2463362   0.0000000), wk =   0.0021333
        k(   18) = (   0.0000000   0.2617322   0.0000000), wk =   0.0021333
        k(   19) = (   0.0000000   0.2771283   0.0000000), wk =   0.0021333
        k(   20) = (   0.0000000   0.2925243   0.0000000), wk =   0.0021333
        k(   21) = (   0.0000000   0.3079203   0.0000000), wk =   0.0021333
        k(   22) = (   0.0000000   0.3233163   0.0000000), wk =   0.0021333
        k(   23) = (   0.0000000   0.3387123   0.0000000), wk =   0.0021333
        k(   24) = (   0.0000000   0.3541083   0.0000000), wk =   0.0021333
        k(   25) = (   0.0000000   0.3695043   0.0000000), wk =   0.0021333
        k(   26) = (   0.0000000   0.3849004   0.0000000), wk =   0.0021333
        k(   27) = (   0.0000000   0.4002964   0.0000000), wk =   0.0021333
        k(   28) = (   0.0000000   0.4156924   0.0000000), wk =   0.0021333
        k(   29) = (   0.0000000   0.4310884   0.0000000), wk =   0.0021333
        k(   30) = (   0.0000000   0.4464844   0.0000000), wk =   0.0021333
        k(   31) = (   0.0000000   0.4618804   0.0000000), wk =   0.0021333
        k(   32) = (   0.0000000   0.4772764   0.0000000), wk =   0.0021333
        k(   33) = (   0.0000000   0.4926725   0.0000000), wk =   0.0021333
        k(   34) = (   0.0000000   0.5080685   0.0000000), wk =   0.0021333
        k(   35) = (   0.0000000   0.5234645   0.0000000), wk =   0.0021333
        k(   36) = (   0.0000000   0.5388605   0.0000000), wk =   0.0021333
        k(   37) = (   0.0000000   0.5542565   0.0000000), wk =   0.0021333
        k(   38) = (   0.0000000   0.5696525   0.0000000), wk =   0.0021333
        k(   39) = (   0.0133333   0.0230940   0.0000000), wk =   0.0021333
        k(   40) = (   0.0133333   0.0384900   0.0000000), wk =   0.0042667
        k(   41) = (   0.0133333   0.0538861   0.0000000), wk =   0.0042667
        k(   42) = (   0.0133333   0.0692821   0.0000000), wk =   0.0042667
        k(   43) = (   0.0133333   0.0846781   0.0000000), wk =   0.0042667
        k(   44) = (   0.0133333   0.1000741   0.0000000), wk =   0.0042667
        k(   45) = (   0.0133333   0.1154701   0.0000000), wk =   0.0042667
        k(   46) = (   0.0133333   0.1308661   0.0000000), wk =   0.0042667
        k(   47) = (   0.0133333   0.1462621   0.0000000), wk =   0.0042667
        k(   48) = (   0.0133333   0.1616582   0.0000000), wk =   0.0042667
        k(   49) = (   0.0133333   0.1770542   0.0000000), wk =   0.0042667
        k(   50) = (   0.0133333   0.1924502   0.0000000), wk =   0.0042667
        k(   51) = (   0.0133333   0.2078462   0.0000000), wk =   0.0042667
        k(   52) = (   0.0133333   0.2232422   0.0000000), wk =   0.0042667
        k(   53) = (   0.0133333   0.2386382   0.0000000), wk =   0.0042667
        k(   54) = (   0.0133333   0.2540342   0.0000000), wk =   0.0042667
        k(   55) = (   0.0133333   0.2694303   0.0000000), wk =   0.0042667
        k(   56) = (   0.0133333   0.2848263   0.0000000), wk =   0.0042667
        k(   57) = (   0.0133333   0.3002223   0.0000000), wk =   0.0042667
        k(   58) = (   0.0133333   0.3156183   0.0000000), wk =   0.0042667
        k(   59) = (   0.0133333   0.3310143   0.0000000), wk =   0.0042667
        k(   60) = (   0.0133333   0.3464103   0.0000000), wk =   0.0042667
        k(   61) = (   0.0133333   0.3618063   0.0000000), wk =   0.0042667
        k(   62) = (   0.0133333   0.3772024   0.0000000), wk =   0.0042667
        k(   63) = (   0.0133333   0.3925984   0.0000000), wk =   0.0042667
        k(   64) = (   0.0133333   0.4079944   0.0000000), wk =   0.0042667
        k(   65) = (   0.0133333   0.4233904   0.0000000), wk =   0.0042667
        k(   66) = (   0.0133333   0.4387864   0.0000000), wk =   0.0042667
        k(   67) = (   0.0133333   0.4541824   0.0000000), wk =   0.0042667
        k(   68) = (   0.0133333   0.4695784   0.0000000), wk =   0.0042667
        k(   69) = (   0.0133333   0.4849745   0.0000000), wk =   0.0042667
        k(   70) = (   0.0133333   0.5003705   0.0000000), wk =   0.0042667
        k(   71) = (   0.0133333   0.5157665   0.0000000), wk =   0.0042667
        k(   72) = (   0.0133333   0.5311625   0.0000000), wk =   0.0042667
        k(   73) = (   0.0133333   0.5465585   0.0000000), wk =   0.0042667
        k(   74) = (   0.0133333   0.5619545   0.0000000), wk =   0.0042667
        k(   75) = (   0.0133333   0.5773505   0.0000000), wk =   0.0021333
        k(   76) = (   0.0266667   0.0461880   0.0000000), wk =   0.0021333
        k(   77) = (   0.0266667   0.0615841   0.0000000), wk =   0.0042667
        k(   78) = (   0.0266667   0.0769801   0.0000000), wk =   0.0042667
        k(   79) = (   0.0266667   0.0923761   0.0000000), wk =   0.0042667
        k(   80) = (   0.0266667   0.1077721   0.0000000), wk =   0.0042667
        k(   81) = (   0.0266667   0.1231681   0.0000000), wk =   0.0042667
        k(   82) = (   0.0266667   0.1385641   0.0000000), wk =   0.0042667
        k(   83) = (   0.0266667   0.1539601   0.0000000), wk =   0.0042667
        k(   84) = (   0.0266667   0.1693562   0.0000000), wk =   0.0042667
        k(   85) = (   0.0266667   0.1847522   0.0000000), wk =   0.0042667
        k(   86) = (   0.0266667   0.2001482   0.0000000), wk =   0.0042667
        k(   87) = (   0.0266667   0.2155442   0.0000000), wk =   0.0042667
        k(   88) = (   0.0266667   0.2309402   0.0000000), wk =   0.0042667
        k(   89) = (   0.0266667   0.2463362   0.0000000), wk =   0.0042667
        k(   90) = (   0.0266667   0.2617322   0.0000000), wk =   0.0042667
        k(   91) = (   0.0266667   0.2771283   0.0000000), wk =   0.0042667
        k(   92) = (   0.0266667   0.2925243   0.0000000), wk =   0.0042667
        k(   93) = (   0.0266667   0.3079203   0.0000000), wk =   0.0042667
        k(   94) = (   0.0266667   0.3233163   0.0000000), wk =   0.0042667
        k(   95) = (   0.0266667   0.3387123   0.0000000), wk =   0.0042667
        k(   96) = (   0.0266667   0.3541083   0.0000000), wk =   0.0042667
        k(   97) = (   0.0266667   0.3695043   0.0000000), wk =   0.0042667
        k(   98) = (   0.0266667   0.3849004   0.0000000), wk =   0.0042667
        k(   99) = (   0.0266667   0.4002964   0.0000000), wk =   0.0042667
        k(  100) = (   0.0266667   0.4156924   0.0000000), wk =   0.0042667
        k(  101) = (   0.0266667   0.4310884   0.0000000), wk =   0.0042667
        k(  102) = (   0.0266667   0.4464844   0.0000000), wk =   0.0042667
        k(  103) = (   0.0266667   0.4618804   0.0000000), wk =   0.0042667
        k(  104) = (   0.0266667   0.4772764   0.0000000), wk =   0.0042667
        k(  105) = (   0.0266667   0.4926725   0.0000000), wk =   0.0042667
        k(  106) = (   0.0266667   0.5080685   0.0000000), wk =   0.0042667
        k(  107) = (   0.0266667   0.5234645   0.0000000), wk =   0.0042667
        k(  108) = (   0.0266667   0.5388605   0.0000000), wk =   0.0042667
        k(  109) = (   0.0266667   0.5542565   0.0000000), wk =   0.0042667
        k(  110) = (   0.0266667   0.5696525   0.0000000), wk =   0.0042667
        k(  111) = (   0.0400000   0.0692821   0.0000000), wk =   0.0021333
        k(  112) = (   0.0400000   0.0846781   0.0000000), wk =   0.0042667
        k(  113) = (   0.0400000   0.1000741   0.0000000), wk =   0.0042667
        k(  114) = (   0.0400000   0.1154701   0.0000000), wk =   0.0042667
        k(  115) = (   0.0400000   0.1308661   0.0000000), wk =   0.0042667
        k(  116) = (   0.0400000   0.1462621   0.0000000), wk =   0.0042667
        k(  117) = (   0.0400000   0.1616582   0.0000000), wk =   0.0042667
        k(  118) = (   0.0400000   0.1770542   0.0000000), wk =   0.0042667
        k(  119) = (   0.0400000   0.1924502   0.0000000), wk =   0.0042667
        k(  120) = (   0.0400000   0.2078462   0.0000000), wk =   0.0042667
        k(  121) = (   0.0400000   0.2232422   0.0000000), wk =   0.0042667
        k(  122) = (   0.0400000   0.2386382   0.0000000), wk =   0.0042667
        k(  123) = (   0.0400000   0.2540342   0.0000000), wk =   0.0042667
        k(  124) = (   0.0400000   0.2694303   0.0000000), wk =   0.0042667
        k(  125) = (   0.0400000   0.2848263   0.0000000), wk =   0.0042667
        k(  126) = (   0.0400000   0.3002223   0.0000000), wk =   0.0042667
        k(  127) = (   0.0400000   0.3156183   0.0000000), wk =   0.0042667
        k(  128) = (   0.0400000   0.3310143   0.0000000), wk =   0.0042667
        k(  129) = (   0.0400000   0.3464103   0.0000000), wk =   0.0042667
        k(  130) = (   0.0400000   0.3618063   0.0000000), wk =   0.0042667
        k(  131) = (   0.0400000   0.3772024   0.0000000), wk =   0.0042667
        k(  132) = (   0.0400000   0.3925984   0.0000000), wk =   0.0042667
        k(  133) = (   0.0400000   0.4079944   0.0000000), wk =   0.0042667
        k(  134) = (   0.0400000   0.4233904   0.0000000), wk =   0.0042667
        k(  135) = (   0.0400000   0.4387864   0.0000000), wk =   0.0042667
        k(  136) = (   0.0400000   0.4541824   0.0000000), wk =   0.0042667
        k(  137) = (   0.0400000   0.4695784   0.0000000), wk =   0.0042667
        k(  138) = (   0.0400000   0.4849745   0.0000000), wk =   0.0042667
        k(  139) = (   0.0400000   0.5003705   0.0000000), wk =   0.0042667
        k(  140) = (   0.0400000   0.5157665   0.0000000), wk =   0.0042667
        k(  141) = (   0.0400000   0.5311625   0.0000000), wk =   0.0042667
        k(  142) = (   0.0400000   0.5465585   0.0000000), wk =   0.0042667
        k(  143) = (   0.0400000   0.5619545   0.0000000), wk =   0.0042667
        k(  144) = (   0.0400000   0.5773505   0.0000000), wk =   0.0021333
        k(  145) = (   0.0533333   0.0923761   0.0000000), wk =   0.0021333
        k(  146) = (   0.0533333   0.1077721   0.0000000), wk =   0.0042667
        k(  147) = (   0.0533333   0.1231681   0.0000000), wk =   0.0042667
        k(  148) = (   0.0533333   0.1385641   0.0000000), wk =   0.0042667
        k(  149) = (   0.0533333   0.1539601   0.0000000), wk =   0.0042667
        k(  150) = (   0.0533333   0.1693562   0.0000000), wk =   0.0042667
        k(  151) = (   0.0533333   0.1847522   0.0000000), wk =   0.0042667
        k(  152) = (   0.0533333   0.2001482   0.0000000), wk =   0.0042667
        k(  153) = (   0.0533333   0.2155442   0.0000000), wk =   0.0042667
        k(  154) = (   0.0533333   0.2309402   0.0000000), wk =   0.0042667
        k(  155) = (   0.0533333   0.2463362   0.0000000), wk =   0.0042667
        k(  156) = (   0.0533333   0.2617322   0.0000000), wk =   0.0042667
        k(  157) = (   0.0533333   0.2771283   0.0000000), wk =   0.0042667
        k(  158) = (   0.0533333   0.2925243   0.0000000), wk =   0.0042667
        k(  159) = (   0.0533333   0.3079203   0.0000000), wk =   0.0042667
        k(  160) = (   0.0533333   0.3233163   0.0000000), wk =   0.0042667
        k(  161) = (   0.0533333   0.3387123   0.0000000), wk =   0.0042667
        k(  162) = (   0.0533333   0.3541083   0.0000000), wk =   0.0042667
        k(  163) = (   0.0533333   0.3695043   0.0000000), wk =   0.0042667
        k(  164) = (   0.0533333   0.3849004   0.0000000), wk =   0.0042667
        k(  165) = (   0.0533333   0.4002964   0.0000000), wk =   0.0042667
        k(  166) = (   0.0533333   0.4156924   0.0000000), wk =   0.0042667
        k(  167) = (   0.0533333   0.4310884   0.0000000), wk =   0.0042667
        k(  168) = (   0.0533333   0.4464844   0.0000000), wk =   0.0042667
        k(  169) = (   0.0533333   0.4618804   0.0000000), wk =   0.0042667
        k(  170) = (   0.0533333   0.4772764   0.0000000), wk =   0.0042667
        k(  171) = (   0.0533333   0.4926725   0.0000000), wk =   0.0042667
        k(  172) = (   0.0533333   0.5080685   0.0000000), wk =   0.0042667
        k(  173) = (   0.0533333   0.5234645   0.0000000), wk =   0.0042667
        k(  174) = (   0.0533333   0.5388605   0.0000000), wk =   0.0042667
        k(  175) = (   0.0533333   0.5542565   0.0000000), wk =   0.0042667
        k(  176) = (   0.0533333   0.5696525   0.0000000), wk =   0.0042667
        k(  177) = (   0.0666667   0.1154701   0.0000000), wk =   0.0021333
        k(  178) = (   0.0666667   0.1308661   0.0000000), wk =   0.0042667
        k(  179) = (   0.0666667   0.1462621   0.0000000), wk =   0.0042667
        k(  180) = (   0.0666667   0.1616582   0.0000000), wk =   0.0042667
        k(  181) = (   0.0666667   0.1770542   0.0000000), wk =   0.0042667
        k(  182) = (   0.0666667   0.1924502   0.0000000), wk =   0.0042667
        k(  183) = (   0.0666667   0.2078462   0.0000000), wk =   0.0042667
        k(  184) = (   0.0666667   0.2232422   0.0000000), wk =   0.0042667
        k(  185) = (   0.0666667   0.2386382   0.0000000), wk =   0.0042667
        k(  186) = (   0.0666667   0.2540342   0.0000000), wk =   0.0042667
        k(  187) = (   0.0666667   0.2694303   0.0000000), wk =   0.0042667
        k(  188) = (   0.0666667   0.2848263   0.0000000), wk =   0.0042667
        k(  189) = (   0.0666667   0.3002223   0.0000000), wk =   0.0042667
        k(  190) = (   0.0666667   0.3156183   0.0000000), wk =   0.0042667
        k(  191) = (   0.0666667   0.3310143   0.0000000), wk =   0.0042667
        k(  192) = (   0.0666667   0.3464103   0.0000000), wk =   0.0042667
        k(  193) = (   0.0666667   0.3618063   0.0000000), wk =   0.0042667
        k(  194) = (   0.0666667   0.3772024   0.0000000), wk =   0.0042667
        k(  195) = (   0.0666667   0.3925984   0.0000000), wk =   0.0042667
        k(  196) = (   0.0666667   0.4079944   0.0000000), wk =   0.0042667
        k(  197) = (   0.0666667   0.4233904   0.0000000), wk =   0.0042667
        k(  198) = (   0.0666667   0.4387864   0.0000000), wk =   0.0042667
        k(  199) = (   0.0666667   0.4541824   0.0000000), wk =   0.0042667
        k(  200) = (   0.0666667   0.4695784   0.0000000), wk =   0.0042667
        k(  201) = (   0.0666667   0.4849745   0.0000000), wk =   0.0042667
        k(  202) = (   0.0666667   0.5003705   0.0000000), wk =   0.0042667
        k(  203) = (   0.0666667   0.5157665   0.0000000), wk =   0.0042667
        k(  204) = (   0.0666667   0.5311625   0.0000000), wk =   0.0042667
        k(  205) = (   0.0666667   0.5465585   0.0000000), wk =   0.0042667
        k(  206) = (   0.0666667   0.5619545   0.0000000), wk =   0.0042667
        k(  207) = (   0.0666667   0.5773505   0.0000000), wk =   0.0021333
        k(  208) = (   0.0800000   0.1385641   0.0000000), wk =   0.0021333
        k(  209) = (   0.0800000   0.1539601   0.0000000), wk =   0.0042667
        k(  210) = (   0.0800000   0.1693562   0.0000000), wk =   0.0042667
        k(  211) = (   0.0800000   0.1847522   0.0000000), wk =   0.0042667
        k(  212) = (   0.0800000   0.2001482   0.0000000), wk =   0.0042667
        k(  213) = (   0.0800000   0.2155442   0.0000000), wk =   0.0042667
        k(  214) = (   0.0800000   0.2309402   0.0000000), wk =   0.0042667
        k(  215) = (   0.0800000   0.2463362   0.0000000), wk =   0.0042667
        k(  216) = (   0.0800000   0.2617322   0.0000000), wk =   0.0042667
        k(  217) = (   0.0800000   0.2771283   0.0000000), wk =   0.0042667
        k(  218) = (   0.0800000   0.2925243   0.0000000), wk =   0.0042667
        k(  219) = (   0.0800000   0.3079203   0.0000000), wk =   0.0042667
        k(  220) = (   0.0800000   0.3233163   0.0000000), wk =   0.0042667
        k(  221) = (   0.0800000   0.3387123   0.0000000), wk =   0.0042667
        k(  222) = (   0.0800000   0.3541083   0.0000000), wk =   0.0042667
        k(  223) = (   0.0800000   0.3695043   0.0000000), wk =   0.0042667
        k(  224) = (   0.0800000   0.3849004   0.0000000), wk =   0.0042667
        k(  225) = (   0.0800000   0.4002964   0.0000000), wk =   0.0042667
        k(  226) = (   0.0800000   0.4156924   0.0000000), wk =   0.0042667
        k(  227) = (   0.0800000   0.4310884   0.0000000), wk =   0.0042667
        k(  228) = (   0.0800000   0.4464844   0.0000000), wk =   0.0042667
        k(  229) = (   0.0800000   0.4618804   0.0000000), wk =   0.0042667
        k(  230) = (   0.0800000   0.4772764   0.0000000), wk =   0.0042667
        k(  231) = (   0.0800000   0.4926725   0.0000000), wk =   0.0042667
        k(  232) = (   0.0800000   0.5080685   0.0000000), wk =   0.0042667
        k(  233) = (   0.0800000   0.5234645   0.0000000), wk =   0.0042667
        k(  234) = (   0.0800000   0.5388605   0.0000000), wk =   0.0042667
        k(  235) = (   0.0800000   0.5542565   0.0000000), wk =   0.0042667
        k(  236) = (   0.0800000   0.5696525   0.0000000), wk =   0.0042667
        k(  237) = (   0.0933333   0.1616582   0.0000000), wk =   0.0021333
        k(  238) = (   0.0933333   0.1770542   0.0000000), wk =   0.0042667
        k(  239) = (   0.0933333   0.1924502   0.0000000), wk =   0.0042667
        k(  240) = (   0.0933333   0.2078462   0.0000000), wk =   0.0042667
        k(  241) = (   0.0933333   0.2232422   0.0000000), wk =   0.0042667
        k(  242) = (   0.0933333   0.2386382   0.0000000), wk =   0.0042667
        k(  243) = (   0.0933333   0.2540342   0.0000000), wk =   0.0042667
        k(  244) = (   0.0933333   0.2694303   0.0000000), wk =   0.0042667
        k(  245) = (   0.0933333   0.2848263   0.0000000), wk =   0.0042667
        k(  246) = (   0.0933333   0.3002223   0.0000000), wk =   0.0042667
        k(  247) = (   0.0933333   0.3156183   0.0000000), wk =   0.0042667
        k(  248) = (   0.0933333   0.3310143   0.0000000), wk =   0.0042667
        k(  249) = (   0.0933333   0.3464103   0.0000000), wk =   0.0042667
        k(  250) = (   0.0933333   0.3618063   0.0000000), wk =   0.0042667
        k(  251) = (   0.0933333   0.3772024   0.0000000), wk =   0.0042667
        k(  252) = (   0.0933333   0.3925984   0.0000000), wk =   0.0042667
        k(  253) = (   0.0933333   0.4079944   0.0000000), wk =   0.0042667
        k(  254) = (   0.0933333   0.4233904   0.0000000), wk =   0.0042667
        k(  255) = (   0.0933333   0.4387864   0.0000000), wk =   0.0042667
        k(  256) = (   0.0933333   0.4541824   0.0000000), wk =   0.0042667
        k(  257) = (   0.0933333   0.4695784   0.0000000), wk =   0.0042667
        k(  258) = (   0.0933333   0.4849745   0.0000000), wk =   0.0042667
        k(  259) = (   0.0933333   0.5003705   0.0000000), wk =   0.0042667
        k(  260) = (   0.0933333   0.5157665   0.0000000), wk =   0.0042667
        k(  261) = (   0.0933333   0.5311625   0.0000000), wk =   0.0042667
        k(  262) = (   0.0933333   0.5465585   0.0000000), wk =   0.0042667
        k(  263) = (   0.0933333   0.5619545   0.0000000), wk =   0.0042667
        k(  264) = (   0.0933333   0.5773505   0.0000000), wk =   0.0021333
        k(  265) = (   0.1066667   0.1847522   0.0000000), wk =   0.0021333
        k(  266) = (   0.1066667   0.2001482   0.0000000), wk =   0.0042667
        k(  267) = (   0.1066667   0.2155442   0.0000000), wk =   0.0042667
        k(  268) = (   0.1066667   0.2309402   0.0000000), wk =   0.0042667
        k(  269) = (   0.1066667   0.2463362   0.0000000), wk =   0.0042667
        k(  270) = (   0.1066667   0.2617322   0.0000000), wk =   0.0042667
        k(  271) = (   0.1066667   0.2771283   0.0000000), wk =   0.0042667
        k(  272) = (   0.1066667   0.2925243   0.0000000), wk =   0.0042667
        k(  273) = (   0.1066667   0.3079203   0.0000000), wk =   0.0042667
        k(  274) = (   0.1066667   0.3233163   0.0000000), wk =   0.0042667
        k(  275) = (   0.1066667   0.3387123   0.0000000), wk =   0.0042667
        k(  276) = (   0.1066667   0.3541083   0.0000000), wk =   0.0042667
        k(  277) = (   0.1066667   0.3695043   0.0000000), wk =   0.0042667
        k(  278) = (   0.1066667   0.3849004   0.0000000), wk =   0.0042667
        k(  279) = (   0.1066667   0.4002964   0.0000000), wk =   0.0042667
        k(  280) = (   0.1066667   0.4156924   0.0000000), wk =   0.0042667
        k(  281) = (   0.1066667   0.4310884   0.0000000), wk =   0.0042667
        k(  282) = (   0.1066667   0.4464844   0.0000000), wk =   0.0042667
        k(  283) = (   0.1066667   0.4618804   0.0000000), wk =   0.0042667
        k(  284) = (   0.1066667   0.4772764   0.0000000), wk =   0.0042667
        k(  285) = (   0.1066667   0.4926725   0.0000000), wk =   0.0042667
        k(  286) = (   0.1066667   0.5080685   0.0000000), wk =   0.0042667
        k(  287) = (   0.1066667   0.5234645   0.0000000), wk =   0.0042667
        k(  288) = (   0.1066667   0.5388605   0.0000000), wk =   0.0042667
        k(  289) = (   0.1066667   0.5542565   0.0000000), wk =   0.0042667
        k(  290) = (   0.1066667   0.5696525   0.0000000), wk =   0.0042667
        k(  291) = (   0.1200000   0.2078462   0.0000000), wk =   0.0021333
        k(  292) = (   0.1200000   0.2232422   0.0000000), wk =   0.0042667
        k(  293) = (   0.1200000   0.2386382   0.0000000), wk =   0.0042667
        k(  294) = (   0.1200000   0.2540342   0.0000000), wk =   0.0042667
        k(  295) = (   0.1200000   0.2694303   0.0000000), wk =   0.0042667
        k(  296) = (   0.1200000   0.2848263   0.0000000), wk =   0.0042667
        k(  297) = (   0.1200000   0.3002223   0.0000000), wk =   0.0042667
        k(  298) = (   0.1200000   0.3156183   0.0000000), wk =   0.0042667
        k(  299) = (   0.1200000   0.3310143   0.0000000), wk =   0.0042667
        k(  300) = (   0.1200000   0.3464103   0.0000000), wk =   0.0042667
        k(  301) = (   0.1200000   0.3618063   0.0000000), wk =   0.0042667
        k(  302) = (   0.1200000   0.3772024   0.0000000), wk =   0.0042667
        k(  303) = (   0.1200000   0.3925984   0.0000000), wk =   0.0042667
        k(  304) = (   0.1200000   0.4079944   0.0000000), wk =   0.0042667
        k(  305) = (   0.1200000   0.4233904   0.0000000), wk =   0.0042667
        k(  306) = (   0.1200000   0.4387864   0.0000000), wk =   0.0042667
        k(  307) = (   0.1200000   0.4541824   0.0000000), wk =   0.0042667
        k(  308) = (   0.1200000   0.4695784   0.0000000), wk =   0.0042667
        k(  309) = (   0.1200000   0.4849745   0.0000000), wk =   0.0042667
        k(  310) = (   0.1200000   0.5003705   0.0000000), wk =   0.0042667
        k(  311) = (   0.1200000   0.5157665   0.0000000), wk =   0.0042667
        k(  312) = (   0.1200000   0.5311625   0.0000000), wk =   0.0042667
        k(  313) = (   0.1200000   0.5465585   0.0000000), wk =   0.0042667
        k(  314) = (   0.1200000   0.5619545   0.0000000), wk =   0.0042667
        k(  315) = (   0.1200000   0.5773505   0.0000000), wk =   0.0021333
        k(  316) = (   0.1333333   0.2309402   0.0000000), wk =   0.0021333
        k(  317) = (   0.1333333   0.2463362   0.0000000), wk =   0.0042667
        k(  318) = (   0.1333333   0.2617322   0.0000000), wk =   0.0042667
        k(  319) = (   0.1333333   0.2771283   0.0000000), wk =   0.0042667
        k(  320) = (   0.1333333   0.2925243   0.0000000), wk =   0.0042667
        k(  321) = (   0.1333333   0.3079203   0.0000000), wk =   0.0042667
        k(  322) = (   0.1333333   0.3233163   0.0000000), wk =   0.0042667
        k(  323) = (   0.1333333   0.3387123   0.0000000), wk =   0.0042667
        k(  324) = (   0.1333333   0.3541083   0.0000000), wk =   0.0042667
        k(  325) = (   0.1333333   0.3695043   0.0000000), wk =   0.0042667
        k(  326) = (   0.1333333   0.3849004   0.0000000), wk =   0.0042667
        k(  327) = (   0.1333333   0.4002964   0.0000000), wk =   0.0042667
        k(  328) = (   0.1333333   0.4156924   0.0000000), wk =   0.0042667
        k(  329) = (   0.1333333   0.4310884   0.0000000), wk =   0.0042667
        k(  330) = (   0.1333333   0.4464844   0.0000000), wk =   0.0042667
        k(  331) = (   0.1333333   0.4618804   0.0000000), wk =   0.0042667
        k(  332) = (   0.1333333   0.4772764   0.0000000), wk =   0.0042667
        k(  333) = (   0.1333333   0.4926725   0.0000000), wk =   0.0042667
        k(  334) = (   0.1333333   0.5080685   0.0000000), wk =   0.0042667
        k(  335) = (   0.1333333   0.5234645   0.0000000), wk =   0.0042667
        k(  336) = (   0.1333333   0.5388605   0.0000000), wk =   0.0042667
        k(  337) = (   0.1333333   0.5542565   0.0000000), wk =   0.0042667
        k(  338) = (   0.1333333   0.5696525   0.0000000), wk =   0.0042667
        k(  339) = (   0.1466667   0.2540342   0.0000000), wk =   0.0021333
        k(  340) = (   0.1466667   0.2694303   0.0000000), wk =   0.0042667
        k(  341) = (   0.1466667   0.2848263   0.0000000), wk =   0.0042667
        k(  342) = (   0.1466667   0.3002223   0.0000000), wk =   0.0042667
        k(  343) = (   0.1466667   0.3156183   0.0000000), wk =   0.0042667
        k(  344) = (   0.1466667   0.3310143   0.0000000), wk =   0.0042667
        k(  345) = (   0.1466667   0.3464103   0.0000000), wk =   0.0042667
        k(  346) = (   0.1466667   0.3618063   0.0000000), wk =   0.0042667
        k(  347) = (   0.1466667   0.3772024   0.0000000), wk =   0.0042667
        k(  348) = (   0.1466667   0.3925984   0.0000000), wk =   0.0042667
        k(  349) = (   0.1466667   0.4079944   0.0000000), wk =   0.0042667
        k(  350) = (   0.1466667   0.4233904   0.0000000), wk =   0.0042667
        k(  351) = (   0.1466667   0.4387864   0.0000000), wk =   0.0042667
        k(  352) = (   0.1466667   0.4541824   0.0000000), wk =   0.0042667
        k(  353) = (   0.1466667   0.4695784   0.0000000), wk =   0.0042667
        k(  354) = (   0.1466667   0.4849745   0.0000000), wk =   0.0042667
        k(  355) = (   0.1466667   0.5003705   0.0000000), wk =   0.0042667
        k(  356) = (   0.1466667   0.5157665   0.0000000), wk =   0.0042667
        k(  357) = (   0.1466667   0.5311625   0.0000000), wk =   0.0042667
        k(  358) = (   0.1466667   0.5465585   0.0000000), wk =   0.0042667
        k(  359) = (   0.1466667   0.5619545   0.0000000), wk =   0.0042667
        k(  360) = (   0.1466667   0.5773505   0.0000000), wk =   0.0021333
        k(  361) = (   0.1600000   0.2771283   0.0000000), wk =   0.0021333
        k(  362) = (   0.1600000   0.2925243   0.0000000), wk =   0.0042667
        k(  363) = (   0.1600000   0.3079203   0.0000000), wk =   0.0042667
        k(  364) = (   0.1600000   0.3233163   0.0000000), wk =   0.0042667
        k(  365) = (   0.1600000   0.3387123   0.0000000), wk =   0.0042667
        k(  366) = (   0.1600000   0.3541083   0.0000000), wk =   0.0042667
        k(  367) = (   0.1600000   0.3695043   0.0000000), wk =   0.0042667
        k(  368) = (   0.1600000   0.3849004   0.0000000), wk =   0.0042667
        k(  369) = (   0.1600000   0.4002964   0.0000000), wk =   0.0042667
        k(  370) = (   0.1600000   0.4156924   0.0000000), wk =   0.0042667
        k(  371) = (   0.1600000   0.4310884   0.0000000), wk =   0.0042667
        k(  372) = (   0.1600000   0.4464844   0.0000000), wk =   0.0042667
        k(  373) = (   0.1600000   0.4618804   0.0000000), wk =   0.0042667
        k(  374) = (   0.1600000   0.4772764   0.0000000), wk =   0.0042667
        k(  375) = (   0.1600000   0.4926725   0.0000000), wk =   0.0042667
        k(  376) = (   0.1600000   0.5080685   0.0000000), wk =   0.0042667
        k(  377) = (   0.1600000   0.5234645   0.0000000), wk =   0.0042667
        k(  378) = (   0.1600000   0.5388605   0.0000000), wk =   0.0042667
        k(  379) = (   0.1600000   0.5542565   0.0000000), wk =   0.0042667
        k(  380) = (   0.1600000   0.5696525   0.0000000), wk =   0.0042667
        k(  381) = (   0.1733333   0.3002223   0.0000000), wk =   0.0021333
        k(  382) = (   0.1733333   0.3156183   0.0000000), wk =   0.0042667
        k(  383) = (   0.1733333   0.3310143   0.0000000), wk =   0.0042667
        k(  384) = (   0.1733333   0.3464103   0.0000000), wk =   0.0042667
        k(  385) = (   0.1733333   0.3618063   0.0000000), wk =   0.0042667
        k(  386) = (   0.1733333   0.3772024   0.0000000), wk =   0.0042667
        k(  387) = (   0.1733333   0.3925984   0.0000000), wk =   0.0042667
        k(  388) = (   0.1733333   0.4079944   0.0000000), wk =   0.0042667
        k(  389) = (   0.1733333   0.4233904   0.0000000), wk =   0.0042667
        k(  390) = (   0.1733333   0.4387864   0.0000000), wk =   0.0042667
        k(  391) = (   0.1733333   0.4541824   0.0000000), wk =   0.0042667
        k(  392) = (   0.1733333   0.4695784   0.0000000), wk =   0.0042667
        k(  393) = (   0.1733333   0.4849745   0.0000000), wk =   0.0042667
        k(  394) = (   0.1733333   0.5003705   0.0000000), wk =   0.0042667
        k(  395) = (   0.1733333   0.5157665   0.0000000), wk =   0.0042667
        k(  396) = (   0.1733333   0.5311625   0.0000000), wk =   0.0042667
        k(  397) = (   0.1733333   0.5465585   0.0000000), wk =   0.0042667
        k(  398) = (   0.1733333   0.5619545   0.0000000), wk =   0.0042667
        k(  399) = (   0.1733333   0.5773505   0.0000000), wk =   0.0021333
        k(  400) = (   0.1866667   0.3233163   0.0000000), wk =   0.0021333
        k(  401) = (   0.1866667   0.3387123   0.0000000), wk =   0.0042667
        k(  402) = (   0.1866667   0.3541083   0.0000000), wk =   0.0042667
        k(  403) = (   0.1866667   0.3695043   0.0000000), wk =   0.0042667
        k(  404) = (   0.1866667   0.3849004   0.0000000), wk =   0.0042667
        k(  405) = (   0.1866667   0.4002964   0.0000000), wk =   0.0042667
        k(  406) = (   0.1866667   0.4156924   0.0000000), wk =   0.0042667
        k(  407) = (   0.1866667   0.4310884   0.0000000), wk =   0.0042667
        k(  408) = (   0.1866667   0.4464844   0.0000000), wk =   0.0042667
        k(  409) = (   0.1866667   0.4618804   0.0000000), wk =   0.0042667
        k(  410) = (   0.1866667   0.4772764   0.0000000), wk =   0.0042667
        k(  411) = (   0.1866667   0.4926725   0.0000000), wk =   0.0042667
        k(  412) = (   0.1866667   0.5080685   0.0000000), wk =   0.0042667
        k(  413) = (   0.1866667   0.5234645   0.0000000), wk =   0.0042667
        k(  414) = (   0.1866667   0.5388605   0.0000000), wk =   0.0042667
        k(  415) = (   0.1866667   0.5542565   0.0000000), wk =   0.0042667
        k(  416) = (   0.1866667   0.5696525   0.0000000), wk =   0.0042667
        k(  417) = (   0.2000000   0.3464103   0.0000000), wk =   0.0021333
        k(  418) = (   0.2000000   0.3618063   0.0000000), wk =   0.0042667
        k(  419) = (   0.2000000   0.3772024   0.0000000), wk =   0.0042667
        k(  420) = (   0.2000000   0.3925984   0.0000000), wk =   0.0042667
        k(  421) = (   0.2000000   0.4079944   0.0000000), wk =   0.0042667
        k(  422) = (   0.2000000   0.4233904   0.0000000), wk =   0.0042667
        k(  423) = (   0.2000000   0.4387864   0.0000000), wk =   0.0042667
        k(  424) = (   0.2000000   0.4541824   0.0000000), wk =   0.0042667
        k(  425) = (   0.2000000   0.4695784   0.0000000), wk =   0.0042667
        k(  426) = (   0.2000000   0.4849745   0.0000000), wk =   0.0042667
        k(  427) = (   0.2000000   0.5003705   0.0000000), wk =   0.0042667
        k(  428) = (   0.2000000   0.5157665   0.0000000), wk =   0.0042667
        k(  429) = (   0.2000000   0.5311625   0.0000000), wk =   0.0042667
        k(  430) = (   0.2000000   0.5465585   0.0000000), wk =   0.0042667
        k(  431) = (   0.2000000   0.5619545   0.0000000), wk =   0.0042667
        k(  432) = (   0.2000000   0.5773505   0.0000000), wk =   0.0021333
        k(  433) = (   0.2133333   0.3695043   0.0000000), wk =   0.0021333
        k(  434) = (   0.2133333   0.3849004   0.0000000), wk =   0.0042667
        k(  435) = (   0.2133333   0.4002964   0.0000000), wk =   0.0042667
        k(  436) = (   0.2133333   0.4156924   0.0000000), wk =   0.0042667
        k(  437) = (   0.2133333   0.4310884   0.0000000), wk =   0.0042667
        k(  438) = (   0.2133333   0.4464844   0.0000000), wk =   0.0042667
        k(  439) = (   0.2133333   0.4618804   0.0000000), wk =   0.0042667
        k(  440) = (   0.2133333   0.4772764   0.0000000), wk =   0.0042667
        k(  441) = (   0.2133333   0.4926725   0.0000000), wk =   0.0042667
        k(  442) = (   0.2133333   0.5080685   0.0000000), wk =   0.0042667
        k(  443) = (   0.2133333   0.5234645   0.0000000), wk =   0.0042667
        k(  444) = (   0.2133333   0.5388605   0.0000000), wk =   0.0042667
        k(  445) = (   0.2133333   0.5542565   0.0000000), wk =   0.0042667
        k(  446) = (   0.2133333   0.5696525   0.0000000), wk =   0.0042667
        k(  447) = (   0.2266667   0.3925984   0.0000000), wk =   0.0021333
        k(  448) = (   0.2266667   0.4079944   0.0000000), wk =   0.0042667
        k(  449) = (   0.2266667   0.4233904   0.0000000), wk =   0.0042667
        k(  450) = (   0.2266667   0.4387864   0.0000000), wk =   0.0042667
        k(  451) = (   0.2266667   0.4541824   0.0000000), wk =   0.0042667
        k(  452) = (   0.2266667   0.4695784   0.0000000), wk =   0.0042667
        k(  453) = (   0.2266667   0.4849745   0.0000000), wk =   0.0042667
        k(  454) = (   0.2266667   0.5003705   0.0000000), wk =   0.0042667
        k(  455) = (   0.2266667   0.5157665   0.0000000), wk =   0.0042667
        k(  456) = (   0.2266667   0.5311625   0.0000000), wk =   0.0042667
        k(  457) = (   0.2266667   0.5465585   0.0000000), wk =   0.0042667
        k(  458) = (   0.2266667   0.5619545   0.0000000), wk =   0.0042667
        k(  459) = (   0.2266667   0.5773505   0.0000000), wk =   0.0021333
        k(  460) = (   0.2400000   0.4156924   0.0000000), wk =   0.0021333
        k(  461) = (   0.2400000   0.4310884   0.0000000), wk =   0.0042667
        k(  462) = (   0.2400000   0.4464844   0.0000000), wk =   0.0042667
        k(  463) = (   0.2400000   0.4618804   0.0000000), wk =   0.0042667
        k(  464) = (   0.2400000   0.4772764   0.0000000), wk =   0.0042667
        k(  465) = (   0.2400000   0.4926725   0.0000000), wk =   0.0042667
        k(  466) = (   0.2400000   0.5080685   0.0000000), wk =   0.0042667
        k(  467) = (   0.2400000   0.5234645   0.0000000), wk =   0.0042667
        k(  468) = (   0.2400000   0.5388605   0.0000000), wk =   0.0042667
        k(  469) = (   0.2400000   0.5542565   0.0000000), wk =   0.0042667
        k(  470) = (   0.2400000   0.5696525   0.0000000), wk =   0.0042667
        k(  471) = (   0.2533333   0.4387864   0.0000000), wk =   0.0021333
        k(  472) = (   0.2533333   0.4541824   0.0000000), wk =   0.0042667
        k(  473) = (   0.2533333   0.4695784   0.0000000), wk =   0.0042667
        k(  474) = (   0.2533333   0.4849745   0.0000000), wk =   0.0042667
        k(  475) = (   0.2533333   0.5003705   0.0000000), wk =   0.0042667
        k(  476) = (   0.2533333   0.5157665   0.0000000), wk =   0.0042667
        k(  477) = (   0.2533333   0.5311625   0.0000000), wk =   0.0042667
        k(  478) = (   0.2533333   0.5465585   0.0000000), wk =   0.0042667
        k(  479) = (   0.2533333   0.5619545   0.0000000), wk =   0.0042667
        k(  480) = (   0.2533333   0.5773505   0.0000000), wk =   0.0021333
        k(  481) = (   0.2666667   0.4618804   0.0000000), wk =   0.0021333
        k(  482) = (   0.2666667   0.4772764   0.0000000), wk =   0.0042667
        k(  483) = (   0.2666667   0.4926725   0.0000000), wk =   0.0042667
        k(  484) = (   0.2666667   0.5080685   0.0000000), wk =   0.0042667
        k(  485) = (   0.2666667   0.5234645   0.0000000), wk =   0.0042667
        k(  486) = (   0.2666667   0.5388605   0.0000000), wk =   0.0042667
        k(  487) = (   0.2666667   0.5542565   0.0000000), wk =   0.0042667
        k(  488) = (   0.2666667   0.5696525   0.0000000), wk =   0.0042667
        k(  489) = (   0.2800000   0.4849745   0.0000000), wk =   0.0021333
        k(  490) = (   0.2800000   0.5003705   0.0000000), wk =   0.0042667
        k(  491) = (   0.2800000   0.5157665   0.0000000), wk =   0.0042667
        k(  492) = (   0.2800000   0.5311625   0.0000000), wk =   0.0042667
        k(  493) = (   0.2800000   0.5465585   0.0000000), wk =   0.0042667
        k(  494) = (   0.2800000   0.5619545   0.0000000), wk =   0.0042667
        k(  495) = (   0.2800000   0.5773505   0.0000000), wk =   0.0021333
        k(  496) = (   0.2933333   0.5080685   0.0000000), wk =   0.0021333
        k(  497) = (   0.2933333   0.5234645   0.0000000), wk =   0.0042667
        k(  498) = (   0.2933333   0.5388605   0.0000000), wk =   0.0042667
        k(  499) = (   0.2933333   0.5542565   0.0000000), wk =   0.0042667
        k(  500) = (   0.2933333   0.5696525   0.0000000), wk =   0.0042667
        k(  501) = (   0.3066667   0.5311625   0.0000000), wk =   0.0021333
        k(  502) = (   0.3066667   0.5465585   0.0000000), wk =   0.0042667
        k(  503) = (   0.3066667   0.5619545   0.0000000), wk =   0.0042667
        k(  504) = (   0.3066667   0.5773505   0.0000000), wk =   0.0021333
        k(  505) = (   0.3200000   0.5542565   0.0000000), wk =   0.0021333
        k(  506) = (   0.3200000   0.5696525   0.0000000), wk =   0.0042667
        k(  507) = (   0.3333333   0.5773505   0.0000000), wk =   0.0007111

                       cryst. coord.
        k(    1) = (   0.0000000   0.0000000   0.0000000), wk =   0.0003556
        k(    2) = (   0.0000000   0.0133333   0.0000000), wk =   0.0021333
        k(    3) = (   0.0000000   0.0266667   0.0000000), wk =   0.0021333
        k(    4) = (   0.0000000   0.0400000   0.0000000), wk =   0.0021333
        k(    5) = (   0.0000000   0.0533333   0.0000000), wk =   0.0021333
        k(    6) = (   0.0000000   0.0666667   0.0000000), wk =   0.0021333
        k(    7) = (   0.0000000   0.0800000   0.0000000), wk =   0.0021333
        k(    8) = (   0.0000000   0.0933333   0.0000000), wk =   0.0021333
        k(    9) = (   0.0000000   0.1066667   0.0000000), wk =   0.0021333
        k(   10) = (   0.0000000   0.1200000   0.0000000), wk =   0.0021333
        k(   11) = (   0.0000000   0.1333333   0.0000000), wk =   0.0021333
        k(   12) = (   0.0000000   0.1466667   0.0000000), wk =   0.0021333
        k(   13) = (   0.0000000   0.1600000   0.0000000), wk =   0.0021333
        k(   14) = (   0.0000000   0.1733333   0.0000000), wk =   0.0021333
        k(   15) = (   0.0000000   0.1866667   0.0000000), wk =   0.0021333
        k(   16) = (   0.0000000   0.2000000   0.0000000), wk =   0.0021333
        k(   17) = (   0.0000000   0.2133333   0.0000000), wk =   0.0021333
        k(   18) = (   0.0000000   0.2266667   0.0000000), wk =   0.0021333
        k(   19) = (   0.0000000   0.2400000   0.0000000), wk =   0.0021333
        k(   20) = (   0.0000000   0.2533333   0.0000000), wk =   0.0021333
        k(   21) = (   0.0000000   0.2666667   0.0000000), wk =   0.0021333
        k(   22) = (   0.0000000   0.2800000   0.0000000), wk =   0.0021333
        k(   23) = (   0.0000000   0.2933333   0.0000000), wk =   0.0021333
        k(   24) = (   0.0000000   0.3066667   0.0000000), wk =   0.0021333
        k(   25) = (   0.0000000   0.3200000   0.0000000), wk =   0.0021333
        k(   26) = (   0.0000000   0.3333333   0.0000000), wk =   0.0021333
        k(   27) = (   0.0000000   0.3466667   0.0000000), wk =   0.0021333
        k(   28) = (   0.0000000   0.3600000   0.0000000), wk =   0.0021333
        k(   29) = (   0.0000000   0.3733333   0.0000000), wk =   0.0021333
        k(   30) = (   0.0000000   0.3866667   0.0000000), wk =   0.0021333
        k(   31) = (   0.0000000   0.4000000   0.0000000), wk =   0.0021333
        k(   32) = (   0.0000000   0.4133333   0.0000000), wk =   0.0021333
        k(   33) = (   0.0000000   0.4266667   0.0000000), wk =   0.0021333
        k(   34) = (   0.0000000   0.4400000   0.0000000), wk =   0.0021333
        k(   35) = (   0.0000000   0.4533333   0.0000000), wk =   0.0021333
        k(   36) = (   0.0000000   0.4666667   0.0000000), wk =   0.0021333
        k(   37) = (   0.0000000   0.4800000   0.0000000), wk =   0.0021333
        k(   38) = (   0.0000000   0.4933333   0.0000000), wk =   0.0021333
        k(   39) = (   0.0133333   0.0133333   0.0000000), wk =   0.0021333
        k(   40) = (   0.0133333   0.0266667   0.0000000), wk =   0.0042667
        k(   41) = (   0.0133333   0.0400000   0.0000000), wk =   0.0042667
        k(   42) = (   0.0133333   0.0533333   0.0000000), wk =   0.0042667
        k(   43) = (   0.0133333   0.0666667   0.0000000), wk =   0.0042667
        k(   44) = (   0.0133333   0.0800000   0.0000000), wk =   0.0042667
        k(   45) = (   0.0133333   0.0933333   0.0000000), wk =   0.0042667
        k(   46) = (   0.0133333   0.1066667   0.0000000), wk =   0.0042667
        k(   47) = (   0.0133333   0.1200000   0.0000000), wk =   0.0042667
        k(   48) = (   0.0133333   0.1333333   0.0000000), wk =   0.0042667
        k(   49) = (   0.0133333   0.1466667   0.0000000), wk =   0.0042667
        k(   50) = (   0.0133333   0.1600000   0.0000000), wk =   0.0042667
        k(   51) = (   0.0133333   0.1733333   0.0000000), wk =   0.0042667
        k(   52) = (   0.0133333   0.1866667   0.0000000), wk =   0.0042667
        k(   53) = (   0.0133333   0.2000000   0.0000000), wk =   0.0042667
        k(   54) = (   0.0133333   0.2133333   0.0000000), wk =   0.0042667
        k(   55) = (   0.0133333   0.2266667   0.0000000), wk =   0.0042667
        k(   56) = (   0.0133333   0.2400000   0.0000000), wk =   0.0042667
        k(   57) = (   0.0133333   0.2533333   0.0000000), wk =   0.0042667
        k(   58) = (   0.0133333   0.2666667   0.0000000), wk =   0.0042667
        k(   59) = (   0.0133333   0.2800000   0.0000000), wk =   0.0042667
        k(   60) = (   0.0133333   0.2933333   0.0000000), wk =   0.0042667
        k(   61) = (   0.0133333   0.3066667   0.0000000), wk =   0.0042667
        k(   62) = (   0.0133333   0.3200000   0.0000000), wk =   0.0042667
        k(   63) = (   0.0133333   0.3333333   0.0000000), wk =   0.0042667
        k(   64) = (   0.0133333   0.3466667   0.0000000), wk =   0.0042667
        k(   65) = (   0.0133333   0.3600000   0.0000000), wk =   0.0042667
        k(   66) = (   0.0133333   0.3733333   0.0000000), wk =   0.0042667
        k(   67) = (   0.0133333   0.3866667   0.0000000), wk =   0.0042667
        k(   68) = (   0.0133333   0.4000000   0.0000000), wk =   0.0042667
        k(   69) = (   0.0133333   0.4133333   0.0000000), wk =   0.0042667
        k(   70) = (   0.0133333   0.4266667   0.0000000), wk =   0.0042667
        k(   71) = (   0.0133333   0.4400000   0.0000000), wk =   0.0042667
        k(   72) = (   0.0133333   0.4533333   0.0000000), wk =   0.0042667
        k(   73) = (   0.0133333   0.4666667   0.0000000), wk =   0.0042667
        k(   74) = (   0.0133333   0.4800000   0.0000000), wk =   0.0042667
        k(   75) = (   0.0133333   0.4933333   0.0000000), wk =   0.0021333
        k(   76) = (   0.0266667   0.0266667   0.0000000), wk =   0.0021333
        k(   77) = (   0.0266667   0.0400000   0.0000000), wk =   0.0042667
        k(   78) = (   0.0266667   0.0533333   0.0000000), wk =   0.0042667
        k(   79) = (   0.0266667   0.0666667   0.0000000), wk =   0.0042667
        k(   80) = (   0.0266667   0.0800000   0.0000000), wk =   0.0042667
        k(   81) = (   0.0266667   0.0933333   0.0000000), wk =   0.0042667
        k(   82) = (   0.0266667   0.1066667   0.0000000), wk =   0.0042667
        k(   83) = (   0.0266667   0.1200000   0.0000000), wk =   0.0042667
        k(   84) = (   0.0266667   0.1333333   0.0000000), wk =   0.0042667
        k(   85) = (   0.0266667   0.1466667   0.0000000), wk =   0.0042667
        k(   86) = (   0.0266667   0.1600000   0.0000000), wk =   0.0042667
        k(   87) = (   0.0266667   0.1733333   0.0000000), wk =   0.0042667
        k(   88) = (   0.0266667   0.1866667   0.0000000), wk =   0.0042667
        k(   89) = (   0.0266667   0.2000000   0.0000000), wk =   0.0042667
        k(   90) = (   0.0266667   0.2133333   0.0000000), wk =   0.0042667
        k(   91) = (   0.0266667   0.2266667   0.0000000), wk =   0.0042667
        k(   92) = (   0.0266667   0.2400000   0.0000000), wk =   0.0042667
        k(   93) = (   0.0266667   0.2533333   0.0000000), wk =   0.0042667
        k(   94) = (   0.0266667   0.2666667   0.0000000), wk =   0.0042667
        k(   95) = (   0.0266667   0.2800000   0.0000000), wk =   0.0042667
        k(   96) = (   0.0266667   0.2933333   0.0000000), wk =   0.0042667
        k(   97) = (   0.0266667   0.3066667   0.0000000), wk =   0.0042667
        k(   98) = (   0.0266667   0.3200000   0.0000000), wk =   0.0042667
        k(   99) = (   0.0266667   0.3333333   0.0000000), wk =   0.0042667
        k(  100) = (   0.0266667   0.3466667   0.0000000), wk =   0.0042667
        k(  101) = (   0.0266667   0.3600000   0.0000000), wk =   0.0042667
        k(  102) = (   0.0266667   0.3733333   0.0000000), wk =   0.0042667
        k(  103) = (   0.0266667   0.3866667   0.0000000), wk =   0.0042667
        k(  104) = (   0.0266667   0.4000000   0.0000000), wk =   0.0042667
        k(  105) = (   0.0266667   0.4133333   0.0000000), wk =   0.0042667
        k(  106) = (   0.0266667   0.4266667   0.0000000), wk =   0.0042667
        k(  107) = (   0.0266667   0.4400000   0.0000000), wk =   0.0042667
        k(  108) = (   0.0266667   0.4533333   0.0000000), wk =   0.0042667
        k(  109) = (   0.0266667   0.4666667   0.0000000), wk =   0.0042667
        k(  110) = (   0.0266667   0.4800000   0.0000000), wk =   0.0042667
        k(  111) = (   0.0400000   0.0400000   0.0000000), wk =   0.0021333
        k(  112) = (   0.0400000   0.0533333   0.0000000), wk =   0.0042667
        k(  113) = (   0.0400000   0.0666667   0.0000000), wk =   0.0042667
        k(  114) = (   0.0400000   0.0800000   0.0000000), wk =   0.0042667
        k(  115) = (   0.0400000   0.0933333   0.0000000), wk =   0.0042667
        k(  116) = (   0.0400000   0.1066667   0.0000000), wk =   0.0042667
        k(  117) = (   0.0400000   0.1200000   0.0000000), wk =   0.0042667
        k(  118) = (   0.0400000   0.1333333   0.0000000), wk =   0.0042667
        k(  119) = (   0.0400000   0.1466667   0.0000000), wk =   0.0042667
        k(  120) = (   0.0400000   0.1600000   0.0000000), wk =   0.0042667
        k(  121) = (   0.0400000   0.1733333   0.0000000), wk =   0.0042667
        k(  122) = (   0.0400000   0.1866667   0.0000000), wk =   0.0042667
        k(  123) = (   0.0400000   0.2000000   0.0000000), wk =   0.0042667
        k(  124) = (   0.0400000   0.2133333   0.0000000), wk =   0.0042667
        k(  125) = (   0.0400000   0.2266667   0.0000000), wk =   0.0042667
        k(  126) = (   0.0400000   0.2400000   0.0000000), wk =   0.0042667
        k(  127) = (   0.0400000   0.2533333   0.0000000), wk =   0.0042667
        k(  128) = (   0.0400000   0.2666667   0.0000000), wk =   0.0042667
        k(  129) = (   0.0400000   0.2800000   0.0000000), wk =   0.0042667
        k(  130) = (   0.0400000   0.2933333   0.0000000), wk =   0.0042667
        k(  131) = (   0.0400000   0.3066667   0.0000000), wk =   0.0042667
        k(  132) = (   0.0400000   0.3200000   0.0000000), wk =   0.0042667
        k(  133) = (   0.0400000   0.3333333   0.0000000), wk =   0.0042667
        k(  134) = (   0.0400000   0.3466667   0.0000000), wk =   0.0042667
        k(  135) = (   0.0400000   0.3600000   0.0000000), wk =   0.0042667
        k(  136) = (   0.0400000   0.3733333   0.0000000), wk =   0.0042667
        k(  137) = (   0.0400000   0.3866667   0.0000000), wk =   0.0042667
        k(  138) = (   0.0400000   0.4000000   0.0000000), wk =   0.0042667
        k(  139) = (   0.0400000   0.4133333   0.0000000), wk =   0.0042667
        k(  140) = (   0.0400000   0.4266667   0.0000000), wk =   0.0042667
        k(  141) = (   0.0400000   0.4400000   0.0000000), wk =   0.0042667
        k(  142) = (   0.0400000   0.4533333   0.0000000), wk =   0.0042667
        k(  143) = (   0.0400000   0.4666667   0.0000000), wk =   0.0042667
        k(  144) = (   0.0400000   0.4800000   0.0000000), wk =   0.0021333
        k(  145) = (   0.0533333   0.0533333   0.0000000), wk =   0.0021333
        k(  146) = (   0.0533333   0.0666667   0.0000000), wk =   0.0042667
        k(  147) = (   0.0533333   0.0800000   0.0000000), wk =   0.0042667
        k(  148) = (   0.0533333   0.0933333   0.0000000), wk =   0.0042667
        k(  149) = (   0.0533333   0.1066667   0.0000000), wk =   0.0042667
        k(  150) = (   0.0533333   0.1200000   0.0000000), wk =   0.0042667
        k(  151) = (   0.0533333   0.1333333   0.0000000), wk =   0.0042667
        k(  152) = (   0.0533333   0.1466667   0.0000000), wk =   0.0042667
        k(  153) = (   0.0533333   0.1600000   0.0000000), wk =   0.0042667
        k(  154) = (   0.0533333   0.1733333   0.0000000), wk =   0.0042667
        k(  155) = (   0.0533333   0.1866667   0.0000000), wk =   0.0042667
        k(  156) = (   0.0533333   0.2000000   0.0000000), wk =   0.0042667
        k(  157) = (   0.0533333   0.2133333   0.0000000), wk =   0.0042667
        k(  158) = (   0.0533333   0.2266667   0.0000000), wk =   0.0042667
        k(  159) = (   0.0533333   0.2400000   0.0000000), wk =   0.0042667
        k(  160) = (   0.0533333   0.2533333   0.0000000), wk =   0.0042667
        k(  161) = (   0.0533333   0.2666667   0.0000000), wk =   0.0042667
        k(  162) = (   0.0533333   0.2800000   0.0000000), wk =   0.0042667
        k(  163) = (   0.0533333   0.2933333   0.0000000), wk =   0.0042667
        k(  164) = (   0.0533333   0.3066667   0.0000000), wk =   0.0042667
        k(  165) = (   0.0533333   0.3200000   0.0000000), wk =   0.0042667
        k(  166) = (   0.0533333   0.3333333   0.0000000), wk =   0.0042667
        k(  167) = (   0.0533333   0.3466667   0.0000000), wk =   0.0042667
        k(  168) = (   0.0533333   0.3600000   0.0000000), wk =   0.0042667
        k(  169) = (   0.0533333   0.3733333   0.0000000), wk =   0.0042667
        k(  170) = (   0.0533333   0.3866667   0.0000000), wk =   0.0042667
        k(  171) = (   0.0533333   0.4000000   0.0000000), wk =   0.0042667
        k(  172) = (   0.0533333   0.4133333   0.0000000), wk =   0.0042667
        k(  173) = (   0.0533333   0.4266667   0.0000000), wk =   0.0042667
        k(  174) = (   0.0533333   0.4400000   0.0000000), wk =   0.0042667
        k(  175) = (   0.0533333   0.4533333   0.0000000), wk =   0.0042667
        k(  176) = (   0.0533333   0.4666667   0.0000000), wk =   0.0042667
        k(  177) = (   0.0666667   0.0666667   0.0000000), wk =   0.0021333
        k(  178) = (   0.0666667   0.0800000   0.0000000), wk =   0.0042667
        k(  179) = (   0.0666667   0.0933333   0.0000000), wk =   0.0042667
        k(  180) = (   0.0666667   0.1066667   0.0000000), wk =   0.0042667
        k(  181) = (   0.0666667   0.1200000   0.0000000), wk =   0.0042667
        k(  182) = (   0.0666667   0.1333333   0.0000000), wk =   0.0042667
        k(  183) = (   0.0666667   0.1466667   0.0000000), wk =   0.0042667
        k(  184) = (   0.0666667   0.1600000   0.0000000), wk =   0.0042667
        k(  185) = (   0.0666667   0.1733333   0.0000000), wk =   0.0042667
        k(  186) = (   0.0666667   0.1866667   0.0000000), wk =   0.0042667
        k(  187) = (   0.0666667   0.2000000   0.0000000), wk =   0.0042667
        k(  188) = (   0.0666667   0.2133333   0.0000000), wk =   0.0042667
        k(  189) = (   0.0666667   0.2266667   0.0000000), wk =   0.0042667
        k(  190) = (   0.0666667   0.2400000   0.0000000), wk =   0.0042667
        k(  191) = (   0.0666667   0.2533333   0.0000000), wk =   0.0042667
        k(  192) = (   0.0666667   0.2666667   0.0000000), wk =   0.0042667
        k(  193) = (   0.0666667   0.2800000   0.0000000), wk =   0.0042667
        k(  194) = (   0.0666667   0.2933333   0.0000000), wk =   0.0042667
        k(  195) = (   0.0666667   0.3066667   0.0000000), wk =   0.0042667
        k(  196) = (   0.0666667   0.3200000   0.0000000), wk =   0.0042667
        k(  197) = (   0.0666667   0.3333333   0.0000000), wk =   0.0042667
        k(  198) = (   0.0666667   0.3466667   0.0000000), wk =   0.0042667
        k(  199) = (   0.0666667   0.3600000   0.0000000), wk =   0.0042667
        k(  200) = (   0.0666667   0.3733333   0.0000000), wk =   0.0042667
        k(  201) = (   0.0666667   0.3866667   0.0000000), wk =   0.0042667
        k(  202) = (   0.0666667   0.4000000   0.0000000), wk =   0.0042667
        k(  203) = (   0.0666667   0.4133333   0.0000000), wk =   0.0042667
        k(  204) = (   0.0666667   0.4266667   0.0000000), wk =   0.0042667
        k(  205) = (   0.0666667   0.4400000   0.0000000), wk =   0.0042667
        k(  206) = (   0.0666667   0.4533333   0.0000000), wk =   0.0042667
        k(  207) = (   0.0666667   0.4666667   0.0000000), wk =   0.0021333
        k(  208) = (   0.0800000   0.0800000   0.0000000), wk =   0.0021333
        k(  209) = (   0.0800000   0.0933333   0.0000000), wk =   0.0042667
        k(  210) = (   0.0800000   0.1066667   0.0000000), wk =   0.0042667
        k(  211) = (   0.0800000   0.1200000   0.0000000), wk =   0.0042667
        k(  212) = (   0.0800000   0.1333333   0.0000000), wk =   0.0042667
        k(  213) = (   0.0800000   0.1466667   0.0000000), wk =   0.0042667
        k(  214) = (   0.0800000   0.1600000   0.0000000), wk =   0.0042667
        k(  215) = (   0.0800000   0.1733333   0.0000000), wk =   0.0042667
        k(  216) = (   0.0800000   0.1866667   0.0000000), wk =   0.0042667
        k(  217) = (   0.0800000   0.2000000   0.0000000), wk =   0.0042667
        k(  218) = (   0.0800000   0.2133333   0.0000000), wk =   0.0042667
        k(  219) = (   0.0800000   0.2266667   0.0000000), wk =   0.0042667
        k(  220) = (   0.0800000   0.2400000   0.0000000), wk =   0.0042667
        k(  221) = (   0.0800000   0.2533333   0.0000000), wk =   0.0042667
        k(  222) = (   0.0800000   0.2666667   0.0000000), wk =   0.0042667
        k(  223) = (   0.0800000   0.2800000   0.0000000), wk =   0.0042667
        k(  224) = (   0.0800000   0.2933333   0.0000000), wk =   0.0042667
        k(  225) = (   0.0800000   0.3066667   0.0000000), wk =   0.0042667
        k(  226) = (   0.0800000   0.3200000   0.0000000), wk =   0.0042667
        k(  227) = (   0.0800000   0.3333333   0.0000000), wk =   0.0042667
        k(  228) = (   0.0800000   0.3466667   0.0000000), wk =   0.0042667
        k(  229) = (   0.0800000   0.3600000   0.0000000), wk =   0.0042667
        k(  230) = (   0.0800000   0.3733333   0.0000000), wk =   0.0042667
        k(  231) = (   0.0800000   0.3866667   0.0000000), wk =   0.0042667
        k(  232) = (   0.0800000   0.4000000   0.0000000), wk =   0.0042667
        k(  233) = (   0.0800000   0.4133333   0.0000000), wk =   0.0042667
        k(  234) = (   0.0800000   0.4266667   0.0000000), wk =   0.0042667
        k(  235) = (   0.0800000   0.4400000   0.0000000), wk =   0.0042667
        k(  236) = (   0.0800000   0.4533333   0.0000000), wk =   0.0042667
        k(  237) = (   0.0933333   0.0933333   0.0000000), wk =   0.0021333
        k(  238) = (   0.0933333   0.1066667   0.0000000), wk =   0.0042667
        k(  239) = (   0.0933333   0.1200000   0.0000000), wk =   0.0042667
        k(  240) = (   0.0933333   0.1333333   0.0000000), wk =   0.0042667
        k(  241) = (   0.0933333   0.1466667   0.0000000), wk =   0.0042667
        k(  242) = (   0.0933333   0.1600000   0.0000000), wk =   0.0042667
        k(  243) = (   0.0933333   0.1733333   0.0000000), wk =   0.0042667
        k(  244) = (   0.0933333   0.1866667   0.0000000), wk =   0.0042667
        k(  245) = (   0.0933333   0.2000000   0.0000000), wk =   0.0042667
        k(  246) = (   0.0933333   0.2133333   0.0000000), wk =   0.0042667
        k(  247) = (   0.0933333   0.2266667   0.0000000), wk =   0.0042667
        k(  248) = (   0.0933333   0.2400000   0.0000000), wk =   0.0042667
        k(  249) = (   0.0933333   0.2533333   0.0000000), wk =   0.0042667
        k(  250) = (   0.0933333   0.2666667   0.0000000), wk =   0.0042667
        k(  251) = (   0.0933333   0.2800000   0.0000000), wk =   0.0042667
        k(  252) = (   0.0933333   0.2933333   0.0000000), wk =   0.0042667
        k(  253) = (   0.0933333   0.3066667   0.0000000), wk =   0.0042667
        k(  254) = (   0.0933333   0.3200000   0.0000000), wk =   0.0042667
        k(  255) = (   0.0933333   0.3333333   0.0000000), wk =   0.0042667
        k(  256) = (   0.0933333   0.3466667   0.0000000), wk =   0.0042667
        k(  257) = (   0.0933333   0.3600000   0.0000000), wk =   0.0042667
        k(  258) = (   0.0933333   0.3733333   0.0000000), wk =   0.0042667
        k(  259) = (   0.0933333   0.3866667   0.0000000), wk =   0.0042667
        k(  260) = (   0.0933333   0.4000000   0.0000000), wk =   0.0042667
        k(  261) = (   0.0933333   0.4133333   0.0000000), wk =   0.0042667
        k(  262) = (   0.0933333   0.4266667   0.0000000), wk =   0.0042667
        k(  263) = (   0.0933333   0.4400000   0.0000000), wk =   0.0042667
        k(  264) = (   0.0933333   0.4533333   0.0000000), wk =   0.0021333
        k(  265) = (   0.1066667   0.1066667   0.0000000), wk =   0.0021333
        k(  266) = (   0.1066667   0.1200000   0.0000000), wk =   0.0042667
        k(  267) = (   0.1066667   0.1333333   0.0000000), wk =   0.0042667
        k(  268) = (   0.1066667   0.1466667   0.0000000), wk =   0.0042667
        k(  269) = (   0.1066667   0.1600000   0.0000000), wk =   0.0042667
        k(  270) = (   0.1066667   0.1733333   0.0000000), wk =   0.0042667
        k(  271) = (   0.1066667   0.1866667   0.0000000), wk =   0.0042667
        k(  272) = (   0.1066667   0.2000000   0.0000000), wk =   0.0042667
        k(  273) = (   0.1066667   0.2133333   0.0000000), wk =   0.0042667
        k(  274) = (   0.1066667   0.2266667   0.0000000), wk =   0.0042667
        k(  275) = (   0.1066667   0.2400000   0.0000000), wk =   0.0042667
        k(  276) = (   0.1066667   0.2533333   0.0000000), wk =   0.0042667
        k(  277) = (   0.1066667   0.2666667   0.0000000), wk =   0.0042667
        k(  278) = (   0.1066667   0.2800000   0.0000000), wk =   0.0042667
        k(  279) = (   0.1066667   0.2933333   0.0000000), wk =   0.0042667
        k(  280) = (   0.1066667   0.3066667   0.0000000), wk =   0.0042667
        k(  281) = (   0.1066667   0.3200000   0.0000000), wk =   0.0042667
        k(  282) = (   0.1066667   0.3333333   0.0000000), wk =   0.0042667
        k(  283) = (   0.1066667   0.3466667   0.0000000), wk =   0.0042667
        k(  284) = (   0.1066667   0.3600000   0.0000000), wk =   0.0042667
        k(  285) = (   0.1066667   0.3733333   0.0000000), wk =   0.0042667
        k(  286) = (   0.1066667   0.3866667   0.0000000), wk =   0.0042667
        k(  287) = (   0.1066667   0.4000000   0.0000000), wk =   0.0042667
        k(  288) = (   0.1066667   0.4133333   0.0000000), wk =   0.0042667
        k(  289) = (   0.1066667   0.4266667   0.0000000), wk =   0.0042667
        k(  290) = (   0.1066667   0.4400000   0.0000000), wk =   0.0042667
        k(  291) = (   0.1200000   0.1200000   0.0000000), wk =   0.0021333
        k(  292) = (   0.1200000   0.1333333   0.0000000), wk =   0.0042667
        k(  293) = (   0.1200000   0.1466667   0.0000000), wk =   0.0042667
        k(  294) = (   0.1200000   0.1600000   0.0000000), wk =   0.0042667
        k(  295) = (   0.1200000   0.1733333   0.0000000), wk =   0.0042667
        k(  296) = (   0.1200000   0.1866667   0.0000000), wk =   0.0042667
        k(  297) = (   0.1200000   0.2000000   0.0000000), wk =   0.0042667
        k(  298) = (   0.1200000   0.2133333   0.0000000), wk =   0.0042667
        k(  299) = (   0.1200000   0.2266667   0.0000000), wk =   0.0042667
        k(  300) = (   0.1200000   0.2400000   0.0000000), wk =   0.0042667
        k(  301) = (   0.1200000   0.2533333   0.0000000), wk =   0.0042667
        k(  302) = (   0.1200000   0.2666667   0.0000000), wk =   0.0042667
        k(  303) = (   0.1200000   0.2800000   0.0000000), wk =   0.0042667
        k(  304) = (   0.1200000   0.2933333   0.0000000), wk =   0.0042667
        k(  305) = (   0.1200000   0.3066667   0.0000000), wk =   0.0042667
        k(  306) = (   0.1200000   0.3200000   0.0000000), wk =   0.0042667
        k(  307) = (   0.1200000   0.3333333   0.0000000), wk =   0.0042667
        k(  308) = (   0.1200000   0.3466667   0.0000000), wk =   0.0042667
        k(  309) = (   0.1200000   0.3600000   0.0000000), wk =   0.0042667
        k(  310) = (   0.1200000   0.3733333   0.0000000), wk =   0.0042667
        k(  311) = (   0.1200000   0.3866667   0.0000000), wk =   0.0042667
        k(  312) = (   0.1200000   0.4000000   0.0000000), wk =   0.0042667
        k(  313) = (   0.1200000   0.4133333   0.0000000), wk =   0.0042667
        k(  314) = (   0.1200000   0.4266667   0.0000000), wk =   0.0042667
        k(  315) = (   0.1200000   0.4400000   0.0000000), wk =   0.0021333
        k(  316) = (   0.1333333   0.1333333   0.0000000), wk =   0.0021333
        k(  317) = (   0.1333333   0.1466667   0.0000000), wk =   0.0042667
        k(  318) = (   0.1333333   0.1600000   0.0000000), wk =   0.0042667
        k(  319) = (   0.1333333   0.1733333   0.0000000), wk =   0.0042667
        k(  320) = (   0.1333333   0.1866667   0.0000000), wk =   0.0042667
        k(  321) = (   0.1333333   0.2000000   0.0000000), wk =   0.0042667
        k(  322) = (   0.1333333   0.2133333   0.0000000), wk =   0.0042667
        k(  323) = (   0.1333333   0.2266667   0.0000000), wk =   0.0042667
        k(  324) = (   0.1333333   0.2400000   0.0000000), wk =   0.0042667
        k(  325) = (   0.1333333   0.2533333   0.0000000), wk =   0.0042667
        k(  326) = (   0.1333333   0.2666667   0.0000000), wk =   0.0042667
        k(  327) = (   0.1333333   0.2800000   0.0000000), wk =   0.0042667
        k(  328) = (   0.1333333   0.2933333   0.0000000), wk =   0.0042667
        k(  329) = (   0.1333333   0.3066667   0.0000000), wk =   0.0042667
        k(  330) = (   0.1333333   0.3200000   0.0000000), wk =   0.0042667
        k(  331) = (   0.1333333   0.3333333   0.0000000), wk =   0.0042667
        k(  332) = (   0.1333333   0.3466667   0.0000000), wk =   0.0042667
        k(  333) = (   0.1333333   0.3600000   0.0000000), wk =   0.0042667
        k(  334) = (   0.1333333   0.3733333   0.0000000), wk =   0.0042667
        k(  335) = (   0.1333333   0.3866667   0.0000000), wk =   0.0042667
        k(  336) = (   0.1333333   0.4000000   0.0000000), wk =   0.0042667
        k(  337) = (   0.1333333   0.4133333   0.0000000), wk =   0.0042667
        k(  338) = (   0.1333333   0.4266667   0.0000000), wk =   0.0042667
        k(  339) = (   0.1466667   0.1466667   0.0000000), wk =   0.0021333
        k(  340) = (   0.1466667   0.1600000   0.0000000), wk =   0.0042667
        k(  341) = (   0.1466667   0.1733333   0.0000000), wk =   0.0042667
        k(  342) = (   0.1466667   0.1866667   0.0000000), wk =   0.0042667
        k(  343) = (   0.1466667   0.2000000   0.0000000), wk =   0.0042667
        k(  344) = (   0.1466667   0.2133333   0.0000000), wk =   0.0042667
        k(  345) = (   0.1466667   0.2266667   0.0000000), wk =   0.0042667
        k(  346) = (   0.1466667   0.2400000   0.0000000), wk =   0.0042667
        k(  347) = (   0.1466667   0.2533333   0.0000000), wk =   0.0042667
        k(  348) = (   0.1466667   0.2666667   0.0000000), wk =   0.0042667
        k(  349) = (   0.1466667   0.2800000   0.0000000), wk =   0.0042667
        k(  350) = (   0.1466667   0.2933333   0.0000000), wk =   0.0042667
        k(  351) = (   0.1466667   0.3066667   0.0000000), wk =   0.0042667
        k(  352) = (   0.1466667   0.3200000   0.0000000), wk =   0.0042667
        k(  353) = (   0.1466667   0.3333333   0.0000000), wk =   0.0042667
        k(  354) = (   0.1466667   0.3466667   0.0000000), wk =   0.0042667
        k(  355) = (   0.1466667   0.3600000   0.0000000), wk =   0.0042667
        k(  356) = (   0.1466667   0.3733333   0.0000000), wk =   0.0042667
        k(  357) = (   0.1466667   0.3866667   0.0000000), wk =   0.0042667
        k(  358) = (   0.1466667   0.4000000   0.0000000), wk =   0.0042667
        k(  359) = (   0.1466667   0.4133333   0.0000000), wk =   0.0042667
        k(  360) = (   0.1466667   0.4266667   0.0000000), wk =   0.0021333
        k(  361) = (   0.1600000   0.1600000   0.0000000), wk =   0.0021333
        k(  362) = (   0.1600000   0.1733333   0.0000000), wk =   0.0042667
        k(  363) = (   0.1600000   0.1866667   0.0000000), wk =   0.0042667
        k(  364) = (   0.1600000   0.2000000   0.0000000), wk =   0.0042667
        k(  365) = (   0.1600000   0.2133333   0.0000000), wk =   0.0042667
        k(  366) = (   0.1600000   0.2266667   0.0000000), wk =   0.0042667
        k(  367) = (   0.1600000   0.2400000   0.0000000), wk =   0.0042667
        k(  368) = (   0.1600000   0.2533333   0.0000000), wk =   0.0042667
        k(  369) = (   0.1600000   0.2666667   0.0000000), wk =   0.0042667
        k(  370) = (   0.1600000   0.2800000   0.0000000), wk =   0.0042667
        k(  371) = (   0.1600000   0.2933333   0.0000000), wk =   0.0042667
        k(  372) = (   0.1600000   0.3066667   0.0000000), wk =   0.0042667
        k(  373) = (   0.1600000   0.3200000   0.0000000), wk =   0.0042667
        k(  374) = (   0.1600000   0.3333333   0.0000000), wk =   0.0042667
        k(  375) = (   0.1600000   0.3466667   0.0000000), wk =   0.0042667
        k(  376) = (   0.1600000   0.3600000   0.0000000), wk =   0.0042667
        k(  377) = (   0.1600000   0.3733333   0.0000000), wk =   0.0042667
        k(  378) = (   0.1600000   0.3866667   0.0000000), wk =   0.0042667
        k(  379) = (   0.1600000   0.4000000   0.0000000), wk =   0.0042667
        k(  380) = (   0.1600000   0.4133333   0.0000000), wk =   0.0042667
        k(  381) = (   0.1733333   0.1733333   0.0000000), wk =   0.0021333
        k(  382) = (   0.1733333   0.1866667   0.0000000), wk =   0.0042667
        k(  383) = (   0.1733333   0.2000000   0.0000000), wk =   0.0042667
        k(  384) = (   0.1733333   0.2133333   0.0000000), wk =   0.0042667
        k(  385) = (   0.1733333   0.2266667   0.0000000), wk =   0.0042667
        k(  386) = (   0.1733333   0.2400000   0.0000000), wk =   0.0042667
        k(  387) = (   0.1733333   0.2533333   0.0000000), wk =   0.0042667
        k(  388) = (   0.1733333   0.2666667   0.0000000), wk =   0.0042667
        k(  389) = (   0.1733333   0.2800000   0.0000000), wk =   0.0042667
        k(  390) = (   0.1733333   0.2933333   0.0000000), wk =   0.0042667
        k(  391) = (   0.1733333   0.3066667   0.0000000), wk =   0.0042667
        k(  392) = (   0.1733333   0.3200000   0.0000000), wk =   0.0042667
        k(  393) = (   0.1733333   0.3333333   0.0000000), wk =   0.0042667
        k(  394) = (   0.1733333   0.3466667   0.0000000), wk =   0.0042667
        k(  395) = (   0.1733333   0.3600000   0.0000000), wk =   0.0042667
        k(  396) = (   0.1733333   0.3733333   0.0000000), wk =   0.0042667
        k(  397) = (   0.1733333   0.3866667   0.0000000), wk =   0.0042667
        k(  398) = (   0.1733333   0.4000000   0.0000000), wk =   0.0042667
        k(  399) = (   0.1733333   0.4133333   0.0000000), wk =   0.0021333
        k(  400) = (   0.1866667   0.1866667   0.0000000), wk =   0.0021333
        k(  401) = (   0.1866667   0.2000000   0.0000000), wk =   0.0042667
        k(  402) = (   0.1866667   0.2133333   0.0000000), wk =   0.0042667
        k(  403) = (   0.1866667   0.2266667   0.0000000), wk =   0.0042667
        k(  404) = (   0.1866667   0.2400000   0.0000000), wk =   0.0042667
        k(  405) = (   0.1866667   0.2533333   0.0000000), wk =   0.0042667
        k(  406) = (   0.1866667   0.2666667   0.0000000), wk =   0.0042667
        k(  407) = (   0.1866667   0.2800000   0.0000000), wk =   0.0042667
        k(  408) = (   0.1866667   0.2933333   0.0000000), wk =   0.0042667
        k(  409) = (   0.1866667   0.3066667   0.0000000), wk =   0.0042667
        k(  410) = (   0.1866667   0.3200000   0.0000000), wk =   0.0042667
        k(  411) = (   0.1866667   0.3333333   0.0000000), wk =   0.0042667
        k(  412) = (   0.1866667   0.3466667   0.0000000), wk =   0.0042667
        k(  413) = (   0.1866667   0.3600000   0.0000000), wk =   0.0042667
        k(  414) = (   0.1866667   0.3733333   0.0000000), wk =   0.0042667
        k(  415) = (   0.1866667   0.3866667   0.0000000), wk =   0.0042667
        k(  416) = (   0.1866667   0.4000000   0.0000000), wk =   0.0042667
        k(  417) = (   0.2000000   0.2000000   0.0000000), wk =   0.0021333
        k(  418) = (   0.2000000   0.2133333   0.0000000), wk =   0.0042667
        k(  419) = (   0.2000000   0.2266667   0.0000000), wk =   0.0042667
        k(  420) = (   0.2000000   0.2400000   0.0000000), wk =   0.0042667
        k(  421) = (   0.2000000   0.2533333   0.0000000), wk =   0.0042667
        k(  422) = (   0.2000000   0.2666667   0.0000000), wk =   0.0042667
        k(  423) = (   0.2000000   0.2800000   0.0000000), wk =   0.0042667
        k(  424) = (   0.2000000   0.2933333   0.0000000), wk =   0.0042667
        k(  425) = (   0.2000000   0.3066667   0.0000000), wk =   0.0042667
        k(  426) = (   0.2000000   0.3200000   0.0000000), wk =   0.0042667
        k(  427) = (   0.2000000   0.3333333   0.0000000), wk =   0.0042667
        k(  428) = (   0.2000000   0.3466667   0.0000000), wk =   0.0042667
        k(  429) = (   0.2000000   0.3600000   0.0000000), wk =   0.0042667
        k(  430) = (   0.2000000   0.3733333   0.0000000), wk =   0.0042667
        k(  431) = (   0.2000000   0.3866667   0.0000000), wk =   0.0042667
        k(  432) = (   0.2000000   0.4000000   0.0000000), wk =   0.0021333
        k(  433) = (   0.2133333   0.2133333   0.0000000), wk =   0.0021333
        k(  434) = (   0.2133333   0.2266667   0.0000000), wk =   0.0042667
        k(  435) = (   0.2133333   0.2400000   0.0000000), wk =   0.0042667
        k(  436) = (   0.2133333   0.2533333   0.0000000), wk =   0.0042667
        k(  437) = (   0.2133333   0.2666667   0.0000000), wk =   0.0042667
        k(  438) = (   0.2133333   0.2800000   0.0000000), wk =   0.0042667
        k(  439) = (   0.2133333   0.2933333   0.0000000), wk =   0.0042667
        k(  440) = (   0.2133333   0.3066667   0.0000000), wk =   0.0042667
        k(  441) = (   0.2133333   0.3200000   0.0000000), wk =   0.0042667
        k(  442) = (   0.2133333   0.3333333   0.0000000), wk =   0.0042667
        k(  443) = (   0.2133333   0.3466667   0.0000000), wk =   0.0042667
        k(  444) = (   0.2133333   0.3600000   0.0000000), wk =   0.0042667
        k(  445) = (   0.2133333   0.3733333   0.0000000), wk =   0.0042667
        k(  446) = (   0.2133333   0.3866667   0.0000000), wk =   0.0042667
        k(  447) = (   0.2266667   0.2266667   0.0000000), wk =   0.0021333
        k(  448) = (   0.2266667   0.2400000   0.0000000), wk =   0.0042667
        k(  449) = (   0.2266667   0.2533333   0.0000000), wk =   0.0042667
        k(  450) = (   0.2266667   0.2666667   0.0000000), wk =   0.0042667
        k(  451) = (   0.2266667   0.2800000   0.0000000), wk =   0.0042667
        k(  452) = (   0.2266667   0.2933333   0.0000000), wk =   0.0042667
        k(  453) = (   0.2266667   0.3066667   0.0000000), wk =   0.0042667
        k(  454) = (   0.2266667   0.3200000   0.0000000), wk =   0.0042667
        k(  455) = (   0.2266667   0.3333333   0.0000000), wk =   0.0042667
        k(  456) = (   0.2266667   0.3466667   0.0000000), wk =   0.0042667
        k(  457) = (   0.2266667   0.3600000   0.0000000), wk =   0.0042667
        k(  458) = (   0.2266667   0.3733333   0.0000000), wk =   0.0042667
        k(  459) = (   0.2266667   0.3866667   0.0000000), wk =   0.0021333
        k(  460) = (   0.2400000   0.2400000   0.0000000), wk =   0.0021333
        k(  461) = (   0.2400000   0.2533333   0.0000000), wk =   0.0042667
        k(  462) = (   0.2400000   0.2666667   0.0000000), wk =   0.0042667
        k(  463) = (   0.2400000   0.2800000   0.0000000), wk =   0.0042667
        k(  464) = (   0.2400000   0.2933333   0.0000000), wk =   0.0042667
        k(  465) = (   0.2400000   0.3066667   0.0000000), wk =   0.0042667
        k(  466) = (   0.2400000   0.3200000   0.0000000), wk =   0.0042667
        k(  467) = (   0.2400000   0.3333333   0.0000000), wk =   0.0042667
        k(  468) = (   0.2400000   0.3466667   0.0000000), wk =   0.0042667
        k(  469) = (   0.2400000   0.3600000   0.0000000), wk =   0.0042667
        k(  470) = (   0.2400000   0.3733333   0.0000000), wk =   0.0042667
        k(  471) = (   0.2533333   0.2533333   0.0000000), wk =   0.0021333
        k(  472) = (   0.2533333   0.2666667   0.0000000), wk =   0.0042667
        k(  473) = (   0.2533333   0.2800000   0.0000000), wk =   0.0042667
        k(  474) = (   0.2533333   0.2933333   0.0000000), wk =   0.0042667
        k(  475) = (   0.2533333   0.3066667   0.0000000), wk =   0.0042667
        k(  476) = (   0.2533333   0.3200000   0.0000000), wk =   0.0042667
        k(  477) = (   0.2533333   0.3333333   0.0000000), wk =   0.0042667
        k(  478) = (   0.2533333   0.3466667   0.0000000), wk =   0.0042667
        k(  479) = (   0.2533333   0.3600000   0.0000000), wk =   0.0042667
        k(  480) = (   0.2533333   0.3733333   0.0000000), wk =   0.0021333
        k(  481) = (   0.2666667   0.2666667   0.0000000), wk =   0.0021333
        k(  482) = (   0.2666667   0.2800000   0.0000000), wk =   0.0042667
        k(  483) = (   0.2666667   0.2933333   0.0000000), wk =   0.0042667
        k(  484) = (   0.2666667   0.3066667   0.0000000), wk =   0.0042667
        k(  485) = (   0.2666667   0.3200000   0.0000000), wk =   0.0042667
        k(  486) = (   0.2666667   0.3333333   0.0000000), wk =   0.0042667
        k(  487) = (   0.2666667   0.3466667   0.0000000), wk =   0.0042667
        k(  488) = (   0.2666667   0.3600000   0.0000000), wk =   0.0042667
        k(  489) = (   0.2800000   0.2800000   0.0000000), wk =   0.0021333
        k(  490) = (   0.2800000   0.2933333   0.0000000), wk =   0.0042667
        k(  491) = (   0.2800000   0.3066667   0.0000000), wk =   0.0042667
        k(  492) = (   0.2800000   0.3200000   0.0000000), wk =   0.0042667
        k(  493) = (   0.2800000   0.3333333   0.0000000), wk =   0.0042667
        k(  494) = (   0.2800000   0.3466667   0.0000000), wk =   0.0042667
        k(  495) = (   0.2800000   0.3600000   0.0000000), wk =   0.0021333
        k(  496) = (   0.2933333   0.2933333   0.0000000), wk =   0.0021333
        k(  497) = (   0.2933333   0.3066667   0.0000000), wk =   0.0042667
        k(  498) = (   0.2933333   0.3200000   0.0000000), wk =   0.0042667
        k(  499) = (   0.2933333   0.3333333   0.0000000), wk =   0.0042667
        k(  500) = (   0.2933333   0.3466667   0.0000000), wk =   0.0042667
        k(  501) = (   0.3066667   0.3066667   0.0000000), wk =   0.0021333
        k(  502) = (   0.3066667   0.3200000   0.0000000), wk =   0.0042667
        k(  503) = (   0.3066667   0.3333333   0.0000000), wk =   0.0042667
        k(  504) = (   0.3066667   0.3466667   0.0000000), wk =   0.0021333
        k(  505) = (   0.3200000   0.3200000   0.0000000), wk =   0.0021333
        k(  506) = (   0.3200000   0.3333333   0.0000000), wk =   0.0042667
        k(  507) = (   0.3333333   0.3333333   0.0000000), wk =   0.0007111

     Dense  grid:    94953 G-vectors     FFT dimensions: (  30,  30, 270)

     Dynamical RAM for                 wfc:       5.45 MB

     Dynamical RAM for     wfc (w. buffer):     179.87 MB

     Dynamical RAM for           str. fact:       1.45 MB

     Dynamical RAM for           local pot:       0.00 MB

     Dynamical RAM for          nlocal pot:       5.81 MB

     Dynamical RAM for                qrad:       0.44 MB

     Dynamical RAM for          rho,v,vnew:       9.91 MB

     Dynamical RAM for           G-vectors:       6.16 MB

     Dynamical RAM for          h,s,v(r/c):       0.16 MB

     Dynamical RAM for          <psi|beta>:       0.01 MB

     Dynamical RAM for                 psi:      10.90 MB

     Dynamical RAM for                hpsi:      10.90 MB

     Dynamical RAM for      wfcinit/wfcrot:      10.92 MB

     Estimated static dynamical RAM per process >     215.80 MB

     Estimated max dynamical RAM per process >     237.78 MB

     Estimated total dynamical RAM >       3.72 GB

     The potential is recalculated from file :
     /home/ubuntu/projects/Graphene-Band-Structure-Quantum-Espresso/outputs/field_0/PBE-d3/coupled/data/coupled.save/charge-density

     Starting wfcs are   16 randomized atomic wfcs +   14 random wfcs

     Band Structure Calculation
     Davidson diagonalization with overlap

     Computing kpt #:     1  of    32 on this pool
     total cpu time spent up to now is       18.1 secs

     Computing kpt #:     2  of    32 on this pool
     total cpu time spent up to now is       32.3 secs

     Computing kpt #:     3  of    32 on this pool
     total cpu time spent up to now is       47.3 secs

     Computing kpt #:     4  of    32 on this pool
     total cpu time spent up to now is       61.5 secs

     Computing kpt #:     5  of    32 on this pool
     total cpu time spent up to now is       76.1 secs

     Computing kpt #:     6  of    32 on this pool
     total cpu time spent up to now is       92.4 secs

     Computing kpt #:     7  of    32 on this pool
     total cpu time spent up to now is      107.4 secs

     Computing kpt #:     8  of    32 on this pool
     total cpu time spent up to now is      124.9 secs

     Computing kpt #:     9  of    32 on this pool
     total cpu time spent up to now is      141.0 secs

     Computing kpt #:    10  of    32 on this pool
     total cpu time spent up to now is      159.1 secs

     Computing kpt #:    11  of    32 on this pool
     total cpu time spent up to now is      173.6 secs

     Computing kpt #:    12  of    32 on this pool
     total cpu time spent up to now is      188.2 secs

     Computing kpt #:    13  of    32 on this pool
     total cpu time spent up to now is      207.1 secs

     Computing kpt #:    14  of    32 on this pool
     total cpu time spent up to now is      222.5 secs

     Computing kpt #:    15  of    32 on this pool
     total cpu time spent up to now is      238.3 secs

     Computing kpt #:    16  of    32 on this pool
     total cpu time spent up to now is      256.7 secs

     Computing kpt #:    17  of    32 on this pool
     total cpu time spent up to now is      273.8 secs

     Computing kpt #:    18  of    32 on this pool
     total cpu time spent up to now is      291.0 secs

     Computing kpt #:    19  of    32 on this pool
     total cpu time spent up to now is      306.2 secs

     Computing kpt #:    20  of    32 on this pool
     total cpu time spent up to now is      321.4 secs

     Computing kpt #:    21  of    32 on this pool
     total cpu time spent up to now is      335.6 secs

     Computing kpt #:    22  of    32 on this pool
     total cpu time spent up to now is      352.1 secs

     Computing kpt #:    23  of    32 on this pool
     total cpu time spent up to now is      371.0 secs

     Computing kpt #:    24  of    32 on this pool
     total cpu time spent up to now is      387.2 secs

     Computing kpt #:    25  of    32 on this pool
     total cpu time spent up to now is      402.6 secs

     Computing kpt #:    26  of    32 on this pool
     total cpu time spent up to now is      416.3 secs

     Computing kpt #:    27  of    32 on this pool
     total cpu time spent up to now is      431.8 secs

     Computing kpt #:    28  of    32 on this pool
     total cpu time spent up to now is      447.1 secs

     Computing kpt #:    29  of    32 on this pool
     total cpu time spent up to now is      461.4 secs

     Computing kpt #:    30  of    32 on this pool
     total cpu time spent up to now is      475.9 secs

     Computing kpt #:    31  of    32 on this pool
     total cpu time spent up to now is      489.8 secs

     Computing kpt #:    32  of    32 on this pool
     total cpu time spent up to now is      502.1 secs

     ethr =  6.25E-11,  avg # of iterations = 54.2

     total cpu time spent up to now is      502.9 secs

     End of band structure calculation

          k = 0.0000 0.0000 0.0000 ( 11659 PWs)   bands (ev):

   -20.6283 -20.5238  -9.0348  -8.2665  -4.0340  -4.0340  -4.0284  -4.0284
     2.3944   2.7785   3.4530   4.1950   4.5404   5.8949   6.1906   7.4531
     7.4532   7.4704   7.4704   8.0096   8.9886  10.4724  10.5462  11.1166
    11.6750  11.7469  12.5048  15.0769  16.5072  19.7342

     occupation numbers 
     1.0000   1.0000   1.0000   1.0000   1.0000   1.0000   1.0000   1.0000
     0.0000   0.0000   0.0000   0.0000   0.0000   0.0000   0.0000   0.0000
     0.0000   0.0000   0.0000   0.0000   0.0000   0.0000   0.0000   0.0000
     0.0000   0.0000   0.0000   0.0000   0.0000   0.0000

          k = 0.0000 0.0154 0.0000 ( 11711 PWs)   bands (ev):

   -20.6241 -20.5196  -9.0297  -8.2615  -4.0517  -4.0460  -4.0435  -4.0378
     2.4001   2.7843   3.4589   4.2008   4.5460   5.9003   6.1963   7.4557
     7.4717   7.4734   7.4890   8.0152   8.9944  10.4574  10.5315  11.1221
    11.6822  11.7542  12.5105  15.0823  16.5128  19.7370

     occupation numbers 
     1.0000   1.0000   1.0000   1.0000   1.0000   1.0000   1.0000   1.0000
     0.0000   0.0000   0.0000   0.0000   0.0000   0.0000   0.0000   0.0000
     0.0000   0.0000   0.0000   0.0000   0.0000   0.0000   0.0000   0.0000
     0.0000   0.0000   0.0000   0.0000   0.0000   0.0000

          k = 0.0000 0.0308 0.0000 ( 11747 PWs)   bands (ev):

   -20.6114 -20.5070  -9.0143  -8.2466  -4.1045  -4.0983  -4.0716  -4.0656
     2.4171   2.8015   3.4764   4.2183   4.5628   5.9166   6.2134   7.4631
     7.4822   7.5274   7.5446   8.0318   9.0119  10.4125  10.4877  11.1386
    11.7039  11.7763  12.5277  15.0985  16.5294  19.7454

     occupation numbers 
     1.0000   1.0000   1.0000   1.0000   1.0000   1.0000   1.0000   1.0000
     0.0000   0.0000   0.0000   0.0000   0.0000   0.0000   0.0000   0.0000
     0.0000   0.0000   0.0000   0.0000   0.0000   0.0000   0.0000   0.0000
     0.0000   0.0000   0.0000   0.0000   0.0000   0.0000

          k = 0.0000 0.0462 0.0000 ( 11759 PWs)   bands (ev):

   -20.5902 -20.4860  -8.9887  -8.2216  -4.1914  -4.1845  -4.1178  -4.1112
     2.4455   2.8303   3.5057   4.2474   4.5908   5.9436   6.2420   7.4742
     7.4956   7.6194   7.6366   8.0596   9.0411  10.3381  10.4151  11.1662
    11.7406  11.8137  12.5563  15.1254  16.5572  19.7586

     occupation numbers 
     1.0000   1.0000   1.0000   1.0000   1.0000   1.0000   1.0000   1.0000
     0.0000   0.0000   0.0000   0.0000   0.0000   0.0000   0.0000   0.0000
     0.0000   0.0000   0.0000   0.0000   0.0000   0.0000   0.0000   0.0000
     0.0000   0.0000   0.0000   0.0000   0.0000   0.0000

          k = 0.0000 0.0616 0.0000 ( 11767 PWs)   bands (ev):

   -20.5607 -20.4566  -8.9529  -8.1867  -4.3111  -4.3033  -4.1809  -4.1737
     2.4852   2.8706   3.5466   4.2881   4.6301   5.9815   6.2819   7.4876
     7.5122   7.7466   7.7638   8.0984   9.0818  10.2350  10.3146  11.2048
    11.7931  11.8671  12.5964  15.1631  16.5959  19.7757

     occupation numbers 
     1.0000   1.0000   1.0000   1.0000   1.0000   1.0000   1.0000   1.0000
     0.0000   0.0000   0.0000   0.0000   0.0000   0.0000   0.0000   0.0000
     0.0000   0.0000   0.0000   0.0000   0.0000   0.0000   0.0000   0.0000
     0.0000   0.0000   0.0000   0.0000   0.0000   0.0000

          k = 0.0000 0.0770 0.0000 ( 11791 PWs)   bands (ev):

   -20.5226 -20.4189  -8.9068  -8.1419  -4.4618  -4.4528  -4.2597  -4.2518
     2.5362   2.9223   3.5993   4.3405   4.6806   6.0302   6.3333   7.5014
     7.5300   7.9077   7.9249   8.1483   9.1340  10.1040  10.1870  11.2543
    11.8619  11.9372  12.6478  15.2113  16.6456  19.7953

     occupation numbers 
     1.0000   1.0000   1.0000   1.0000   1.0000   1.0000   1.0000   1.0000
     0.0000   0.0000   0.0000   0.0000   0.0000   0.0000   0.0000   0.0000
     0.0000   0.0000   0.0000   0.0000   0.0000   0.0000   0.0000   0.0000
     0.0000   0.0000   0.0000   0.0000   0.0000   0.0000

          k = 0.0000 0.0924 0.0000 ( 11782 PWs)   bands (ev):

   -20.4762 -20.3727  -8.8506  -8.0872  -4.6411  -4.6309  -4.3526  -4.3440
     2.5986   2.9856   3.6636   4.4045   4.7422   6.0897   6.3960   7.5136
     7.5470   8.1011   8.1181   8.2092   9.1977   9.9463  10.0335  11.3149
    11.9477  12.0250  12.7106  15.2701  16.7060  19.8153

     occupation numbers 
     1.0000   1.0000   1.0000   1.0000   1.0000   1.0000   1.0000   1.0000
     0.0000   0.0000   0.0000   0.0000   0.0000   0.0000   0.0000   0.0000
     0.0000   0.0000   0.0000   0.0000   0.0000   0.0000   0.0000   0.0000
     0.0000   0.0000   0.0000   0.0000   0.0000   0.0000

          k = 0.0000 0.1078 0.0000 ( 11796 PWs)   bands (ev):

   -20.4213 -20.3182  -8.7843  -8.0226  -4.8469  -4.8353  -4.4579  -4.4486
     2.6724   3.0603   3.7397   4.4801   4.8151   6.1599   6.4701   7.5224
     7.5612   8.2810   8.3248   8.3418   9.2726   9.7632   9.8556  11.3863
    12.0510  12.1310  12.7847  15.3393  16.7771  19.8328

     occupation numbers 
     1.0000   1.0000   1.0000   1.0000   1.0000   1.0000   1.0000   1.0000
     0.0000   0.0000   0.0000   0.0000   0.0000   0.0000   0.0000   0.0000
     0.0000   0.0000   0.0000   0.0000   0.0000   0.0000   0.0000   0.0000
     0.0000   0.0000   0.0000   0.0000   0.0000   0.0000

          k = 0.0000 0.1232 0.0000 ( 11794 PWs)   bands (ev):

   -20.3580 -20.2553  -8.7079  -7.9482  -5.0766  -5.0635  -4.5739  -4.5639
     2.7575   3.1465   3.8274   4.5674   4.8992   6.2408   6.5554   7.5263
     7.5708   8.3636   8.5770   8.5939   9.3584   9.5564   9.6550  11.4686
    12.1716  12.2556  12.8701  15.4189  16.8587  19.8441

     occupation numbers 
     1.0000   1.0000   1.0000   1.0000   1.0000   1.0000   1.0000   1.0000
     0.0000   0.0000   0.0000   0.0000   0.0000   0.0000   0.0000   0.0000
     0.0000   0.0000   0.0000   0.0000   0.0000   0.0000   0.0000   0.0000
     0.0000   0.0000   0.0000   0.0000   0.0000   0.0000

          k = 0.0000 0.1386 0.0000 ( 11786 PWs)   bands (ev):

   -20.2863 -20.1841  -8.6214  -7.8641  -5.3277  -5.3130  -4.6987  -4.6880
     2.8539   3.2442   3.9269   4.6663   4.9943   6.3322   6.6519   7.5240
     7.5747   8.4567   8.8557   8.8724   9.3241   9.4316   9.4601  11.5617
    12.3090  12.3988  12.9669  15.5085  16.9505  19.8437

     occupation numbers 
     1.0000   1.0000   1.0000   1.0000   1.0000   1.0000   1.0000   1.0000
     0.0000   0.0000   0.0000   0.0000   0.0000   0.0000   0.0000   0.0000
     0.0000   0.0000   0.0000   0.0000   0.0000   0.0000   0.0000   0.0000
     0.0000   0.0000   0.0000   0.0000   0.0000   0.0000

          k = 0.0000 0.1540 0.0000 ( 11788 PWs)   bands (ev):

   -20.2063 -20.1047  -8.5250  -7.7703  -5.5978  -5.5815  -4.8306  -4.8194
     2.9617   3.3533   4.0380   4.7767   5.1006   6.4340   6.7593   7.5152
     7.5721   8.5592   9.0743   9.1588   9.1754   9.1930   9.5665  11.6655
    12.4622  12.5601  13.0749  15.6082  17.0524  19.8249

     occupation numbers 
     1.0000   1.0000   1.0000   1.0000   1.0000   1.0000   1.0000   1.0000
     0.0000   0.0000   0.0000   0.0000   0.0000   0.0000   0.0000   0.0000
     0.0000   0.0000   0.0000   0.0000   0.0000   0.0000   0.0000   0.0000
     0.0000   0.0000   0.0000   0.0000   0.0000   0.0000

          k = 0.0000 0.1694 0.0000 ( 11786 PWs)   bands (ev):

   -20.1179 -20.0169  -8.4186  -7.6669  -5.8846  -5.8665  -4.9681  -4.9562
     3.0807   3.4739   4.1609   4.8988   5.2180   6.5459   6.8770   7.5000
     7.5625   8.6636   8.8063   8.9423   9.4845   9.5009   9.6863  11.7801
    12.6297  12.7385  13.1943  15.7176  17.1640  19.7792

     occupation numbers 
     1.0000   1.0000   1.0000   1.0000   1.0000   1.0000   1.0000   1.0000
     0.0000   0.0000   0.0000   0.0000   0.0000   0.0000   0.0000   0.0000
     0.0000   0.0000   0.0000   0.0000   0.0000   0.0000   0.0000   0.0000
     0.0000   0.0000   0.0000   0.0000   0.0000   0.0000

          k = 0.0000 0.1848 0.0000 ( 11800 PWs)   bands (ev):

   -20.0212 -19.9208  -8.3024  -7.5540  -6.1858  -6.1660  -5.1095  -5.0971
     3.2111   3.6058   4.2954   5.0324   5.3462   6.6672   7.0038   7.4797
     7.5463   8.5128   8.6285   8.8341   9.8173   9.8308   9.8470  11.9052
    12.8095  12.9325  13.3251  15.8364  17.2849  19.6980

     occupation numbers 
     1.0000   1.0000   1.0000   1.0000   1.0000   1.0000   1.0000   1.0000
     0.0000   0.0000   0.0000   0.0000   0.0000   0.0000   0.0000   0.0000
     0.0000   0.0000   0.0000   0.0000   0.0000   0.0000   0.0000   0.0000
     0.0000   0.0000   0.0000   0.0000   0.0000   0.0000

          k = 0.0000 0.2001 0.0000 ( 11800 PWs)   bands (ev):

   -19.9162 -19.8165  -8.1764  -7.4317  -6.4994  -6.4777  -5.2534  -5.2406
     3.3528   3.7490   4.4416   5.1776   5.4853   6.7969   7.1356   7.4580
     7.5241   8.2110   8.3541   8.9558   9.9595  10.1959  10.2120  12.0409
    12.9993  13.1404  13.4674  15.9642  17.4145  19.5751

     occupation numbers 
     1.0000   1.0000   1.0000   1.0000   1.0000   1.0000   1.0000   1.0000
     0.0000   0.0000   0.0000   0.0000   0.0000   0.0000   0.0000   0.0000
     0.0000   0.0000   0.0000   0.0000   0.0000   0.0000   0.0000   0.0000
     0.0000   0.0000   0.0000   0.0000   0.0000   0.0000

          k = 0.0000 0.2155 0.0000 ( 11830 PWs)   bands (ev):

   -19.8030 -19.7040  -8.0408  -7.3002  -6.8235  -6.7999  -5.3986  -5.3853
     3.5056   3.9035   4.5995   5.3342   5.6349   6.9319   7.2544   7.4493
     7.4986   7.8983   8.0579   9.1014  10.1128  10.5782  10.5940  12.1869
    13.1963  13.3601  13.6212  16.1007  17.5516  19.4101

     occupation numbers 
     1.0000   1.0000   1.0000   1.0000   1.0000   1.0000   1.0000   1.0000
     0.0000   0.0000   0.0000   0.0000   0.0000   0.0000   0.0000   0.0000
     0.0000   0.0000   0.0000   0.0000   0.0000   0.0000   0.0000   0.0000
     0.0000   0.0000   0.0000   0.0000   0.0000   0.0000

          k = 0.0000 0.2309 0.0000 ( 11848 PWs)   bands (ev):

   -19.6815 -19.5834  -7.8956  -7.1616  -7.1554  -7.1295  -5.5439  -5.5301
     3.6698   4.0692   4.7691   5.5022   5.7946   7.0630   7.3011   7.4239
     7.5217   7.6147   7.7626   9.2597  10.2773  10.9757  10.9914  12.3432
    13.3973  13.5891  13.7867  16.2451  17.6941  19.2098

     occupation numbers 
     1.0000   1.0000   1.0000   1.0000   1.0000   1.0000   1.0000   1.0000
     0.0000   0.0000   0.0000   0.0000   0.0000   0.0000   0.0000   0.0000
     0.0000   0.0000   0.0000   0.0000   0.0000   0.0000   0.0000   0.0000
     0.0000   0.0000   0.0000   0.0000   0.0000   0.0000

          k = 0.0000 0.2463 0.0000 ( 11844 PWs)   bands (ev):

   -19.5519 -19.4546  -7.7412  -7.4962  -7.4690  -7.0097  -5.6881  -5.6740
     3.8451   4.2458   4.9502   5.6813   5.9634   7.1339   7.1913   7.2879
     7.4064   7.5528   7.7043   9.4293  10.4527  11.3870  11.4024  12.5095
    13.5990  13.8246  13.9640  16.3966  17.8368  18.9883

     occupation numbers 
     1.0000   1.0000   1.0000   1.0000   1.0000   1.0000   1.0000   1.0000
     0.0000   0.0000   0.0000   0.0000   0.0000   0.0000   0.0000   0.0000
     0.0000   0.0000   0.0000   0.0000   0.0000   0.0000   0.0000   0.0000
     0.0000   0.0000   0.0000   0.0000   0.0000   0.0000

          k = 0.0000 0.2617 0.0000 ( 11840 PWs)   bands (ev):

   -19.4141 -19.3178  -7.8419  -7.8127  -7.5773  -6.8513  -5.8304  -5.8159
     4.0315   4.4331   5.1430   5.8706   6.1385   6.8364   7.0003   7.2490
     7.3121   7.5914   7.8792   9.6097  10.6393  11.8103  11.8255  12.6858
    13.7976  14.0627  14.1535  16.5539  17.9652  18.7700

     occupation numbers 
     1.0000   1.0000   1.0000   1.0000   1.0000   1.0000   1.0000   1.0000
     0.0000   0.0000   0.0000   0.0000   0.0000   0.0000   0.0000   0.0000
     0.0000   0.0000   0.0000   0.0000   0.0000   0.0000   0.0000   0.0000
     0.0000   0.0000   0.0000   0.0000   0.0000   0.0000

          k = 0.0000 0.2771 0.0000 ( 11854 PWs)   bands (ev):

   -19.2683 -19.1729  -8.1920  -8.1608  -7.4046  -6.6844  -5.9700  -5.9551
     4.2290   4.6304   5.3473   6.0654   6.3015   6.4923   6.7065   7.1950
     7.2918   7.7318   8.0743   9.8008  10.8368  12.2440  12.2590  12.8716
    13.9888  14.2976  14.3572  16.7151  18.0297  18.6130

     occupation numbers 
     1.0000   1.0000   1.0000   1.0000   1.0000   1.0000   1.0000   1.0000
     0.0000   0.0000   0.0000   0.0000   0.0000   0.0000   0.0000   0.0000
     0.0000   0.0000   0.0000   0.0000   0.0000   0.0000   0.0000   0.0000
     0.0000   0.0000   0.0000   0.0000   0.0000   0.0000

          k = 0.0000 0.2925 0.0000 ( 11866 PWs)   bands (ev):

   -19.1144 -19.0200  -8.5452  -8.5121  -7.2230  -6.5092  -6.1059  -6.0908
     4.4374   4.8358   5.5629   6.0794   6.2571   6.3363   6.5965   7.1434
     7.2618   7.9122   8.2834  10.0025  11.0452  12.6863  12.7011  13.0667
    14.1673  14.5229  14.5764  16.8771  17.9420  18.6118

     occupation numbers 
     1.0000   1.0000   1.0000   1.0000   1.0000   1.0000   1.0000   1.0000
     0.0000   0.0000   0.0000   0.0000   0.0000   0.0000   0.0000   0.0000
     0.0000   0.0000   0.0000   0.0000   0.0000   0.0000   0.0000   0.0000
     0.0000   0.0000   0.0000   0.0000   0.0000   0.0000

          k = 0.0000 0.3079 0.0000 ( 11876 PWs)   bands (ev):

   -18.9525 -18.8592  -8.9005  -8.8655  -7.0328  -6.3261  -6.2377  -6.2223
     4.6567   5.0414   5.7364   5.7881   5.9575   6.5260   6.7595   7.0940
     7.2357   8.1129   8.5050  10.2144  11.2645  13.1357  13.1502  13.2707
    14.3263  14.7430  14.8014  17.0335  17.7406  18.7329

     occupation numbers 
     1.0000   1.0000   1.0000   1.0000   1.0000   1.0000   1.0000   1.0000
     0.0000   0.0000   0.0000   0.0000   0.0000   0.0000   0.0000   0.0000
     0.0000   0.0000   0.0000   0.0000   0.0000   0.0000   0.0000   0.0000
     0.0000   0.0000   0.0000   0.0000   0.0000   0.0000

          k = 0.0000 0.3233 0.0000 ( 11876 PWs)   bands (ev):

   -18.7828 -18.6906  -9.2570  -9.2201  -6.8344  -6.3647  -6.3490  -6.1354
     4.8857   5.1670   5.4528   5.6160   6.0321   6.7522   6.9187   7.0550
     7.2438   8.3280   8.7385  10.4365  11.4946  13.4829  13.5901  13.6045
    14.4569  14.9644  15.0183  17.1643  17.5193  18.8917

     occupation numbers 
     1.0000   1.0000   1.0000   1.0000   1.0000   1.0000   1.0000   1.0000
     0.0000   0.0000   0.0000   0.0000   0.0000   0.0000   0.0000   0.0000
     0.0000   0.0000   0.0000   0.0000   0.0000   0.0000   0.0000   0.0000
     0.0000   0.0000   0.0000   0.0000   0.0000   0.0000

          k = 0.0000 0.3387 0.0000 ( 11886 PWs)   bands (ev):

   -18.6052 -18.5142  -9.6138  -9.5749  -6.6281  -6.4863  -6.4704  -5.9376
     4.9070   5.1303   5.2218   5.6072   6.2809   6.9200   7.0001   7.0763
     7.3572   8.5554   8.9836  10.6686  11.7352  13.7024  14.0478  14.0618
    14.5489  15.1784  15.2251  17.1453  17.4196  18.8623

     occupation numbers 
     1.0000   1.0000   1.0000   1.0000   1.0000   1.0000   1.0000   1.0000
     0.0000   0.0000   0.0000   0.0000   0.0000   0.0000   0.0000   0.0000
     0.0000   0.0000   0.0000   0.0000   0.0000   0.0000   0.0000   0.0000
     0.0000   0.0000   0.0000   0.0000   0.0000   0.0000

          k = 0.0000 0.3541 0.0000 ( 11904 PWs)   bands (ev):

   -18.4199 -18.3301  -9.9700  -9.9292  -6.6021  -6.5861  -6.4143  -5.7332
     4.5437   4.8631   5.3819   5.8382   6.5397   6.9044   7.0065   7.2910
     7.5645   8.7940   9.2401  10.9104  11.9861  13.9276  14.5065  14.5203
    14.5921  15.3404  15.4496  16.9297  17.4770  18.5740

     occupation numbers 
     1.0000   1.0000   1.0000   1.0000   1.0000   1.0000   1.0000   1.0000
     0.0000   0.0000   0.0000   0.0000   0.0000   0.0000   0.0000   0.0000
     0.0000   0.0000   0.0000   0.0000   0.0000   0.0000   0.0000   0.0000
     0.0000   0.0000   0.0000   0.0000   0.0000   0.0000

          k = 0.0000 0.3695 0.0000 ( 11914 PWs)   bands (ev):

   -18.2270 -18.1385 -10.3248 -10.2821  -6.7118  -6.6955  -6.1936  -5.5230
     4.1676   4.5008   5.6426   6.0958   6.7920   6.8710   6.9891   7.5572
     7.8078   9.0432   9.5079  11.1617  12.2472  14.1542  14.5796  14.9639
    14.9774  15.4271  15.6880  16.6828  17.5019  18.3457

     occupation numbers 
     1.0000   1.0000   1.0000   1.0000   1.0000   1.0000   1.0000   1.0000
     0.0000   0.0000   0.0000   0.0000   0.0000   0.0000   0.0000   0.0000
     0.0000   0.0000   0.0000   0.0000   0.0000   0.0000   0.0000   0.0000
     0.0000   0.0000   0.0000   0.0000   0.0000   0.0000

          k = 0.0000 0.3849 0.0000 ( 11914 PWs)   bands (ev):

   -18.0267 -17.9394 -10.6776 -10.6331  -6.8149  -6.7984  -5.9665  -5.3077
     3.7909   4.1383   5.9125   6.3645   6.8172   6.9165   7.1296   7.8389
     8.0693   9.3026   9.7869  11.4222  12.5179  14.3558  14.5283  15.4174
    15.4197  15.4305  15.9143  16.4460  17.4552  17.9837

     occupation numbers 
     1.0000   1.0000   1.0000   1.0000   1.0000   1.0000   1.0000   1.0000
     0.0000   0.0000   0.0000   0.0000   0.0000   0.0000   0.0000   0.0000
     0.0000   0.0000   0.0000   0.0000   0.0000   0.0000   0.0000   0.0000
     0.0000   0.0000   0.0000   0.0000   0.0000   0.0000

          k = 0.0000 0.4003 0.0000 ( 11916 PWs)   bands (ev):

   -17.8189 -17.7331 -11.0278 -10.9814  -6.9111  -6.8945  -5.7340  -5.0884
     3.4174   3.7783   6.1881   6.6188   6.8072   6.8960   7.4154   8.1333
     8.3440   9.5719  10.0767  11.6913  12.7974  14.3178  14.6413  15.3084
    15.8642  15.8768  15.9822  16.3651  17.3445  17.4751

     occupation numbers 
     1.0000   1.0000   1.0000   1.0000   1.0000   1.0000   1.0000   1.0000
     0.0000   0.0000   0.0000   0.0000   0.0000   0.0000   0.0000   0.0000
     0.0000   0.0000   0.0000   0.0000   0.0000   0.0000   0.0000   0.0000
     0.0000   0.0000   0.0000   0.0000   0.0000   0.0000

          k = 0.0000 0.4157 0.0000 ( 11916 PWs)   bands (ev):

   -17.6041 -17.5197 -11.3745 -11.3264  -7.0001  -6.9834  -5.4969  -4.8665
     3.0499   3.4228   6.4555   6.6984   6.8741   6.9980   7.7216   8.4395
     8.6300   9.8507  10.3774  11.9683  13.0840  14.1211  14.7878  15.1427
    15.7754  16.3009  16.3129  16.5655  16.9505  17.1185

     occupation numbers 
     1.0000   1.0000   1.0000   1.0000   1.0000   1.0000   1.0000   1.0000
     0.0000   0.0000   0.0000   0.0000   0.0000   0.0000   0.0000   0.0000
     0.0000   0.0000   0.0000   0.0000   0.0000   0.0000   0.0000   0.0000
     0.0000   0.0000   0.0000   0.0000   0.0000   0.0000

          k = 0.0000 0.4311 0.0000 ( 11914 PWs)   bands (ev):

   -17.3823 -17.2994 -11.7173 -11.6674  -7.0818  -7.0649  -5.2567  -4.6436
     2.6912   3.0739   6.6187   6.7140   6.9419   7.2925   8.0409   8.7574
     8.9262  10.1388  10.6886  12.2522  13.3710  13.8685  14.6638  15.0932
    15.5862  16.4168  16.7239  16.7351  16.7359  16.8457

     occupation numbers 
     1.0000   1.0000   1.0000   1.0000   1.0000   1.0000   1.0000   1.0000
     0.0000   0.0000   0.0000   0.0000   0.0000   0.0000   0.0000   0.0000
     0.0000   0.0000   0.0000   0.0000   0.0000   0.0000   0.0000   0.0000
     0.0000   0.0000   0.0000   0.0000   0.0000   0.0000

          k = 0.0000 0.4465 0.0000 ( 11924 PWs)   bands (ev):

   -17.1540 -17.0727 -12.0554 -12.0038  -7.1558  -7.1389  -5.0148  -4.4220
     2.3440   2.7339   6.6129   6.7283   7.1838   7.6098   8.3722   9.0867
     9.2318  10.4357  11.0101  12.5404  13.5060  13.7210  14.3460  14.9469
    15.6183  15.9087  16.3032  16.9101  17.1288  17.1391

     occupation numbers 
     1.0000   1.0000   1.0000   1.0000   1.0000   1.0000   1.0000   1.0000
     0.0000   0.0000   0.0000   0.0000   0.0000   0.0000   0.0000   0.0000
     0.0000   0.0000   0.0000   0.0000   0.0000   0.0000   0.0000   0.0000
     0.0000   0.0000   0.0000   0.0000   0.0000   0.0000

          k = 0.0000 0.4619 0.0000 ( 11910 PWs)   bands (ev):

   -16.9196 -16.8400 -12.3880 -12.3349  -7.2220  -7.2050  -4.7735  -4.2046
     2.0120   2.4056   6.5856   6.7117   7.4921   7.9401   8.7152   9.4273
     9.5460  10.7409  11.3414  12.8252  13.1980  13.8956  14.0514  14.6912
    15.3759  15.7206  15.9519  16.5139  17.2601  17.4424

     occupation numbers 
     1.0000   1.0000   1.0000   1.0000   1.0000   1.0000   1.0000   1.0000
     0.0000   0.0000   0.0000   0.0000   0.0000   0.0000   0.0000   0.0000
     0.0000   0.0000   0.0000   0.0000   0.0000   0.0000   0.0000   0.0000
     0.0000   0.0000   0.0000   0.0000   0.0000   0.0000

          k = 0.0000 0.4773 0.0000 ( 11916 PWs)   bands (ev):

   -16.6797 -16.6019 -12.7142 -12.6597  -7.2803  -7.2632  -4.5355  -3.9952
     1.6994   2.0924   6.5583   6.6899   7.8218   8.2819   9.0695   9.7791
     9.8681  11.0535  11.6813  12.8205  13.0967  13.5872  14.1305  14.5394
    14.9043  15.3189  15.9904  16.2078  16.9275  17.6963

     occupation numbers 
     1.0000   1.0000   1.0000   1.0000   1.0000   1.0000   1.0000   1.0000
     0.0000   0.0000   0.0000   0.0000   0.0000   0.0000   0.0000   0.0000
     0.0000   0.0000   0.0000   0.0000   0.0000   0.0000   0.0000   0.0000
     0.0000   0.0000   0.0000   0.0000   0.0000   0.0000

          k = 0.0000 0.4927 0.0000 ( 11908 PWs)   bands (ev):

   -16.4354 -16.3597 -13.0326 -12.9769  -7.3305  -7.3133  -4.3048  -3.7988
     1.4116   1.7985   6.5336   6.6688   8.1648   8.6341   9.4349  10.1418
    10.1970  11.3718  12.0257  12.4436  13.0443  13.4905  13.9417  14.3816
    14.7902  14.8592  15.6466  16.2935  16.6334  17.4232

     occupation numbers 
     1.0000   1.0000   1.0000   1.0000   1.0000   1.0000   1.0000   1.0000
     0.0000   0.0000   0.0000   0.0000   0.0000   0.0000   0.0000   0.0000
     0.0000   0.0000   0.0000   0.0000   0.0000   0.0000   0.0000   0.0000
     0.0000   0.0000   0.0000   0.0000   0.0000   0.0000

          k = 0.0000 0.5081 0.0000 ( 11912 PWs)   bands (ev):

   -16.1885 -16.1153 -13.3410 -13.2847  -7.3725  -7.3552  -4.0866  -3.6216
     1.1552   1.5296   6.5125   6.6502   8.5188   8.9963   9.8111  10.5152
    10.5310  11.6897  12.0351  12.3863  12.6797  13.4558  13.8214  14.0268
    14.4024  15.0091  15.3237  16.0491  16.7161  17.0940

     occupation numbers 
     1.0000   1.0000   1.0000   1.0000   1.0000   1.0000   1.0000   1.0000
     0.0000   0.0000   0.0000   0.0000   0.0000   0.0000   0.0000   0.0000
     0.0000   0.0000   0.0000   0.0000   0.0000   0.0000   0.0000   0.0000
     0.0000   0.0000   0.0000   0.0000   0.0000   0.0000

          k = 0.0000 0.5235 0.0000 ( 11912 PWs)   bands (ev):

   -15.9423 -15.8723 -13.6356 -13.5794  -7.4062  -7.3889  -3.8878  -3.4709
     0.9378   1.2930   6.4953   6.6348   8.8826   9.3679  10.1977  10.8669
    10.8984  11.6352  11.9652  12.3139  12.7307  13.1440  13.5139  13.8785
    14.2460  14.7855  15.4820  15.6656  16.7176  16.9837

     occupation numbers 
     1.0000   1.0000   1.0000   1.0000   1.0000   1.0000   1.0000   1.0000
     0.0000   0.0000   0.0000   0.0000   0.0000   0.0000   0.0000   0.0000
     0.0000   0.0000   0.0000   0.0000   0.0000   0.0000   0.0000   0.0000
     0.0000   0.0000   0.0000   0.0000   0.0000   0.0000

          k = 0.0000 0.5389 0.0000 ( 11924 PWs)   bands (ev):

   -15.7039 -15.6389 -13.9081 -13.8541  -7.4315  -7.4142  -3.7181  -3.3545
     0.7676   1.0982   6.4822   6.6231   9.2553   9.7479  10.5934  11.1914
    11.2185  11.3058  11.7983  12.3934  12.7038  13.0127  13.2941  13.4529
    14.3106  14.6104  15.2685  15.7953  16.4098  17.1951

     occupation numbers 
     1.0000   1.0000   1.0000   1.0000   1.0000   1.0000   1.0000   1.0000
     0.0000   0.0000   0.0000   0.0000   0.0000   0.0000   0.0000   0.0000
     0.0000   0.0000   0.0000   0.0000   0.0000   0.0000   0.0000   0.0000
     0.0000   0.0000   0.0000   0.0000   0.0000   0.0000

          k = 0.0000 0.5543 0.0000 ( 11930 PWs)   bands (ev):

   -15.4903 -15.4341 -14.1391 -14.0919  -7.4484  -7.4311  -3.5903  -3.2777
     0.6514   0.9571   6.4734   6.6151   9.6357  10.1341  10.8283  10.9927
    11.2990  11.6338  11.7017  12.2615  12.6099  12.8484  13.0527  13.5537
    14.0077  14.7028  15.0408  15.9098  16.3026  17.2195

     occupation numbers 
     1.0000   1.0000   1.0000   1.0000   1.0000   1.0000   1.0000   1.0000
     0.0000   0.0000   0.0000   0.0000   0.0000   0.0000   0.0000   0.0000
     0.0000   0.0000   0.0000   0.0000   0.0000   0.0000   0.0000   0.0000
     0.0000   0.0000   0.0000   0.0000   0.0000   0.0000

          k = 0.0000 0.5697 0.0000 ( 11940 PWs)   bands (ev):

   -15.3447 -15.3028 -14.2832 -14.2499  -7.4569  -7.4395  -3.5198  -3.2411
     0.5929   0.8820   6.4690   6.6111  10.0200  10.4059  10.5534  10.9286
    11.4208  11.8063  11.9404  12.0988  12.3775  12.5596  13.1629  13.5685
    14.0271  14.3891  15.2568  15.6605  16.5867  16.9263

     occupation numbers 
     1.0000   1.0000   1.0000   1.0000   1.0000   1.0000   1.0000   1.0000
     0.0000   0.0000   0.0000   0.0000   0.0000   0.0000   0.0000   0.0000
     0.0000   0.0000   0.0000   0.0000   0.0000   0.0000   0.0000   0.0000
     0.0000   0.0000   0.0000   0.0000   0.0000   0.0000

          k = 0.0133 0.0231 0.0000 ( 11741 PWs)   bands (ev):

   -20.6156 -20.5112  -9.0194  -8.2516  -4.0867  -4.0810  -4.0622  -4.0566
     2.4114   2.7958   3.4706   4.2125   4.5572   5.9112   6.2077   7.4610
     7.4796   7.5086   7.5258   8.0263   9.0061  10.4275  10.5023  11.1331
    11.6967  11.7690  12.5220  15.0931  16.5239  19.7426

     occupation numbers 
     1.0000   1.0000   1.0000   1.0000   1.0000   1.0000   1.0000   1.0000
     0.0000   0.0000   0.0000   0.0000   0.0000   0.0000   0.0000   0.0000
     0.0000   0.0000   0.0000   0.0000   0.0000   0.0000   0.0000   0.0000
     0.0000   0.0000   0.0000   0.0000   0.0000   0.0000

          k = 0.0133 0.0385 0.0000 ( 11763 PWs)   bands (ev):

   -20.5987 -20.4944  -8.9989  -8.2316  -4.1562  -4.1500  -4.0996  -4.0937
     2.4341   2.8188   3.4940   4.2357   4.5796   5.9328   6.2305   7.4711
     7.4915   7.5815   7.5987   8.0485   9.0294  10.3678  10.4441  11.1552
    11.7259  11.7987  12.5449  15.1147  16.5461  19.7534

     occupation numbers 
     1.0000   1.0000   1.0000   1.0000   1.0000   1.0000   1.0000   1.0000
     0.0000   0.0000   0.0000   0.0000   0.0000   0.0000   0.0000   0.0000
     0.0000   0.0000   0.0000   0.0000   0.0000   0.0000   0.0000   0.0000
     0.0000   0.0000   0.0000   0.0000   0.0000   0.0000

          k = 0.0133 0.0539 0.0000 ( 11769 PWs)   bands (ev):

   -20.5733 -20.4692  -8.9682  -8.2017  -4.2591  -4.2520  -4.1547  -4.1482
     2.4682   2.8533   3.5291   4.2707   4.6133   5.9653   6.2648   7.4846
     7.5077   7.6898   7.7070   8.0818   9.0643  10.2791  10.3575  11.1882
    11.7706  11.8441  12.5792  15.1469  16.5793  19.7685

     occupation numbers 
     1.0000   1.0000   1.0000   1.0000   1.0000   1.0000   1.0000   1.0000
     0.0000   0.0000   0.0000   0.0000   0.0000   0.0000   0.0000   0.0000
     0.0000   0.0000   0.0000   0.0000   0.0000   0.0000   0.0000   0.0000
     0.0000   0.0000   0.0000   0.0000   0.0000   0.0000

          k = 0.0133 0.0693 0.0000 ( 11779 PWs)   bands (ev):

   -20.5395 -20.4356  -8.9273  -8.1618  -4.3937  -4.3856  -4.2262  -4.2191
     2.5135   2.8993   3.5759   4.3172   4.6581   6.0086   6.3105   7.4997
     7.5264   7.8324   7.8495   8.1261   9.1108  10.1620  10.2435  11.2323
    11.8314  11.9060  12.6250  15.1899  16.6235  19.7869

     occupation numbers 
     1.0000   1.0000   1.0000   1.0000   1.0000   1.0000   1.0000   1.0000
     0.0000   0.0000   0.0000   0.0000   0.0000   0.0000   0.0000   0.0000
     0.0000   0.0000   0.0000   0.0000   0.0000   0.0000   0.0000   0.0000
     0.0000   0.0000   0.0000   0.0000   0.0000   0.0000

          k = 0.0133 0.0847 0.0000 ( 11787 PWs)   bands (ev):

   -20.4973 -20.3937  -8.8762  -8.1121  -4.5580  -4.5488  -4.3128  -4.3048
     2.5703   2.9568   3.6344   4.3754   4.7142   6.0627   6.3675   7.5144
     7.5454   8.0077   8.0248   8.1815   9.1688  10.0178  10.1029  11.2873
    11.9091  11.9853  12.6821  15.2434  16.6786  19.8066

     occupation numbers 
     1.0000   1.0000   1.0000   1.0000   1.0000   1.0000   1.0000   1.0000
     0.0000   0.0000   0.0000   0.0000   0.0000   0.0000   0.0000   0.0000
     0.0000   0.0000   0.0000   0.0000   0.0000   0.0000   0.0000   0.0000
     0.0000   0.0000   0.0000   0.0000   0.0000   0.0000

          k = 0.0133 0.1001 0.0000 ( 11789 PWs)   bands (ev):

   -20.4466 -20.3433  -8.8149  -8.0524  -4.7500  -4.7393  -4.4126  -4.4039
     2.6384   3.0258   3.7046   4.4452   4.7815   6.1275   6.4359   7.5266
     7.5627   8.2140   8.2311   8.2479   9.2381   9.8474   9.9372  11.3533
    12.0042  12.0826  12.7505  15.3074  16.7443  19.8252

     occupation numbers 
     1.0000   1.0000   1.0000   1.0000   1.0000   1.0000   1.0000   1.0000
     0.0000   0.0000   0.0000   0.0000   0.0000   0.0000   0.0000   0.0000
     0.0000   0.0000   0.0000   0.0000   0.0000   0.0000   0.0000   0.0000
     0.0000   0.0000   0.0000   0.0000   0.0000   0.0000

          k = 0.0133 0.1155 0.0000 ( 11801 PWs)   bands (ev):

   -20.3875 -20.2847  -8.7435  -7.9829  -4.9670  -4.9549  -4.5239  -4.5145
     2.7178   3.1063   3.7865   4.5267   4.8600   6.2031   6.5157   7.5346
     7.5762   8.3251   8.4496   8.4666   9.3186   9.6525   9.7480  11.4302
    12.1169  12.1986  12.8303  15.3818  16.8206  19.8394

     occupation numbers 
     1.0000   1.0000   1.0000   1.0000   1.0000   1.0000   1.0000   1.0000
     0.0000   0.0000   0.0000   0.0000   0.0000   0.0000   0.0000   0.0000
     0.0000   0.0000   0.0000   0.0000   0.0000   0.0000   0.0000   0.0000
     0.0000   0.0000   0.0000   0.0000   0.0000   0.0000

          k = 0.0133 0.1309 0.0000 ( 11791 PWs)   bands (ev):

   -20.3200 -20.2176  -8.6621  -7.9037  -5.2067  -5.1931  -4.6450  -4.6349
     2.8085   3.1983   3.8801   4.6197   4.9496   6.2893   6.6066   7.5369
     7.5845   8.4130   8.7124   8.7295   9.4050   9.4394   9.5370  11.5178
    12.2471  12.3335  12.9213  15.4663  16.9073  19.8446

     occupation numbers 
     1.0000   1.0000   1.0000   1.0000   1.0000   1.0000   1.0000   1.0000
     0.0000   0.0000   0.0000   0.0000   0.0000   0.0000   0.0000   0.0000
     0.0000   0.0000   0.0000   0.0000   0.0000   0.0000   0.0000   0.0000
     0.0000   0.0000   0.0000   0.0000   0.0000   0.0000

          k = 0.0133 0.1463 0.0000 ( 11791 PWs)   bands (ev):

   -20.2442 -20.1423  -8.5706  -7.8147  -5.4667  -5.4514  -4.7741  -4.7633
     2.9106   3.3017   3.9854   4.7244   5.0503   6.3859   6.7086   7.5327
     7.5865   8.5111   9.0006   9.0176   9.1928   9.3055   9.5153  11.6163
    12.3939  12.4870  13.0237  15.5610  17.0042  19.8344

     occupation numbers 
     1.0000   1.0000   1.0000   1.0000   1.0000   1.0000   1.0000   1.0000
     0.0000   0.0000   0.0000   0.0000   0.0000   0.0000   0.0000   0.0000
     0.0000   0.0000   0.0000   0.0000   0.0000   0.0000   0.0000   0.0000
     0.0000   0.0000   0.0000   0.0000   0.0000   0.0000

          k = 0.0133 0.1617 0.0000 ( 11794 PWs)   bands (ev):

   -20.1600 -20.0587  -8.4692  -7.7161  -5.7445  -5.7275  -4.9095  -4.8980
     3.0241   3.4165   4.1024   4.8407   5.1622   6.4928   6.8213   7.5217
     7.5815   8.6169   8.9330   9.0586   9.3123   9.3293   9.6293  11.7255
    12.5561  12.6583  13.1374  15.6654  17.1109  19.8010

     occupation numbers 
     1.0000   1.0000   1.0000   1.0000   1.0000   1.0000   1.0000   1.0000
     0.0000   0.0000   0.0000   0.0000   0.0000   0.0000   0.0000   0.0000
     0.0000   0.0000   0.0000   0.0000   0.0000   0.0000   0.0000   0.0000
     0.0000   0.0000   0.0000   0.0000   0.0000   0.0000

          k = 0.0133 0.1771 0.0000 ( 11784 PWs)   bands (ev):

   -20.0674 -19.9667  -8.3579  -7.6079  -6.0380  -6.0191  -5.0495  -5.0375
     3.1488   3.5427   4.2311   4.9685   5.2850   6.6096   6.9439   7.5046
     7.5695   8.6456   8.7068   8.8308   9.6451   9.6624   9.7551  11.8453
    12.7319  12.8463  13.2625  15.7795  17.2272  19.7356

     occupation numbers 
     1.0000   1.0000   1.0000   1.0000   1.0000   1.0000   1.0000   1.0000
     0.0000   0.0000   0.0000   0.0000   0.0000   0.0000   0.0000   0.0000
     0.0000   0.0000   0.0000   0.0000   0.0000   0.0000   0.0000   0.0000
     0.0000   0.0000   0.0000   0.0000   0.0000   0.0000

          k = 0.0133 0.1925 0.0000 ( 11790 PWs)   bands (ev):

   -19.9666 -19.8666  -8.2368  -7.4903  -6.3448  -6.3242  -5.1928  -5.1802
     3.2848   3.6803   4.3715   5.1080   5.4187   6.7354   7.0744   7.4834
     7.5510   8.3561   8.4890   8.8926   9.8908   9.9988  10.0151  11.9757
    12.9192  13.0494  13.3990  15.9028  17.3525  19.6304

     occupation numbers 
     1.0000   1.0000   1.0000   1.0000   1.0000   1.0000   1.0000   1.0000
     0.0000   0.0000   0.0000   0.0000   0.0000   0.0000   0.0000   0.0000
     0.0000   0.0000   0.0000   0.0000   0.0000   0.0000   0.0000   0.0000
     0.0000   0.0000   0.0000   0.0000   0.0000   0.0000

          k = 0.0133 0.2078 0.0000 ( 11813 PWs)   bands (ev):

   -19.8575 -19.7582  -8.1060  -7.3634  -6.6632  -6.6407  -5.3379  -5.3247
     3.4321   3.8292   4.5235   5.2589   5.5631   6.8685   7.2053   7.4647
     7.5267   8.0482   8.1995   9.0304  10.0388  10.3691  10.3857  12.1165
    13.1154  13.2656  13.5470  16.0348  17.4859  19.4823

     occupation numbers 
     1.0000   1.0000   1.0000   1.0000   1.0000   1.0000   1.0000   1.0000
     0.0000   0.0000   0.0000   0.0000   0.0000   0.0000   0.0000   0.0000
     0.0000   0.0000   0.0000   0.0000   0.0000   0.0000   0.0000   0.0000
     0.0000   0.0000   0.0000   0.0000   0.0000   0.0000

          k = 0.0133 0.2232 0.0000 ( 11837 PWs)   bands (ev):

   -19.7401 -19.6416  -7.9656  -7.2274  -6.9912  -6.9667  -5.4835  -5.4700
     3.5906   3.9893   4.6872   5.4212   5.7178   7.0040   7.3010   7.4640
     7.5091   7.7384   7.9009   9.1828  10.1978  10.7555  10.7723  12.2676
    13.3176  13.4928  13.7067  16.1752  17.6258  19.2948

     occupation numbers 
     1.0000   1.0000   1.0000   1.0000   1.0000   1.0000   1.0000   1.0000
     0.0000   0.0000   0.0000   0.0000   0.0000   0.0000   0.0000   0.0000
     0.0000   0.0000   0.0000   0.0000   0.0000   0.0000   0.0000   0.0000
     0.0000   0.0000   0.0000   0.0000   0.0000   0.0000

          k = 0.0133 0.2386 0.0000 ( 11835 PWs)   bands (ev):

   -19.6146 -19.5169  -7.8158  -7.3272  -7.3011  -7.0818  -5.6287  -5.6147
     3.7603   4.1604   4.8626   5.5948   5.8823   7.1216   7.3079   7.3347
     7.4918   7.6026   7.6527   9.3468  10.3677  11.1562  11.1733  12.4288
    13.5227  13.7281  13.8783  16.3230  17.7688  19.0791

     occupation numbers 
     1.0000   1.0000   1.0000   1.0000   1.0000   1.0000   1.0000   1.0000
     0.0000   0.0000   0.0000   0.0000   0.0000   0.0000   0.0000   0.0000
     0.0000   0.0000   0.0000   0.0000   0.0000   0.0000   0.0000   0.0000
     0.0000   0.0000   0.0000   0.0000   0.0000   0.0000

          k = 0.0133 0.2540 0.0000 ( 11835 PWs)   bands (ev):

   -19.4809 -19.3841  -7.6704  -7.6559  -7.6415  -6.9279  -5.7724  -5.7580
     3.9412   4.3425   5.0496   5.7791   6.0550   7.0019   7.1151   7.2918
     7.3418   7.5588   7.7928   9.5218  10.5487  11.5693  11.5867  12.6001
    13.7271  13.9681  14.0624  16.4772  17.9059  18.8540

     occupation numbers 
     1.0000   1.0000   1.0000   1.0000   1.0000   1.0000   1.0000   1.0000
     0.0000   0.0000   0.0000   0.0000   0.0000   0.0000   0.0000   0.0000
     0.0000   0.0000   0.0000   0.0000   0.0000   0.0000   0.0000   0.0000
     0.0000   0.0000   0.0000   0.0000   0.0000   0.0000

          k = 0.0133 0.2694 0.0000 ( 11846 PWs)   bands (ev):

   -19.3391 -19.2432  -8.0172  -7.9871  -7.4883  -6.7653  -5.9136  -5.8989
     4.1331   4.5349   5.2481   5.9726   6.2295   6.6575   6.8503   7.2386
     7.3195   7.6585   7.9792   9.7076  10.7407  11.9929  12.0110  12.7811
    13.9271  14.2064  14.2617  16.6363  18.0079  18.6581

     occupation numbers 
     1.0000   1.0000   1.0000   1.0000   1.0000   1.0000   1.0000   1.0000
     0.0000   0.0000   0.0000   0.0000   0.0000   0.0000   0.0000   0.0000
     0.0000   0.0000   0.0000   0.0000   0.0000   0.0000   0.0000   0.0000
     0.0000   0.0000   0.0000   0.0000   0.0000   0.0000

          k = 0.0133 0.2848 0.0000 ( 11851 PWs)   bands (ev):

   -19.1892 -19.0943  -8.3685  -8.3365  -7.3111  -6.5942  -6.0516  -6.0366
     4.3361   4.7367   5.4582   6.1492   6.2985   6.3788   6.5904   7.1870
     7.2945   7.8225   8.1815   9.9039  10.9437  12.4247  12.4442  12.9715
    14.1188  14.4314  14.4833  16.7977  17.9919  18.5818

     occupation numbers 
     1.0000   1.0000   1.0000   1.0000   1.0000   1.0000   1.0000   1.0000
     0.0000   0.0000   0.0000   0.0000   0.0000   0.0000   0.0000   0.0000
     0.0000   0.0000   0.0000   0.0000   0.0000   0.0000   0.0000   0.0000
     0.0000   0.0000   0.0000   0.0000   0.0000   0.0000

          k = 0.0133 0.3002 0.0000 ( 11864 PWs)   bands (ev):

   -19.0313 -18.9375  -8.7226  -8.6886  -7.1252  -6.4150  -6.1858  -6.1704
     4.5500   4.9441   5.6790   5.9082   6.1171   6.4224   6.6755   7.1364
     7.2645   8.0140   8.3969  10.1106  11.1576  12.8620  12.8843  13.1711
    14.2972  14.6478  14.7175  16.9571  17.8254  18.6628

     occupation numbers 
     1.0000   1.0000   1.0000   1.0000   1.0000   1.0000   1.0000   1.0000
     0.0000   0.0000   0.0000   0.0000   0.0000   0.0000   0.0000   0.0000
     0.0000   0.0000   0.0000   0.0000   0.0000   0.0000   0.0000   0.0000
     0.0000   0.0000   0.0000   0.0000   0.0000   0.0000

          k = 0.0133 0.3156 0.0000 ( 11876 PWs)   bands (ev):

   -18.8655 -18.7728  -9.0783  -9.0424  -6.9309  -6.3154  -6.2997  -6.2281
     4.7744   5.1348   5.5688   5.7734   5.9190   6.6431   6.8527   7.0899
     7.2476   8.2222   8.6245  10.3276  11.3822  13.3000  13.3287  13.3806
    14.4566  14.8674  14.9466  17.1036  17.6022  18.8128

     occupation numbers 
     1.0000   1.0000   1.0000   1.0000   1.0000   1.0000   1.0000   1.0000
     0.0000   0.0000   0.0000   0.0000   0.0000   0.0000   0.0000   0.0000
     0.0000   0.0000   0.0000   0.0000   0.0000   0.0000   0.0000   0.0000
     0.0000   0.0000   0.0000   0.0000   0.0000   0.0000

          k = 0.0133 0.3310 0.0000 ( 11880 PWs)   bands (ev):

   -18.6919 -18.6003  -9.4347  -9.3969  -6.7285  -6.4399  -6.4240  -6.0338
     5.0011   5.0812   5.3758   5.5356   6.1594   6.8656   6.9775   7.0661
     7.2944   8.4436   8.8638  10.5546  11.6175  13.5932  13.7348  13.7761
    14.5938  15.0932  15.1595  17.1808  17.4186  18.9704

     occupation numbers 
     1.0000   1.0000   1.0000   1.0000   1.0000   1.0000   1.0000   1.0000
     0.0000   0.0000   0.0000   0.0000   0.0000   0.0000   0.0000   0.0000
     0.0000   0.0000   0.0000   0.0000   0.0000   0.0000   0.0000   0.0000
     0.0000   0.0000   0.0000   0.0000   0.0000   0.0000

          k = 0.0133 0.3464 0.0000 ( 11892 PWs)   bands (ev):

   -18.5105 -18.4200  -9.7910  -9.7513  -6.5588  -6.5427  -6.5184  -5.8326
     4.7263   5.0390   5.2602   5.7207   6.4139   6.9378   7.0295   7.1747
     7.4598   8.6765   9.1146  10.7915  11.8632  13.8158  14.1348  14.2207
    14.7211  15.3209  15.3490  17.0257  17.4368  18.7120

     occupation numbers 
     1.0000   1.0000   1.0000   1.0000   1.0000   1.0000   1.0000   1.0000
     0.0000   0.0000   0.0000   0.0000   0.0000   0.0000   0.0000   0.0000
     0.0000   0.0000   0.0000   0.0000   0.0000   0.0000   0.0000   0.0000
     0.0000   0.0000   0.0000   0.0000   0.0000   0.0000

          k = 0.0133 0.3618 0.0000 ( 11898 PWs)   bands (ev):

   -18.3214 -18.2322 -10.1464 -10.1047  -6.6717  -6.6554  -6.3011  -5.6252
     4.3537   4.6790   5.5153   5.9690   6.6755   6.9037   7.0136   7.4262
     7.6878   8.9204   9.3768  11.0379  12.1192  14.0416  14.4120  14.6554
    14.9182  15.4771  15.5719  16.7871  17.4901  18.4562

     occupation numbers 
     1.0000   1.0000   1.0000   1.0000   1.0000   1.0000   1.0000   1.0000
     0.0000   0.0000   0.0000   0.0000   0.0000   0.0000   0.0000   0.0000
     0.0000   0.0000   0.0000   0.0000   0.0000   0.0000   0.0000   0.0000
     0.0000   0.0000   0.0000   0.0000   0.0000   0.0000

          k = 0.0133 0.3772 0.0000 ( 11912 PWs)   bands (ev):

   -18.1247 -18.0369 -10.5001 -10.4566  -6.7781  -6.7617  -6.0771  -5.4124
     3.9769   4.3164   5.7810   6.2336   6.8486   6.9186   7.0297   7.7007
     7.9408   9.1746   9.6501  11.2937  12.3851  14.2597  14.4848  15.0517
    15.2645  15.5704  15.8102  16.5447  17.4840  18.2201

     occupation numbers 
     1.0000   1.0000   1.0000   1.0000   1.0000   1.0000   1.0000   1.0000
     0.0000   0.0000   0.0000   0.0000   0.0000   0.0000   0.0000   0.0000
     0.0000   0.0000   0.0000   0.0000   0.0000   0.0000   0.0000   0.0000
     0.0000   0.0000   0.0000   0.0000   0.0000   0.0000

          k = 0.0133 0.3926 0.0000 ( 11912 PWs)   bands (ev):

   -17.9207 -17.8341 -10.8515 -10.8061  -6.8779  -6.8613  -5.8473  -5.1949
     3.6017   3.9552   6.0547   6.5032   6.8223   6.9254   7.2734   7.9888
     8.2090   9.4389   9.9345  11.5583  12.6601  14.3478  14.5478  15.2649
    15.6752  15.7293  15.9982  16.3573  17.4187  17.7356

     occupation numbers 
     1.0000   1.0000   1.0000   1.0000   1.0000   1.0000   1.0000   1.0000
     0.0000   0.0000   0.0000   0.0000   0.0000   0.0000   0.0000   0.0000
     0.0000   0.0000   0.0000   0.0000   0.0000   0.0000   0.0000   0.0000
     0.0000   0.0000   0.0000   0.0000   0.0000   0.0000

          k = 0.0133 0.4080 0.0000 ( 11914 PWs)   bands (ev):

   -17.7094 -17.6243 -11.1999 -11.1526  -6.9706  -6.9538  -5.6123  -4.9741
     3.2311   3.5975   6.3304   6.7013   6.8676   6.9121   7.5712   8.2892
     8.4893   9.7129  10.2297  11.8312  12.9432  14.2087  14.7267  15.1919
    15.8619  16.0967  16.1116  16.4528  17.2149  17.2778

     occupation numbers 
     1.0000   1.0000   1.0000   1.0000   1.0000   1.0000   1.0000   1.0000
     0.0000   0.0000   0.0000   0.0000   0.0000   0.0000   0.0000   0.0000
     0.0000   0.0000   0.0000   0.0000   0.0000   0.0000   0.0000   0.0000
     0.0000   0.0000   0.0000   0.0000   0.0000   0.0000

          k = 0.0133 0.4234 0.0000 ( 11914 PWs)   bands (ev):

   -17.4911 -17.4074 -11.5446 -11.4956  -7.0560  -7.0391  -5.3735  -4.7515
     2.8679   3.2453   6.5747   6.7164   6.9035   7.1452   7.8841   8.6012
     8.7804   9.9962  10.5356  12.1115  13.2312  13.9888  14.7601  15.0944
    15.6515  16.4736  16.5086  16.6607  16.7383  16.9819

     occupation numbers 
     1.0000   1.0000   1.0000   1.0000   1.0000   1.0000   1.0000   1.0000
     0.0000   0.0000   0.0000   0.0000   0.0000   0.0000   0.0000   0.0000
     0.0000   0.0000   0.0000   0.0000   0.0000   0.0000   0.0000   0.0000
     0.0000   0.0000   0.0000   0.0000   0.0000   0.0000

          k = 0.0133 0.4388 0.0000 ( 11920 PWs)   bands (ev):

   -17.2660 -17.1839 -11.8850 -11.8342  -7.1339  -7.1169  -5.1322  -4.5289
     2.5147   2.9007   6.6411   6.7454   7.0542   7.4533   8.2095   8.9248
     9.0812  10.2885  10.8520  12.3976  13.4996  13.7362  14.5083  15.0378
    15.5719  16.1606  16.5039  16.8909  16.9088  16.9859

     occupation numbers 
     1.0000   1.0000   1.0000   1.0000   1.0000   1.0000   1.0000   1.0000
     0.0000   0.0000   0.0000   0.0000   0.0000   0.0000   0.0000   0.0000
     0.0000   0.0000   0.0000   0.0000   0.0000   0.0000   0.0000   0.0000
     0.0000   0.0000   0.0000   0.0000   0.0000   0.0000

          k = 0.0133 0.4542 0.0000 ( 11928 PWs)   bands (ev):

   -17.0346 -16.9541 -12.2203 -12.1680  -7.2041  -7.1870  -4.8903  -4.3090
     2.1748   2.5664   6.6186   6.7403   7.3389   7.7773   8.5466   9.2598
     9.3911  10.5893  11.1783  12.6854  13.3616  13.8340  14.1703  14.8140
    15.6015  15.7437  16.0866  16.7037  17.1858  17.2911

     occupation numbers 
     1.0000   1.0000   1.0000   1.0000   1.0000   1.0000   1.0000   1.0000
     0.0000   0.0000   0.0000   0.0000   0.0000   0.0000   0.0000   0.0000
     0.0000   0.0000   0.0000   0.0000   0.0000   0.0000   0.0000   0.0000
     0.0000   0.0000   0.0000   0.0000   0.0000   0.0000

          k = 0.0133 0.4696 0.0000 ( 11926 PWs)   bands (ev):

   -16.7973 -16.7186 -12.5498 -12.4959  -7.2664  -7.2492  -4.6502  -4.0951
     1.8521   2.2453   6.5907   6.7201   7.6593   8.1134   8.8952   9.6059
     9.7091  10.8981  11.5139  12.9405  13.0410  13.7562  14.1067  14.5799
    15.1373  15.5445  15.9838  16.3153  17.0755  17.5721

     occupation numbers 
     1.0000   1.0000   1.0000   1.0000   1.0000   1.0000   1.0000   1.0000
     0.0000   0.0000   0.0000   0.0000   0.0000   0.0000   0.0000   0.0000
     0.0000   0.0000   0.0000   0.0000   0.0000   0.0000   0.0000   0.0000
     0.0000   0.0000   0.0000   0.0000   0.0000   0.0000

          k = 0.0133 0.4850 0.0000 ( 11918 PWs)   bands (ev):

   -16.5551 -16.4784 -12.8722 -12.8170  -7.3207  -7.3034  -4.4153  -3.8914
     1.5513   1.9413   6.5646   6.6984   7.9960   8.4604   9.2551   9.9632
    10.0345  11.2135  11.8569  12.6351  13.1438  13.4740  14.0523  14.5432
    14.7430  15.0901  15.8354  16.2464  16.7526  17.5519

     occupation numbers 
     1.0000   1.0000   1.0000   1.0000   1.0000   1.0000   1.0000   1.0000
     0.0000   0.0000   0.0000   0.0000   0.0000   0.0000   0.0000   0.0000
     0.0000   0.0000   0.0000   0.0000   0.0000   0.0000   0.0000   0.0000
     0.0000   0.0000   0.0000   0.0000   0.0000   0.0000

          k = 0.0133 0.5004 0.0000 ( 11908 PWs)   bands (ev):

   -16.3092 -16.2347 -13.1858 -13.1297  -7.3668  -7.3495  -4.1901  -3.7037
     1.2784   1.6592   6.5417   6.6785   8.3446   8.8176   9.6259  10.3312
    10.3658  11.5325  12.1739  12.2785  12.8697  13.5233  13.8546  14.1802
    14.6267  14.9221  15.4595  16.2123  16.6275  17.2410

     occupation numbers 
     1.0000   1.0000   1.0000   1.0000   1.0000   1.0000   1.0000   1.0000
     0.0000   0.0000   0.0000   0.0000   0.0000   0.0000   0.0000   0.0000
     0.0000   0.0000   0.0000   0.0000   0.0000   0.0000   0.0000   0.0000
     0.0000   0.0000   0.0000   0.0000   0.0000   0.0000

          k = 0.0133 0.5158 0.0000 ( 11906 PWs)   bands (ev):

   -16.0621 -15.9904 -13.4879 -13.4315  -7.4047  -7.3873  -3.9805  -3.5387
     1.0405   1.4054   6.5225   6.6614   8.7035   9.1845  10.0073  10.7008
    10.7096  11.8205  11.8615  12.4616  12.5886  13.3094  13.6921  14.0097
    14.2316  14.9429  15.3552  15.8598  16.7924  16.9392

     occupation numbers 
     1.0000   1.0000   1.0000   1.0000   1.0000   1.0000   1.0000   1.0000
     0.0000   0.0000   0.0000   0.0000   0.0000   0.0000   0.0000   0.0000
     0.0000   0.0000   0.0000   0.0000   0.0000   0.0000   0.0000   0.0000
     0.0000   0.0000   0.0000   0.0000   0.0000   0.0000

          k = 0.0133 0.5312 0.0000 ( 11908 PWs)   bands (ev):

   -15.8186 -15.7508 -13.7728 -13.7175  -7.4342  -7.4168  -3.7949  -3.4043
     0.8458   1.1884   6.5073   6.6478   9.0718   9.5602  10.3986  11.0338
    11.0962  11.4385  11.9491  12.2926  12.8164  13.0276  13.3551  13.6728
    14.3361  14.6339  15.4591  15.6499  16.5559  17.0760

     occupation numbers 
     1.0000   1.0000   1.0000   1.0000   1.0000   1.0000   1.0000   1.0000
     0.0000   0.0000   0.0000   0.0000   0.0000   0.0000   0.0000   0.0000
     0.0000   0.0000   0.0000   0.0000   0.0000   0.0000   0.0000   0.0000
     0.0000   0.0000   0.0000   0.0000   0.0000   0.0000

          k = 0.0133 0.5466 0.0000 ( 11920 PWs)   bands (ev):

   -15.5894 -15.5282 -14.0282 -13.9768  -7.4554  -7.4379  -3.6442  -3.3072
     0.7019   1.0189   6.4964   6.6380   9.4484   9.9436  10.7972  11.0312
    11.3183  11.4957  11.6552  12.4245  12.6100  12.9167  13.2421  13.4077
    14.1638  14.6934  15.1052  15.9117  16.2922  17.2490

     occupation numbers 
     1.0000   1.0000   1.0000   1.0000   1.0000   1.0000   1.0000   1.0000
     0.0000   0.0000   0.0000   0.0000   0.0000   0.0000   0.0000   0.0000
     0.0000   0.0000   0.0000   0.0000   0.0000   0.0000   0.0000   0.0000
     0.0000   0.0000   0.0000   0.0000   0.0000   0.0000

          k = 0.0133 0.5620 0.0000 ( 11928 PWs)   bands (ev):

   -15.4018 -15.3524 -14.2235 -14.1826  -7.4681  -7.4506  -3.5430  -3.2508
     0.6143   0.9092   6.4898   6.6320   9.8316  10.3280  10.6377  11.0977
    11.2412  11.7583  11.8956  12.0757  12.5034  12.7525  13.0436  13.6448
    13.9286  14.5693  15.1295  15.7903  16.4305  17.0834

     occupation numbers 
     1.0000   1.0000   1.0000   1.0000   1.0000   1.0000   1.0000   1.0000
     0.0000   0.0000   0.0000   0.0000   0.0000   0.0000   0.0000   0.0000
     0.0000   0.0000   0.0000   0.0000   0.0000   0.0000   0.0000   0.0000
     0.0000   0.0000   0.0000   0.0000   0.0000   0.0000

          k = 0.0133 0.5774 0.0000 ( 11936 PWs)   bands (ev):

   -15.3200 -15.2817 -14.3002 -14.2710  -7.4723  -7.4548  -3.5067  -3.2329
     0.5851   0.8710   6.4876   6.6300  10.1794  10.2662  10.7158  10.7599
    11.6083  11.6456  11.9974  12.1928  12.3814  12.3923  13.2433  13.4928
    14.1770  14.2344  15.3321  15.5775  16.7306  16.7839

     occupation numbers 
     1.0000   1.0000   1.0000   1.0000   1.0000   1.0000   1.0000   1.0000
     0.0000   0.0000   0.0000   0.0000   0.0000   0.0000   0.0000   0.0000
     0.0000   0.0000   0.0000   0.0000   0.0000   0.0000   0.0000   0.0000
     0.0000   0.0000   0.0000   0.0000   0.0000   0.0000

          k = 0.0267 0.0462 0.0000 ( 11765 PWs)   bands (ev):

   -20.5776 -20.4734  -8.9733  -8.2067  -4.2408  -4.2346  -4.1462  -4.1404
     2.4625   2.8476   3.5232   4.2648   4.6077   5.9599   6.2591   7.4851
     7.5076   7.6693   7.6865   8.0762   9.0585  10.2938  10.3719  11.1827
    11.7631  11.8366  12.5735  15.1416  16.5738  19.7661

     occupation numbers 
     1.0000   1.0000   1.0000   1.0000   1.0000   1.0000   1.0000   1.0000
     0.0000   0.0000   0.0000   0.0000   0.0000   0.0000   0.0000   0.0000
     0.0000   0.0000   0.0000   0.0000   0.0000   0.0000   0.0000   0.0000
     0.0000   0.0000   0.0000   0.0000   0.0000   0.0000

          k = 0.0267 0.0616 0.0000 ( 11787 PWs)   bands (ev):

   -20.5480 -20.4440  -8.9375  -8.1718  -4.3575  -4.3507  -4.2104  -4.2043
     2.5022   2.8878   3.5642   4.3056   4.6469   5.9978   6.2990   7.5030
     7.5284   7.7902   7.8073   8.1151   9.0992  10.1912  10.2718  11.2213
    11.8164  11.8907  12.6135  15.1791  16.6125  19.7824

     occupation numbers 
     1.0000   1.0000   1.0000   1.0000   1.0000   1.0000   1.0000   1.0000
     0.0000   0.0000   0.0000   0.0000   0.0000   0.0000   0.0000   0.0000
     0.0000   0.0000   0.0000   0.0000   0.0000   0.0000   0.0000   0.0000
     0.0000   0.0000   0.0000   0.0000   0.0000   0.0000

          k = 0.0267 0.0770 0.0000 ( 11795 PWs)   bands (ev):

   -20.5099 -20.4063  -8.8915  -8.1270  -4.5046  -4.4968  -4.2909  -4.2841
     2.5533   2.9396   3.6168   4.3579   4.6974   6.0465   6.3504   7.5223
     7.5515   7.9431   7.9603   8.1649   9.1514  10.0610  10.1448  11.2708
    11.8866  11.9621  12.6649  15.2273  16.6621  19.8008

     occupation numbers 
     1.0000   1.0000   1.0000   1.0000   1.0000   1.0000   1.0000   1.0000
     0.0000   0.0000   0.0000   0.0000   0.0000   0.0000   0.0000   0.0000
     0.0000   0.0000   0.0000   0.0000   0.0000   0.0000   0.0000   0.0000
     0.0000   0.0000   0.0000   0.0000   0.0000   0.0000

          k = 0.0267 0.0924 0.0000 ( 11788 PWs)   bands (ev):

   -20.4635 -20.3601  -8.8353  -8.0723  -4.6802  -4.6710  -4.3857  -4.3781
     2.6157   3.0028   3.6812   4.4219   4.7591   6.1059   6.4132   7.5406
     7.5744   8.1271   8.1443   8.2258   9.2151   9.9042   9.9921  11.3313
    11.9744  12.0516  12.7277  15.2860  16.7224  19.8190

     occupation numbers 
     1.0000   1.0000   1.0000   1.0000   1.0000   1.0000   1.0000   1.0000
     0.0000   0.0000   0.0000   0.0000   0.0000   0.0000   0.0000   0.0000
     0.0000   0.0000   0.0000   0.0000   0.0000   0.0000   0.0000   0.0000
     0.0000   0.0000   0.0000   0.0000   0.0000   0.0000

          k = 0.0267 0.1078 0.0000 ( 11798 PWs)   bands (ev):

   -20.4086 -20.3056  -8.7690  -8.0077  -4.8819  -4.8713  -4.4931  -4.4846
     2.6894   3.0776   3.7572   4.4976   4.8320   6.1762   6.4873   7.5557
     7.5946   8.2976   8.3404   8.3578   9.2901   9.7222   9.8151  11.4026
    12.0803  12.1600  12.8017  15.3552  16.7934  19.8341

     occupation numbers 
     1.0000   1.0000   1.0000   1.0000   1.0000   1.0000   1.0000   1.0000
     0.0000   0.0000   0.0000   0.0000   0.0000   0.0000   0.0000   0.0000
     0.0000   0.0000   0.0000   0.0000   0.0000   0.0000   0.0000   0.0000
     0.0000   0.0000   0.0000   0.0000   0.0000   0.0000

          k = 0.0267 0.1232 0.0000 ( 11802 PWs)   bands (ev):

   -20.3453 -20.2428  -8.6926  -7.9334  -5.1076  -5.0954  -4.6111  -4.6018
     2.7745   3.1638   3.8450   4.5848   4.9160   6.2571   6.5727   7.5656
     7.6102   8.3802   8.5815   8.5991   9.3758   9.5167   9.6154  11.4849
    12.2046  12.2878  12.8871  15.4346  16.8749  19.8416

     occupation numbers 
     1.0000   1.0000   1.0000   1.0000   1.0000   1.0000   1.0000   1.0000
     0.0000   0.0000   0.0000   0.0000   0.0000   0.0000   0.0000   0.0000
     0.0000   0.0000   0.0000   0.0000   0.0000   0.0000   0.0000   0.0000
     0.0000   0.0000   0.0000   0.0000   0.0000   0.0000

          k = 0.0267 0.1386 0.0000 ( 11797 PWs)   bands (ev):

   -20.2737 -20.1716  -8.6062  -7.8493  -5.3548  -5.3409  -4.7380  -4.7278
     2.8710   3.2615   3.9445   4.6837   5.0112   6.3486   6.6692   7.5691
     7.6197   8.4734   8.8486   8.8664   9.2868   9.3941   9.4757  11.5779
    12.3466  12.4349  12.9837  15.5240  16.9666  19.8360

     occupation numbers 
     1.0000   1.0000   1.0000   1.0000   1.0000   1.0000   1.0000   1.0000
     0.0000   0.0000   0.0000   0.0000   0.0000   0.0000   0.0000   0.0000
     0.0000   0.0000   0.0000   0.0000   0.0000   0.0000   0.0000   0.0000
     0.0000   0.0000   0.0000   0.0000   0.0000   0.0000

          k = 0.0267 0.1540 0.0000 ( 11801 PWs)   bands (ev):

   -20.1937 -20.0921  -8.5097  -7.7555  -5.6211  -5.6055  -4.8719  -4.8610
     2.9787   3.3706   4.0556   4.7942   5.1176   6.4505   6.7768   7.5653
     7.6221   8.5760   9.0375   9.1397   9.1523   9.1619   9.5838  11.6816
    12.5054  12.6010  13.0917  15.6234  17.0683  19.8096

     occupation numbers 
     1.0000   1.0000   1.0000   1.0000   1.0000   1.0000   1.0000   1.0000
     0.0000   0.0000   0.0000   0.0000   0.0000   0.0000   0.0000   0.0000
     0.0000   0.0000   0.0000   0.0000   0.0000   0.0000   0.0000   0.0000
     0.0000   0.0000   0.0000   0.0000   0.0000   0.0000

          k = 0.0267 0.1694 0.0000 ( 11791 PWs)   bands (ev):

   -20.1053 -20.0043  -8.4034  -7.6521  -5.9043  -5.8869  -5.0112  -4.9996
     3.0978   3.4911   4.1785   4.9163   5.2349   6.5625   6.8948   7.5545
     7.6169   8.6783   8.7726   8.9071   9.4531   9.4719   9.7039  11.7960
    12.6796  12.7852  13.2110  15.7325  17.1797  19.7536

     occupation numbers 
     1.0000   1.0000   1.0000   1.0000   1.0000   1.0000   1.0000   1.0000
     0.0000   0.0000   0.0000   0.0000   0.0000   0.0000   0.0000   0.0000
     0.0000   0.0000   0.0000   0.0000   0.0000   0.0000   0.0000   0.0000
     0.0000   0.0000   0.0000   0.0000   0.0000   0.0000

          k = 0.0267 0.1848 0.0000 ( 11791 PWs)   bands (ev):

   -20.0086 -19.9083  -8.2872  -7.5393  -6.2022  -6.1829  -5.1543  -5.1421
     3.2282   3.6230   4.3130   5.0499   5.3632   6.6842   7.0223   7.5374
     7.6043   8.4809   8.6015   8.8420   9.7840   9.8060   9.8380  11.9210
    12.8673  12.9860  13.3417  15.8509  17.3003  19.6593

     occupation numbers 
     1.0000   1.0000   1.0000   1.0000   1.0000   1.0000   1.0000   1.0000
     0.0000   0.0000   0.0000   0.0000   0.0000   0.0000   0.0000   0.0000
     0.0000   0.0000   0.0000   0.0000   0.0000   0.0000   0.0000   0.0000
     0.0000   0.0000   0.0000   0.0000   0.0000   0.0000

          k = 0.0267 0.2001 0.0000 ( 11802 PWs)   bands (ev):

   -19.9036 -19.8040  -8.1613  -7.4170  -6.5128  -6.4916  -5.2998  -5.2870
     3.3698   3.7662   4.4592   5.1951   5.5023   6.8143   7.1562   7.5171
     7.5846   8.1810   8.3231   8.9696   9.9752  10.1411  10.1590  12.0565
    13.0660  13.2017  13.4840  15.9782  17.4294  19.5217

     occupation numbers 
     1.0000   1.0000   1.0000   1.0000   1.0000   1.0000   1.0000   1.0000
     0.0000   0.0000   0.0000   0.0000   0.0000   0.0000   0.0000   0.0000
     0.0000   0.0000   0.0000   0.0000   0.0000   0.0000   0.0000   0.0000
     0.0000   0.0000   0.0000   0.0000   0.0000   0.0000

          k = 0.0267 0.2155 0.0000 ( 11819 PWs)   bands (ev):

   -19.7904 -19.6916  -8.0257  -7.2856  -6.8341  -6.8110  -5.4465  -5.4331
     3.5227   3.9208   4.6171   5.3517   5.6520   6.9502   7.2837   7.5028
     7.5583   7.8720   8.0280   9.1160  10.1291  10.5092  10.5285  12.2023
    13.2730  13.4301  13.6380  16.1140  17.5657  19.3422

     occupation numbers 
     1.0000   1.0000   1.0000   1.0000   1.0000   1.0000   1.0000   1.0000
     0.0000   0.0000   0.0000   0.0000   0.0000   0.0000   0.0000   0.0000
     0.0000   0.0000   0.0000   0.0000   0.0000   0.0000   0.0000   0.0000
     0.0000   0.0000   0.0000   0.0000   0.0000   0.0000

          k = 0.0267 0.2309 0.0000 ( 11825 PWs)   bands (ev):

   -19.6690 -19.5709  -7.8806  -7.1647  -7.1488  -7.1351  -5.5930  -5.5791
     3.6869   4.0864   4.7866   5.5197   5.8119   7.0829   7.3526   7.4520
     7.5583   7.6153   7.7381   9.2744  10.2936  10.8923  10.9130  12.3583
    13.4853  13.6688  13.8042  16.2574  17.7066  19.1301

     occupation numbers 
     1.0000   1.0000   1.0000   1.0000   1.0000   1.0000   1.0000   1.0000
     0.0000   0.0000   0.0000   0.0000   0.0000   0.0000   0.0000   0.0000
     0.0000   0.0000   0.0000   0.0000   0.0000   0.0000   0.0000   0.0000
     0.0000   0.0000   0.0000   0.0000   0.0000   0.0000

          k = 0.0267 0.2463 0.0000 ( 11842 PWs)   bands (ev):

   -19.5394 -19.4422  -7.7262  -7.5021  -7.4753  -6.9951  -5.7384  -5.7241
     3.8622   4.2631   4.9678   5.6988   5.9809   7.1364   7.1870   7.3495
     7.4244   7.5750   7.7235   9.4439  10.4691  11.2879  11.3105  12.5243
    13.6995  13.9138  13.9841  16.4077  17.8456  18.9015

     occupation numbers 
     1.0000   1.0000   1.0000   1.0000   1.0000   1.0000   1.0000   1.0000
     0.0000   0.0000   0.0000   0.0000   0.0000   0.0000   0.0000   0.0000
     0.0000   0.0000   0.0000   0.0000   0.0000   0.0000   0.0000   0.0000
     0.0000   0.0000   0.0000   0.0000   0.0000   0.0000

          k = 0.0267 0.2617 0.0000 ( 11856 PWs)   bands (ev):

   -19.4016 -19.3053  -7.8459  -7.8169  -7.5624  -6.8368  -5.8817  -5.8670
     4.0486   4.4504   5.1606   5.8882   6.1562   6.8159   6.9849   7.3152
     7.3664   7.6144   7.8972   9.6243  10.6556  11.6936  11.7191  12.7002
    13.9125  14.1502  14.1893  16.5633  17.9628  18.6866

     occupation numbers 
     1.0000   1.0000   1.0000   1.0000   1.0000   1.0000   1.0000   1.0000
     0.0000   0.0000   0.0000   0.0000   0.0000   0.0000   0.0000   0.0000
     0.0000   0.0000   0.0000   0.0000   0.0000   0.0000   0.0000   0.0000
     0.0000   0.0000   0.0000   0.0000   0.0000   0.0000

          k = 0.0267 0.2771 0.0000 ( 11856 PWs)   bands (ev):

   -19.2558 -19.1605  -8.1941  -8.1632  -7.3897  -6.6699  -6.0221  -6.0070
     4.2461   4.6478   5.3650   6.0824   6.3169   6.4740   6.6880   7.2654
     7.3583   7.7481   8.0917   9.8152  10.8530  12.1066  12.1367  12.8856
    14.1212  14.3591  14.4348  16.7222  17.9920  18.5597

     occupation numbers 
     1.0000   1.0000   1.0000   1.0000   1.0000   1.0000   1.0000   1.0000
     0.0000   0.0000   0.0000   0.0000   0.0000   0.0000   0.0000   0.0000
     0.0000   0.0000   0.0000   0.0000   0.0000   0.0000   0.0000   0.0000
     0.0000   0.0000   0.0000   0.0000   0.0000   0.0000

          k = 0.0267 0.2925 0.0000 ( 11866 PWs)   bands (ev):

   -19.1019 -19.0076  -8.5457  -8.5129  -7.2081  -6.4948  -6.1588  -6.1434
     4.4546   4.8532   5.5806   6.0664   6.2511   6.3434   6.6073   7.2155
     7.3310   7.9266   8.3005  10.0165  11.0614  12.5234  12.5611  13.0804
    14.3229  14.5676  14.6881  16.8808  17.8604  18.5997

     occupation numbers 
     1.0000   1.0000   1.0000   1.0000   1.0000   1.0000   1.0000   1.0000
     0.0000   0.0000   0.0000   0.0000   0.0000   0.0000   0.0000   0.0000
     0.0000   0.0000   0.0000   0.0000   0.0000   0.0000   0.0000   0.0000
     0.0000   0.0000   0.0000   0.0000   0.0000   0.0000

          k = 0.0267 0.3079 0.0000 ( 11879 PWs)   bands (ev):

   -18.9401 -18.8469  -8.8997  -8.8649  -7.0180  -6.3117  -6.2912  -6.2755
     4.6739   5.0583   5.7220   5.8045   5.9415   6.5431   6.7801   7.1663
     7.3034   8.1267   8.5219  10.2282  11.2805  12.9387  12.9898  13.2842
    14.5145  14.7818  14.9372  17.0320  17.6427  18.7374

     occupation numbers 
     1.0000   1.0000   1.0000   1.0000   1.0000   1.0000   1.0000   1.0000
     0.0000   0.0000   0.0000   0.0000   0.0000   0.0000   0.0000   0.0000
     0.0000   0.0000   0.0000   0.0000   0.0000   0.0000   0.0000   0.0000
     0.0000   0.0000   0.0000   0.0000   0.0000   0.0000

          k = 0.0267 0.3233 0.0000 ( 11889 PWs)   bands (ev):

   -18.7704 -18.6783  -9.2549  -9.2182  -6.8197  -6.4188  -6.4028  -6.1211
     4.9028   5.1725   5.4492   5.6011   6.0496   6.7718   6.9539   7.1245
     7.2999   8.3414   8.7553  10.4499  11.5104  13.3423  13.4192  13.4980
    14.6936  15.0026  15.1751  17.1484  17.4258  18.9023

     occupation numbers 
     1.0000   1.0000   1.0000   1.0000   1.0000   1.0000   1.0000   1.0000
     0.0000   0.0000   0.0000   0.0000   0.0000   0.0000   0.0000   0.0000
     0.0000   0.0000   0.0000   0.0000   0.0000   0.0000   0.0000   0.0000
     0.0000   0.0000   0.0000   0.0000   0.0000   0.0000

          k = 0.0267 0.3387 0.0000 ( 11887 PWs)   bands (ev):

   -18.5929 -18.5019  -9.6105  -9.5718  -6.6134  -6.5409  -6.5247  -5.9233
     4.8978   5.1463   5.2094   5.6194   6.2987   6.9713   7.0510   7.1249
     7.3882   8.5684   9.0003  10.6815  11.7507  13.6901  13.7479  13.8458
    14.8630  15.2307  15.3924  17.0719  17.3781  18.8498

     occupation numbers 
     1.0000   1.0000   1.0000   1.0000   1.0000   1.0000   1.0000   1.0000
     0.0000   0.0000   0.0000   0.0000   0.0000   0.0000   0.0000   0.0000
     0.0000   0.0000   0.0000   0.0000   0.0000   0.0000   0.0000   0.0000
     0.0000   0.0000   0.0000   0.0000   0.0000   0.0000

          k = 0.0267 0.3541 0.0000 ( 11901 PWs)   bands (ev):

   -18.4077 -18.3179  -9.9657  -9.9251  -6.6572  -6.6407  -6.3997  -5.7190
     4.5338   4.8498   5.3992   5.8534   6.5583   6.9767   7.0765   7.3103
     7.5845   8.8067   9.2567  10.9228  12.0014  13.9251  14.0570  14.2603
    15.0422  15.4653  15.5766  16.8476  17.4449  18.5845

     occupation numbers 
     1.0000   1.0000   1.0000   1.0000   1.0000   1.0000   1.0000   1.0000
     0.0000   0.0000   0.0000   0.0000   0.0000   0.0000   0.0000   0.0000
     0.0000   0.0000   0.0000   0.0000   0.0000   0.0000   0.0000   0.0000
     0.0000   0.0000   0.0000   0.0000   0.0000   0.0000

          k = 0.0267 0.3695 0.0000 ( 11893 PWs)   bands (ev):

   -18.2148 -18.1263 -10.3197 -10.2772  -6.7672  -6.7505  -6.1790  -5.5088
     4.1585   4.4884   5.6603   6.1120   6.8189   6.9410   7.0577   7.5747
     7.8248   9.0554   9.5243  11.1735  12.2621  14.1395  14.2771  14.6472
    15.2721  15.6808  15.7348  16.6140  17.4771  18.3651

     occupation numbers 
     1.0000   1.0000   1.0000   1.0000   1.0000   1.0000   1.0000   1.0000
     0.0000   0.0000   0.0000   0.0000   0.0000   0.0000   0.0000   0.0000
     0.0000   0.0000   0.0000   0.0000   0.0000   0.0000   0.0000   0.0000
     0.0000   0.0000   0.0000   0.0000   0.0000   0.0000

          k = 0.0267 0.3849 0.0000 ( 11903 PWs)   bands (ev):

   -18.0145 -17.9273 -10.6717 -10.6273  -6.8706  -6.8537  -5.9520  -5.2936
     3.7829   4.1271   5.9307   6.3821   6.8899   6.9857   7.1533   7.8561
     8.0851   9.3144   9.8031  11.4331  12.5322  14.2665  14.4378  14.9629
    15.5751  15.7781  15.9529  16.4044  17.4656  17.9944

     occupation numbers 
     1.0000   1.0000   1.0000   1.0000   1.0000   1.0000   1.0000   1.0000
     0.0000   0.0000   0.0000   0.0000   0.0000   0.0000   0.0000   0.0000
     0.0000   0.0000   0.0000   0.0000   0.0000   0.0000   0.0000   0.0000
     0.0000   0.0000   0.0000   0.0000   0.0000   0.0000

          k = 0.0267 0.4003 0.0000 ( 11909 PWs)   bands (ev):

   -17.8068 -17.7211 -11.0211 -10.9749  -6.9671  -6.9500  -5.7195  -5.0743
     3.4104   3.7682   6.2077   6.6470   6.8705   6.9686   7.4337   8.1502
     8.3591   9.5831  10.0928  11.7013  12.8109  14.2187  14.6324  15.1091
    15.8205  15.9409  16.0876  16.3665  17.4137  17.4895

     occupation numbers 
     1.0000   1.0000   1.0000   1.0000   1.0000   1.0000   1.0000   1.0000
     0.0000   0.0000   0.0000   0.0000   0.0000   0.0000   0.0000   0.0000
     0.0000   0.0000   0.0000   0.0000   0.0000   0.0000   0.0000   0.0000
     0.0000   0.0000   0.0000   0.0000   0.0000   0.0000

          k = 0.0267 0.4157 0.0000 ( 11919 PWs)   bands (ev):

   -17.5920 -17.5077 -11.3673 -11.3193  -7.0563  -7.0391  -5.4825  -4.8524
     3.0439   3.4137   6.4812   6.7664   6.9415   7.0218   7.7393   8.4564
     8.6445   9.8613  10.3932  11.9772  13.0960  14.0621  14.7625  15.0766
    15.7049  16.2531  16.3085  16.5862  16.9678  17.2192

     occupation numbers 
     1.0000   1.0000   1.0000   1.0000   1.0000   1.0000   1.0000   1.0000
     0.0000   0.0000   0.0000   0.0000   0.0000   0.0000   0.0000   0.0000
     0.0000   0.0000   0.0000   0.0000   0.0000   0.0000   0.0000   0.0000
     0.0000   0.0000   0.0000   0.0000   0.0000   0.0000

          k = 0.0267 0.4311 0.0000 ( 11915 PWs)   bands (ev):

   -17.3704 -17.2875 -11.7095 -11.6597  -7.1382  -7.1208  -5.2422  -4.6295
     2.6860   3.0658   6.6788   6.7776   6.9866   7.3093   8.0584   8.7742
     8.9401  10.1485  10.7041  12.2595  13.3793  13.8377  14.6299  15.0648
    15.5578  16.4115  16.4732  16.6883  16.8594  16.9137

     occupation numbers 
     1.0000   1.0000   1.0000   1.0000   1.0000   1.0000   1.0000   1.0000
     0.0000   0.0000   0.0000   0.0000   0.0000   0.0000   0.0000   0.0000
     0.0000   0.0000   0.0000   0.0000   0.0000   0.0000   0.0000   0.0000
     0.0000   0.0000   0.0000   0.0000   0.0000   0.0000

          k = 0.0267 0.4465 0.0000 ( 11915 PWs)   bands (ev):

   -17.1421 -17.0609 -12.0471 -11.9957  -7.2124  -7.1949  -5.0003  -4.4079
     2.3396   2.7266   6.6874   6.8013   7.2056   7.6255   8.3896   9.1034
     9.2450  10.4445  11.0252  12.5458  13.4893  13.7283  14.3293  14.9136
    15.6139  15.9145  16.2760  16.8080  16.9575  17.1183

     occupation numbers 
     1.0000   1.0000   1.0000   1.0000   1.0000   1.0000   1.0000   1.0000
     0.0000   0.0000   0.0000   0.0000   0.0000   0.0000   0.0000   0.0000
     0.0000   0.0000   0.0000   0.0000   0.0000   0.0000   0.0000   0.0000
     0.0000   0.0000   0.0000   0.0000   0.0000   0.0000

          k = 0.0267 0.4619 0.0000 ( 11915 PWs)   bands (ev):

   -16.9078 -16.8282 -12.3793 -12.3263  -7.2787  -7.2612  -4.7589  -4.1904
     2.0082   2.3990   6.6614   6.7876   7.5100   7.9555   8.7325   9.4438
     9.5584  10.7486  11.3559  12.8274  13.1911  13.8865  14.0579  14.6709
    15.3858  15.7186  15.9472  16.4811  17.0651  17.4029

     occupation numbers 
     1.0000   1.0000   1.0000   1.0000   1.0000   1.0000   1.0000   1.0000
     0.0000   0.0000   0.0000   0.0000   0.0000   0.0000   0.0000   0.0000
     0.0000   0.0000   0.0000   0.0000   0.0000   0.0000   0.0000   0.0000
     0.0000   0.0000   0.0000   0.0000   0.0000   0.0000

          k = 0.0267 0.4773 0.0000 ( 11923 PWs)   bands (ev):

   -16.6680 -16.5903 -12.7051 -12.6506  -7.3371  -7.3195  -4.5210  -3.9809
     1.6961   2.0864   6.6343   6.7665   7.8387   8.2968   9.0867   9.7954
     9.8794  11.0598  11.6950  12.8200  13.0952  13.5878  14.1149  14.5504
    14.9125  15.3268  15.9835  16.1832  16.8790  17.5429

     occupation numbers 
     1.0000   1.0000   1.0000   1.0000   1.0000   1.0000   1.0000   1.0000
     0.0000   0.0000   0.0000   0.0000   0.0000   0.0000   0.0000   0.0000
     0.0000   0.0000   0.0000   0.0000   0.0000   0.0000   0.0000   0.0000
     0.0000   0.0000   0.0000   0.0000   0.0000   0.0000

          k = 0.0267 0.4927 0.0000 ( 11911 PWs)   bands (ev):

   -16.4238 -16.3482 -13.0231 -12.9675  -7.3874  -7.3697  -4.2902  -3.7843
     1.4087   1.7929   6.6098   6.7457   8.1812   8.6487   9.4519  10.1580
    10.2069  11.3764  12.0378  12.4489  13.0443  13.4880  13.9339  14.3888
    14.8049  14.8716  15.6389  16.2732  16.6161  17.3402

     occupation numbers 
     1.0000   1.0000   1.0000   1.0000   1.0000   1.0000   1.0000   1.0000
     0.0000   0.0000   0.0000   0.0000   0.0000   0.0000   0.0000   0.0000
     0.0000   0.0000   0.0000   0.0000   0.0000   0.0000   0.0000   0.0000
     0.0000   0.0000   0.0000   0.0000   0.0000   0.0000

          k = 0.0267 0.5081 0.0000 ( 11907 PWs)   bands (ev):

   -16.1770 -16.1039 -13.3312 -13.2749  -7.4294  -7.4116  -4.0718  -3.6068
     1.1526   1.5243   6.5887   6.7273   8.5349   9.0104   9.8280  10.5311
    10.5391  11.6918  12.0429  12.3966  12.6880  13.4454  13.8307  14.0277
    14.4172  15.0128  15.3286  16.0457  16.6906  17.0352

     occupation numbers 
     1.0000   1.0000   1.0000   1.0000   1.0000   1.0000   1.0000   1.0000
     0.0000   0.0000   0.0000   0.0000   0.0000   0.0000   0.0000   0.0000
     0.0000   0.0000   0.0000   0.0000   0.0000   0.0000   0.0000   0.0000
     0.0000   0.0000   0.0000   0.0000   0.0000   0.0000

          k = 0.0267 0.5235 0.0000 ( 11915 PWs)   bands (ev):

   -15.9310 -15.8611 -13.6255 -13.5694  -7.4632  -7.4453  -3.8729  -3.4560
     0.9354   1.2879   6.5715   6.7120   8.8984   9.3814  10.2142  10.8724
    10.9139  11.6454  11.9640  12.3251  12.7372  13.1519  13.5162  13.8890
    14.2518  14.7796  15.4951  15.6717  16.6911  16.9273

     occupation numbers 
     1.0000   1.0000   1.0000   1.0000   1.0000   1.0000   1.0000   1.0000
     0.0000   0.0000   0.0000   0.0000   0.0000   0.0000   0.0000   0.0000
     0.0000   0.0000   0.0000   0.0000   0.0000   0.0000   0.0000   0.0000
     0.0000   0.0000   0.0000   0.0000   0.0000   0.0000

          k = 0.0267 0.5389 0.0000 ( 11913 PWs)   bands (ev):

   -15.6927 -15.6278 -13.8977 -13.8438  -7.4886  -7.4707  -3.7030  -3.3393
     0.7653   1.0931   6.5585   6.7002   9.2707   9.7607  10.6093  11.1928
    11.2302  11.3206  11.8081  12.3936  12.7123  13.0155  13.3083  13.4678
    14.3101  14.6059  15.2798  15.8021  16.3899  17.1344

     occupation numbers 
     1.0000   1.0000   1.0000   1.0000   1.0000   1.0000   1.0000   1.0000
     0.0000   0.0000   0.0000   0.0000   0.0000   0.0000   0.0000   0.0000
     0.0000   0.0000   0.0000   0.0000   0.0000   0.0000   0.0000   0.0000
     0.0000   0.0000   0.0000   0.0000   0.0000   0.0000

          k = 0.0267 0.5543 0.0000 ( 11911 PWs)   bands (ev):

   -15.4792 -15.4232 -14.1285 -14.0814  -7.5055  -7.4876  -3.5749  -3.2624
     0.6492   0.9518   6.5497   6.6923   9.6506  10.1457  10.8415  11.0064
    11.3018  11.6423  11.7166  12.2719  12.6095  12.8524  13.0692  13.5651
    14.0117  14.7021  15.0485  15.8914  16.3102  17.1905

     occupation numbers 
     1.0000   1.0000   1.0000   1.0000   1.0000   1.0000   1.0000   1.0000
     0.0000   0.0000   0.0000   0.0000   0.0000   0.0000   0.0000   0.0000
     0.0000   0.0000   0.0000   0.0000   0.0000   0.0000   0.0000   0.0000
     0.0000   0.0000   0.0000   0.0000   0.0000   0.0000

          k = 0.0267 0.5697 0.0000 ( 11927 PWs)   bands (ev):

   -15.3339 -15.2919 -14.2724 -14.2392  -7.5140  -7.4961  -3.5043  -3.2258
     0.5909   0.8766   6.5453   6.6883  10.0344  10.4188  10.5645  10.9364
    11.4359  11.8117  11.9468  12.1106  12.3851  12.5749  13.1662  13.5682
    14.0424  14.4006  15.2522  15.6423  16.5934  16.9240

     occupation numbers 
     1.0000   1.0000   1.0000   1.0000   1.0000   1.0000   1.0000   1.0000
     0.0000   0.0000   0.0000   0.0000   0.0000   0.0000   0.0000   0.0000
     0.0000   0.0000   0.0000   0.0000   0.0000   0.0000   0.0000   0.0000
     0.0000   0.0000   0.0000   0.0000   0.0000   0.0000

          k = 0.0400 0.0693 0.0000 ( 11797 PWs)   bands (ev):

   -20.5142 -20.4105  -8.8966  -8.1320  -4.4859  -4.4789  -4.2840  -4.2780
     2.5476   2.9338   3.6110   4.3521   4.6918   6.0411   6.3447   7.5269
     7.5554   7.9195   7.9367   8.1594   9.1457  10.0754  10.1589  11.2653
    11.8792  11.9545  12.6592  15.2220  16.6566  19.7988

     occupation numbers 
     1.0000   1.0000   1.0000   1.0000   1.0000   1.0000   1.0000   1.0000
     0.0000   0.0000   0.0000   0.0000   0.0000   0.0000   0.0000   0.0000
     0.0000   0.0000   0.0000   0.0000   0.0000   0.0000   0.0000   0.0000
     0.0000   0.0000   0.0000   0.0000   0.0000   0.0000

          k = 0.0400 0.0847 0.0000 ( 11795 PWs)   bands (ev):

   -20.4719 -20.3685  -8.8455  -8.0822  -4.6429  -4.6352  -4.3737  -4.3673
     2.6043   2.9913   3.6695   4.4103   4.7479   6.0952   6.4018   7.5531
     7.5855   8.0776   8.0949   8.2148   9.2036   9.9328  10.0197  11.3203
    11.9599  12.0364  12.7162  15.2754  16.7115  19.8156

     occupation numbers 
     1.0000   1.0000   1.0000   1.0000   1.0000   1.0000   1.0000   1.0000
     0.0000   0.0000   0.0000   0.0000   0.0000   0.0000   0.0000   0.0000
     0.0000   0.0000   0.0000   0.0000   0.0000   0.0000   0.0000   0.0000
     0.0000   0.0000   0.0000   0.0000   0.0000   0.0000

          k = 0.0400 0.1001 0.0000 ( 11792 PWs)   bands (ev):

   -20.4213 -20.3182  -8.7843  -8.0226  -4.8267  -4.8179  -4.4774  -4.4703
     2.6724   3.0603   3.7397   4.4801   4.8152   6.1600   6.4703   7.5784
     7.6152   8.2638   8.2808   8.2816   9.2729   9.7644   9.8556  11.3861
    12.0594  12.1377  12.7846  15.3392  16.7771  19.8300

     occupation numbers 
     1.0000   1.0000   1.0000   1.0000   1.0000   1.0000   1.0000   1.0000
     0.0000   0.0000   0.0000   0.0000   0.0000   0.0000   0.0000   0.0000
     0.0000   0.0000   0.0000   0.0000   0.0000   0.0000   0.0000   0.0000
     0.0000   0.0000   0.0000   0.0000   0.0000   0.0000

          k = 0.0400 0.1155 0.0000 ( 11791 PWs)   bands (ev):

   -20.3622 -20.2595  -8.7130  -7.9532  -5.0354  -5.0251  -4.5930  -4.5850
     2.7518   3.1408   3.8216   4.5616   4.8937   6.2357   6.5501   7.5998
     7.6418   8.3584   8.4773   8.4952   9.3535   9.5718   9.6681  11.4628
    12.1781  12.2589  12.8642  15.4133  16.8532  19.8381

     occupation numbers 
     1.0000   1.0000   1.0000   1.0000   1.0000   1.0000   1.0000   1.0000
     0.0000   0.0000   0.0000   0.0000   0.0000   0.0000   0.0000   0.0000
     0.0000   0.0000   0.0000   0.0000   0.0000   0.0000   0.0000   0.0000
     0.0000   0.0000   0.0000   0.0000   0.0000   0.0000

          k = 0.0400 0.1309 0.0000 ( 11799 PWs)   bands (ev):

   -20.2948 -20.1925  -8.6316  -7.8740  -5.2669  -5.2549  -4.7185  -4.7095
     2.8426   3.2328   3.9152   4.6546   4.9833   6.3220   6.6411   7.6150
     7.6627   8.4463   8.7168   8.7353   9.3551   9.4447   9.4608  11.5503
    12.3161  12.4005  12.9551  15.4975  16.9396  19.8343

     occupation numbers 
     1.0000   1.0000   1.0000   1.0000   1.0000   1.0000   1.0000   1.0000
     0.0000   0.0000   0.0000   0.0000   0.0000   0.0000   0.0000   0.0000
     0.0000   0.0000   0.0000   0.0000   0.0000   0.0000   0.0000   0.0000
     0.0000   0.0000   0.0000   0.0000   0.0000   0.0000

          k = 0.0400 0.1463 0.0000 ( 11807 PWs)   bands (ev):

   -20.2189 -20.1172  -8.5402  -7.7851  -5.5188  -5.5050  -4.8518  -4.8419
     2.9447   3.3361   4.0205   4.7593   5.0841   6.4188   6.7433   7.6227
     7.6763   8.5445   8.9805   9.0000   9.1192   9.2299   9.5495  11.6486
    12.4726  12.5623  13.0573  15.5917  17.0362  19.8112

     occupation numbers 
     1.0000   1.0000   1.0000   1.0000   1.0000   1.0000   1.0000   1.0000
     0.0000   0.0000   0.0000   0.0000   0.0000   0.0000   0.0000   0.0000
     0.0000   0.0000   0.0000   0.0000   0.0000   0.0000   0.0000   0.0000
     0.0000   0.0000   0.0000   0.0000   0.0000   0.0000

          k = 0.0400 0.1617 0.0000 ( 11811 PWs)   bands (ev):

   -20.1347 -20.0336  -8.4388  -7.6865  -5.7890  -5.7733  -4.9913  -4.9805
     3.0582   3.4510   4.1375   4.8756   5.1960   6.5259   6.8564   7.6222
     7.6817   8.6501   8.8620   8.9849   9.2684   9.2886   9.6640  11.7575
    12.6464  12.7437  13.1708  15.6956  17.1425  19.7600

     occupation numbers 
     1.0000   1.0000   1.0000   1.0000   1.0000   1.0000   1.0000   1.0000
     0.0000   0.0000   0.0000   0.0000   0.0000   0.0000   0.0000   0.0000
     0.0000   0.0000   0.0000   0.0000   0.0000   0.0000   0.0000   0.0000
     0.0000   0.0000   0.0000   0.0000   0.0000   0.0000

          k = 0.0400 0.1771 0.0000 ( 11803 PWs)   bands (ev):

   -20.0422 -19.9417  -8.3276  -7.5785  -6.0753  -6.0577  -5.1352  -5.1236
     3.1829   3.5772   4.2662   5.0035   5.3189   6.6431   6.9798   7.6137
     7.6785   8.5836   8.6859   8.8086   9.5760   9.5980   9.7903  11.8770
    12.8359  12.9436  13.2956  15.8089  17.2583  19.6714

     occupation numbers 
     1.0000   1.0000   1.0000   1.0000   1.0000   1.0000   1.0000   1.0000
     0.0000   0.0000   0.0000   0.0000   0.0000   0.0000   0.0000   0.0000
     0.0000   0.0000   0.0000   0.0000   0.0000   0.0000   0.0000   0.0000
     0.0000   0.0000   0.0000   0.0000   0.0000   0.0000

          k = 0.0400 0.1925 0.0000 ( 11800 PWs)   bands (ev):

   -19.9414 -19.8416  -8.2065  -7.4609  -6.3756  -6.3561  -5.2819  -5.2696
     3.3189   3.7148   4.4066   5.1429   5.4527   6.7695   7.1122   7.5984
     7.6668   8.2938   8.4269   8.9189   9.8932   9.9266   9.9382  12.0070
    13.0388  13.1602  13.4321  15.9313  17.3827  19.5389

     occupation numbers 
     1.0000   1.0000   1.0000   1.0000   1.0000   1.0000   1.0000   1.0000
     0.0000   0.0000   0.0000   0.0000   0.0000   0.0000   0.0000   0.0000
     0.0000   0.0000   0.0000   0.0000   0.0000   0.0000   0.0000   0.0000
     0.0000   0.0000   0.0000   0.0000   0.0000   0.0000

          k = 0.0400 0.2078 0.0000 ( 11812 PWs)   bands (ev):

   -19.8323 -19.7332  -8.0758  -7.3341  -6.6880  -6.6665  -5.4302  -5.4171
     3.4662   3.8637   4.5587   5.2938   5.5972   6.9038   7.2494   7.5797
     7.6456   7.9917   8.1382   9.0594  10.0703  10.2531  10.2742  12.1474
    13.2524  13.3917  13.5803  16.0621  17.5149  19.3627

     occupation numbers 
     1.0000   1.0000   1.0000   1.0000   1.0000   1.0000   1.0000   1.0000
     0.0000   0.0000   0.0000   0.0000   0.0000   0.0000   0.0000   0.0000
     0.0000   0.0000   0.0000   0.0000   0.0000   0.0000   0.0000   0.0000
     0.0000   0.0000   0.0000   0.0000   0.0000   0.0000

          k = 0.0400 0.2232 0.0000 ( 11833 PWs)   bands (ev):

   -19.7150 -19.6167  -7.9355  -7.1982  -7.0106  -6.9870  -5.5787  -5.5651
     3.6248   4.0238   4.7224   5.4562   5.7522   7.0413   7.3721   7.5533
     7.6066   7.7114   7.8453   9.2122  10.2302  10.6124  10.6370  12.2980
    13.4734  13.6356  13.7412  16.2008  17.6524  19.1507

     occupation numbers 
     1.0000   1.0000   1.0000   1.0000   1.0000   1.0000   1.0000   1.0000
     0.0000   0.0000   0.0000   0.0000   0.0000   0.0000   0.0000   0.0000
     0.0000   0.0000   0.0000   0.0000   0.0000   0.0000   0.0000   0.0000
     0.0000   0.0000   0.0000   0.0000   0.0000   0.0000

          k = 0.0400 0.2386 0.0000 ( 11850 PWs)   bands (ev):

   -19.5895 -19.4920  -7.7858  -7.3418  -7.3164  -7.0527  -5.7264  -5.7122
     3.7945   4.1950   4.8978   5.6298   5.9170   7.1585   7.3011   7.4282
     7.5278   7.6367   7.6870   9.3763  10.4004  10.9854  11.0136  12.4587
    13.6983  13.8858  13.9190  16.3464  17.7901  18.9179

     occupation numbers 
     1.0000   1.0000   1.0000   1.0000   1.0000   1.0000   1.0000   1.0000
     0.0000   0.0000   0.0000   0.0000   0.0000   0.0000   0.0000   0.0000
     0.0000   0.0000   0.0000   0.0000   0.0000   0.0000   0.0000   0.0000
     0.0000   0.0000   0.0000   0.0000   0.0000   0.0000

          k = 0.0400 0.2540 0.0000 ( 11859 PWs)   bands (ev):

   -19.4559 -19.3592  -7.6801  -7.6525  -7.6265  -6.8989  -5.8723  -5.8576
     3.9754   4.3771   5.0848   5.8143   6.0900   6.9609   7.0998   7.4028
     7.4199   7.6294   7.8310   9.5511  10.5814  11.3691  11.4022  12.6292
    13.9228  14.0962  14.1581  16.4977  17.9123  18.6908

     occupation numbers 
     1.0000   1.0000   1.0000   1.0000   1.0000   1.0000   1.0000   1.0000
     0.0000   0.0000   0.0000   0.0000   0.0000   0.0000   0.0000   0.0000
     0.0000   0.0000   0.0000   0.0000   0.0000   0.0000   0.0000   0.0000
     0.0000   0.0000   0.0000   0.0000   0.0000   0.0000

          k = 0.0400 0.2694 0.0000 ( 11863 PWs)   bands (ev):

   -19.3141 -19.2184  -8.0236  -7.9941  -7.4585  -6.7364  -6.0155  -6.0003
     4.1674   4.5696   5.2834   6.0076   6.2643   6.6168   6.8109   7.3750
     7.4393   7.7011   8.0149   9.7365  10.7733  11.7605  11.8006  12.8093
    14.1436  14.2975  14.4246  16.6527  17.9645  18.5328

     occupation numbers 
     1.0000   1.0000   1.0000   1.0000   1.0000   1.0000   1.0000   1.0000
     0.0000   0.0000   0.0000   0.0000   0.0000   0.0000   0.0000   0.0000
     0.0000   0.0000   0.0000   0.0000   0.0000   0.0000   0.0000   0.0000
     0.0000   0.0000   0.0000   0.0000   0.0000   0.0000

          k = 0.0400 0.2848 0.0000 ( 11871 PWs)   bands (ev):

   -19.1643 -19.0696  -8.3715  -8.3400  -7.2814  -6.5654  -6.1553  -6.1397
     4.3704   4.7714   5.4934   6.1657   6.2900   6.3737   6.5800   7.3285
     7.4294   7.8540   8.2161   9.9324  10.9760  12.1560  12.2064  12.9988
    14.3597  14.5078  14.6941  16.8085  17.8576  18.5400

     occupation numbers 
     1.0000   1.0000   1.0000   1.0000   1.0000   1.0000   1.0000   1.0000
     0.0000   0.0000   0.0000   0.0000   0.0000   0.0000   0.0000   0.0000
     0.0000   0.0000   0.0000   0.0000   0.0000   0.0000   0.0000   0.0000
     0.0000   0.0000   0.0000   0.0000   0.0000   0.0000

          k = 0.0400 0.3002 0.0000 ( 11883 PWs)   bands (ev):

   -19.0065 -18.9128  -8.7225  -8.6890  -7.0956  -6.3863  -6.2909  -6.2749
     4.5844   4.9786   5.7142   5.8769   6.0847   6.4544   6.7088   7.2799
     7.4019   8.0426   8.4310  10.1385  11.1896  12.5508  12.6170  13.1972
    14.5722  14.7226  14.9617  16.9593  17.6438  18.6659

     occupation numbers 
     1.0000   1.0000   1.0000   1.0000   1.0000   1.0000   1.0000   1.0000
     0.0000   0.0000   0.0000   0.0000   0.0000   0.0000   0.0000   0.0000
     0.0000   0.0000   0.0000   0.0000   0.0000   0.0000   0.0000   0.0000
     0.0000   0.0000   0.0000   0.0000   0.0000   0.0000

          k = 0.0400 0.3156 0.0000 ( 11888 PWs)   bands (ev):

   -18.8408 -18.7482  -9.0755  -9.0400  -6.9014  -6.4218  -6.4055  -6.1995
     4.8088   5.1642   5.5442   5.7411   5.9524   6.6787   6.9007   7.2327
     7.3776   8.2496   8.6582  10.3548  11.4140  12.9379  13.0294  13.4043
    14.7808  14.9384  15.2217  17.0889  17.4134  18.8312

     occupation numbers 
     1.0000   1.0000   1.0000   1.0000   1.0000   1.0000   1.0000   1.0000
     0.0000   0.0000   0.0000   0.0000   0.0000   0.0000   0.0000   0.0000
     0.0000   0.0000   0.0000   0.0000   0.0000   0.0000   0.0000   0.0000
     0.0000   0.0000   0.0000   0.0000   0.0000   0.0000

          k = 0.0400 0.3310 0.0000 ( 11891 PWs)   bands (ev):

   -18.6672 -18.5758  -9.4295  -9.3921  -6.6991  -6.5474  -6.5308  -6.0053
     5.0244   5.0780   5.3561   5.5450   6.1948   6.9118   7.0660   7.1970
     7.3891   8.4701   8.8972  10.5810  11.6488  13.3061  13.4394  13.6200
    14.9823  15.1558  15.4656  17.0743  17.3077  18.9632

     occupation numbers 
     1.0000   1.0000   1.0000   1.0000   1.0000   1.0000   1.0000   1.0000
     0.0000   0.0000   0.0000   0.0000   0.0000   0.0000   0.0000   0.0000
     0.0000   0.0000   0.0000   0.0000   0.0000   0.0000   0.0000   0.0000
     0.0000   0.0000   0.0000   0.0000   0.0000   0.0000

          k = 0.0400 0.3464 0.0000 ( 11895 PWs)   bands (ev):

   -18.4859 -18.3956  -9.7837  -9.7443  -6.6672  -6.6504  -6.4891  -5.8042
     4.7059   5.0116   5.2945   5.7495   6.4499   7.0687   7.1512   7.2330
     7.5105   8.7023   9.1478  10.8168  11.8940  13.6361  13.8412  13.8451
    15.1751  15.3785  15.6800  16.8651  17.3761  18.7121

     occupation numbers 
     1.0000   1.0000   1.0000   1.0000   1.0000   1.0000   1.0000   1.0000
     0.0000   0.0000   0.0000   0.0000   0.0000   0.0000   0.0000   0.0000
     0.0000   0.0000   0.0000   0.0000   0.0000   0.0000   0.0000   0.0000
     0.0000   0.0000   0.0000   0.0000   0.0000   0.0000

          k = 0.0400 0.3618 0.0000 ( 11901 PWs)   bands (ev):

   -18.2969 -18.2079 -10.1371 -10.0958  -6.7809  -6.7638  -6.2719  -5.5970
     4.3343   4.6530   5.5503   6.0004   6.7143   7.0486   7.1547   7.4626
     7.7248   8.9454   9.4097  11.0621  12.1493  13.8992  14.0784  14.2252
    15.3681  15.6045  15.8460  16.6457  17.4325  18.4917

     occupation numbers 
     1.0000   1.0000   1.0000   1.0000   1.0000   1.0000   1.0000   1.0000
     0.0000   0.0000   0.0000   0.0000   0.0000   0.0000   0.0000   0.0000
     0.0000   0.0000   0.0000   0.0000   0.0000   0.0000   0.0000   0.0000
     0.0000   0.0000   0.0000   0.0000   0.0000   0.0000

          k = 0.0400 0.3772 0.0000 ( 11905 PWs)   bands (ev):

   -18.1003 -18.0126 -10.4892 -10.4459  -6.8881  -6.8708  -6.0480  -5.3842
     3.9596   4.2926   5.8166   6.2667   6.9629   7.0221   7.1417   7.7354
     7.9737   9.1987   9.6827  11.3164  12.4141  14.0688  14.3085  14.5724
    15.5804  15.7956  15.9690  16.4521  17.4641  18.2471

     occupation numbers 
     1.0000   1.0000   1.0000   1.0000   1.0000   1.0000   1.0000   1.0000
     0.0000   0.0000   0.0000   0.0000   0.0000   0.0000   0.0000   0.0000
     0.0000   0.0000   0.0000   0.0000   0.0000   0.0000   0.0000   0.0000
     0.0000   0.0000   0.0000   0.0000   0.0000   0.0000

          k = 0.0400 0.3926 0.0000 ( 11911 PWs)   bands (ev):

   -17.8964 -17.8100 -10.8390 -10.7939  -6.9885  -6.9709  -5.8182  -5.1668
     3.5865   3.9337   6.0917   6.5413   6.9649   7.0690   7.3132   8.0230
     8.2399   9.4619   9.9667  11.5793  12.6877  14.1228  14.5239  14.8426
    15.7563  15.8975  16.1331  16.3331  17.4954  17.7615

     occupation numbers 
     1.0000   1.0000   1.0000   1.0000   1.0000   1.0000   1.0000   1.0000
     0.0000   0.0000   0.0000   0.0000   0.0000   0.0000   0.0000   0.0000
     0.0000   0.0000   0.0000   0.0000   0.0000   0.0000   0.0000   0.0000
     0.0000   0.0000   0.0000   0.0000   0.0000   0.0000

          k = 0.0400 0.4080 0.0000 ( 11909 PWs)   bands (ev):

   -17.6852 -17.6003 -11.1861 -11.1391  -7.0817  -7.0640  -5.5834  -4.9460
     3.2179   3.5781   6.3720   6.7925   6.9647   7.0488   7.6071   8.3230
     8.5189   9.7346  10.2615  11.8501  12.9685  14.0597  14.6930  14.9776
    15.6853  16.1599  16.1831  16.4814  17.2457  17.4472

     occupation numbers 
     1.0000   1.0000   1.0000   1.0000   1.0000   1.0000   1.0000   1.0000
     0.0000   0.0000   0.0000   0.0000   0.0000   0.0000   0.0000   0.0000
     0.0000   0.0000   0.0000   0.0000   0.0000   0.0000   0.0000   0.0000
     0.0000   0.0000   0.0000   0.0000   0.0000   0.0000

          k = 0.0400 0.4234 0.0000 ( 11917 PWs)   bands (ev):

   -17.4670 -17.3835 -11.5296 -11.4808  -7.1675  -7.1497  -5.3446  -4.7234
     2.8565   3.2278   6.6406   6.8531   7.0306   7.1831   7.9193   8.6349
     8.8088  10.0164  10.5669  12.1277  13.2517  13.9021  14.6806  15.0314
    15.5501  16.2747  16.4450  16.7052  16.7861  17.1265

     occupation numbers 
     1.0000   1.0000   1.0000   1.0000   1.0000   1.0000   1.0000   1.0000
     0.0000   0.0000   0.0000   0.0000   0.0000   0.0000   0.0000   0.0000
     0.0000   0.0000   0.0000   0.0000   0.0000   0.0000   0.0000   0.0000
     0.0000   0.0000   0.0000   0.0000   0.0000   0.0000

          k = 0.0400 0.4388 0.0000 ( 11923 PWs)   bands (ev):

   -17.2421 -17.1602 -11.8689 -11.8184  -7.2458  -7.2278  -5.1033  -4.5008
     2.5050   2.8851   6.7803   6.8779   7.1179   7.4857   8.2444   8.9582
     9.1083  10.3070  10.8825  12.4103  13.4959  13.7092  14.4560  14.9710
    15.5434  16.1687  16.3397  16.7179  16.8524  17.0299

     occupation numbers 
     1.0000   1.0000   1.0000   1.0000   1.0000   1.0000   1.0000   1.0000
     0.0000   0.0000   0.0000   0.0000   0.0000   0.0000   0.0000   0.0000
     0.0000   0.0000   0.0000   0.0000   0.0000   0.0000   0.0000   0.0000
     0.0000   0.0000   0.0000   0.0000   0.0000   0.0000

          k = 0.0400 0.4542 0.0000 ( 11923 PWs)   bands (ev):

   -17.0109 -16.9306 -12.2033 -12.1512  -7.3163  -7.2981  -4.8613  -4.2807
     2.1665   2.5523   6.7679   6.8884   7.3780   7.8084   8.5813   9.2929
     9.4165  10.6058  11.2079  12.6932  13.3359  13.8401  14.1551  14.7577
    15.6182  15.7326  16.0638  16.6011  16.8922  17.2258

     occupation numbers 
     1.0000   1.0000   1.0000   1.0000   1.0000   1.0000   1.0000   1.0000
     0.0000   0.0000   0.0000   0.0000   0.0000   0.0000   0.0000   0.0000
     0.0000   0.0000   0.0000   0.0000   0.0000   0.0000   0.0000   0.0000
     0.0000   0.0000   0.0000   0.0000   0.0000   0.0000

          k = 0.0400 0.4696 0.0000 ( 11925 PWs)   bands (ev):

   -16.7738 -16.6953 -12.5319 -12.4783  -7.3788  -7.3606  -4.6212  -4.0665
     1.8449   2.2326   6.7414   6.8716   7.6941   8.1437   8.9297   9.6388
     9.7327  10.9120  11.5421  12.9353  13.0401  13.7438  14.1005  14.5694
    15.1562  15.5528  15.9682  16.2599  16.8991  17.4161

     occupation numbers 
     1.0000   1.0000   1.0000   1.0000   1.0000   1.0000   1.0000   1.0000
     0.0000   0.0000   0.0000   0.0000   0.0000   0.0000   0.0000   0.0000
     0.0000   0.0000   0.0000   0.0000   0.0000   0.0000   0.0000   0.0000
     0.0000   0.0000   0.0000   0.0000   0.0000   0.0000

          k = 0.0400 0.4850 0.0000 ( 11921 PWs)   bands (ev):

   -16.5318 -16.4552 -12.8535 -12.7986  -7.4333  -7.4150  -4.3861  -3.8626
     1.5449   1.9296   6.7157   6.8509   8.0292   8.4899   9.2893   9.9956
    10.0555  11.2244  11.8829  12.6400  13.1355  13.4790  14.0195  14.5710
    14.7652  15.1101  15.8171  16.2001  16.6951  17.3533

     occupation numbers 
     1.0000   1.0000   1.0000   1.0000   1.0000   1.0000   1.0000   1.0000
     0.0000   0.0000   0.0000   0.0000   0.0000   0.0000   0.0000   0.0000
     0.0000   0.0000   0.0000   0.0000   0.0000   0.0000   0.0000   0.0000
     0.0000   0.0000   0.0000   0.0000   0.0000   0.0000

          k = 0.0400 0.5004 0.0000 ( 11911 PWs)   bands (ev):

   -16.2862 -16.2118 -13.1665 -13.1106  -7.4796  -7.4612  -4.1607  -3.6745
     1.2727   1.6482   6.6929   6.8314   8.3770   8.8462   9.6598  10.3632
    10.3836  11.5393  12.1893  12.2991  12.8780  13.4991  13.8642  14.1893
    14.6532  14.9476  15.4512  16.1886  16.5801  17.1161

     occupation numbers 
     1.0000   1.0000   1.0000   1.0000   1.0000   1.0000   1.0000   1.0000
     0.0000   0.0000   0.0000   0.0000   0.0000   0.0000   0.0000   0.0000
     0.0000   0.0000   0.0000   0.0000   0.0000   0.0000   0.0000   0.0000
     0.0000   0.0000   0.0000   0.0000   0.0000   0.0000

          k = 0.0400 0.5158 0.0000 ( 11915 PWs)   bands (ev):

   -16.0393 -15.9678 -13.4680 -13.4118  -7.5176  -7.4991  -3.9508  -3.5091
     1.0353   1.3949   6.6738   6.8145   8.7354   9.2120  10.0407  10.7142
    10.7409  11.8266  11.8743  12.4737  12.6141  13.3041  13.7025  14.0143
    14.2606  14.9318  15.3830  15.8628  16.7477  16.8195

     occupation numbers 
     1.0000   1.0000   1.0000   1.0000   1.0000   1.0000   1.0000   1.0000
     0.0000   0.0000   0.0000   0.0000   0.0000   0.0000   0.0000   0.0000
     0.0000   0.0000   0.0000   0.0000   0.0000   0.0000   0.0000   0.0000
     0.0000   0.0000   0.0000   0.0000   0.0000   0.0000

          k = 0.0400 0.5312 0.0000 ( 11913 PWs)   bands (ev):

   -15.7961 -15.7285 -13.7523 -13.6971  -7.5472  -7.5287  -3.7647  -3.3741
     0.8409   1.1780   6.6587   6.8010   9.1030   9.5864  10.4310  11.0405
    11.1261  11.4609  11.9557  12.3063  12.8144  13.0604  13.3651  13.6995
    14.3395  14.6236  15.4756  15.6727  16.5035  16.9640

     occupation numbers 
     1.0000   1.0000   1.0000   1.0000   1.0000   1.0000   1.0000   1.0000
     0.0000   0.0000   0.0000   0.0000   0.0000   0.0000   0.0000   0.0000
     0.0000   0.0000   0.0000   0.0000   0.0000   0.0000   0.0000   0.0000
     0.0000   0.0000   0.0000   0.0000   0.0000   0.0000

          k = 0.0400 0.5466 0.0000 ( 11909 PWs)   bands (ev):

   -15.5672 -15.5061 -14.0072 -13.9560  -7.5684  -7.5498  -3.6137  -3.2767
     0.6973   1.0083   6.6477   6.7912   9.4788   9.9679  10.8275  11.0562
    11.3132  11.5232  11.6844  12.4248  12.6294  12.9172  13.2739  13.4384
    14.1651  14.6810  15.1315  15.9005  16.2789  17.1368

     occupation numbers 
     1.0000   1.0000   1.0000   1.0000   1.0000   1.0000   1.0000   1.0000
     0.0000   0.0000   0.0000   0.0000   0.0000   0.0000   0.0000   0.0000
     0.0000   0.0000   0.0000   0.0000   0.0000   0.0000   0.0000   0.0000
     0.0000   0.0000   0.0000   0.0000   0.0000   0.0000

          k = 0.0400 0.5620 0.0000 ( 11910 PWs)   bands (ev):

   -15.3799 -15.3307 -14.2020 -14.1613  -7.5811  -7.5626  -3.5121  -3.2201
     0.6100   0.8983   6.6411   6.7853   9.8610  10.3493  10.6652  11.1058
    11.2745  11.7609  11.9203  12.1064  12.5063  12.7755  13.0602  13.6487
    13.9548  14.5837  15.1280  15.7502  16.4485  17.0582

     occupation numbers 
     1.0000   1.0000   1.0000   1.0000   1.0000   1.0000   1.0000   1.0000
     0.0000   0.0000   0.0000   0.0000   0.0000   0.0000   0.0000   0.0000
     0.0000   0.0000   0.0000   0.0000   0.0000   0.0000   0.0000   0.0000
     0.0000   0.0000   0.0000   0.0000   0.0000   0.0000

          k = 0.0400 0.5774 0.0000 ( 11925 PWs)   bands (ev):

   -15.2983 -15.2602 -14.2785 -14.2495  -7.5854  -7.5668  -3.4756  -3.2021
     0.5809   0.8600   6.6389   6.7833  10.2068  10.2949  10.7285  10.7835
    11.6275  11.6776  11.9915  12.2029  12.4152  12.4254  13.2462  13.4946
    14.2018  14.2643  15.3223  15.5397  16.7354  16.7894

     occupation numbers 
     1.0000   1.0000   1.0000   1.0000   1.0000   1.0000   1.0000   1.0000
     0.0000   0.0000   0.0000   0.0000   0.0000   0.0000   0.0000   0.0000
     0.0000   0.0000   0.0000   0.0000   0.0000   0.0000   0.0000   0.0000
     0.0000   0.0000   0.0000   0.0000   0.0000   0.0000

          k = 0.0533 0.0924 0.0000 ( 11791 PWs)   bands (ev):

   -20.4255 -20.3224  -8.7894  -8.0276  -4.8073  -4.7994  -4.4727  -4.4664
     2.6667   3.0546   3.7338   4.4743   4.8096   6.1547   6.4646   7.5885
     7.6245   8.2356   8.2532   8.2756   9.2672   9.7786   9.8691  11.3806
    12.0526  12.1304  12.7788  15.3338  16.7716  19.8286

     occupation numbers 
     1.0000   1.0000   1.0000   1.0000   1.0000   1.0000   1.0000   1.0000
     0.0000   0.0000   0.0000   0.0000   0.0000   0.0000   0.0000   0.0000
     0.0000   0.0000   0.0000   0.0000   0.0000   0.0000   0.0000   0.0000
     0.0000   0.0000   0.0000   0.0000   0.0000   0.0000

          k = 0.0533 0.1078 0.0000 ( 11797 PWs)   bands (ev):

   -20.3706 -20.2679  -8.7232  -7.9631  -4.9966  -4.9880  -4.5858  -4.5790
     2.7405   3.1293   3.8099   4.5499   4.8825   6.2250   6.5388   7.6239
     7.6643   8.3474   8.4176   8.4356   9.3422   9.5997   9.6946  11.4518
    12.1655  12.2449  12.8527  15.4026  16.8423  19.8359

     occupation numbers 
     1.0000   1.0000   1.0000   1.0000   1.0000   1.0000   1.0000   1.0000
     0.0000   0.0000   0.0000   0.0000   0.0000   0.0000   0.0000   0.0000
     0.0000   0.0000   0.0000   0.0000   0.0000   0.0000   0.0000   0.0000
     0.0000   0.0000   0.0000   0.0000   0.0000   0.0000

          k = 0.0533 0.1232 0.0000 ( 11811 PWs)   bands (ev):

   -20.3074 -20.2051  -8.6468  -7.8888  -5.2094  -5.1995  -4.7103  -4.7028
     2.8256   3.2155   3.8977   4.6372   4.9666   6.3060   6.6243   7.6555
     7.7008   8.4301   8.6238   8.6425   9.3968   9.4290   9.4978  11.5338
    12.2992  12.3809  12.9379  15.4816  16.9234  19.8321

     occupation numbers 
     1.0000   1.0000   1.0000   1.0000   1.0000   1.0000   1.0000   1.0000
     0.0000   0.0000   0.0000   0.0000   0.0000   0.0000   0.0000   0.0000
     0.0000   0.0000   0.0000   0.0000   0.0000   0.0000   0.0000   0.0000
     0.0000   0.0000   0.0000   0.0000   0.0000   0.0000

          k = 0.0533 0.1386 0.0000 ( 11811 PWs)   bands (ev):

   -20.2358 -20.1339  -8.5605  -7.8048  -5.4438  -5.4322  -4.8441  -4.8355
     2.9221   3.3132   3.9971   4.7361   5.0618   6.3976   6.7210   7.6801
     7.7308   8.5233   8.8539   8.8737   9.1734   9.2798   9.5266  11.6265
    12.4532  12.5385  13.0343  15.5705  17.0147  19.8101

     occupation numbers 
     1.0000   1.0000   1.0000   1.0000   1.0000   1.0000   1.0000   1.0000
     0.0000   0.0000   0.0000   0.0000   0.0000   0.0000   0.0000   0.0000
     0.0000   0.0000   0.0000   0.0000   0.0000   0.0000   0.0000   0.0000
     0.0000   0.0000   0.0000   0.0000   0.0000   0.0000

          k = 0.0533 0.1540 0.0000 ( 11811 PWs)   bands (ev):

   -20.1558 -20.0545  -8.4641  -7.7111  -5.6977  -5.6843  -4.9848  -4.9752
     3.0299   3.4223   4.1083   4.8466   5.1682   6.4998   6.8289   7.6957
     7.7521   8.6261   8.9281   9.0428   9.1088   9.1300   9.6355  11.7299
    12.6268  12.7173  13.1419  15.6692  17.1159  19.7608

     occupation numbers 
     1.0000   1.0000   1.0000   1.0000   1.0000   1.0000   1.0000   1.0000
     0.0000   0.0000   0.0000   0.0000   0.0000   0.0000   0.0000   0.0000
     0.0000   0.0000   0.0000   0.0000   0.0000   0.0000   0.0000   0.0000
     0.0000   0.0000   0.0000   0.0000   0.0000   0.0000

          k = 0.0533 0.1694 0.0000 ( 11821 PWs)   bands (ev):

   -20.0675 -19.9668  -8.3579  -7.6079  -5.9693  -5.9538  -5.1306  -5.1200
     3.1490   3.5428   4.2311   4.9687   5.2857   6.6122   6.9475   7.7015
     7.7635   8.6616   8.7238   8.8105   9.3838   9.4070   9.7558  11.8439
    12.8184  12.9164  13.2609  15.7773  17.2266  19.6742

     occupation numbers 
     1.0000   1.0000   1.0000   1.0000   1.0000   1.0000   1.0000   1.0000
     0.0000   0.0000   0.0000   0.0000   0.0000   0.0000   0.0000   0.0000
     0.0000   0.0000   0.0000   0.0000   0.0000   0.0000   0.0000   0.0000
     0.0000   0.0000   0.0000   0.0000   0.0000   0.0000

          k = 0.0533 0.1848 0.0000 ( 11816 PWs)   bands (ev):

   -19.9708 -19.8708  -8.2418  -7.4951  -6.2564  -6.2389  -5.2798  -5.2682
     3.2794   3.6747   4.3657   5.1023   5.4141   6.7345   7.0764   7.6978
     7.7644   8.3844   8.5099   8.8782   9.6793   9.7057   9.8882  11.9684
    13.0259  13.1344  13.3914  15.8944  17.3462  19.5432

     occupation numbers 
     1.0000   1.0000   1.0000   1.0000   1.0000   1.0000   1.0000   1.0000
     0.0000   0.0000   0.0000   0.0000   0.0000   0.0000   0.0000   0.0000
     0.0000   0.0000   0.0000   0.0000   0.0000   0.0000   0.0000   0.0000
     0.0000   0.0000   0.0000   0.0000   0.0000   0.0000

          k = 0.0533 0.2001 0.0000 ( 11828 PWs)   bands (ev):

   -19.8659 -19.7665  -8.1160  -7.3730  -6.5570  -6.5374  -5.4308  -5.4184
     3.4210   3.8180   4.5119   5.2475   5.5534   6.8657   7.2138   7.6857
     7.7533   8.0924   8.2292   9.0131   9.9830  10.0231  10.0431  12.1032
    13.2465  13.3694  13.5337  16.0201  17.4737  19.3665

     occupation numbers 
     1.0000   1.0000   1.0000   1.0000   1.0000   1.0000   1.0000   1.0000
     0.0000   0.0000   0.0000   0.0000   0.0000   0.0000   0.0000   0.0000
     0.0000   0.0000   0.0000   0.0000   0.0000   0.0000   0.0000   0.0000
     0.0000   0.0000   0.0000   0.0000   0.0000   0.0000

          k = 0.0533 0.2155 0.0000 ( 11832 PWs)   bands (ev):

   -19.7527 -19.6541  -7.9805  -7.2417  -6.8694  -6.8477  -5.5824  -5.5691
     3.5740   3.9725   4.6698   5.4042   5.7033   7.0036   7.3542   7.6622
     7.7072   7.8204   7.9409   9.1605  10.1755  10.3349  10.3604  12.2483
    13.4765  13.6189  13.6891  16.1537  17.6071  19.1514

     occupation numbers 
     1.0000   1.0000   1.0000   1.0000   1.0000   1.0000   1.0000   1.0000
     0.0000   0.0000   0.0000   0.0000   0.0000   0.0000   0.0000   0.0000
     0.0000   0.0000   0.0000   0.0000   0.0000   0.0000   0.0000   0.0000
     0.0000   0.0000   0.0000   0.0000   0.0000   0.0000

          k = 0.0533 0.2309 0.0000 ( 11852 PWs)   bands (ev):

   -19.6314 -19.5336  -7.8355  -7.1917  -7.1686  -7.1004  -5.7333  -5.7193
     3.7381   4.1382   4.8394   5.5723   5.8634   7.1382   7.4106   7.4969
     7.6112   7.7078   7.7543   9.3190  10.3420  10.6797  10.7117  12.4035
    13.7104  13.8569  13.8836  16.2943  17.7419  18.9127

     occupation numbers 
     1.0000   1.0000   1.0000   1.0000   1.0000   1.0000   1.0000   1.0000
     0.0000   0.0000   0.0000   0.0000   0.0000   0.0000   0.0000   0.0000
     0.0000   0.0000   0.0000   0.0000   0.0000   0.0000   0.0000   0.0000
     0.0000   0.0000   0.0000   0.0000   0.0000   0.0000

          k = 0.0533 0.2463 0.0000 ( 11872 PWs)   bands (ev):

   -19.5018 -19.4049  -7.6812  -7.5222  -7.4965  -6.9516  -5.8826  -5.8679
     3.9135   4.3149   5.0206   5.7515   6.0329   7.0890   7.1843   7.4176
     7.5357   7.7195   7.7925   9.4883  10.5178  11.0381  11.0767  12.5685
    13.9385  14.0503  14.1544  16.4406  17.8643  18.6752

     occupation numbers 
     1.0000   1.0000   1.0000   1.0000   1.0000   1.0000   1.0000   1.0000
     0.0000   0.0000   0.0000   0.0000   0.0000   0.0000   0.0000   0.0000
     0.0000   0.0000   0.0000   0.0000   0.0000   0.0000   0.0000   0.0000
     0.0000   0.0000   0.0000   0.0000   0.0000   0.0000

          k = 0.0533 0.2617 0.0000 ( 11866 PWs)   bands (ev):

   -19.3641 -19.2681  -7.8595  -7.8316  -7.5176  -6.7934  -6.0293  -6.0141
     4.1000   4.5023   5.2134   5.9409   6.2087   6.7515   6.9273   7.4823
     7.5177   7.7244   7.9538   9.6682  10.7043  11.4061  11.4530  12.7431
    14.1516  14.2696  14.4335  16.5909  17.9258  18.4972

     occupation numbers 
     1.0000   1.0000   1.0000   1.0000   1.0000   1.0000   1.0000   1.0000
     0.0000   0.0000   0.0000   0.0000   0.0000   0.0000   0.0000   0.0000
     0.0000   0.0000   0.0000   0.0000   0.0000   0.0000   0.0000   0.0000
     0.0000   0.0000   0.0000   0.0000   0.0000   0.0000

          k = 0.0533 0.2771 0.0000 ( 11881 PWs)   bands (ev):

   -19.2184 -19.1233  -8.2020  -8.1721  -7.3450  -6.6267  -6.1727  -6.1569
     4.2975   4.6997   5.4178   6.1326   6.3544   6.4226   6.6337   7.4706
     7.5431   7.8094   8.1449   9.8584  10.9015  11.7801  11.8383  12.9270
    14.3570  14.5048  14.7166  16.7423  17.8305  18.4822

     occupation numbers 
     1.0000   1.0000   1.0000   1.0000   1.0000   1.0000   1.0000   1.0000
     0.0000   0.0000   0.0000   0.0000   0.0000   0.0000   0.0000   0.0000
     0.0000   0.0000   0.0000   0.0000   0.0000   0.0000   0.0000   0.0000
     0.0000   0.0000   0.0000   0.0000   0.0000   0.0000

          k = 0.0533 0.2925 0.0000 ( 11887 PWs)   bands (ev):

   -19.0646 -18.9706  -8.5486  -8.5166  -7.1636  -6.4517  -6.3120  -6.2958
     4.5060   4.9051   5.6334   6.0210   6.2142   6.3794   6.6450   7.4263
     7.5330   7.9734   8.3523  10.0590  11.1096  12.1560  12.2302  13.1199
    14.5648  14.7412  14.9998  16.8901  17.6157  18.5992

     occupation numbers 
     1.0000   1.0000   1.0000   1.0000   1.0000   1.0000   1.0000   1.0000
     0.0000   0.0000   0.0000   0.0000   0.0000   0.0000   0.0000   0.0000
     0.0000   0.0000   0.0000   0.0000   0.0000   0.0000   0.0000   0.0000
     0.0000   0.0000   0.0000   0.0000   0.0000   0.0000

          k = 0.0533 0.3079 0.0000 ( 11883 PWs)   bands (ev):

   -18.9029 -18.8099  -8.8981  -8.8641  -6.9737  -6.4466  -6.4300  -6.2688
     4.7253   5.1085   5.6766   5.8467   5.8990   6.5942   6.8364   7.3793
     7.5064   8.1694   8.5729  10.2696  11.3283  12.5284  12.6257  13.3212
    14.7785  14.9700  15.2775  17.0226  17.3757  18.7626

     occupation numbers 
     1.0000   1.0000   1.0000   1.0000   1.0000   1.0000   1.0000   1.0000
     0.0000   0.0000   0.0000   0.0000   0.0000   0.0000   0.0000   0.0000
     0.0000   0.0000   0.0000   0.0000   0.0000   0.0000   0.0000   0.0000
     0.0000   0.0000   0.0000   0.0000   0.0000   0.0000

          k = 0.0533 0.3233 0.0000 ( 11891 PWs)   bands (ev):

   -18.7333 -18.6415  -9.2494  -9.2133  -6.7755  -6.5761  -6.5591  -6.0784
     4.9539   5.1783   5.4442   5.5586   6.1022   6.8270   7.0358   7.3342
     7.4854   8.3822   8.8057  10.4902  11.5575  12.8898  13.0214  13.5304
    14.9981  15.1859  15.5415  17.0456  17.2296  18.9379

     occupation numbers 
     1.0000   1.0000   1.0000   1.0000   1.0000   1.0000   1.0000   1.0000
     0.0000   0.0000   0.0000   0.0000   0.0000   0.0000   0.0000   0.0000
     0.0000   0.0000   0.0000   0.0000   0.0000   0.0000   0.0000   0.0000
     0.0000   0.0000   0.0000   0.0000   0.0000   0.0000

          k = 0.0533 0.3387 0.0000 ( 11906 PWs)   bands (ev):

   -18.5559 -18.4652  -9.6015  -9.5634  -6.6999  -6.6826  -6.5694  -5.8808
     4.8674   5.1599   5.2043   5.6582   6.3521   7.0632   7.1940   7.3051
     7.5092   8.6079   9.0503  10.7204  11.7972  13.2291  13.4128  13.7469
    15.2199  15.3871  15.7771  16.8470  17.2947  18.8151

     occupation numbers 
     1.0000   1.0000   1.0000   1.0000   1.0000   1.0000   1.0000   1.0000
     0.0000   0.0000   0.0000   0.0000   0.0000   0.0000   0.0000   0.0000
     0.0000   0.0000   0.0000   0.0000   0.0000   0.0000   0.0000   0.0000
     0.0000   0.0000   0.0000   0.0000   0.0000   0.0000

          k = 0.0533 0.3541 0.0000 ( 11902 PWs)   bands (ev):

   -18.3708 -18.2813  -9.9536  -9.9135  -6.8176  -6.7999  -6.3558  -5.6766
     4.5027   4.8086   5.4511   5.8992   6.6129   7.1825   7.2720   7.3783
     7.6524   8.8449   9.3063  10.9600  12.0468  13.5295  13.7930  13.9699
    15.4329  15.5798  15.9569  16.6453  17.3628  18.6169

     occupation numbers 
     1.0000   1.0000   1.0000   1.0000   1.0000   1.0000   1.0000   1.0000
     0.0000   0.0000   0.0000   0.0000   0.0000   0.0000   0.0000   0.0000
     0.0000   0.0000   0.0000   0.0000   0.0000   0.0000   0.0000   0.0000
     0.0000   0.0000   0.0000   0.0000   0.0000   0.0000

          k = 0.0533 0.3695 0.0000 ( 11908 PWs)   bands (ev):

   -18.1781 -18.0899 -10.3048 -10.2628  -6.9288  -6.9109  -6.1353  -5.4665
     4.1302   4.4504   5.7128   6.1601   6.8819   7.1550   7.2663   7.6281
     7.8779   9.0923   9.5735  11.2087  12.3061  13.7678  14.1450  14.2031
    15.6121  15.7744  16.0494  16.4912  17.4201  18.4238

     occupation numbers 
     1.0000   1.0000   1.0000   1.0000   1.0000   1.0000   1.0000   1.0000
     0.0000   0.0000   0.0000   0.0000   0.0000   0.0000   0.0000   0.0000
     0.0000   0.0000   0.0000   0.0000   0.0000   0.0000   0.0000   0.0000
     0.0000   0.0000   0.0000   0.0000   0.0000   0.0000

          k = 0.0533 0.3849 0.0000 ( 11908 PWs)   bands (ev):

   -17.9780 -17.8911 -10.6544 -10.6105  -7.0332  -7.0150  -5.9084  -5.2514
     3.7578   4.0925   5.9844   6.4329   7.0970   7.1549   7.2664   7.9077
     8.1332   9.3497   9.8517  11.4659  12.5743  13.9178  14.3969  14.4917
    15.6977  15.9391  16.1394  16.3820  17.5015  18.0340

     occupation numbers 
     1.0000   1.0000   1.0000   1.0000   1.0000   1.0000   1.0000   1.0000
     0.0000   0.0000   0.0000   0.0000   0.0000   0.0000   0.0000   0.0000
     0.0000   0.0000   0.0000   0.0000   0.0000   0.0000   0.0000   0.0000
     0.0000   0.0000   0.0000   0.0000   0.0000   0.0000

          k = 0.0533 0.4003 0.0000 ( 11912 PWs)   bands (ev):

   -17.7705 -17.6850 -11.0017 -10.9559  -7.1305  -7.1122  -5.6760  -5.0322
     3.3885   3.7369   6.2643   6.7113   7.0754   7.1835   7.4902   8.2013
     8.4045   9.6166  10.1407  11.7311  12.8499  13.9604  14.5767  14.7533
    15.6188  16.1096  16.2391  16.3906  17.5216  17.6202

     occupation numbers 
     1.0000   1.0000   1.0000   1.0000   1.0000   1.0000   1.0000   1.0000
     0.0000   0.0000   0.0000   0.0000   0.0000   0.0000   0.0000   0.0000
     0.0000   0.0000   0.0000   0.0000   0.0000   0.0000   0.0000   0.0000
     0.0000   0.0000   0.0000   0.0000   0.0000   0.0000

          k = 0.0533 0.4157 0.0000 ( 11916 PWs)   bands (ev):

   -17.5559 -17.4718 -11.3459 -11.2983  -7.2205  -7.2020  -5.4391  -4.8103
     3.0249   3.3856   6.5478   6.9414   7.1012   7.1655   7.7926   8.5070
     8.6879   9.8926  10.4404  12.0033  13.1294  13.8954  14.6393  14.9353
    15.4929  16.1880  16.3174  16.6372  17.0252  17.3741

     occupation numbers 
     1.0000   1.0000   1.0000   1.0000   1.0000   1.0000   1.0000   1.0000
     0.0000   0.0000   0.0000   0.0000   0.0000   0.0000   0.0000   0.0000
     0.0000   0.0000   0.0000   0.0000   0.0000   0.0000   0.0000   0.0000
     0.0000   0.0000   0.0000   0.0000   0.0000   0.0000

          k = 0.0533 0.4311 0.0000 ( 11927 PWs)   bands (ev):

   -17.3345 -17.2519 -11.6864 -11.6370  -7.3030  -7.2842  -5.1989  -4.5873
     2.6696   3.0405   6.8097   6.9723   7.1545   7.3618   8.1110   8.8244
     8.9815  10.1774  10.7504  12.2810  13.3963  13.7499  14.5197  14.9754
    15.4574  16.2144  16.3811  16.6380  16.9001  17.0135

     occupation numbers 
     1.0000   1.0000   1.0000   1.0000   1.0000   1.0000   1.0000   1.0000
     0.0000   0.0000   0.0000   0.0000   0.0000   0.0000   0.0000   0.0000
     0.0000   0.0000   0.0000   0.0000   0.0000   0.0000   0.0000   0.0000
     0.0000   0.0000   0.0000   0.0000   0.0000   0.0000

          k = 0.0533 0.4465 0.0000 ( 11919 PWs)   bands (ev):

   -17.1065 -17.0255 -12.0225 -11.9714  -7.3777  -7.3588  -4.9570  -4.3656
     2.3255   2.7039   6.9024   7.0079   7.2823   7.6732   8.4418   9.1533
     9.2841  10.4705  11.0702  12.5609  13.4342  13.7470  14.2750  14.8170
    15.5855  15.9302  16.1648  16.5941  16.7994  17.1415

     occupation numbers 
     1.0000   1.0000   1.0000   1.0000   1.0000   1.0000   1.0000   1.0000
     0.0000   0.0000   0.0000   0.0000   0.0000   0.0000   0.0000   0.0000
     0.0000   0.0000   0.0000   0.0000   0.0000   0.0000   0.0000   0.0000
     0.0000   0.0000   0.0000   0.0000   0.0000   0.0000

          k = 0.0533 0.4619 0.0000 ( 11925 PWs)   bands (ev):

   -16.8724 -16.7931 -12.3533 -12.3006  -7.4445  -7.4255  -4.7155  -4.1478
     1.9960   2.3785   6.8835   7.0095   7.5655   8.0014   8.7843   9.4933
     9.5948  10.7710  11.3991  12.8321  13.1677  13.8490  14.0749  14.6170
    15.4170  15.7089  15.9148  16.3744  16.7836  17.2748

     occupation numbers 
     1.0000   1.0000   1.0000   1.0000   1.0000   1.0000   1.0000   1.0000
     0.0000   0.0000   0.0000   0.0000   0.0000   0.0000   0.0000   0.0000
     0.0000   0.0000   0.0000   0.0000   0.0000   0.0000   0.0000   0.0000
     0.0000   0.0000   0.0000   0.0000   0.0000   0.0000

          k = 0.0533 0.4773 0.0000 ( 11921 PWs)   bands (ev):

   -16.6329 -16.5554 -12.6778 -12.6237  -7.5032  -7.4841  -4.4773  -3.9379
     1.6855   2.0676   6.8577   6.9918   7.8897   8.3415   9.1382   9.8444
     9.9124  11.0781  11.7353  12.8161  13.0898  13.5813  14.0669  14.5859
    14.9406  15.3486  15.9620  16.0968  16.7265  17.2894

     occupation numbers 
     1.0000   1.0000   1.0000   1.0000   1.0000   1.0000   1.0000   1.0000
     0.0000   0.0000   0.0000   0.0000   0.0000   0.0000   0.0000   0.0000
     0.0000   0.0000   0.0000   0.0000   0.0000   0.0000   0.0000   0.0000
     0.0000   0.0000   0.0000   0.0000   0.0000   0.0000

          k = 0.0533 0.4927 0.0000 ( 11921 PWs)   bands (ev):

   -16.3890 -16.3137 -12.9947 -12.9395  -7.5537  -7.5345  -4.2463  -3.7408
     1.3993   1.7756   6.8336   6.9721   8.2305   8.6921   9.5030  10.2062
    10.2354  11.3893  12.0724  12.4640  13.0426  13.4723  13.9112  14.4152
    14.8484  14.9081  15.6159  16.2064  16.5451  17.1455

     occupation numbers 
     1.0000   1.0000   1.0000   1.0000   1.0000   1.0000   1.0000   1.0000
     0.0000   0.0000   0.0000   0.0000   0.0000   0.0000   0.0000   0.0000
     0.0000   0.0000   0.0000   0.0000   0.0000   0.0000   0.0000   0.0000
     0.0000   0.0000   0.0000   0.0000   0.0000   0.0000

          k = 0.0533 0.5081 0.0000 ( 11917 PWs)   bands (ev):

   -16.1426 -16.0697 -13.3018 -13.2459  -7.5960  -7.5767  -4.0275  -3.5628
     1.1440   1.5078   6.8127   6.9541   8.5831   9.0523   9.8783  10.5616
    10.5784  11.6971  12.0651  12.4237  12.7133  13.4096  13.8605  14.0314
    14.4614  15.0210  15.3468  16.0321  16.5915  16.8932

     occupation numbers 
     1.0000   1.0000   1.0000   1.0000   1.0000   1.0000   1.0000   1.0000
     0.0000   0.0000   0.0000   0.0000   0.0000   0.0000   0.0000   0.0000
     0.0000   0.0000   0.0000   0.0000   0.0000   0.0000   0.0000   0.0000
     0.0000   0.0000   0.0000   0.0000   0.0000   0.0000

          k = 0.0533 0.5235 0.0000 ( 11931 PWs)   bands (ev):

   -15.8970 -15.8273 -13.5952 -13.5394  -7.6299  -7.6106  -3.8280  -3.4112
     0.9274   1.2717   6.7956   6.9390   8.9456   9.4214  10.2634  10.8864
    10.9597  11.6751  11.9606  12.3556  12.7524  13.1736  13.5282  13.9183
    14.2703  14.7620  15.5338  15.6887  16.5985  16.7808

     occupation numbers 
     1.0000   1.0000   1.0000   1.0000   1.0000   1.0000   1.0000   1.0000
     0.0000   0.0000   0.0000   0.0000   0.0000   0.0000   0.0000   0.0000
     0.0000   0.0000   0.0000   0.0000   0.0000   0.0000   0.0000   0.0000
     0.0000   0.0000   0.0000   0.0000   0.0000   0.0000

          k = 0.0533 0.5389 0.0000 ( 11915 PWs)   bands (ev):

   -15.6592 -15.5945 -13.8666 -13.8130  -7.6554  -7.6360  -3.6575  -3.2939
     0.7578   1.0769   6.7826   6.9274   9.3169   9.7981  10.6562  11.1929
    11.2650  11.3645  11.8374  12.3924  12.7324  13.0276  13.3518  13.5123
    14.3106  14.5891  15.3130  15.8188  16.3310  16.9667

     occupation numbers 
     1.0000   1.0000   1.0000   1.0000   1.0000   1.0000   1.0000   1.0000
     0.0000   0.0000   0.0000   0.0000   0.0000   0.0000   0.0000   0.0000
     0.0000   0.0000   0.0000   0.0000   0.0000   0.0000   0.0000   0.0000
     0.0000   0.0000   0.0000   0.0000   0.0000   0.0000

          k = 0.0533 0.5543 0.0000 ( 11910 PWs)   bands (ev):

   -15.4462 -15.3904 -14.0966 -14.0498  -7.6725  -7.6530  -3.5288  -3.2165
     0.6421   0.9352   6.7738   6.9195   9.6955  10.1794  10.8808  11.0439
    11.3083  11.6664  11.7609  12.2990  12.6128  12.8631  13.1187  13.5981
    14.0255  14.6964  15.0732  15.8335  16.3327  17.0796

     occupation numbers 
     1.0000   1.0000   1.0000   1.0000   1.0000   1.0000   1.0000   1.0000
     0.0000   0.0000   0.0000   0.0000   0.0000   0.0000   0.0000   0.0000
     0.0000   0.0000   0.0000   0.0000   0.0000   0.0000   0.0000   0.0000
     0.0000   0.0000   0.0000   0.0000   0.0000   0.0000

          k = 0.0533 0.5697 0.0000 ( 11903 PWs)   bands (ev):

   -15.3013 -15.2595 -14.2400 -14.2071  -7.6810  -7.6615  -3.4578  -3.1796
     0.5840   0.8596   6.7694   6.9155  10.0773  10.4565  10.5967  10.9569
    11.4795  11.8186  11.9719  12.1444  12.4099  12.6205  13.1775  13.5667
    14.0881  14.4345  15.2387  15.5842  16.6116  16.9118

     occupation numbers 
     1.0000   1.0000   1.0000   1.0000   1.0000   1.0000   1.0000   1.0000
     0.0000   0.0000   0.0000   0.0000   0.0000   0.0000   0.0000   0.0000
     0.0000   0.0000   0.0000   0.0000   0.0000   0.0000   0.0000   0.0000
     0.0000   0.0000   0.0000   0.0000   0.0000   0.0000

          k = 0.0667 0.1155 0.0000 ( 11813 PWs)   bands (ev):

   -20.3116 -20.2093  -8.6519  -7.8938  -5.1892  -5.1803  -4.7083  -4.7016
     2.8200   3.2098   3.8918   4.6314   4.9610   6.3007   6.6186   7.6722
     7.7164   8.4247   8.5896   8.6082   9.4114   9.4227   9.5107  11.5283
    12.2938  12.3746  12.9321  15.4763  16.9180  19.8313

     occupation numbers 
     1.0000   1.0000   1.0000   1.0000   1.0000   1.0000   1.0000   1.0000
     0.0000   0.0000   0.0000   0.0000   0.0000   0.0000   0.0000   0.0000
     0.0000   0.0000   0.0000   0.0000   0.0000   0.0000   0.0000   0.0000
     0.0000   0.0000   0.0000   0.0000   0.0000   0.0000

          k = 0.0667 0.1309 0.0000 ( 11817 PWs)   bands (ev):

   -20.2442 -20.1423  -8.5706  -7.8147  -5.4033  -5.3935  -4.8423  -4.8351
     2.9108   3.3017   3.9854   4.7245   5.0507   6.3871   6.7099   7.7177
     7.7664   8.5127   8.7813   8.8010   9.2010   9.3049   9.5150  11.6155
    12.4443  12.5272  13.0228  15.5599  17.0039  19.8090

     occupation numbers 
     1.0000   1.0000   1.0000   1.0000   1.0000   1.0000   1.0000   1.0000
     0.0000   0.0000   0.0000   0.0000   0.0000   0.0000   0.0000   0.0000
     0.0000   0.0000   0.0000   0.0000   0.0000   0.0000   0.0000   0.0000
     0.0000   0.0000   0.0000   0.0000   0.0000   0.0000

          k = 0.0667 0.1463 0.0000 ( 11815 PWs)   bands (ev):

   -20.1684 -20.0670  -8.4793  -7.7259  -5.6377  -5.6265  -4.9851  -4.9770
     3.0129   3.4051   4.0907   4.8292   5.1516   6.4841   6.8123   7.7560
     7.8097   8.6112   8.9650   8.9991   9.0148   9.0811   9.6182  11.7133
    12.6167  12.7027  13.1246  15.6532  17.0999  19.7598

     occupation numbers 
     1.0000   1.0000   1.0000   1.0000   1.0000   1.0000   1.0000   1.0000
     0.0000   0.0000   0.0000   0.0000   0.0000   0.0000   0.0000   0.0000
     0.0000   0.0000   0.0000   0.0000   0.0000   0.0000   0.0000   0.0000
     0.0000   0.0000   0.0000   0.0000   0.0000   0.0000

          k = 0.0667 0.1617 0.0000 ( 11821 PWs)   bands (ev):

   -20.0843 -19.9835  -8.3781  -7.6275  -5.8909  -5.8780  -5.1341  -5.1250
     3.1263   3.5199   4.2078   4.9455   5.2635   6.5916   6.9259   7.7839
     7.8427   8.7065   8.7290   8.8404   9.2305   9.2537   9.7328  11.8217
    12.8097  12.9005  13.2377  15.7560  17.2054  19.6733

     occupation numbers 
     1.0000   1.0000   1.0000   1.0000   1.0000   1.0000   1.0000   1.0000
     0.0000   0.0000   0.0000   0.0000   0.0000   0.0000   0.0000   0.0000
     0.0000   0.0000   0.0000   0.0000   0.0000   0.0000   0.0000   0.0000
     0.0000   0.0000   0.0000   0.0000   0.0000   0.0000

          k = 0.0667 0.1771 0.0000 ( 11827 PWs)   bands (ev):

   -19.9918 -19.8916  -8.2670  -7.5196  -6.1612  -6.1462  -5.2872  -5.2770
     3.2511   3.6461   4.3365   5.0733   5.3865   6.7093   7.0502   7.7998
     7.8634   8.4510   8.5714   8.8474   9.4875   9.5138   9.8588  11.9407
    13.0212  13.1192  13.3621  15.8678  17.3200  19.5414

     occupation numbers 
     1.0000   1.0000   1.0000   1.0000   1.0000   1.0000   1.0000   1.0000
     0.0000   0.0000   0.0000   0.0000   0.0000   0.0000   0.0000   0.0000
     0.0000   0.0000   0.0000   0.0000   0.0000   0.0000   0.0000   0.0000
     0.0000   0.0000   0.0000   0.0000   0.0000   0.0000

          k = 0.0667 0.1925 0.0000 ( 11832 PWs)   bands (ev):

   -19.8911 -19.7916  -8.1461  -7.4022  -6.4468  -6.4296  -5.4426  -5.4312
     3.3872   3.7837   4.4769   5.2128   5.5205   6.8367   7.1846   7.8034
     7.8686   8.1715   8.2995   8.9775   9.7647   9.7959   9.9968  12.0699
    13.2483  13.3569  13.4983  15.9882  17.4426  19.3620

     occupation numbers 
     1.0000   1.0000   1.0000   1.0000   1.0000   1.0000   1.0000   1.0000
     0.0000   0.0000   0.0000   0.0000   0.0000   0.0000   0.0000   0.0000
     0.0000   0.0000   0.0000   0.0000   0.0000   0.0000   0.0000   0.0000
     0.0000   0.0000   0.0000   0.0000   0.0000   0.0000

          k = 0.0667 0.2078 0.0000 ( 11843 PWs)   bands (ev):

   -19.7821 -19.6833  -8.0155  -7.2756  -6.7457  -6.7263  -5.5987  -5.5863
     3.5345   3.9326   4.6289   5.3638   5.6652   6.9725   7.3271   7.7869
     7.8169   7.9286   8.0201   9.1195  10.0555  10.0977  10.1522  12.2094
    13.4867  13.6115  13.6478  16.1165  17.5715  19.1420

     occupation numbers 
     1.0000   1.0000   1.0000   1.0000   1.0000   1.0000   1.0000   1.0000
     0.0000   0.0000   0.0000   0.0000   0.0000   0.0000   0.0000   0.0000
     0.0000   0.0000   0.0000   0.0000   0.0000   0.0000   0.0000   0.0000
     0.0000   0.0000   0.0000   0.0000   0.0000   0.0000

          k = 0.0667 0.2232 0.0000 ( 11858 PWs)   bands (ev):

   -19.6648 -19.5668  -7.8754  -7.1401  -7.0561  -7.0342  -5.7543  -5.7409
     3.6931   4.0927   4.7927   5.5262   5.8205   7.1122   7.4594   7.5481
     7.6912   7.8195   7.8852   9.2726  10.2875  10.3926  10.4201  12.3589
    13.7261  13.8178  13.8804  16.2518  17.7023  18.8959

     occupation numbers 
     1.0000   1.0000   1.0000   1.0000   1.0000   1.0000   1.0000   1.0000
     0.0000   0.0000   0.0000   0.0000   0.0000   0.0000   0.0000   0.0000
     0.0000   0.0000   0.0000   0.0000   0.0000   0.0000   0.0000   0.0000
     0.0000   0.0000   0.0000   0.0000   0.0000   0.0000

          k = 0.0667 0.2386 0.0000 ( 11874 PWs)   bands (ev):

   -19.5394 -19.4422  -7.7258  -7.3765  -7.3528  -6.9947  -5.9082  -5.8939
     3.8628   4.2640   4.9681   5.6999   5.9857   7.1920   7.2313   7.4430
     7.6119   7.8164   7.8666   9.4362  10.4634  10.7169  10.7567  12.5183
    13.9367  14.0348  14.1609  16.3928  17.8224  18.6483

     occupation numbers 
     1.0000   1.0000   1.0000   1.0000   1.0000   1.0000   1.0000   1.0000
     0.0000   0.0000   0.0000   0.0000   0.0000   0.0000   0.0000   0.0000
     0.0000   0.0000   0.0000   0.0000   0.0000   0.0000   0.0000   0.0000
     0.0000   0.0000   0.0000   0.0000   0.0000   0.0000

          k = 0.0667 0.2540 0.0000 ( 11876 PWs)   bands (ev):

   -19.4059 -19.3096  -7.7050  -7.6791  -7.5669  -6.8410  -6.0596  -6.0445
     4.0438   4.4461   5.1551   5.8845   6.1594   6.8707   7.0301   7.4745
     7.6584   7.8419   7.9216   9.6104  10.6454  11.0578  11.1076  12.6873
    14.1249  14.2886  14.4501  16.5378  17.8853  18.4559

     occupation numbers 
     1.0000   1.0000   1.0000   1.0000   1.0000   1.0000   1.0000   1.0000
     0.0000   0.0000   0.0000   0.0000   0.0000   0.0000   0.0000   0.0000
     0.0000   0.0000   0.0000   0.0000   0.0000   0.0000   0.0000   0.0000
     0.0000   0.0000   0.0000   0.0000   0.0000   0.0000

          k = 0.0667 0.2694 0.0000 ( 11880 PWs)   bands (ev):

   -19.2642 -19.1688  -8.0401  -8.0120  -7.3989  -6.6787  -6.2075  -6.1917
     4.2358   4.6387   5.3537   6.0773   6.3317   6.5317   6.7259   7.6003
     7.6456   7.8482   8.0899   9.7950  10.8375  11.4085  11.4702  12.8655
    14.3159  14.5499  14.7448  16.6840  17.7907  18.4275

     occupation numbers 
     1.0000   1.0000   1.0000   1.0000   1.0000   1.0000   1.0000   1.0000
     0.0000   0.0000   0.0000   0.0000   0.0000   0.0000   0.0000   0.0000
     0.0000   0.0000   0.0000   0.0000   0.0000   0.0000   0.0000   0.0000
     0.0000   0.0000   0.0000   0.0000   0.0000   0.0000

          k = 0.0667 0.2848 0.0000 ( 11878 PWs)   bands (ev):

   -19.1145 -19.0201  -8.3805  -8.3502  -7.2221  -6.5079  -6.3513  -6.3350
     4.4389   4.8406   5.5638   6.1447   6.3015   6.3447   6.5949   7.5991
     7.6755   7.9351   8.2869   9.9898  11.0400  11.7648  11.8418  13.0526
    14.5148  14.8085  15.0410  16.8271  17.5695  18.5385

     occupation numbers 
     1.0000   1.0000   1.0000   1.0000   1.0000   1.0000   1.0000   1.0000
     0.0000   0.0000   0.0000   0.0000   0.0000   0.0000   0.0000   0.0000
     0.0000   0.0000   0.0000   0.0000   0.0000   0.0000   0.0000   0.0000
     0.0000   0.0000   0.0000   0.0000   0.0000   0.0000

          k = 0.0667 0.3002 0.0000 ( 11891 PWs)   bands (ev):

   -18.9568 -18.8635  -8.7248  -8.6924  -7.0365  -6.4905  -6.4736  -6.3291
     4.6529   5.0474   5.7840   5.8103   6.0134   6.5201   6.7736   7.5571
     7.6680   8.1049   8.4999  10.1947  11.2532  12.1222  12.2199  13.2480
    14.7224  15.0581  15.3333  16.9578  17.3196  18.6996

     occupation numbers 
     1.0000   1.0000   1.0000   1.0000   1.0000   1.0000   1.0000   1.0000
     0.0000   0.0000   0.0000   0.0000   0.0000   0.0000   0.0000   0.0000
     0.0000   0.0000   0.0000   0.0000   0.0000   0.0000   0.0000   0.0000
     0.0000   0.0000   0.0000   0.0000   0.0000   0.0000

          k = 0.0667 0.3156 0.0000 ( 11899 PWs)   bands (ev):

   -18.7912 -18.6990  -9.0719  -9.0375  -6.8425  -6.6244  -6.6070  -6.1425
     4.8772   5.2158   5.4991   5.6716   6.0213   6.7483   6.9801   7.5119
     7.6430   8.3064   8.7261  10.4095  11.4769  12.4748  12.6012  13.4512
    14.9379  15.2920  15.6130  16.9991  17.1469  18.8775

     occupation numbers 
     1.0000   1.0000   1.0000   1.0000   1.0000   1.0000   1.0000   1.0000
     0.0000   0.0000   0.0000   0.0000   0.0000   0.0000   0.0000   0.0000
     0.0000   0.0000   0.0000   0.0000   0.0000   0.0000   0.0000   0.0000
     0.0000   0.0000   0.0000   0.0000   0.0000   0.0000

          k = 0.0667 0.3310 0.0000 ( 11899 PWs)   bands (ev):

   -18.6178 -18.5267  -9.4208  -9.3842  -6.7526  -6.7348  -6.6404  -5.9485
     5.0122   5.1205   5.3032   5.5818   6.2653   6.9876   7.1852   7.4688
     7.6243   8.5242   8.9644  10.6339  11.7108  12.8150  12.9822  13.6612
    15.1592  15.5029  15.8632  16.8042  17.2097  18.8772

     occupation numbers 
     1.0000   1.0000   1.0000   1.0000   1.0000   1.0000   1.0000   1.0000
     0.0000   0.0000   0.0000   0.0000   0.0000   0.0000   0.0000   0.0000
     0.0000   0.0000   0.0000   0.0000   0.0000   0.0000   0.0000   0.0000
     0.0000   0.0000   0.0000   0.0000   0.0000   0.0000

          k = 0.0667 0.3464 0.0000 ( 11910 PWs)   bands (ev):

   -18.4367 -18.3467  -9.7704  -9.7318  -6.8747  -6.8565  -6.4306  -5.7477
     4.6616   4.9535   5.3629   5.8087   6.5212   7.2270   7.3423   7.4453
     7.6550   8.7545   9.2143  10.8676  11.9548  13.1318  13.3577  13.8769
    15.3791  15.6843  16.0468  16.6266  17.2816  18.7167

     occupation numbers 
     1.0000   1.0000   1.0000   1.0000   1.0000   1.0000   1.0000   1.0000
     0.0000   0.0000   0.0000   0.0000   0.0000   0.0000   0.0000   0.0000
     0.0000   0.0000   0.0000   0.0000   0.0000   0.0000   0.0000   0.0000
     0.0000   0.0000   0.0000   0.0000   0.0000   0.0000

          k = 0.0667 0.3618 0.0000 ( 11912 PWs)   bands (ev):

   -18.2479 -18.1592 -10.1198 -10.0792  -6.9903  -6.9717  -6.2136  -5.5406
     4.2932   4.5987   5.6195   6.0633   6.7877   7.3240   7.4185   7.5449
     7.8096   8.9956   9.4755  11.1104  12.2084  13.4099  13.7203  14.0971
    15.5688  15.8372  16.1126  16.5364  17.3525  18.5625

     occupation numbers 
     1.0000   1.0000   1.0000   1.0000   1.0000   1.0000   1.0000   1.0000
     0.0000   0.0000   0.0000   0.0000   0.0000   0.0000   0.0000   0.0000
     0.0000   0.0000   0.0000   0.0000   0.0000   0.0000   0.0000   0.0000
     0.0000   0.0000   0.0000   0.0000   0.0000   0.0000

          k = 0.0667 0.3772 0.0000 ( 11922 PWs)   bands (ev):

   -18.0515 -17.9641 -10.4683 -10.4257  -7.0991  -7.0802  -5.9899  -5.3279
     3.9227   4.2430   5.8867   6.3316   7.0615   7.2947   7.4106   7.8058
     8.0423   9.2469   9.7478  11.3616  12.4708  13.6283  14.0552  14.3209
    15.6314  15.9959  16.1422  16.4795  17.4613  18.3051

     occupation numbers 
     1.0000   1.0000   1.0000   1.0000   1.0000   1.0000   1.0000   1.0000
     0.0000   0.0000   0.0000   0.0000   0.0000   0.0000   0.0000   0.0000
     0.0000   0.0000   0.0000   0.0000   0.0000   0.0000   0.0000   0.0000
     0.0000   0.0000   0.0000   0.0000   0.0000   0.0000

          k = 0.0667 0.3926 0.0000 ( 11922 PWs)   bands (ev):

   -17.8478 -17.7618 -10.8150 -10.7705  -7.2008  -7.1817  -5.7603  -5.1107
     3.5540   3.8886   6.1635   6.6103   7.2437   7.3186   7.4273   8.0915
     8.3027   9.5077  10.0310  11.6208  12.7407  13.7638  14.3293  14.5522
    15.5356  16.1444  16.2861  16.3770  17.6119  17.8339

     occupation numbers 
     1.0000   1.0000   1.0000   1.0000   1.0000   1.0000   1.0000   1.0000
     0.0000   0.0000   0.0000   0.0000   0.0000   0.0000   0.0000   0.0000
     0.0000   0.0000   0.0000   0.0000   0.0000   0.0000   0.0000   0.0000
     0.0000   0.0000   0.0000   0.0000   0.0000   0.0000

          k = 0.0667 0.4080 0.0000 ( 11918 PWs)   bands (ev):

   -17.6369 -17.5523 -11.1592 -11.1128  -7.2952  -7.2758  -5.5256  -4.8900
     3.1896   3.5374   6.4483   6.8925   7.2194   7.3306   7.6806   8.3908
     8.5782   9.7777  10.3249  11.8870  13.0149  13.7998  14.4883  14.7836
    15.3942  16.2283  16.2675  16.5442  17.3155  17.6117

     occupation numbers 
     1.0000   1.0000   1.0000   1.0000   1.0000   1.0000   1.0000   1.0000
     0.0000   0.0000   0.0000   0.0000   0.0000   0.0000   0.0000   0.0000
     0.0000   0.0000   0.0000   0.0000   0.0000   0.0000   0.0000   0.0000
     0.0000   0.0000   0.0000   0.0000   0.0000   0.0000

          k = 0.0667 0.4234 0.0000 ( 11938 PWs)   bands (ev):

   -17.4190 -17.3359 -11.5002 -11.4520  -7.3820  -7.3624  -5.2869  -4.6673
     2.8320   3.1913   6.7356   7.1035   7.2679   7.3172   7.9900   8.7021
     8.8651  10.0564  10.6290  12.1589  13.2827  13.7406  14.4903  14.9243
    15.3254  16.1439  16.3690  16.7744  16.8665  17.2107

     occupation numbers 
     1.0000   1.0000   1.0000   1.0000   1.0000   1.0000   1.0000   1.0000
     0.0000   0.0000   0.0000   0.0000   0.0000   0.0000   0.0000   0.0000
     0.0000   0.0000   0.0000   0.0000   0.0000   0.0000   0.0000   0.0000
     0.0000   0.0000   0.0000   0.0000   0.0000   0.0000

          k = 0.0667 0.4388 0.0000 ( 11934 PWs)   bands (ev):

   -17.1944 -17.1128 -11.8373 -11.7874  -7.4610  -7.4413  -5.0456  -4.4446
     2.4838   2.8522   6.9913   7.1245   7.3108   7.5531   8.3142   9.0250
     9.1616  10.3432  10.9430  12.4340  13.4471  13.6851  14.3403  14.8392
    15.4482  16.1083  16.1841  16.5696  16.8568  17.0917

     occupation numbers 
     1.0000   1.0000   1.0000   1.0000   1.0000   1.0000   1.0000   1.0000
     0.0000   0.0000   0.0000   0.0000   0.0000   0.0000   0.0000   0.0000
     0.0000   0.0000   0.0000   0.0000   0.0000   0.0000   0.0000   0.0000
     0.0000   0.0000   0.0000   0.0000   0.0000   0.0000

          k = 0.0667 0.4542 0.0000 ( 11932 PWs)   bands (ev):

   -16.9635 -16.8835 -12.1698 -12.1181  -7.5322  -7.5123  -4.8036  -4.2243
     2.1481   2.5227   7.0538   7.1669   7.4685   7.8710   8.6507   9.3591
     9.4663  10.6376  11.2662  12.7060  13.2786  13.8273  14.1284  14.6573
    15.6254  15.7096  15.9803  16.4158  16.7056  17.1975

     occupation numbers 
     1.0000   1.0000   1.0000   1.0000   1.0000   1.0000   1.0000   1.0000
     0.0000   0.0000   0.0000   0.0000   0.0000   0.0000   0.0000   0.0000
     0.0000   0.0000   0.0000   0.0000   0.0000   0.0000   0.0000   0.0000
     0.0000   0.0000   0.0000   0.0000   0.0000   0.0000

          k = 0.0667 0.4696 0.0000 ( 11932 PWs)   bands (ev):

   -16.7268 -16.6486 -12.4966 -12.4434  -7.5953  -7.5752  -4.5632  -4.0097
     1.8289   2.2056   7.0331   7.1643   7.7656   8.2041   8.9986   9.7043
     9.7780  10.9385  11.5971  12.9196  13.0357  13.6995  14.0777  14.5682
    15.1983  15.5649  15.9046  16.1461  16.6587  17.2266

     occupation numbers 
     1.0000   1.0000   1.0000   1.0000   1.0000   1.0000   1.0000   1.0000
     0.0000   0.0000   0.0000   0.0000   0.0000   0.0000   0.0000   0.0000
     0.0000   0.0000   0.0000   0.0000   0.0000   0.0000   0.0000   0.0000
     0.0000   0.0000   0.0000   0.0000   0.0000   0.0000

          k = 0.0667 0.4850 0.0000 ( 11926 PWs)   bands (ev):

   -16.4852 -16.4090 -12.8166 -12.7622  -7.6502  -7.6300  -4.3279  -3.8051
     1.5308   1.9047   7.0086   7.1469   8.0963   8.5484   9.3576  10.0603
    10.0953  11.2444  11.9321  12.6465  13.1184  13.4695  13.9618  14.6271
    14.8137  15.1477  15.7792  16.0914  16.5570  17.1297

     occupation numbers 
     1.0000   1.0000   1.0000   1.0000   1.0000   1.0000   1.0000   1.0000
     0.0000   0.0000   0.0000   0.0000   0.0000   0.0000   0.0000   0.0000
     0.0000   0.0000   0.0000   0.0000   0.0000   0.0000   0.0000   0.0000
     0.0000   0.0000   0.0000   0.0000   0.0000   0.0000

          k = 0.0667 0.5004 0.0000 ( 11920 PWs)   bands (ev):

   -16.2401 -16.1660 -13.1282 -13.0727  -7.6968  -7.6766  -4.1019  -3.6162
     1.2599   1.6249   6.9863   7.1285   8.4421   8.9027   9.7273  10.4157
    10.4267  11.5509  12.2135  12.3398  12.8925  13.4414  13.8786  14.2183
    14.7054  14.9965  15.4371  16.1325  16.4531  16.9434

     occupation numbers 
     1.0000   1.0000   1.0000   1.0000   1.0000   1.0000   1.0000   1.0000
     0.0000   0.0000   0.0000   0.0000   0.0000   0.0000   0.0000   0.0000
     0.0000   0.0000   0.0000   0.0000   0.0000   0.0000   0.0000   0.0000
     0.0000   0.0000   0.0000   0.0000   0.0000   0.0000

          k = 0.0667 0.5158 0.0000 ( 11914 PWs)   bands (ev):

   -15.9937 -15.9225 -13.4283 -13.3726  -7.7351  -7.7147  -3.8914  -3.4499
     1.0235   1.3724   6.9673   7.1122   8.7990   9.2661  10.1068  10.7362
    10.8027  11.8309  11.9047  12.4890  12.6639  13.2851  13.7350  14.0199
    14.3188  14.9118  15.4379  15.8648  16.5626  16.7062

     occupation numbers 
     1.0000   1.0000   1.0000   1.0000   1.0000   1.0000   1.0000   1.0000
     0.0000   0.0000   0.0000   0.0000   0.0000   0.0000   0.0000   0.0000
     0.0000   0.0000   0.0000   0.0000   0.0000   0.0000   0.0000   0.0000
     0.0000   0.0000   0.0000   0.0000   0.0000   0.0000

          k = 0.0667 0.5312 0.0000 ( 11911 PWs)   bands (ev):

   -15.7511 -15.6838 -13.7115 -13.6568  -7.7650  -7.7445  -3.7046  -3.3140
     0.8297   1.1557   6.9523   7.0989   9.1652   9.6373  10.4946  11.0473
    11.1846  11.5049  11.9683  12.3294  12.8026  13.1260  13.3919  13.7513
    14.3492  14.5997  15.5076  15.7158  16.3948  16.7807

     occupation numbers 
     1.0000   1.0000   1.0000   1.0000   1.0000   1.0000   1.0000   1.0000
     0.0000   0.0000   0.0000   0.0000   0.0000   0.0000   0.0000   0.0000
     0.0000   0.0000   0.0000   0.0000   0.0000   0.0000   0.0000   0.0000
     0.0000   0.0000   0.0000   0.0000   0.0000   0.0000

          k = 0.0667 0.5466 0.0000 ( 11917 PWs)   bands (ev):

   -15.5229 -15.4621 -13.9653 -13.9145  -7.7863  -7.7658  -3.5527  -3.2158
     0.6867   0.9856   6.9414   7.0892   9.5394  10.0144  10.8845  11.1053
    11.2982  11.5748  11.7429  12.4155  12.6727  12.9202  13.3376  13.4997
    14.1708  14.6527  15.1826  15.8628  16.2656  16.9400

     occupation numbers 
     1.0000   1.0000   1.0000   1.0000   1.0000   1.0000   1.0000   1.0000
     0.0000   0.0000   0.0000   0.0000   0.0000   0.0000   0.0000   0.0000
     0.0000   0.0000   0.0000   0.0000   0.0000   0.0000   0.0000   0.0000
     0.0000   0.0000   0.0000   0.0000   0.0000   0.0000

          k = 0.0667 0.5620 0.0000 ( 11918 PWs)   bands (ev):

   -15.3363 -15.2873 -14.1593 -14.1190  -7.7991  -7.7786  -3.4504  -3.1586
     0.5999   0.8750   6.9348   7.0833   9.9196  10.3888  10.7196  11.1130
    11.3408  11.7616  11.9659  12.1674  12.5160  12.8181  13.0973  13.6556
    14.0093  14.6082  15.1266  15.6695  16.4807  16.9850

     occupation numbers 
     1.0000   1.0000   1.0000   1.0000   1.0000   1.0000   1.0000   1.0000
     0.0000   0.0000   0.0000   0.0000   0.0000   0.0000   0.0000   0.0000
     0.0000   0.0000   0.0000   0.0000   0.0000   0.0000   0.0000   0.0000
     0.0000   0.0000   0.0000   0.0000   0.0000   0.0000

          k = 0.0667 0.5774 0.0000 ( 11913 PWs)   bands (ev):

   -15.2550 -15.2170 -14.2354 -14.2067  -7.8034  -7.7829  -3.4136  -3.1405
     0.5710   0.8364   6.9326   7.0814  10.2609  10.3519  10.7493  10.8267
    11.6530  11.7407  11.9881  12.2201  12.4829  12.4917  13.2571  13.4945
    14.2518  14.3237  15.3070  15.4556  16.7429  16.7931

     occupation numbers 
     1.0000   1.0000   1.0000   1.0000   1.0000   1.0000   1.0000   1.0000
     0.0000   0.0000   0.0000   0.0000   0.0000   0.0000   0.0000   0.0000
     0.0000   0.0000   0.0000   0.0000   0.0000   0.0000   0.0000   0.0000
     0.0000   0.0000   0.0000   0.0000   0.0000   0.0000

          k = 0.0800 0.1386 0.0000 ( 11807 PWs)   bands (ev):

   -20.1726 -20.0712  -8.4844  -7.7308  -5.6165  -5.6065  -4.9861  -4.9788
     3.0072   3.3994   4.0849   4.8234   5.1460   6.4789   6.8068   7.7800
     7.8325   8.6061   8.9494   8.9732   8.9872   9.0925   9.6125  11.7078
    12.6136  12.6980  13.1188  15.6479  17.0945  19.7592

     occupation numbers 
     1.0000   1.0000   1.0000   1.0000   1.0000   1.0000   1.0000   1.0000
     0.0000   0.0000   0.0000   0.0000   0.0000   0.0000   0.0000   0.0000
     0.0000   0.0000   0.0000   0.0000   0.0000   0.0000   0.0000   0.0000
     0.0000   0.0000   0.0000   0.0000   0.0000   0.0000

          k = 0.0800 0.1540 0.0000 ( 11817 PWs)   bands (ev):

   -20.0927 -19.9918  -8.3882  -7.6373  -5.8485  -5.8376  -5.1384  -5.1306
     3.1150   3.5085   4.1961   4.9339   5.2524   6.5813   6.9150   7.8362
     7.8927   8.7078   8.7483   8.8602   9.1428   9.1652   9.7213  11.8106
    12.8062  12.8931  13.2260  15.7454  17.1948  19.6720

     occupation numbers 
     1.0000   1.0000   1.0000   1.0000   1.0000   1.0000   1.0000   1.0000
     0.0000   0.0000   0.0000   0.0000   0.0000   0.0000   0.0000   0.0000
     0.0000   0.0000   0.0000   0.0000   0.0000   0.0000   0.0000   0.0000
     0.0000   0.0000   0.0000   0.0000   0.0000   0.0000

          k = 0.0800 0.1694 0.0000 ( 11821 PWs)   bands (ev):

   -20.0044 -19.9041  -8.2821  -7.5343  -6.0984  -6.0860  -5.2966  -5.2879
     3.2342   3.6290   4.3189   5.0560   5.3700   6.6942   7.0343   7.8810
     7.9415   8.4919   8.6101   8.8275   9.3521   9.3773   9.8413  11.9240
    13.0201  13.1112  13.3444  15.8518  17.3042  19.5384

     occupation numbers 
     1.0000   1.0000   1.0000   1.0000   1.0000   1.0000   1.0000   1.0000
     0.0000   0.0000   0.0000   0.0000   0.0000   0.0000   0.0000   0.0000
     0.0000   0.0000   0.0000   0.0000   0.0000   0.0000   0.0000   0.0000
     0.0000   0.0000   0.0000   0.0000   0.0000   0.0000

          k = 0.0800 0.1848 0.0000 ( 11840 PWs)   bands (ev):

   -19.9079 -19.8082  -8.1662  -7.4217  -6.3648  -6.3505  -5.4580  -5.4481
     3.3646   3.7609   4.4535   5.1896   5.4985   6.8172   7.1643   7.9108
     7.9712   8.2271   8.3479   8.9530   9.5835   9.6129   9.9728  12.0476
    13.2526  13.3503  13.4744  15.9669  17.4218  19.3556

     occupation numbers 
     1.0000   1.0000   1.0000   1.0000   1.0000   1.0000   1.0000   1.0000
     0.0000   0.0000   0.0000   0.0000   0.0000   0.0000   0.0000   0.0000
     0.0000   0.0000   0.0000   0.0000   0.0000   0.0000   0.0000   0.0000
     0.0000   0.0000   0.0000   0.0000   0.0000   0.0000

          k = 0.0800 0.2001 0.0000 ( 11847 PWs)   bands (ev):

   -19.8030 -19.7041  -8.0405  -7.2998  -6.6464  -6.6298  -5.6207  -5.6095
     3.5063   3.9041   4.5997   5.3349   5.6380   6.9496   7.3043   7.8903
     7.9212   8.0379   8.0827   9.0897   9.8367   9.8721  10.1161  12.1815
    13.4990  13.6069  13.6190  16.0897  17.5458  19.1298

     occupation numbers 
     1.0000   1.0000   1.0000   1.0000   1.0000   1.0000   1.0000   1.0000
     0.0000   0.0000   0.0000   0.0000   0.0000   0.0000   0.0000   0.0000
     0.0000   0.0000   0.0000   0.0000   0.0000   0.0000   0.0000   0.0000
     0.0000   0.0000   0.0000   0.0000   0.0000   0.0000

          k = 0.0800 0.2155 0.0000 ( 11855 PWs)   bands (ev):

   -19.6900 -19.5918  -7.9053  -7.1688  -6.9414  -6.9224  -5.7829  -5.7705
     3.6593   4.0586   4.7577   5.4916   5.7882   7.0894   7.4497   7.6157
     7.7604   7.9558   8.0291   9.2372  10.1087  10.1535  10.2732  12.3253
    13.7362  13.7933  13.8829  16.2195  17.6722  18.8758

     occupation numbers 
     1.0000   1.0000   1.0000   1.0000   1.0000   1.0000   1.0000   1.0000
     0.0000   0.0000   0.0000   0.0000   0.0000   0.0000   0.0000   0.0000
     0.0000   0.0000   0.0000   0.0000   0.0000   0.0000   0.0000   0.0000
     0.0000   0.0000   0.0000   0.0000   0.0000   0.0000

          k = 0.0800 0.2309 0.0000 ( 11870 PWs)   bands (ev):

   -19.5687 -19.4713  -7.7606  -7.2480  -7.2270  -7.0281  -5.9433  -5.9298
     3.8234   4.2243   4.9272   5.6598   5.9488   7.2200   7.2975   7.4851
     7.6129   7.9477   8.0242   9.3952  10.3814  10.4488  10.4663  12.4790
    13.9151  14.0479  14.1703  16.3550  17.7885  18.6183

     occupation numbers 
     1.0000   1.0000   1.0000   1.0000   1.0000   1.0000   1.0000   1.0000
     0.0000   0.0000   0.0000   0.0000   0.0000   0.0000   0.0000   0.0000
     0.0000   0.0000   0.0000   0.0000   0.0000   0.0000   0.0000   0.0000
     0.0000   0.0000   0.0000   0.0000   0.0000   0.0000

          k = 0.0800 0.2463 0.0000 ( 11886 PWs)   bands (ev):

   -19.4392 -19.3427  -7.6067  -7.5645  -7.5412  -6.8791  -6.1010  -6.0864
     3.9988   4.4011   5.1085   5.8391   6.1189   6.9708   7.1168   7.4424
     7.7494   7.9603   8.0152   9.5636  10.5906  10.7344  10.7781  12.6422
    14.0895  14.3233  14.4680  16.4943  17.8483  18.4147

     occupation numbers 
     1.0000   1.0000   1.0000   1.0000   1.0000   1.0000   1.0000   1.0000
     0.0000   0.0000   0.0000   0.0000   0.0000   0.0000   0.0000   0.0000
     0.0000   0.0000   0.0000   0.0000   0.0000   0.0000   0.0000   0.0000
     0.0000   0.0000   0.0000   0.0000   0.0000   0.0000

          k = 0.0800 0.2617 0.0000 ( 11886 PWs)   bands (ev):

   -19.3017 -19.2061  -7.8897  -7.8638  -7.4431  -6.7212  -6.2550  -6.2395
     4.1853   4.5886   5.3013   6.0284   6.2946   6.6373   6.8153   7.5932
     7.8084   7.9934   8.0672   9.7425  10.7817  11.0542  11.1135  12.8145
    14.2723  14.6022  14.7724  16.6347  17.7471  18.3783

     occupation numbers 
     1.0000   1.0000   1.0000   1.0000   1.0000   1.0000   1.0000   1.0000
     0.0000   0.0000   0.0000   0.0000   0.0000   0.0000   0.0000   0.0000
     0.0000   0.0000   0.0000   0.0000   0.0000   0.0000   0.0000   0.0000
     0.0000   0.0000   0.0000   0.0000   0.0000   0.0000

          k = 0.0800 0.2771 0.0000 ( 11890 PWs)   bands (ev):

   -19.1561 -19.0615  -8.2214  -8.1932  -7.2708  -6.5548  -6.4047  -6.3883
     4.3829   4.7862   5.5057   6.2028   6.3176   6.4064   6.5728   7.7409
     7.8008   7.9980   8.2387   9.9315  10.9800  11.3869  11.4620  12.9957
    14.4645  14.8787  15.0796  16.7721  17.5155  18.4856

     occupation numbers 
     1.0000   1.0000   1.0000   1.0000   1.0000   1.0000   1.0000   1.0000
     0.0000   0.0000   0.0000   0.0000   0.0000   0.0000   0.0000   0.0000
     0.0000   0.0000   0.0000   0.0000   0.0000   0.0000   0.0000   0.0000
     0.0000   0.0000   0.0000   0.0000   0.0000   0.0000

          k = 0.0800 0.2925 0.0000 ( 11900 PWs)   bands (ev):

   -19.0025 -18.9089  -8.5585  -8.5281  -7.0897  -6.5494  -6.5324  -6.3801
     4.5915   4.9916   5.7213   5.9327   6.1253   6.4569   6.7170   7.7579
     7.8340   8.0768   8.4406  10.1305  11.1880  11.7263  11.8204  13.1851
    14.6660  15.1467  15.3839  16.8985  17.2546  18.6440

     occupation numbers 
     1.0000   1.0000   1.0000   1.0000   1.0000   1.0000   1.0000   1.0000
     0.0000   0.0000   0.0000   0.0000   0.0000   0.0000   0.0000   0.0000
     0.0000   0.0000   0.0000   0.0000   0.0000   0.0000   0.0000   0.0000
     0.0000   0.0000   0.0000   0.0000   0.0000   0.0000

          k = 0.0800 0.3079 0.0000 ( 11901 PWs)   bands (ev):

   -18.8409 -18.7484  -8.8996  -8.8670  -6.9000  -6.6887  -6.6710  -6.1975
     4.8108   5.1900   5.5974   5.7869   5.9527   6.6794   6.9223   7.7188
     7.8327   8.2476   8.6589  10.3393  11.4063  12.0669  12.1857  13.3821
    14.8757  15.3987  15.6760  16.9452  17.0644  18.8214

     occupation numbers 
     1.0000   1.0000   1.0000   1.0000   1.0000   1.0000   1.0000   1.0000
     0.0000   0.0000   0.0000   0.0000   0.0000   0.0000   0.0000   0.0000
     0.0000   0.0000   0.0000   0.0000   0.0000   0.0000   0.0000   0.0000
     0.0000   0.0000   0.0000   0.0000   0.0000   0.0000

          k = 0.0800 0.3233 0.0000 ( 11901 PWs)   bands (ev):

   -18.6715 -18.5801  -9.2436  -9.2088  -6.8221  -6.8039  -6.7021  -6.0074
     5.0369   5.1542   5.4211   5.5293   6.1899   6.9149   7.1370   7.6756
     7.8101   8.4531   8.8904  10.5577  11.6346  12.4027  12.5547  13.5856
    15.0915  15.6243  15.9354  16.7485  17.1277  18.8976

     occupation numbers 
     1.0000   1.0000   1.0000   1.0000   1.0000   1.0000   1.0000   1.0000
     0.0000   0.0000   0.0000   0.0000   0.0000   0.0000   0.0000   0.0000
     0.0000   0.0000   0.0000   0.0000   0.0000   0.0000   0.0000   0.0000
     0.0000   0.0000   0.0000   0.0000   0.0000   0.0000

          k = 0.0800 0.3387 0.0000 ( 11907 PWs)   bands (ev):

   -18.4944 -18.4041  -9.5893  -9.5524  -6.9493  -6.9305  -6.4962  -5.8101
     4.8091   5.0860   5.2859   5.7288   6.4404   7.1603   7.3486   7.6345
     7.7925   8.6751   9.1340  10.7854  11.8729  12.7257  12.9231  13.7946
    15.3066  15.8052  16.1096  16.6082  17.1988  18.7749

     occupation numbers 
     1.0000   1.0000   1.0000   1.0000   1.0000   1.0000   1.0000   1.0000
     0.0000   0.0000   0.0000   0.0000   0.0000   0.0000   0.0000   0.0000
     0.0000   0.0000   0.0000   0.0000   0.0000   0.0000   0.0000   0.0000
     0.0000   0.0000   0.0000   0.0000   0.0000   0.0000

          k = 0.0800 0.3541 0.0000 ( 11908 PWs)   bands (ev):

   -18.3095 -18.2204  -9.9357  -9.8967  -7.0698  -7.0506  -6.2829  -5.6062
     4.4464   4.7357   5.5369   5.9767   6.7021   7.4044   7.5118   7.6143
     7.8232   8.9093   9.3891  11.0220  12.1206  13.0251  13.2855  14.0073
    15.4942  15.9067  16.1640  16.5979  17.2780  18.6733

     occupation numbers 
     1.0000   1.0000   1.0000   1.0000   1.0000   1.0000   1.0000   1.0000
     0.0000   0.0000   0.0000   0.0000   0.0000   0.0000   0.0000   0.0000
     0.0000   0.0000   0.0000   0.0000   0.0000   0.0000   0.0000   0.0000
     0.0000   0.0000   0.0000   0.0000   0.0000   0.0000

          k = 0.0800 0.3695 0.0000 ( 11918 PWs)   bands (ev):

   -18.1170 -18.0292 -10.2819 -10.2409  -7.1834  -7.1638  -6.0627  -5.3963
     4.0793   4.3834   5.7992   6.2398   6.9744   7.4946   7.5927   7.7269
     7.9802   9.1540   9.6553  11.2671  12.3770  13.2861  13.6336  14.2216
    15.5505  15.9892  16.2200  16.5862  17.4085  18.5238

     occupation numbers 
     1.0000   1.0000   1.0000   1.0000   1.0000   1.0000   1.0000   1.0000
     0.0000   0.0000   0.0000   0.0000   0.0000   0.0000   0.0000   0.0000
     0.0000   0.0000   0.0000   0.0000   0.0000   0.0000   0.0000   0.0000
     0.0000   0.0000   0.0000   0.0000   0.0000   0.0000

          k = 0.0800 0.3849 0.0000 ( 11916 PWs)   bands (ev):

   -17.9171 -17.8307 -10.6271 -10.5841  -7.2899  -7.2699  -5.8360  -5.1814
     3.7126   4.0315   6.0718   6.5146   7.2532   7.4660   7.5861   7.9951
     8.2170   9.4084   9.9326  11.5199  12.6407  13.4896  13.9516  14.4352
    15.4387  16.1714  16.2914  16.4886  17.5821  18.1202

     occupation numbers 
     1.0000   1.0000   1.0000   1.0000   1.0000   1.0000   1.0000   1.0000
     0.0000   0.0000   0.0000   0.0000   0.0000   0.0000   0.0000   0.0000
     0.0000   0.0000   0.0000   0.0000   0.0000   0.0000   0.0000   0.0000
     0.0000   0.0000   0.0000   0.0000   0.0000   0.0000

          k = 0.0800 0.4003 0.0000 ( 11918 PWs)   bands (ev):

   -17.7100 -17.6249 -10.9705 -10.9255  -7.3890  -7.3687  -5.6039  -4.9623
     3.3488   3.6817   6.3539   6.7987   7.4180   7.5037   7.6149   8.2867
     8.4813   9.6720  10.2204  11.7797  12.9086  13.6152  14.2068  14.6458
    15.2820  16.2935  16.3310  16.4676  17.5903  17.7365

     occupation numbers 
     1.0000   1.0000   1.0000   1.0000   1.0000   1.0000   1.0000   1.0000
     0.0000   0.0000   0.0000   0.0000   0.0000   0.0000   0.0000   0.0000
     0.0000   0.0000   0.0000   0.0000   0.0000   0.0000   0.0000   0.0000
     0.0000   0.0000   0.0000   0.0000   0.0000   0.0000

          k = 0.0800 0.4157 0.0000 ( 11930 PWs)   bands (ev):

   -17.4957 -17.4120 -11.3113 -11.2644  -7.4804  -7.4599  -5.3671  -4.7404
     2.9903   3.3358   6.6438   7.0852   7.3946   7.5093   7.8835   8.5915
     8.7601   9.9442  10.5186  12.0452  13.1714  13.6523  14.3426  14.8263
    15.1656  16.1786  16.3439  16.7168  17.1247  17.4082

     occupation numbers 
     1.0000   1.0000   1.0000   1.0000   1.0000   1.0000   1.0000   1.0000
     0.0000   0.0000   0.0000   0.0000   0.0000   0.0000   0.0000   0.0000
     0.0000   0.0000   0.0000   0.0000   0.0000   0.0000   0.0000   0.0000
     0.0000   0.0000   0.0000   0.0000   0.0000   0.0000

          k = 0.0800 0.4311 0.0000 ( 11934 PWs)   bands (ev):

   -17.2746 -17.1925 -11.6488 -11.6001  -7.5641  -7.5433  -5.1269  -4.5174
     2.6395   2.9956   6.9357   7.2868   7.4564   7.5001   8.1990   8.9082
     9.0496  10.2245  10.8266  12.3143  13.3768  13.6418  14.3183  14.8202
    15.2507  16.0812  16.2996  16.6743  16.9618  17.0804

     occupation numbers 
     1.0000   1.0000   1.0000   1.0000   1.0000   1.0000   1.0000   1.0000
     0.0000   0.0000   0.0000   0.0000   0.0000   0.0000   0.0000   0.0000
     0.0000   0.0000   0.0000   0.0000   0.0000   0.0000   0.0000   0.0000
     0.0000   0.0000   0.0000   0.0000   0.0000   0.0000

          k = 0.0800 0.4465 0.0000 ( 11942 PWs)   bands (ev):

   -17.0471 -16.9665 -11.9822 -11.9317  -7.6398  -7.6188  -4.8850  -4.2954
     2.2994   2.6634   7.1886   7.3073   7.4957   7.7554   8.5289   9.2363
     9.3477  10.5122  11.1438  12.5824  13.3306  13.7542  14.1792  14.6742
    15.4653  15.9401  16.0181  16.4358  16.7592  17.1988

     occupation numbers 
     1.0000   1.0000   1.0000   1.0000   1.0000   1.0000   1.0000   1.0000
     0.0000   0.0000   0.0000   0.0000   0.0000   0.0000   0.0000   0.0000
     0.0000   0.0000   0.0000   0.0000   0.0000   0.0000   0.0000   0.0000
     0.0000   0.0000   0.0000   0.0000   0.0000   0.0000

          k = 0.0800 0.4619 0.0000 ( 11926 PWs)   bands (ev):

   -16.8134 -16.7345 -12.3106 -12.2585  -7.7074  -7.6863  -4.6434  -4.0772
     1.9732   2.3418   7.2354   7.3553   7.6711   8.0784   8.8707   9.5755
     9.6530  10.8065  11.4688  12.8342  13.1208  13.7548  14.0896  14.5617
    15.4706  15.6636  15.8047  16.2240  16.6061  17.1925

     occupation numbers 
     1.0000   1.0000   1.0000   1.0000   1.0000   1.0000   1.0000   1.0000
     0.0000   0.0000   0.0000   0.0000   0.0000   0.0000   0.0000   0.0000
     0.0000   0.0000   0.0000   0.0000   0.0000   0.0000   0.0000   0.0000
     0.0000   0.0000   0.0000   0.0000   0.0000   0.0000

          k = 0.0800 0.4773 0.0000 ( 11928 PWs)   bands (ev):

   -16.5744 -16.4974 -12.6330 -12.5795  -7.7668  -7.7455  -4.4049  -3.8667
     1.6654   2.0340   7.2149   7.3514   7.9772   8.4157   9.2238   9.9255
     9.9637  11.1060  11.7988  12.8024  13.0780  13.5347  14.0023  14.6507
    14.9946  15.3794  15.9178  15.9245  16.5258  17.1147

     occupation numbers 
     1.0000   1.0000   1.0000   1.0000   1.0000   1.0000   1.0000   1.0000
     0.0000   0.0000   0.0000   0.0000   0.0000   0.0000   0.0000   0.0000
     0.0000   0.0000   0.0000   0.0000   0.0000   0.0000   0.0000   0.0000
     0.0000   0.0000   0.0000   0.0000   0.0000   0.0000

          k = 0.0800 0.4927 0.0000 ( 11928 PWs)   bands (ev):

   -16.3311 -16.2562 -12.9480 -12.8933  -7.8179  -7.7965  -4.1733  -3.6687
     1.3812   1.7442   7.1920   7.3350   8.3134   8.7636   9.5876  10.2776
    10.2861  11.4079  12.1219  12.4861  13.0357  13.4182  13.8873  14.4706
    14.9190  14.9670  15.5785  16.0796  16.3978  16.9687

     occupation numbers 
     1.0000   1.0000   1.0000   1.0000   1.0000   1.0000   1.0000   1.0000
     0.0000   0.0000   0.0000   0.0000   0.0000   0.0000   0.0000   0.0000
     0.0000   0.0000   0.0000   0.0000   0.0000   0.0000   0.0000   0.0000
     0.0000   0.0000   0.0000   0.0000   0.0000   0.0000

          k = 0.0800 0.5081 0.0000 ( 11918 PWs)   bands (ev):

   -16.0853 -16.0129 -13.2534 -13.1979  -7.8607  -7.8391  -3.9538  -3.4895
     1.1274   1.4780   7.1715   7.3182   8.6636   9.1208   9.9614  10.5919
    10.6562  11.7034  12.0977  12.4543  12.7571  13.3433  13.9082  14.0465
    14.5338  15.0286  15.3866  16.0019  16.3875  16.7628

     occupation numbers 
     1.0000   1.0000   1.0000   1.0000   1.0000   1.0000   1.0000   1.0000
     0.0000   0.0000   0.0000   0.0000   0.0000   0.0000   0.0000   0.0000
     0.0000   0.0000   0.0000   0.0000   0.0000   0.0000   0.0000   0.0000
     0.0000   0.0000   0.0000   0.0000   0.0000   0.0000

          k = 0.0800 0.5235 0.0000 ( 11916 PWs)   bands (ev):

   -15.8404 -15.7712 -13.5452 -13.4899  -7.8949  -7.8733  -3.7534  -3.3368
     0.9118   1.2425   7.1546   7.3037   9.0243   9.4861  10.3436  10.8999
    11.0342  11.7217  11.9575  12.3911  12.7657  13.2093  13.5651  13.9595
    14.3050  14.7360  15.5959  15.7141  16.4146  16.6349

     occupation numbers 
     1.0000   1.0000   1.0000   1.0000   1.0000   1.0000   1.0000   1.0000
     0.0000   0.0000   0.0000   0.0000   0.0000   0.0000   0.0000   0.0000
     0.0000   0.0000   0.0000   0.0000   0.0000   0.0000   0.0000   0.0000
     0.0000   0.0000   0.0000   0.0000   0.0000   0.0000

          k = 0.0800 0.5389 0.0000 ( 11916 PWs)   bands (ev):

   -15.6034 -15.5391 -13.8152 -13.7621  -7.9207  -7.8990  -3.5818  -3.2183
     0.7429   1.0475   7.1416   7.2923   9.3936   9.8576  10.7300  11.1815
    11.3212  11.4350  11.8865  12.3825  12.7509  13.0637  13.4265  13.5860
    14.3188  14.5538  15.3668  15.8331  16.2504  16.7650

     occupation numbers 
     1.0000   1.0000   1.0000   1.0000   1.0000   1.0000   1.0000   1.0000
     0.0000   0.0000   0.0000   0.0000   0.0000   0.0000   0.0000   0.0000
     0.0000   0.0000   0.0000   0.0000   0.0000   0.0000   0.0000   0.0000
     0.0000   0.0000   0.0000   0.0000   0.0000   0.0000

          k = 0.0800 0.5543 0.0000 ( 11915 PWs)   bands (ev):

   -15.3912 -15.3357 -14.0440 -13.9976  -7.9378  -7.9161  -3.4521  -3.1400
     0.6279   0.9051   7.1328   7.2845   9.7698  10.2313  10.9454  11.0863
    11.3222  11.7009  11.8337  12.3306  12.6367  12.8774  13.2012  13.6507
    14.0555  14.6783  15.1177  15.7413  16.3674  16.9046

     occupation numbers 
     1.0000   1.0000   1.0000   1.0000   1.0000   1.0000   1.0000   1.0000
     0.0000   0.0000   0.0000   0.0000   0.0000   0.0000   0.0000   0.0000
     0.0000   0.0000   0.0000   0.0000   0.0000   0.0000   0.0000   0.0000
     0.0000   0.0000   0.0000   0.0000   0.0000   0.0000

          k = 0.0800 0.5697 0.0000 ( 11910 PWs)   bands (ev):

   -15.2470 -15.2055 -14.1865 -14.1540  -7.9464  -7.9247  -3.3804  -3.1027
     0.5704   0.8288   7.1284   7.2806  10.1482  10.5149  10.6465  10.9806
    11.5442  11.8125  12.0255  12.1960  12.4592  12.6958  13.2018  13.5638
    14.1640  14.4891  15.2166  15.4901  16.6362  16.8790

     occupation numbers 
     1.0000   1.0000   1.0000   1.0000   1.0000   1.0000   1.0000   1.0000
     0.0000   0.0000   0.0000   0.0000   0.0000   0.0000   0.0000   0.0000
     0.0000   0.0000   0.0000   0.0000   0.0000   0.0000   0.0000   0.0000
     0.0000   0.0000   0.0000   0.0000   0.0000   0.0000

          k = 0.0933 0.1617 0.0000 ( 11833 PWs)   bands (ev):

   -20.0086 -19.9083  -8.2871  -7.5391  -6.0761  -6.0649  -5.3007  -5.2928
     3.2285   3.6232   4.3131   5.0502   5.3645   6.6891   7.0290   7.9130
     7.9719   8.5057   8.6235   8.8204   9.3023   9.3264   9.8355  11.9184
    13.0201  13.1087  13.3385  15.8465  17.2989  19.5371

     occupation numbers 
     1.0000   1.0000   1.0000   1.0000   1.0000   1.0000   1.0000   1.0000
     0.0000   0.0000   0.0000   0.0000   0.0000   0.0000   0.0000   0.0000
     0.0000   0.0000   0.0000   0.0000   0.0000   0.0000   0.0000   0.0000
     0.0000   0.0000   0.0000   0.0000   0.0000   0.0000

          k = 0.0933 0.1771 0.0000 ( 11834 PWs)   bands (ev):

   -19.9163 -19.8166  -8.1762  -7.4315  -6.3203  -6.3082  -5.4686  -5.4601
     3.3533   3.7494   4.4418   5.1781   5.4876   6.8074   7.1540   7.9781
     8.0338   8.2569   8.3728   8.9405   9.4797   9.5066   9.9610  12.0364
    13.2559  13.3474  13.4623  15.9561  17.4113  19.3514

     occupation numbers 
     1.0000   1.0000   1.0000   1.0000   1.0000   1.0000   1.0000   1.0000
     0.0000   0.0000   0.0000   0.0000   0.0000   0.0000   0.0000   0.0000
     0.0000   0.0000   0.0000   0.0000   0.0000   0.0000   0.0000   0.0000
     0.0000   0.0000   0.0000   0.0000   0.0000   0.0000

          k = 0.0933 0.1925 0.0000 ( 11855 PWs)   bands (ev):

   -19.8156 -19.7166  -8.0556  -7.3144  -6.5805  -6.5667  -5.6393  -5.6298
     3.4894   3.8870   4.5822   5.3175   5.6217   6.9357   7.2898   7.9416
     8.0087   8.1243   8.1348   9.0716   9.6790   9.7105  10.0978  12.1646
    13.5093  13.5935  13.6118  16.0736  17.5304  19.1205

     occupation numbers 
     1.0000   1.0000   1.0000   1.0000   1.0000   1.0000   1.0000   1.0000
     0.0000   0.0000   0.0000   0.0000   0.0000   0.0000   0.0000   0.0000
     0.0000   0.0000   0.0000   0.0000   0.0000   0.0000   0.0000   0.0000
     0.0000   0.0000   0.0000   0.0000   0.0000   0.0000

          k = 0.0933 0.2078 0.0000 ( 11859 PWs)   bands (ev):

   -19.7067 -19.6084  -7.9252  -7.1881  -6.8556  -6.8397  -5.8103  -5.7996
     3.6367   4.0359   4.7343   5.4686   5.7666   7.0731   7.4349   7.6667
     7.8066   8.0853   8.1591   9.2132   9.9022   9.9406  10.2461  12.3028
    13.7340  13.7877  13.8862  16.1978  17.6519  18.8590

     occupation numbers 
     1.0000   1.0000   1.0000   1.0000   1.0000   1.0000   1.0000   1.0000
     0.0000   0.0000   0.0000   0.0000   0.0000   0.0000   0.0000   0.0000
     0.0000   0.0000   0.0000   0.0000   0.0000   0.0000   0.0000   0.0000
     0.0000   0.0000   0.0000   0.0000   0.0000   0.0000

          k = 0.0933 0.2232 0.0000 ( 11867 PWs)   bands (ev):

   -19.5896 -19.4921  -7.7854  -7.1444  -7.1268  -7.0518  -5.9797  -5.9676
     3.7953   4.1960   4.8981   5.6311   5.9222   7.2140   7.3625   7.5245
     7.5955   8.1008   8.1809   9.3655  10.1487  10.1968  10.4067  12.4507
    13.8931  14.0664  14.1789  16.3276  17.7635  18.5922

     occupation numbers 
     1.0000   1.0000   1.0000   1.0000   1.0000   1.0000   1.0000   1.0000
     0.0000   0.0000   0.0000   0.0000   0.0000   0.0000   0.0000   0.0000
     0.0000   0.0000   0.0000   0.0000   0.0000   0.0000   0.0000   0.0000
     0.0000   0.0000   0.0000   0.0000   0.0000   0.0000

          k = 0.0933 0.2386 0.0000 ( 11880 PWs)   bands (ev):

   -19.4643 -19.3676  -7.6361  -7.4451  -7.4246  -6.9077  -6.1462  -6.1327
     3.9651   4.3673   5.0735   5.8049   6.0880   7.0490   7.1869   7.4092
     7.7541   8.1096   8.1897   9.5281  10.4144  10.4766  10.5820  12.6081
    14.0596  14.3557  14.4833  16.4611  17.8180  18.3789

     occupation numbers 
     1.0000   1.0000   1.0000   1.0000   1.0000   1.0000   1.0000   1.0000
     0.0000   0.0000   0.0000   0.0000   0.0000   0.0000   0.0000   0.0000
     0.0000   0.0000   0.0000   0.0000   0.0000   0.0000   0.0000   0.0000
     0.0000   0.0000   0.0000   0.0000   0.0000   0.0000

          k = 0.0933 0.2540 0.0000 ( 11884 PWs)   bands (ev):

   -19.3309 -19.2351  -7.7563  -7.7332  -7.4775  -6.7544  -6.3085  -6.2938
     4.1461   4.5496   5.2606   5.9896   6.2622   6.7246   6.8908   7.5620
     7.9034   8.1270   8.1889   9.7011  10.6840  10.7685  10.7929  12.7745
    14.2360  14.6489  14.7958  16.5954  17.7064  18.3375

     occupation numbers 
     1.0000   1.0000   1.0000   1.0000   1.0000   1.0000   1.0000   1.0000
     0.0000   0.0000   0.0000   0.0000   0.0000   0.0000   0.0000   0.0000
     0.0000   0.0000   0.0000   0.0000   0.0000   0.0000   0.0000   0.0000
     0.0000   0.0000   0.0000   0.0000   0.0000   0.0000

          k = 0.0933 0.2694 0.0000 ( 11894 PWs)   bands (ev):

   -19.1894 -19.0945  -8.0762  -8.0506  -7.3098  -6.5924  -6.4660  -6.4502
     4.3381   4.7423   5.4592   6.1798   6.3940   6.4254   6.5982   7.7323
     7.9811   8.1701   8.2293   9.8842  10.9163  11.0443  11.1020  12.9497
    14.4223  14.9408  15.1121  16.7265  17.4624  18.4419

     occupation numbers 
     1.0000   1.0000   1.0000   1.0000   1.0000   1.0000   1.0000   1.0000
     0.0000   0.0000   0.0000   0.0000   0.0000   0.0000   0.0000   0.0000
     0.0000   0.0000   0.0000   0.0000   0.0000   0.0000   0.0000   0.0000
     0.0000   0.0000   0.0000   0.0000   0.0000   0.0000

          k = 0.0933 0.2848 0.0000 ( 11906 PWs)   bands (ev):

   -19.0399 -18.9460  -8.4032  -8.3752  -7.1333  -6.6181  -6.6013  -6.4220
     4.5412   4.9444   5.6693   6.0394   6.2217   6.4048   6.6684   7.8963
     7.9816   8.1735   8.4000  10.0772  11.1276  11.3531  11.4358  13.1330
    14.6178  15.2254  15.4264  16.8472  17.1894  18.5972

     occupation numbers 
     1.0000   1.0000   1.0000   1.0000   1.0000   1.0000   1.0000   1.0000
     0.0000   0.0000   0.0000   0.0000   0.0000   0.0000   0.0000   0.0000
     0.0000   0.0000   0.0000   0.0000   0.0000   0.0000   0.0000   0.0000
     0.0000   0.0000   0.0000   0.0000   0.0000   0.0000

          k = 0.0933 0.3002 0.0000 ( 11910 PWs)   bands (ev):

   -18.8824 -18.7896  -8.7359  -8.7055  -6.9480  -6.7643  -6.7466  -6.2435
     4.7552   5.1498   5.7018   5.8741   5.9105   6.6211   6.8699   7.9443
     8.0148   8.2355   8.6060  10.2800  11.3430  11.6748  11.7816  13.3236
    14.8216  15.4947  15.7281  16.8907  16.9880  18.7724

     occupation numbers 
     1.0000   1.0000   1.0000   1.0000   1.0000   1.0000   1.0000   1.0000
     0.0000   0.0000   0.0000   0.0000   0.0000   0.0000   0.0000   0.0000
     0.0000   0.0000   0.0000   0.0000   0.0000   0.0000   0.0000   0.0000
     0.0000   0.0000   0.0000   0.0000   0.0000   0.0000

          k = 0.0933 0.3156 0.0000 ( 11914 PWs)   bands (ev):

   -18.7170 -18.6253  -9.0728  -9.0401  -6.9041  -6.8857  -6.7544  -6.0573
     4.9791   5.2483   5.4671   5.5620   6.1260   6.8516   7.0845   7.9090
     8.0250   8.4013   8.8292  10.4923  11.5668  11.9999  12.1355  13.5206
    15.0312  15.7346  15.9908  16.6914  17.0534  18.8883

     occupation numbers 
     1.0000   1.0000   1.0000   1.0000   1.0000   1.0000   1.0000   1.0000
     0.0000   0.0000   0.0000   0.0000   0.0000   0.0000   0.0000   0.0000
     0.0000   0.0000   0.0000   0.0000   0.0000   0.0000   0.0000   0.0000
     0.0000   0.0000   0.0000   0.0000   0.0000   0.0000

          k = 0.0933 0.3310 0.0000 ( 11917 PWs)   bands (ev):

   -18.5438 -18.4532  -9.4128  -9.3778  -7.0374  -7.0182  -6.5526  -5.8637
     4.9427   5.2005   5.2243   5.6595   6.3708   7.0934   7.3059   7.8684
     8.0057   8.6092   9.0658  10.7138  11.7998  12.3212  12.4936  13.7227
    15.2397  15.9048  16.1473  16.6062  17.1209  18.7933

     occupation numbers 
     1.0000   1.0000   1.0000   1.0000   1.0000   1.0000   1.0000   1.0000
     0.0000   0.0000   0.0000   0.0000   0.0000   0.0000   0.0000   0.0000
     0.0000   0.0000   0.0000   0.0000   0.0000   0.0000   0.0000   0.0000
     0.0000   0.0000   0.0000   0.0000   0.0000   0.0000

          k = 0.0933 0.3464 0.0000 ( 11909 PWs)   bands (ev):

   -18.3629 -18.2735  -9.7546  -9.7174  -7.1637  -7.1440  -6.3432  -5.6632
     4.5877   4.8597   5.4651   5.9005   6.6272   7.3448   7.5249   7.8290
     7.9883   8.8345   9.3144  10.9441  12.0418  12.6301  12.8514  13.9281
    15.4189  15.9171  16.2405  16.6687  17.2085  18.7387

     occupation numbers 
     1.0000   1.0000   1.0000   1.0000   1.0000   1.0000   1.0000   1.0000
     0.0000   0.0000   0.0000   0.0000   0.0000   0.0000   0.0000   0.0000
     0.0000   0.0000   0.0000   0.0000   0.0000   0.0000   0.0000   0.0000
     0.0000   0.0000   0.0000   0.0000   0.0000   0.0000

          k = 0.0933 0.3618 0.0000 ( 11907 PWs)   bands (ev):

   -18.1744 -18.0862 -10.0972 -10.0579  -7.2829  -7.2627  -6.1265  -5.4564
     4.2255   4.5119   5.7223   6.1582   6.8947   7.5955   7.7007   7.8093
     8.0131   9.0718   9.5744  11.1827  12.2921  12.9159  13.2030  14.1342
    15.4612  15.9392  16.3385  16.6850  17.3654  18.6679

     occupation numbers 
     1.0000   1.0000   1.0000   1.0000   1.0000   1.0000   1.0000   1.0000
     0.0000   0.0000   0.0000   0.0000   0.0000   0.0000   0.0000   0.0000
     0.0000   0.0000   0.0000   0.0000   0.0000   0.0000   0.0000   0.0000
     0.0000   0.0000   0.0000   0.0000   0.0000   0.0000

          k = 0.0933 0.3772 0.0000 ( 11916 PWs)   bands (ev):

   -17.9784 -17.8915 -10.4397 -10.3983  -7.3948  -7.3740  -5.9031  -5.2440
     3.8622   4.1636   5.9901   6.4280   7.1727   7.6931   7.7932   7.9226
     8.1635   9.3194   9.8455  11.4289  12.5491  13.1644  13.5388  14.3379
    15.3329  16.1153  16.3930  16.6088  17.5612  18.4066

     occupation numbers 
     1.0000   1.0000   1.0000   1.0000   1.0000   1.0000   1.0000   1.0000
     0.0000   0.0000   0.0000   0.0000   0.0000   0.0000   0.0000   0.0000
     0.0000   0.0000   0.0000   0.0000   0.0000   0.0000   0.0000   0.0000
     0.0000   0.0000   0.0000   0.0000   0.0000   0.0000

          k = 0.0933 0.3926 0.0000 ( 11916 PWs)   bands (ev):

   -17.7751 -17.6895 -10.7812 -10.7378  -7.4990  -7.4779  -5.6738  -5.0270
     3.5005   3.8165   6.2680   6.7084   7.4573   7.6664   7.7906   8.1960
     8.4014   9.5762  10.1272  11.6819  12.8095  13.3585  13.8415  14.5348
    15.1623  16.3267  16.3967  16.5024  17.6798  17.9601

     occupation numbers 
     1.0000   1.0000   1.0000   1.0000   1.0000   1.0000   1.0000   1.0000
     0.0000   0.0000   0.0000   0.0000   0.0000   0.0000   0.0000   0.0000
     0.0000   0.0000   0.0000   0.0000   0.0000   0.0000   0.0000   0.0000
     0.0000   0.0000   0.0000   0.0000   0.0000   0.0000

          k = 0.0933 0.4080 0.0000 ( 11918 PWs)   bands (ev):

   -17.5645 -17.4804 -11.1208 -11.0754  -7.5955  -7.5740  -5.4393  -4.8064
     3.1426   3.4722   6.5554   6.9978   7.6206   7.7115   7.8228   8.4929
     8.6681   9.8416  10.4193  11.9405  13.0637  13.4842  14.0758  14.7135
    15.0140  16.2641  16.3936  16.6422  17.4186  17.5654

     occupation numbers 
     1.0000   1.0000   1.0000   1.0000   1.0000   1.0000   1.0000   1.0000
     0.0000   0.0000   0.0000   0.0000   0.0000   0.0000   0.0000   0.0000
     0.0000   0.0000   0.0000   0.0000   0.0000   0.0000   0.0000   0.0000
     0.0000   0.0000   0.0000   0.0000   0.0000   0.0000

          k = 0.0933 0.4234 0.0000 ( 11938 PWs)   bands (ev):

   -17.3471 -17.2644 -11.4578 -11.4105  -7.6841  -7.6623  -5.2007  -4.5837
     2.7909   3.1323   6.8506   7.2892   7.5984   7.7177   8.0983   8.8031
     8.9490  10.1150  10.7212  12.2028  13.2716  13.5589  14.1862  14.7627
    15.0281  16.1266  16.3349  16.8701  16.9777  17.2267

     occupation numbers 
     1.0000   1.0000   1.0000   1.0000   1.0000   1.0000   1.0000   1.0000
     0.0000   0.0000   0.0000   0.0000   0.0000   0.0000   0.0000   0.0000
     0.0000   0.0000   0.0000   0.0000   0.0000   0.0000   0.0000   0.0000
     0.0000   0.0000   0.0000   0.0000   0.0000   0.0000

          k = 0.0933 0.4388 0.0000 ( 11928 PWs)   bands (ev):

   -17.1229 -17.0418 -11.7913 -11.7422  -7.7647  -7.7426  -4.9595  -4.3608
     2.4479   2.7989   7.1478   7.4934   7.6647   7.7088   8.4195   9.1250
     9.2396  10.3957  11.0321  12.4652  13.3089  13.6771  14.1582  14.6569
    15.2317  16.0162  16.1500  16.5407  16.8971  17.1812

     occupation numbers 
     1.0000   1.0000   1.0000   1.0000   1.0000   1.0000   1.0000   1.0000
     0.0000   0.0000   0.0000   0.0000   0.0000   0.0000   0.0000   0.0000
     0.0000   0.0000   0.0000   0.0000   0.0000   0.0000   0.0000   0.0000
     0.0000   0.0000   0.0000   0.0000   0.0000   0.0000

          k = 0.0933 0.4542 0.0000 ( 11924 PWs)   bands (ev):

   -16.8925 -16.8130 -12.1206 -12.0698  -7.8371  -7.8148  -4.7173  -4.1401
     2.1167   2.4743   7.4039   7.5173   7.7062   7.9678   8.7547   9.4580
     9.5378  10.6828  11.3508  12.7188  13.1800  13.7342  14.1051  14.5534
    15.4645  15.7361  15.8834  16.2810  16.6663  17.2201

     occupation numbers 
     1.0000   1.0000   1.0000   1.0000   1.0000   1.0000   1.0000   1.0000
     0.0000   0.0000   0.0000   0.0000   0.0000   0.0000   0.0000   0.0000
     0.0000   0.0000   0.0000   0.0000   0.0000   0.0000   0.0000   0.0000
     0.0000   0.0000   0.0000   0.0000   0.0000   0.0000

          k = 0.0933 0.4696 0.0000 ( 11924 PWs)   bands (ev):

   -16.6564 -16.5787 -12.4446 -12.3922  -7.9012  -7.8787  -4.4768  -3.9248
     1.8011   2.1615   7.4459   7.5721   7.8875   8.2948   9.1017   9.8020
     9.8413  10.9753  11.6748  12.8840  13.0231  13.5831  14.0439  14.6060
    15.2646  15.5765  15.7029  16.0384  16.5079  17.1284

     occupation numbers 
     1.0000   1.0000   1.0000   1.0000   1.0000   1.0000   1.0000   1.0000
     0.0000   0.0000   0.0000   0.0000   0.0000   0.0000   0.0000   0.0000
     0.0000   0.0000   0.0000   0.0000   0.0000   0.0000   0.0000   0.0000
     0.0000   0.0000   0.0000   0.0000   0.0000   0.0000

          k = 0.0933 0.4850 0.0000 ( 11933 PWs)   bands (ev):

   -16.4155 -16.3397 -12.7621 -12.7084  -7.9570  -7.9343  -4.2409  -3.7194
     1.5060   1.8639   7.4265   7.5690   8.1997   8.6354   9.4595  10.1477
    10.1566  11.2710  11.9966  12.6486  13.0924  13.4004  13.9178  14.7115
    14.8924  15.1980  15.7137  15.9117  16.3881  16.9896

     occupation numbers 
     1.0000   1.0000   1.0000   1.0000   1.0000   1.0000   1.0000   1.0000
     0.0000   0.0000   0.0000   0.0000   0.0000   0.0000   0.0000   0.0000
     0.0000   0.0000   0.0000   0.0000   0.0000   0.0000   0.0000   0.0000
     0.0000   0.0000   0.0000   0.0000   0.0000   0.0000

          k = 0.0933 0.5004 0.0000 ( 11931 PWs)   bands (ev):

   -16.1710 -16.0975 -13.0715 -13.0167  -8.0043  -7.9814  -4.0143  -3.5293
     1.2372   1.5864   7.4053   7.5540   8.5404   8.9860   9.8273  10.4546
    10.5205  11.5652  12.2332  12.3949  12.9101  13.3458  13.8965  14.2817
    14.7813  15.0632  15.4260  16.0327  16.2576  16.8144

     occupation numbers 
     1.0000   1.0000   1.0000   1.0000   1.0000   1.0000   1.0000   1.0000
     0.0000   0.0000   0.0000   0.0000   0.0000   0.0000   0.0000   0.0000
     0.0000   0.0000   0.0000   0.0000   0.0000   0.0000   0.0000   0.0000
     0.0000   0.0000   0.0000   0.0000   0.0000   0.0000

          k = 0.0933 0.5158 0.0000 ( 11931 PWs)   bands (ev):

   -15.9255 -15.8547 -13.3696 -13.3145  -8.0430  -8.0201  -3.8027  -3.3615
     1.0022   1.3352   7.3868   7.5389   8.8945   9.3448  10.2036  10.7561
    10.8930  11.8324  11.9508  12.4827  12.7371  13.2580  13.8041  14.0224
    14.4046  14.8914  15.5174  15.8630  16.3072  16.6184

     occupation numbers 
     1.0000   1.0000   1.0000   1.0000   1.0000   1.0000   1.0000   1.0000
     0.0000   0.0000   0.0000   0.0000   0.0000   0.0000   0.0000   0.0000
     0.0000   0.0000   0.0000   0.0000   0.0000   0.0000   0.0000   0.0000
     0.0000   0.0000   0.0000   0.0000   0.0000   0.0000

          k = 0.0933 0.5312 0.0000 ( 11927 PWs)   bands (ev):

   -15.6837 -15.6169 -13.6510 -13.5969  -8.0733  -8.0503  -3.6146  -3.2241
     0.8095   1.1188   7.3719   7.5262   9.2584   9.7100  10.5846  11.0416
    11.2676  11.5686  11.9896  12.3444  12.7815  13.2241  13.4482  13.8253
    14.3691  14.5653  15.5546  15.7722  16.2542  16.6087

     occupation numbers 
     1.0000   1.0000   1.0000   1.0000   1.0000   1.0000   1.0000   1.0000
     0.0000   0.0000   0.0000   0.0000   0.0000   0.0000   0.0000   0.0000
     0.0000   0.0000   0.0000   0.0000   0.0000   0.0000   0.0000   0.0000
     0.0000   0.0000   0.0000   0.0000   0.0000   0.0000

          k = 0.0933 0.5466 0.0000 ( 11922 PWs)   bands (ev):

   -15.4564 -15.3961 -13.9032 -13.8530  -8.0949  -8.0718  -3.4614  -3.1245
     0.6674   0.9480   7.3611   7.5168   9.6299  10.0785  10.9527  11.1757
    11.2745  11.6403  11.8309  12.3901  12.7365  12.9386  13.4330  13.5913
    14.1876  14.6081  15.2546  15.7954  16.2728  16.7558

     occupation numbers 
     1.0000   1.0000   1.0000   1.0000   1.0000   1.0000   1.0000   1.0000
     0.0000   0.0000   0.0000   0.0000   0.0000   0.0000   0.0000   0.0000
     0.0000   0.0000   0.0000   0.0000   0.0000   0.0000   0.0000   0.0000
     0.0000   0.0000   0.0000   0.0000   0.0000   0.0000

          k = 0.0933 0.5620 0.0000 ( 11930 PWs)   bands (ev):

   -15.2708 -15.2222 -14.0959 -14.0561  -8.1079  -8.0848  -3.3579  -3.0666
     0.5814   0.8364   7.3545   7.5110  10.0066  10.4390  10.7999  11.0992
    11.4388  11.7554  12.0251  12.2583  12.5455  12.8735  13.1625  13.6678
    14.0943  14.6351  15.1310  15.5689  16.5175  16.8767

     occupation numbers 
     1.0000   1.0000   1.0000   1.0000   1.0000   1.0000   1.0000   1.0000
     0.0000   0.0000   0.0000   0.0000   0.0000   0.0000   0.0000   0.0000
     0.0000   0.0000   0.0000   0.0000   0.0000   0.0000   0.0000   0.0000
     0.0000   0.0000   0.0000   0.0000   0.0000   0.0000

          k = 0.0933 0.5774 0.0000 ( 11923 PWs)   bands (ev):

   -15.1901 -15.1523 -14.1714 -14.1432  -8.1122  -8.0891  -3.3206  -3.0482
     0.5529   0.7972   7.3523   7.5090  10.3404  10.4358  10.7671  10.8780
    11.6542  11.8322  12.0165  12.2408  12.5842  12.5911  13.2857  13.4893
    14.3277  14.4117  15.2951  15.3338  16.7575  16.7781

     occupation numbers 
     1.0000   1.0000   1.0000   1.0000   1.0000   1.0000   1.0000   1.0000
     0.0000   0.0000   0.0000   0.0000   0.0000   0.0000   0.0000   0.0000
     0.0000   0.0000   0.0000   0.0000   0.0000   0.0000   0.0000   0.0000
     0.0000   0.0000   0.0000   0.0000   0.0000   0.0000

          k = 0.1067 0.1848 0.0000 ( 11847 PWs)   bands (ev):

   -19.8198 -19.7208  -8.0606  -7.3192  -6.5571  -6.5447  -5.6466  -5.6380
     3.4837   3.8813   4.5764   5.3118   5.6162   6.9310   7.2848   7.9577
     8.0395   8.1486   8.1683   9.0654   9.6208   9.6499  10.0918  12.1590
    13.5136  13.5867  13.6113  16.0681  17.5252  19.1170

     occupation numbers 
     1.0000   1.0000   1.0000   1.0000   1.0000   1.0000   1.0000   1.0000
     0.0000   0.0000   0.0000   0.0000   0.0000   0.0000   0.0000   0.0000
     0.0000   0.0000   0.0000   0.0000   0.0000   0.0000   0.0000   0.0000
     0.0000   0.0000   0.0000   0.0000   0.0000   0.0000

          k = 0.1067 0.2001 0.0000 ( 11859 PWs)   bands (ev):

   -19.7151 -19.6167  -7.9352  -7.1977  -6.8088  -6.7954  -5.8273  -5.8180
     3.6255   4.0245   4.7226   5.4570   5.7559   7.0647   7.4263   7.6931
     7.8296   8.1681   8.2401   9.2012   9.7826   9.8157  10.2338  12.2915
    13.7285  13.7899  13.8882  16.1869  17.6416  18.8496

     occupation numbers 
     1.0000   1.0000   1.0000   1.0000   1.0000   1.0000   1.0000   1.0000
     0.0000   0.0000   0.0000   0.0000   0.0000   0.0000   0.0000   0.0000
     0.0000   0.0000   0.0000   0.0000   0.0000   0.0000   0.0000   0.0000
     0.0000   0.0000   0.0000   0.0000   0.0000   0.0000

          k = 0.1067 0.2155 0.0000 ( 11877 PWs)   bands (ev):

   -19.6021 -19.5045  -7.8003  -7.0754  -7.0708  -7.0559  -6.0077  -5.9973
     3.7784   4.1790   4.8806   5.6138   5.9063   7.2067   7.4042   7.5489
     7.5831   8.2251   8.3031   9.3475   9.9699  10.0101  10.3871  12.4337
    13.8786  14.0799  14.1845  16.3111  17.7483  18.5746

     occupation numbers 
     1.0000   1.0000   1.0000   1.0000   1.0000   1.0000   1.0000   1.0000
     0.0000   0.0000   0.0000   0.0000   0.0000   0.0000   0.0000   0.0000
     0.0000   0.0000   0.0000   0.0000   0.0000   0.0000   0.0000   0.0000
     0.0000   0.0000   0.0000   0.0000   0.0000   0.0000

          k = 0.1067 0.2309 0.0000 ( 11871 PWs)   bands (ev):

   -19.4810 -19.3842  -7.6559  -7.3553  -7.3382  -6.9268  -6.1856  -6.1739
     3.9426   4.3448   5.0502   5.7821   6.0672   7.1027   7.2408   7.3792
     7.7412   8.2649   8.3472   9.5042  10.1848  10.2352  10.5520  12.5852
    14.0389  14.3799  14.4941  16.4386  17.7966  18.3528

     occupation numbers 
     1.0000   1.0000   1.0000   1.0000   1.0000   1.0000   1.0000   1.0000
     0.0000   0.0000   0.0000   0.0000   0.0000   0.0000   0.0000   0.0000
     0.0000   0.0000   0.0000   0.0000   0.0000   0.0000   0.0000   0.0000
     0.0000   0.0000   0.0000   0.0000   0.0000   0.0000

          k = 0.1067 0.2463 0.0000 ( 11896 PWs)   bands (ev):

   -19.3517 -19.2558  -7.6481  -7.6283  -7.5020  -6.7781  -6.3593  -6.3460
     4.1180   4.5216   5.2314   5.9616   6.2379   6.7894   6.9480   7.5334
     7.9089   8.2895   8.3726   9.6712  10.4257  10.4898  10.7289  12.7458
    14.2095  14.6851  14.8130  16.5668  17.6736  18.3071

     occupation numbers 
     1.0000   1.0000   1.0000   1.0000   1.0000   1.0000   1.0000   1.0000
     0.0000   0.0000   0.0000   0.0000   0.0000   0.0000   0.0000   0.0000
     0.0000   0.0000   0.0000   0.0000   0.0000   0.0000   0.0000   0.0000
     0.0000   0.0000   0.0000   0.0000   0.0000   0.0000

          k = 0.1067 0.2617 0.0000 ( 11892 PWs)   bands (ev):

   -19.2144 -19.1194  -7.9517  -7.9293  -7.3391  -6.6206  -6.5275  -6.5128
     4.3045   4.7093   5.4243   6.1506   6.4113   6.4682   6.6453   7.7052
     8.0702   8.3134   8.3832   9.8483  10.6884  10.7699  10.9194  12.9149
    14.3899  14.9908  15.1368  16.6914  17.4167  18.4084

     occupation numbers 
     1.0000   1.0000   1.0000   1.0000   1.0000   1.0000   1.0000   1.0000
     0.0000   0.0000   0.0000   0.0000   0.0000   0.0000   0.0000   0.0000
     0.0000   0.0000   0.0000   0.0000   0.0000   0.0000   0.0000   0.0000
     0.0000   0.0000   0.0000   0.0000   0.0000   0.0000

          k = 0.1067 0.2771 0.0000 ( 11900 PWs)   bands (ev):

   -19.0690 -18.9749  -8.2648  -8.2397  -7.1672  -6.6895  -6.6735  -6.4546
     4.5021   4.9071   5.6287   6.1266   6.3007   6.3636   6.6284   7.8843
     8.1718   8.3673   8.4104  10.0353  10.9646  11.0693  11.1292  13.0920
    14.5796  15.2908  15.4592  16.8057  17.1315  18.5602

     occupation numbers 
     1.0000   1.0000   1.0000   1.0000   1.0000   1.0000   1.0000   1.0000
     0.0000   0.0000   0.0000   0.0000   0.0000   0.0000   0.0000   0.0000
     0.0000   0.0000   0.0000   0.0000   0.0000   0.0000   0.0000   0.0000
     0.0000   0.0000   0.0000   0.0000   0.0000   0.0000

          k = 0.1067 0.2925 0.0000 ( 11910 PWs)   bands (ev):

   -18.9156 -18.8225  -8.5856  -8.5579  -6.9865  -6.8448  -6.8276  -6.2804
     4.7107   5.1123   5.7945   5.8436   5.9810   6.5739   6.8258   8.0618
     8.1859   8.3743   8.5740  10.2320  11.2368  11.3525  11.4019  13.2762
    14.7774  15.5765  15.7679  16.8401  16.9236  18.7322

     occupation numbers 
     1.0000   1.0000   1.0000   1.0000   1.0000   1.0000   1.0000   1.0000
     0.0000   0.0000   0.0000   0.0000   0.0000   0.0000   0.0000   0.0000
     0.0000   0.0000   0.0000   0.0000   0.0000   0.0000   0.0000   0.0000
     0.0000   0.0000   0.0000   0.0000   0.0000   0.0000

          k = 0.1067 0.3079 0.0000 ( 11916 PWs)   bands (ev):

   -18.7543 -18.6623  -8.9126  -8.8824  -6.9931  -6.9748  -6.7972  -6.0982
     4.9298   5.2880   5.4929   5.6485   6.0737   6.7991   7.0373   8.1546
     8.2118   8.4149   8.7830  10.4381  11.4861  11.6339  11.7321  13.4665
    14.9806  15.8292  16.0277  16.6424  16.9895  18.8638

     occupation numbers 
     1.0000   1.0000   1.0000   1.0000   1.0000   1.0000   1.0000   1.0000
     0.0000   0.0000   0.0000   0.0000   0.0000   0.0000   0.0000   0.0000
     0.0000   0.0000   0.0000   0.0000   0.0000   0.0000   0.0000   0.0000
     0.0000   0.0000   0.0000   0.0000   0.0000   0.0000

          k = 0.1067 0.3233 0.0000 ( 11912 PWs)   bands (ev):

   -18.5851 -18.4942  -9.2443  -9.2116  -7.1341  -7.1149  -6.5997  -5.9085
     5.0583   5.1667   5.3082   5.6005   6.3127   7.0359   7.2582   8.1253
     8.2420   8.5661   9.0107  10.6532  11.7242  11.9366  12.0750  13.6616
    15.1817  15.9589  16.1817  16.6244  17.0521  18.7853

     occupation numbers 
     1.0000   1.0000   1.0000   1.0000   1.0000   1.0000   1.0000   1.0000
     0.0000   0.0000   0.0000   0.0000   0.0000   0.0000   0.0000   0.0000
     0.0000   0.0000   0.0000   0.0000   0.0000   0.0000   0.0000   0.0000
     0.0000   0.0000   0.0000   0.0000   0.0000   0.0000

          k = 0.1067 0.3387 0.0000 ( 11914 PWs)   bands (ev):

   -18.4082 -18.3185  -9.5793  -9.5443  -7.2677  -7.2476  -6.3943  -5.7116
     4.7149   4.9685   5.4043   5.8348   6.5634   7.2836   7.4857   8.0876
     8.2279   8.7742   9.2520  10.8770  11.9644  12.2423  12.4234  13.8595
    15.3494  15.8808  16.3332  16.7385  17.1519  18.7619

     occupation numbers 
     1.0000   1.0000   1.0000   1.0000   1.0000   1.0000   1.0000   1.0000
     0.0000   0.0000   0.0000   0.0000   0.0000   0.0000   0.0000   0.0000
     0.0000   0.0000   0.0000   0.0000   0.0000   0.0000   0.0000   0.0000
     0.0000   0.0000   0.0000   0.0000   0.0000   0.0000

          k = 0.1067 0.3541 0.0000 ( 11911 PWs)   bands (ev):

   -18.2237 -18.1352  -9.9165  -9.8792  -7.3936  -7.3728  -6.1814  -5.5081
     4.3589   4.6263   5.6561   6.0871   6.8256   7.5410   7.7124   8.0498
     8.2107   9.0018   9.5054  11.1090  12.2100  12.5388  12.7722  14.0576
    15.3705  15.8809  16.4456  16.7756  17.3437  18.7574

     occupation numbers 
     1.0000   1.0000   1.0000   1.0000   1.0000   1.0000   1.0000   1.0000
     0.0000   0.0000   0.0000   0.0000   0.0000   0.0000   0.0000   0.0000
     0.0000   0.0000   0.0000   0.0000   0.0000   0.0000   0.0000   0.0000
     0.0000   0.0000   0.0000   0.0000   0.0000   0.0000

          k = 0.1067 0.3695 0.0000 ( 11913 PWs)   bands (ev):

   -18.0316 -17.9443 -10.2548 -10.2152  -7.5117  -7.4903  -5.9615  -5.2986
     4.0005   4.2830   5.9188   6.3516   7.0990   7.7996   7.9054   8.0285
     8.2257   9.2414   9.7701  11.3484  12.4603  12.8148  13.1143  14.2524
    15.2245  16.0523  16.4780  16.7425  17.5662  18.6660

     occupation numbers 
     1.0000   1.0000   1.0000   1.0000   1.0000   1.0000   1.0000   1.0000
     0.0000   0.0000   0.0000   0.0000   0.0000   0.0000   0.0000   0.0000
     0.0000   0.0000   0.0000   0.0000   0.0000   0.0000   0.0000   0.0000
     0.0000   0.0000   0.0000   0.0000   0.0000   0.0000

          k = 0.1067 0.3849 0.0000 ( 11922 PWs)   bands (ev):

   -17.8321 -17.7462 -10.5930 -10.5513  -7.6219  -7.6000  -5.7352  -5.0839
     3.6424   3.9398   6.1920   6.6271   7.3828   7.9169   8.0170   8.1318
     8.3595   9.4909  10.0455  11.5944  12.7114  13.0576  13.4393  14.4389
    15.0404  16.2802  16.4388  16.6682  17.7156  18.2598

     occupation numbers 
     1.0000   1.0000   1.0000   1.0000   1.0000   1.0000   1.0000   1.0000
     0.0000   0.0000   0.0000   0.0000   0.0000   0.0000   0.0000   0.0000
     0.0000   0.0000   0.0000   0.0000   0.0000   0.0000   0.0000   0.0000
     0.0000   0.0000   0.0000   0.0000   0.0000   0.0000

          k = 0.1067 0.4003 0.0000 ( 11918 PWs)   bands (ev):

   -17.6254 -17.5408 -10.9302 -10.8865  -7.7241  -7.7017  -5.5033  -4.8651
     3.2868   3.5985   6.4752   6.9128   7.6736   7.8936   8.0218   8.4081
     8.5946   9.7492  10.3313  11.8457  12.9517  13.2574  13.7276  14.6086
    14.8729  16.3395  16.4877  16.6123  17.6137  17.7984

     occupation numbers 
     1.0000   1.0000   1.0000   1.0000   1.0000   1.0000   1.0000   1.0000
     0.0000   0.0000   0.0000   0.0000   0.0000   0.0000   0.0000   0.0000
     0.0000   0.0000   0.0000   0.0000   0.0000   0.0000   0.0000   0.0000
     0.0000   0.0000   0.0000   0.0000   0.0000   0.0000

          k = 0.1067 0.4157 0.0000 ( 11935 PWs)   bands (ev):

   -17.4116 -17.3285 -11.2657 -11.2199  -7.8182  -7.7954  -5.2668  -4.6433
     2.9357   3.2603   6.7678   7.2072   7.8495   7.9407   8.0493   8.7102
     8.8619  10.0153  10.6268  12.1006  13.1441  13.4242  13.9418  14.6757
    14.8332  16.2172  16.4103  16.8258  17.2548  17.3765

     occupation numbers 
     1.0000   1.0000   1.0000   1.0000   1.0000   1.0000   1.0000   1.0000
     0.0000   0.0000   0.0000   0.0000   0.0000   0.0000   0.0000   0.0000
     0.0000   0.0000   0.0000   0.0000   0.0000   0.0000   0.0000   0.0000
     0.0000   0.0000   0.0000   0.0000   0.0000   0.0000

          k = 0.1067 0.4311 0.0000 ( 11935 PWs)   bands (ev):

   -17.1910 -17.1094 -11.5985 -11.5508  -7.9040  -7.8809  -5.0267  -4.4201
     2.5916   2.9273   7.0683   7.5040   7.8284   7.9535   8.3249   9.0254
     9.1432  10.2885  10.9313  12.3561  13.2207  13.5880  14.0404  14.5937
    14.9976  16.0862  16.2550  16.7772  17.0276  17.1497

     occupation numbers 
     1.0000   1.0000   1.0000   1.0000   1.0000   1.0000   1.0000   1.0000
     0.0000   0.0000   0.0000   0.0000   0.0000   0.0000   0.0000   0.0000
     0.0000   0.0000   0.0000   0.0000   0.0000   0.0000   0.0000   0.0000
     0.0000   0.0000   0.0000   0.0000   0.0000   0.0000

          k = 0.1067 0.4465 0.0000 ( 11941 PWs)   bands (ev):

   -16.9640 -16.8840 -11.9277 -11.8782  -7.9816  -7.9581  -4.7848  -4.1978
     2.2572   2.6014   7.3715   7.7216   7.8905   7.9421   8.6512   9.3521
     9.4331  10.5681  11.2435  12.6057  13.1720  13.6721  14.0743  14.5273
    15.2085  15.9367  15.9850  16.3967  16.8070  17.2847

     occupation numbers 
     1.0000   1.0000   1.0000   1.0000   1.0000   1.0000   1.0000   1.0000
     0.0000   0.0000   0.0000   0.0000   0.0000   0.0000   0.0000   0.0000
     0.0000   0.0000   0.0000   0.0000   0.0000   0.0000   0.0000   0.0000
     0.0000   0.0000   0.0000   0.0000   0.0000   0.0000

          k = 0.1067 0.4619 0.0000 ( 11941 PWs)   bands (ev):

   -16.7310 -16.6527 -12.2524 -12.2013  -8.0507  -8.0269  -4.5430  -3.9790
     1.9360   2.2852   7.6369   7.7511   7.9404   8.1895   8.9914   9.6898
     9.7287  10.8530  11.5607  12.8244  13.0426  13.5773  14.0762  14.5610
    15.4318  15.5431  15.7439  16.1282  16.5807  17.1857

     occupation numbers 
     1.0000   1.0000   1.0000   1.0000   1.0000   1.0000   1.0000   1.0000
     0.0000   0.0000   0.0000   0.0000   0.0000   0.0000   0.0000   0.0000
     0.0000   0.0000   0.0000   0.0000   0.0000   0.0000   0.0000   0.0000
     0.0000   0.0000   0.0000   0.0000   0.0000   0.0000

          k = 0.1067 0.4773 0.0000 ( 11929 PWs)   bands (ev):

   -16.4927 -16.4163 -12.5716 -12.5190  -8.1113  -8.0874  -4.3041  -3.7676
     1.6320   1.9819   7.6829   7.8153   8.1167   8.5193   9.3430  10.0268
    10.0383  11.1416  11.8768  12.7698  13.0581  13.4020  13.9680  14.7461
    15.0759  15.4147  15.6474  15.8761  16.4048  17.0319

     occupation numbers 
     1.0000   1.0000   1.0000   1.0000   1.0000   1.0000   1.0000   1.0000
     0.0000   0.0000   0.0000   0.0000   0.0000   0.0000   0.0000   0.0000
     0.0000   0.0000   0.0000   0.0000   0.0000   0.0000   0.0000   0.0000
     0.0000   0.0000   0.0000   0.0000   0.0000   0.0000

          k = 0.1067 0.4927 0.0000 ( 11939 PWs)   bands (ev):

   -16.2502 -16.1758 -12.8838 -12.8299  -8.1634  -8.1393  -4.0718  -3.5683
     1.3508   1.6955   7.6652   7.8146   8.4325   8.8621   9.7047  10.3250
    10.3959  11.4310  12.1664  12.5130  13.0191  13.3100  13.8918  14.5595
    15.0119  15.0451  15.5302  15.8897  16.2494  16.8627

     occupation numbers 
     1.0000   1.0000   1.0000   1.0000   1.0000   1.0000   1.0000   1.0000
     0.0000   0.0000   0.0000   0.0000   0.0000   0.0000   0.0000   0.0000
     0.0000   0.0000   0.0000   0.0000   0.0000   0.0000   0.0000   0.0000
     0.0000   0.0000   0.0000   0.0000   0.0000   0.0000

          k = 0.1067 0.5081 0.0000 ( 11937 PWs)   bands (ev):

   -16.0053 -15.9334 -13.1866 -13.1320  -8.2069  -8.1826  -3.8513  -3.3875
     1.0991   1.4315   7.6460   7.8014   8.7771   9.2139  10.0748  10.6180
    10.7622  11.7122  12.1312  12.4572  12.8253  13.2676  13.9514  14.1025
    14.6311  15.0363  15.4539  15.9588  16.1472  16.6705

     occupation numbers 
     1.0000   1.0000   1.0000   1.0000   1.0000   1.0000   1.0000   1.0000
     0.0000   0.0000   0.0000   0.0000   0.0000   0.0000   0.0000   0.0000
     0.0000   0.0000   0.0000   0.0000   0.0000   0.0000   0.0000   0.0000
     0.0000   0.0000   0.0000   0.0000   0.0000   0.0000

          k = 0.1067 0.5235 0.0000 ( 11943 PWs)   bands (ev):

   -15.7613 -15.6926 -13.4761 -13.4216  -8.2417  -8.2174  -3.6495  -3.2330
     0.8849   1.1969   7.6295   7.7881   9.1344   9.5722  10.4494  10.8990
    11.1334  11.7803  11.9654  12.3898  12.7845  13.2725  13.6432  14.0021
    14.3620  14.7163  15.6775  15.7447  16.2141  16.5225

     occupation numbers 
     1.0000   1.0000   1.0000   1.0000   1.0000   1.0000   1.0000   1.0000
     0.0000   0.0000   0.0000   0.0000   0.0000   0.0000   0.0000   0.0000
     0.0000   0.0000   0.0000   0.0000   0.0000   0.0000   0.0000   0.0000
     0.0000   0.0000   0.0000   0.0000   0.0000   0.0000

          k = 0.1067 0.5389 0.0000 ( 11933 PWs)   bands (ev):

   -15.5254 -15.4616 -13.7441 -13.6918  -8.2679  -8.2434  -3.4763  -3.1127
     0.7172   1.0016   7.6167   7.7773   9.5006   9.9340  10.8141  11.1544
    11.3947  11.5255  11.9565  12.3522  12.7660  13.1436  13.5333  13.6882
    14.3439  14.5046  15.4375  15.8285  16.2017  16.6055

     occupation numbers 
     1.0000   1.0000   1.0000   1.0000   1.0000   1.0000   1.0000   1.0000
     0.0000   0.0000   0.0000   0.0000   0.0000   0.0000   0.0000   0.0000
     0.0000   0.0000   0.0000   0.0000   0.0000   0.0000   0.0000   0.0000
     0.0000   0.0000   0.0000   0.0000   0.0000   0.0000

          k = 0.1067 0.5543 0.0000 ( 11934 PWs)   bands (ev):

   -15.3144 -15.2593 -13.9712 -13.9255  -8.2854  -8.2609  -3.3450  -3.0332
     0.6033   0.8580   7.6080   7.7698   9.8731  10.2928  11.0326  11.0779
    11.3781  11.7299  11.9343  12.3591  12.7060  12.8959  13.3164  13.7213
    14.1115  14.6494  15.1819  15.6511  16.4049  16.7727

     occupation numbers 
     1.0000   1.0000   1.0000   1.0000   1.0000   1.0000   1.0000   1.0000
     0.0000   0.0000   0.0000   0.0000   0.0000   0.0000   0.0000   0.0000
     0.0000   0.0000   0.0000   0.0000   0.0000   0.0000   0.0000   0.0000
     0.0000   0.0000   0.0000   0.0000   0.0000   0.0000

          k = 0.1067 0.5697 0.0000 ( 11934 PWs)   bands (ev):

   -15.1711 -15.1300 -14.1126 -14.0806  -8.2941  -8.2696  -3.2721  -2.9952
     0.5466   0.7805   7.6036   7.7660  10.2457  10.5802  10.7118  10.9859
    11.6015  11.8197  12.0981  12.2690  12.5440  12.8000  13.2470  13.5651
    14.2694  14.5625  15.1850  15.4017  16.6551  16.8409

     occupation numbers 
     1.0000   1.0000   1.0000   1.0000   1.0000   1.0000   1.0000   1.0000
     0.0000   0.0000   0.0000   0.0000   0.0000   0.0000   0.0000   0.0000
     0.0000   0.0000   0.0000   0.0000   0.0000   0.0000   0.0000   0.0000
     0.0000   0.0000   0.0000   0.0000   0.0000   0.0000

          k = 0.1200 0.2078 0.0000 ( 11877 PWs)   bands (ev):

   -19.6063 -19.5087  -7.8053  -7.0729  -7.0505  -7.0357  -6.0183  -6.0088
     3.7728   4.1734   4.8747   5.6081   5.9010   7.2039   7.4186   7.5552
     7.5804   8.2746   8.3510   9.3415   9.9038   9.9391  10.3809  12.4280
    13.8736  14.0848  14.1865  16.3055  17.7432  18.5684

     occupation numbers 
     1.0000   1.0000   1.0000   1.0000   1.0000   1.0000   1.0000   1.0000
     0.0000   0.0000   0.0000   0.0000   0.0000   0.0000   0.0000   0.0000
     0.0000   0.0000   0.0000   0.0000   0.0000   0.0000   0.0000   0.0000
     0.0000   0.0000   0.0000   0.0000   0.0000   0.0000

          k = 0.1200 0.2232 0.0000 ( 11873 PWs)   bands (ev):

   -19.4894 -19.3925  -7.6658  -7.3061  -7.2917  -6.9363  -6.2089  -6.1987
     3.9314   4.3335   5.0385   5.7707   6.0568   7.1299   7.2759   7.3560
     7.7326   8.3657   8.4456   9.4922  10.0504  10.0912  10.5392  12.5737
    14.0284  14.3926  14.4996  16.4273  17.7856  18.3391

     occupation numbers 
     1.0000   1.0000   1.0000   1.0000   1.0000   1.0000   1.0000   1.0000
     0.0000   0.0000   0.0000   0.0000   0.0000   0.0000   0.0000   0.0000
     0.0000   0.0000   0.0000   0.0000   0.0000   0.0000   0.0000   0.0000
     0.0000   0.0000   0.0000   0.0000   0.0000   0.0000

          k = 0.1200 0.2386 0.0000 ( 11880 PWs)   bands (ev):

   -19.3643 -19.2682  -7.5756  -7.5591  -7.5167  -6.7923  -6.3964  -6.3850
     4.1012   4.5048   5.2139   5.9447   6.2231   6.8293   6.9842   7.5140
     7.9002   8.4340   8.5176   9.6531  10.2274  10.2783  10.7087  12.7284
    14.1934  14.7081  14.8234  16.5495  17.6525  18.2884

     occupation numbers 
     1.0000   1.0000   1.0000   1.0000   1.0000   1.0000   1.0000   1.0000
     0.0000   0.0000   0.0000   0.0000   0.0000   0.0000   0.0000   0.0000
     0.0000   0.0000   0.0000   0.0000   0.0000   0.0000   0.0000   0.0000
     0.0000   0.0000   0.0000   0.0000   0.0000   0.0000

          k = 0.1200 0.2540 0.0000 ( 11894 PWs)   bands (ev):

   -19.2310 -19.1359  -7.8577  -7.8390  -7.3587  -6.6394  -6.5786  -6.5658
     4.2822   4.6872   5.4010   6.1295   6.3974   6.5190   6.6839   7.6831
     8.0749   8.4805   8.5658   9.8242  10.4361  10.5016  10.8896  12.8915
    14.3681  15.0261  15.1529  16.6676  17.3836  18.3858

     occupation numbers 
     1.0000   1.0000   1.0000   1.0000   1.0000   1.0000   1.0000   1.0000
     0.0000   0.0000   0.0000   0.0000   0.0000   0.0000   0.0000   0.0000
     0.0000   0.0000   0.0000   0.0000   0.0000   0.0000   0.0000   0.0000
     0.0000   0.0000   0.0000   0.0000   0.0000   0.0000

          k = 0.1200 0.2694 0.0000 ( 11904 PWs)   bands (ev):

   -19.0898 -18.9956  -8.1518  -8.1304  -7.1914  -6.7541  -6.7397  -6.4779
     4.4742   4.8802   5.5997   6.1921   6.3330   6.3611   6.5971   7.8612
     8.2473   8.5164   8.5931  10.0050  10.6740  10.7575  11.0819  13.0624
    14.5520  15.3403  15.4816  16.7752  17.0863  18.5334

     occupation numbers 
     1.0000   1.0000   1.0000   1.0000   1.0000   1.0000   1.0000   1.0000
     0.0000   0.0000   0.0000   0.0000   0.0000   0.0000   0.0000   0.0000
     0.0000   0.0000   0.0000   0.0000   0.0000   0.0000   0.0000   0.0000
     0.0000   0.0000   0.0000   0.0000   0.0000   0.0000

          k = 0.1200 0.2848 0.0000 ( 11902 PWs)   bands (ev):

   -18.9405 -18.8473  -8.4561  -8.4319  -7.0153  -6.9219  -6.9059  -6.3080
     4.6773   5.0826   5.8094   5.8689   6.0472   6.5381   6.7912   8.0468
     8.3754   8.5773   8.6157  10.1955  10.9357  11.0408  11.2862  13.2402
    14.7438  15.6421  15.7949  16.7972  16.8746  18.7016

     occupation numbers 
     1.0000   1.0000   1.0000   1.0000   1.0000   1.0000   1.0000   1.0000
     0.0000   0.0000   0.0000   0.0000   0.0000   0.0000   0.0000   0.0000
     0.0000   0.0000   0.0000   0.0000   0.0000   0.0000   0.0000   0.0000
     0.0000   0.0000   0.0000   0.0000   0.0000   0.0000

          k = 0.1200 0.3002 0.0000 ( 11916 PWs)   bands (ev):

   -18.7833 -18.6911  -8.7690  -8.7420  -7.0817  -7.0642  -6.8306  -6.1301
     4.8911   5.2825   5.5485   5.7227   6.0328   6.7579   6.9988   8.2348
     8.4099   8.5986   8.7612  10.3953  11.2140  11.3454  11.5035  13.4239
    14.9407  15.9057  16.0468  16.6071  16.9381  18.8355

     occupation numbers 
     1.0000   1.0000   1.0000   1.0000   1.0000   1.0000   1.0000   1.0000
     0.0000   0.0000   0.0000   0.0000   0.0000   0.0000   0.0000   0.0000
     0.0000   0.0000   0.0000   0.0000   0.0000   0.0000   0.0000   0.0000
     0.0000   0.0000   0.0000   0.0000   0.0000   0.0000

          k = 0.1200 0.3156 0.0000 ( 11920 PWs)   bands (ev):

   -18.6182 -18.5271  -9.0889  -9.0592  -7.2330  -7.2142  -6.6374  -5.9444
     5.1081   5.1736   5.3927   5.5515   6.2661   6.9892   7.2163   8.3815
     8.4202   8.6207   8.9717  10.6041  11.5006  11.6638  11.7375  13.6119
    15.1341  15.9615  16.2304  16.6547  16.9948  18.7653

     occupation numbers 
     1.0000   1.0000   1.0000   1.0000   1.0000   1.0000   1.0000   1.0000
     0.0000   0.0000   0.0000   0.0000   0.0000   0.0000   0.0000   0.0000
     0.0000   0.0000   0.0000   0.0000   0.0000   0.0000   0.0000   0.0000
     0.0000   0.0000   0.0000   0.0000   0.0000   0.0000

          k = 0.1200 0.3310 0.0000 ( 11918 PWs)   bands (ev):

   -18.4453 -18.3554  -9.4142  -9.3819  -7.3759  -7.3560  -6.4361  -5.7513
     4.8253   5.0604   5.3545   5.7797   6.5111   7.2318   7.4425   8.3647
     8.4794   8.7435   9.2032  10.8213  11.7858  11.9648  12.0165  13.8023
    15.2884  15.8294  16.4143  16.8026  17.1123  18.7590

     occupation numbers 
     1.0000   1.0000   1.0000   1.0000   1.0000   1.0000   1.0000   1.0000
     0.0000   0.0000   0.0000   0.0000   0.0000   0.0000   0.0000   0.0000
     0.0000   0.0000   0.0000   0.0000   0.0000   0.0000   0.0000   0.0000
     0.0000   0.0000   0.0000   0.0000   0.0000   0.0000

          k = 0.1200 0.3464 0.0000 ( 11929 PWs)   bands (ev):

   -18.2648 -18.1760  -9.7434  -9.7086  -7.5103  -7.4894  -6.2272  -5.5513
     4.4769   4.7249   5.6008   6.0268   6.7677   7.4852   7.6754   8.3306
     8.4742   8.9477   9.4489  11.0465  12.0607  12.2348  12.3494  13.9923
    15.2847  15.8254  16.5139  16.8695  17.3437  18.7944

     occupation numbers 
     1.0000   1.0000   1.0000   1.0000   1.0000   1.0000   1.0000   1.0000
     0.0000   0.0000   0.0000   0.0000   0.0000   0.0000   0.0000   0.0000
     0.0000   0.0000   0.0000   0.0000   0.0000   0.0000   0.0000   0.0000
     0.0000   0.0000   0.0000   0.0000   0.0000   0.0000

          k = 0.1200 0.3618 0.0000 ( 11935 PWs)   bands (ev):

   -18.0766 -17.9891 -10.0752 -10.0379  -7.6362  -7.6144  -6.0110  -5.3449
     4.1249   4.3876   5.8582   6.2859   7.0356   7.7486   7.9094   8.2948
     8.4580   9.1763   9.7067  11.2789  12.3220  12.5084  12.6889  14.1782
    15.1202  15.9955  16.5142  16.8972  17.5942  18.8052

     occupation numbers 
     1.0000   1.0000   1.0000   1.0000   1.0000   1.0000   1.0000   1.0000
     0.0000   0.0000   0.0000   0.0000   0.0000   0.0000   0.0000   0.0000
     0.0000   0.0000   0.0000   0.0000   0.0000   0.0000   0.0000   0.0000
     0.0000   0.0000   0.0000   0.0000   0.0000   0.0000

          k = 0.1200 0.3772 0.0000 ( 11918 PWs)   bands (ev):

   -17.8811 -17.7948 -10.4082 -10.3687  -7.7536  -7.7311  -5.7881  -5.1330
     3.7721   4.0497   6.1263   6.5561   7.3147   8.0153   8.1206   8.2707
     8.4628   9.4172   9.9756  11.5176  12.5688  12.7779  13.0224  14.3550
    14.9229  16.2227  16.4623  16.8631  17.7751  18.5555

     occupation numbers 
     1.0000   1.0000   1.0000   1.0000   1.0000   1.0000   1.0000   1.0000
     0.0000   0.0000   0.0000   0.0000   0.0000   0.0000   0.0000   0.0000
     0.0000   0.0000   0.0000   0.0000   0.0000   0.0000   0.0000   0.0000
     0.0000   0.0000   0.0000   0.0000   0.0000   0.0000

          k = 0.1200 0.3926 0.0000 ( 11922 PWs)   bands (ev):

   -17.6782 -17.5933 -10.7416 -10.6998  -7.8625  -7.8393  -5.5591  -4.9162
     3.4203   3.7126   6.4047   6.8368   7.6043   8.1630   8.2591   8.3553
     8.5697   9.6676  10.2549  11.7614  12.7926  13.0339  13.3374  14.5154
    14.7410  16.3820  16.4744  16.7555  17.7399  18.1166

     occupation numbers 
     1.0000   1.0000   1.0000   1.0000   1.0000   1.0000   1.0000   1.0000
     0.0000   0.0000   0.0000   0.0000   0.0000   0.0000   0.0000   0.0000
     0.0000   0.0000   0.0000   0.0000   0.0000   0.0000   0.0000   0.0000
     0.0000   0.0000   0.0000   0.0000   0.0000   0.0000

          k = 0.1200 0.4080 0.0000 ( 11939 PWs)   bands (ev):

   -17.4682 -17.3847 -11.0741 -11.0302  -7.9628  -7.9391  -5.3249  -4.6958
     3.0717   3.3777   6.6931   7.1273   7.9015   8.1448   8.2771   8.6314
     8.7958   9.9260  10.5439  12.0085  12.9715  13.2720  13.6131  14.5683
    14.6855  16.3031  16.5436  16.7723  17.4737  17.6236

     occupation numbers 
     1.0000   1.0000   1.0000   1.0000   1.0000   1.0000   1.0000   1.0000
     0.0000   0.0000   0.0000   0.0000   0.0000   0.0000   0.0000   0.0000
     0.0000   0.0000   0.0000   0.0000   0.0000   0.0000   0.0000   0.0000
     0.0000   0.0000   0.0000   0.0000   0.0000   0.0000

          k = 0.1200 0.4234 0.0000 ( 11943 PWs)   bands (ev):

   -17.2513 -17.1692 -11.4050 -11.3590  -8.0546  -8.0305  -5.0866  -4.4731
     2.7282   3.0465   6.9909   7.4263   8.1020   8.1871   8.2959   8.9381
     9.0611  10.1915  10.8417  12.2562  13.0775  13.4772  13.8196  14.4851
    14.8170  16.1922  16.3667  16.9927  17.1202  17.2189

     occupation numbers 
     1.0000   1.0000   1.0000   1.0000   1.0000   1.0000   1.0000   1.0000
     0.0000   0.0000   0.0000   0.0000   0.0000   0.0000   0.0000   0.0000
     0.0000   0.0000   0.0000   0.0000   0.0000   0.0000   0.0000   0.0000
     0.0000   0.0000   0.0000   0.0000   0.0000   0.0000

          k = 0.1200 0.4388 0.0000 ( 11941 PWs)   bands (ev):

   -17.0278 -16.9473 -11.7331 -11.6852  -8.1378  -8.1132  -4.8454  -4.2500
     2.3926   2.7209   7.2967   7.7284   8.0823   8.2144   8.5630   9.2581
     9.3404  10.4631  11.1469  12.4995  13.0954  13.5815  13.9636  14.4627
    14.9754  16.0482  16.1342  16.6253  16.9566  17.2990

     occupation numbers 
     1.0000   1.0000   1.0000   1.0000   1.0000   1.0000   1.0000   1.0000
     0.0000   0.0000   0.0000   0.0000   0.0000   0.0000   0.0000   0.0000
     0.0000   0.0000   0.0000   0.0000   0.0000   0.0000   0.0000   0.0000
     0.0000   0.0000   0.0000   0.0000   0.0000   0.0000

          k = 0.1200 0.4542 0.0000 ( 11943 PWs)   bands (ev):

   -16.7981 -16.7192 -12.0577 -12.0080  -8.2124  -8.1875  -4.6032  -4.0288
     2.0676   2.4032   7.6061   7.9672   8.1312   8.2010   8.8938   9.5893
     9.6267  10.7400  11.4569  12.7243  13.0345  13.5282  14.0556  14.5155
    15.1725  15.7827  15.8761  16.2528  16.7354  17.2813

     occupation numbers 
     1.0000   1.0000   1.0000   1.0000   1.0000   1.0000   1.0000   1.0000
     0.0000   0.0000   0.0000   0.0000   0.0000   0.0000   0.0000   0.0000
     0.0000   0.0000   0.0000   0.0000   0.0000   0.0000   0.0000   0.0000
     0.0000   0.0000   0.0000   0.0000   0.0000   0.0000

          k = 0.1200 0.4696 0.0000 ( 11945 PWs)   bands (ev):

   -16.5627 -16.4857 -12.3775 -12.3262  -8.2783  -8.2531  -4.3623  -3.8127
     1.7572   2.0961   7.8851   8.0058   8.1979   8.4198   9.2385   9.9155
     9.9313  11.0209  11.7656  12.8179  12.9981  13.3843  14.0143  14.6926
    15.3290  15.4159  15.6015  15.9822  16.4943  17.1149

     occupation numbers 
     1.0000   1.0000   1.0000   1.0000   1.0000   1.0000   1.0000   1.0000
     0.0000   0.0000   0.0000   0.0000   0.0000   0.0000   0.0000   0.0000
     0.0000   0.0000   0.0000   0.0000   0.0000   0.0000   0.0000   0.0000
     0.0000   0.0000   0.0000   0.0000   0.0000   0.0000

          k = 0.1200 0.4850 0.0000 ( 11941 PWs)   bands (ev):

   -16.3226 -16.2475 -12.6914 -12.6386  -8.3354  -8.3100  -4.1258  -3.6059
     1.4661   1.8031   7.9436   8.0822   8.3583   8.7505   9.5938  10.2039
    10.2825  11.3041  12.0556  12.6407  13.0541  13.2629  13.9237  14.8202
    14.9998  15.2552  15.5637  15.7613  16.2947  16.9250

     occupation numbers 
     1.0000   1.0000   1.0000   1.0000   1.0000   1.0000   1.0000   1.0000
     0.0000   0.0000   0.0000   0.0000   0.0000   0.0000   0.0000   0.0000
     0.0000   0.0000   0.0000   0.0000   0.0000   0.0000   0.0000   0.0000
     0.0000   0.0000   0.0000   0.0000   0.0000   0.0000

          k = 0.1200 0.5004 0.0000 ( 11941 PWs)   bands (ev):

   -16.0791 -16.0062 -12.9975 -12.9437  -8.3839  -8.3583  -3.8981  -3.4141
     1.2002   1.5289   7.9281   8.0857   8.6752   9.0939   9.9573  10.4869
    10.6423  11.5851  12.2231  12.4457  12.9327  13.2475  13.9232  14.3847
    14.8762  15.1322  15.4380  15.8725  16.1150  16.7361

     occupation numbers 
     1.0000   1.0000   1.0000   1.0000   1.0000   1.0000   1.0000   1.0000
     0.0000   0.0000   0.0000   0.0000   0.0000   0.0000   0.0000   0.0000
     0.0000   0.0000   0.0000   0.0000   0.0000   0.0000   0.0000   0.0000
     0.0000   0.0000   0.0000   0.0000   0.0000   0.0000

          k = 0.1200 0.5158 0.0000 ( 11945 PWs)   bands (ev):

   -15.8346 -15.7646 -13.2928 -13.2386  -8.4236  -8.3978  -3.6851  -3.2443
     0.9672   1.2795   7.9110   8.0746   9.0227   9.4445  10.3247  10.7597
    11.0074  11.8422  12.0029  12.4162  12.8348  13.2640  13.9146  14.0243
    14.5140  14.8875  15.6133  15.8669  16.0822  16.5433

     occupation numbers 
     1.0000   1.0000   1.0000   1.0000   1.0000   1.0000   1.0000   1.0000
     0.0000   0.0000   0.0000   0.0000   0.0000   0.0000   0.0000   0.0000
     0.0000   0.0000   0.0000   0.0000   0.0000   0.0000   0.0000   0.0000
     0.0000   0.0000   0.0000   0.0000   0.0000   0.0000

          k = 0.1200 0.5312 0.0000 ( 11947 PWs)   bands (ev):

   -15.5940 -15.5278 -13.5717 -13.5184  -8.4545  -8.4286  -3.4953  -3.1047
     0.7759   1.0634   7.8966   8.0633   9.3824   9.7987  10.6814  11.0195
    11.3648  11.6499  12.0303  12.3130  12.7889  13.3541  13.5443  13.9167
    14.3993  14.5460  15.6142  15.8222  16.1555  16.4835

     occupation numbers 
     1.0000   1.0000   1.0000   1.0000   1.0000   1.0000   1.0000   1.0000
     0.0000   0.0000   0.0000   0.0000   0.0000   0.0000   0.0000   0.0000
     0.0000   0.0000   0.0000   0.0000   0.0000   0.0000   0.0000   0.0000
     0.0000   0.0000   0.0000   0.0000   0.0000   0.0000

          k = 0.1200 0.5466 0.0000 ( 11942 PWs)   bands (ev):

   -15.3680 -15.3083 -13.8217 -13.7723  -8.4765  -8.4505  -3.3400  -3.0033
     0.6351   0.8916   7.8859   8.0544   9.7498  10.1509  10.9668  11.2562
    11.2984  11.6945  11.9498  12.3644  12.8017  13.0058  13.5597  13.7125
    14.2242  14.5642  15.3390  15.7380  16.3002  16.6402

     occupation numbers 
     1.0000   1.0000   1.0000   1.0000   1.0000   1.0000   1.0000   1.0000
     0.0000   0.0000   0.0000   0.0000   0.0000   0.0000   0.0000   0.0000
     0.0000   0.0000   0.0000   0.0000   0.0000   0.0000   0.0000   0.0000
     0.0000   0.0000   0.0000   0.0000   0.0000   0.0000

          k = 0.1200 0.5620 0.0000 ( 11938 PWs)   bands (ev):

   -15.1836 -15.1355 -14.0127 -13.9736  -8.4898  -8.4638  -3.2348  -2.9441
     0.5504   0.7782   7.8793   8.0488  10.1208  10.4846  10.9028  11.0357
    11.5609  11.7487  12.0923  12.3802  12.6156  12.9381  13.2640  13.6966
    14.2099  14.6619  15.1519  15.4981  16.5396  16.8167

     occupation numbers 
     1.0000   1.0000   1.0000   1.0000   1.0000   1.0000   1.0000   1.0000
     0.0000   0.0000   0.0000   0.0000   0.0000   0.0000   0.0000   0.0000
     0.0000   0.0000   0.0000   0.0000   0.0000   0.0000   0.0000   0.0000
     0.0000   0.0000   0.0000   0.0000   0.0000   0.0000

          k = 0.1200 0.5774 0.0000 ( 11947 PWs)   bands (ev):

   -15.1035 -15.0661 -14.0875 -14.0599  -8.4942  -8.4682  -3.1969  -2.9254
     0.5226   0.7380   7.8772   8.0470  10.4410  10.5427  10.7644  10.9089
    11.6226  11.9451  12.1074  12.2696  12.7188  12.7231  13.3437  13.4862
    14.4314  14.5263  15.2208  15.2972  16.7236  16.8013

     occupation numbers 
     1.0000   1.0000   1.0000   1.0000   1.0000   1.0000   1.0000   1.0000
     0.0000   0.0000   0.0000   0.0000   0.0000   0.0000   0.0000   0.0000
     0.0000   0.0000   0.0000   0.0000   0.0000   0.0000   0.0000   0.0000
     0.0000   0.0000   0.0000   0.0000   0.0000   0.0000

          k = 0.1333 0.2309 0.0000 ( 11879 PWs)   bands (ev):

   -19.3684 -19.2724  -7.5498  -7.5348  -7.5214  -6.7971  -6.4102  -6.3998
     4.0956   4.4992   5.2081   5.9390   6.2181   6.8428   6.9966   7.5071
     7.8964   8.4930   8.5748   9.6471  10.1537  10.1965  10.7024  12.7226
    14.1880  14.7160  14.8268  16.5436  17.6452  18.2821

     occupation numbers 
     1.0000   1.0000   1.0000   1.0000   1.0000   1.0000   1.0000   1.0000
     0.0000   0.0000   0.0000   0.0000   0.0000   0.0000   0.0000   0.0000
     0.0000   0.0000   0.0000   0.0000   0.0000   0.0000   0.0000   0.0000
     0.0000   0.0000   0.0000   0.0000   0.0000   0.0000

          k = 0.1333 0.2463 0.0000 ( 11908 PWs)   bands (ev):

   -19.2394 -19.1442  -7.8060  -7.7901  -7.3684  -6.6489  -6.6081  -6.5970
     4.2710   4.6761   5.3894   6.1188   6.3893   6.5452   6.7046   7.6712
     8.0700   8.5971   8.6815   9.8120  10.2879  10.3379  10.8766  12.8798
    14.3571  15.0444  15.1607  16.6555  17.3662  18.3744

     occupation numbers 
     1.0000   1.0000   1.0000   1.0000   1.0000   1.0000   1.0000   1.0000
     0.0000   0.0000   0.0000   0.0000   0.0000   0.0000   0.0000   0.0000
     0.0000   0.0000   0.0000   0.0000   0.0000   0.0000   0.0000   0.0000
     0.0000   0.0000   0.0000   0.0000   0.0000   0.0000

          k = 0.1333 0.2617 0.0000 ( 11896 PWs)   bands (ev):

   -19.1022 -19.0080  -8.0756  -8.0579  -7.2060  -6.8002  -6.7878  -6.4919
     4.4574   4.8639   5.5823   6.2342   6.3125   6.4007   6.5757   7.8450
     8.2514   8.6741   8.7604   9.9867  10.4576  10.5219  11.0618  13.0446
    14.5353  15.3717  15.4941  16.7566  17.0577  18.5172

     occupation numbers 
     1.0000   1.0000   1.0000   1.0000   1.0000   1.0000   1.0000   1.0000
     0.0000   0.0000   0.0000   0.0000   0.0000   0.0000   0.0000   0.0000
     0.0000   0.0000   0.0000   0.0000   0.0000   0.0000   0.0000   0.0000
     0.0000   0.0000   0.0000   0.0000   0.0000   0.0000

          k = 0.1333 0.2771 0.0000 ( 11914 PWs)   bands (ev):

   -18.9571 -18.8638  -8.3578  -8.3375  -7.0346  -6.9844  -6.9704  -6.3265
     4.6550   5.0622   5.7865   5.9204   6.0932   6.5139   6.7673   8.0279
     8.4337   8.7303   8.8119  10.1709  10.6631  10.7471  11.2579  13.2161
    14.7213  15.6891  15.8099  16.7660  16.8423  18.6809

     occupation numbers 
     1.0000   1.0000   1.0000   1.0000   1.0000   1.0000   1.0000   1.0000
     0.0000   0.0000   0.0000   0.0000   0.0000   0.0000   0.0000   0.0000
     0.0000   0.0000   0.0000   0.0000   0.0000   0.0000   0.0000   0.0000
     0.0000   0.0000   0.0000   0.0000   0.0000   0.0000

          k = 0.1333 0.2925 0.0000 ( 11909 PWs)   bands (ev):

   -18.8040 -18.7117  -8.6512  -8.6281  -7.1596  -7.1438  -6.8544  -6.1529
     4.8634   5.2668   5.6015   5.7779   6.0035   6.7282   6.9703   8.2187
     8.5864   8.7961   8.8446  10.3644  10.9002  11.0079  11.4648  13.3931
    14.9119  15.9630  16.0518  16.5863  16.9004  18.8109

     occupation numbers 
     1.0000   1.0000   1.0000   1.0000   1.0000   1.0000   1.0000   1.0000
     0.0000   0.0000   0.0000   0.0000   0.0000   0.0000   0.0000   0.0000
     0.0000   0.0000   0.0000   0.0000   0.0000   0.0000   0.0000   0.0000
     0.0000   0.0000   0.0000   0.0000   0.0000   0.0000

          k = 0.1333 0.3079 0.0000 ( 11929 PWs)   bands (ev):

   -18.6430 -18.5517  -8.9544  -8.9283  -7.3250  -7.3075  -6.6657  -5.9713
     5.0809   5.2489   5.4578   5.5117   6.2311   6.9539   7.1833   8.4146
     8.6490   8.8424   8.9627  10.5667  11.1615  11.2967  11.6823  13.5742
    15.0975  15.9395  16.2793  16.6877  16.9499  18.7434

     occupation numbers 
     1.0000   1.0000   1.0000   1.0000   1.0000   1.0000   1.0000   1.0000
     0.0000   0.0000   0.0000   0.0000   0.0000   0.0000   0.0000   0.0000
     0.0000   0.0000   0.0000   0.0000   0.0000   0.0000   0.0000   0.0000
     0.0000   0.0000   0.0000   0.0000   0.0000   0.0000

          k = 0.1333 0.3233 0.0000 ( 11923 PWs)   bands (ev):

   -18.4742 -18.3840  -9.2656  -9.2366  -7.4806  -7.4615  -6.4688  -5.7822
     4.9162   5.1333   5.3158   5.7356   6.4704   7.1909   7.4056   8.5996
     8.6550   8.8564   9.1721  10.7772  11.4385  11.6064  11.9103  13.7570
    15.2380  15.7801  16.4701  16.8619  17.0877  18.7452

     occupation numbers 
     1.0000   1.0000   1.0000   1.0000   1.0000   1.0000   1.0000   1.0000
     0.0000   0.0000   0.0000   0.0000   0.0000   0.0000   0.0000   0.0000
     0.0000   0.0000   0.0000   0.0000   0.0000   0.0000   0.0000   0.0000
     0.0000   0.0000   0.0000   0.0000   0.0000   0.0000

          k = 0.1333 0.3387 0.0000 ( 11925 PWs)   bands (ev):

   -18.2977 -18.2087  -9.5830  -9.5513  -7.6263  -7.6059  -6.2639  -5.5859
     4.5768   4.8056   5.5565   5.9776   6.7212   7.4391   7.6364   8.6242
     8.7298   8.9377   9.4067  10.9956  11.7224  11.9305  12.1484  13.9389
    15.2089  15.7780  16.5400  16.9703  17.3559  18.8002

     occupation numbers 
     1.0000   1.0000   1.0000   1.0000   1.0000   1.0000   1.0000   1.0000
     0.0000   0.0000   0.0000   0.0000   0.0000   0.0000   0.0000   0.0000
     0.0000   0.0000   0.0000   0.0000   0.0000   0.0000   0.0000   0.0000
     0.0000   0.0000   0.0000   0.0000   0.0000   0.0000

          k = 0.1333 0.3541 0.0000 ( 11933 PWs)   bands (ev):

   -18.1135 -18.0258  -9.9052  -9.8707  -7.7623  -7.7407  -6.0516  -5.3830
     4.2328   4.4755   5.8085   6.2314   6.9835   7.6982   7.8740   8.5946
     8.7418   9.1298   9.6563  11.2208  12.0039  12.2625  12.3959  14.1159
    15.0261  15.9474  16.5152  17.0575  17.6319  18.8712

     occupation numbers 
     1.0000   1.0000   1.0000   1.0000   1.0000   1.0000   1.0000   1.0000
     0.0000   0.0000   0.0000   0.0000   0.0000   0.0000   0.0000   0.0000
     0.0000   0.0000   0.0000   0.0000   0.0000   0.0000   0.0000   0.0000
     0.0000   0.0000   0.0000   0.0000   0.0000   0.0000

          k = 0.1333 0.3695 0.0000 ( 11939 PWs)   bands (ev):

   -17.9219 -17.8354 -10.2306 -10.1935  -7.8888  -7.8662  -5.8322  -5.1740
     3.8868   4.1442   6.0713   6.4961   7.2572   7.9673   8.1143   8.5611
     8.7285   9.3573   9.9179  11.4521  12.2732  12.5950  12.6512  14.2832
    14.8156  16.1718  16.4607  17.0671  17.8476  18.8356

     occupation numbers 
     1.0000   1.0000   1.0000   1.0000   1.0000   1.0000   1.0000   1.0000
     0.0000   0.0000   0.0000   0.0000   0.0000   0.0000   0.0000   0.0000
     0.0000   0.0000   0.0000   0.0000   0.0000   0.0000   0.0000   0.0000
     0.0000   0.0000   0.0000   0.0000   0.0000   0.0000

          k = 0.1333 0.3849 0.0000 ( 11925 PWs)   bands (ev):

   -17.7229 -17.6377 -10.5578 -10.5183  -8.0060  -7.9825  -5.6065  -4.9598
     3.5407   3.8127   6.3445   6.7713   7.5419   8.2417   8.3412   8.5347
     8.7252   9.5982  10.1904  11.6882  12.5186  12.8990  12.9300  14.4342
    14.6213  16.3886  16.4338  16.9706  17.8792  18.4392

     occupation numbers 
     1.0000   1.0000   1.0000   1.0000   1.0000   1.0000   1.0000   1.0000
     0.0000   0.0000   0.0000   0.0000   0.0000   0.0000   0.0000   0.0000
     0.0000   0.0000   0.0000   0.0000   0.0000   0.0000   0.0000   0.0000
     0.0000   0.0000   0.0000   0.0000   0.0000   0.0000

          k = 0.1333 0.4003 0.0000 ( 11932 PWs)   bands (ev):

   -17.5167 -17.4329 -10.8856 -10.8438  -8.1139  -8.0896  -5.3750  -4.7412
     3.1962   3.4823   6.6281   7.0566   7.8372   8.4267   8.5115   8.5950
     8.7977   9.8482  10.4726  11.9271  12.7259  13.1474  13.2367  14.4525
    14.5773  16.3562  16.6463  16.8130  17.6446  17.9606

     occupation numbers 
     1.0000   1.0000   1.0000   1.0000   1.0000   1.0000   1.0000   1.0000
     0.0000   0.0000   0.0000   0.0000   0.0000   0.0000   0.0000   0.0000
     0.0000   0.0000   0.0000   0.0000   0.0000   0.0000   0.0000   0.0000
     0.0000   0.0000   0.0000   0.0000   0.0000   0.0000

          k = 0.1333 0.4157 0.0000 ( 11931 PWs)   bands (ev):

   -17.3036 -17.2212 -11.2129 -11.1689  -8.2127  -8.1878  -5.1388  -4.5196
     2.8553   3.1544   6.9215   7.3514   8.1406   8.4174   8.5529   8.8658
     9.0043  10.1054  10.7636  12.1666  12.8780  13.3522  13.5177  14.3595
    14.6918  16.2974  16.5235  16.9638  17.3342  17.4519

     occupation numbers 
     1.0000   1.0000   1.0000   1.0000   1.0000   1.0000   1.0000   1.0000
     0.0000   0.0000   0.0000   0.0000   0.0000   0.0000   0.0000   0.0000
     0.0000   0.0000   0.0000   0.0000   0.0000   0.0000   0.0000   0.0000
     0.0000   0.0000   0.0000   0.0000   0.0000   0.0000

          k = 0.1333 0.4311 0.0000 ( 11945 PWs)   bands (ev):

   -17.0837 -17.0028 -11.5386 -11.4925  -8.3024  -8.2769  -4.8990  -4.2963
     2.5203   2.8308   7.2243   7.6544   8.3746   8.4456   8.5653   9.1765
     9.2634  10.3688  11.0616  12.4021  12.9585  13.4591  13.7626  14.3606
    14.8064  16.1785  16.2847  16.9243  17.0811  17.2579

     occupation numbers 
     1.0000   1.0000   1.0000   1.0000   1.0000   1.0000   1.0000   1.0000
     0.0000   0.0000   0.0000   0.0000   0.0000   0.0000   0.0000   0.0000
     0.0000   0.0000   0.0000   0.0000   0.0000   0.0000   0.0000   0.0000
     0.0000   0.0000   0.0000   0.0000   0.0000   0.0000

          k = 0.1333 0.4465 0.0000 ( 11953 PWs)   bands (ev):

   -16.8575 -16.7782 -11.8617 -11.8137  -8.3831  -8.3571  -4.6571  -4.0736
     2.1937   2.5133   7.5353   7.9611   8.3578   8.4975   8.8127   9.5006
     9.5371  10.6373  11.3638  12.6238  12.9651  13.4416  13.9450  14.4573
    14.9493  15.9690  16.0220  16.4748  16.9061  17.3948

     occupation numbers 
     1.0000   1.0000   1.0000   1.0000   1.0000   1.0000   1.0000   1.0000
     0.0000   0.0000   0.0000   0.0000   0.0000   0.0000   0.0000   0.0000
     0.0000   0.0000   0.0000   0.0000   0.0000   0.0000   0.0000   0.0000
     0.0000   0.0000   0.0000   0.0000   0.0000   0.0000

          k = 0.1333 0.4619 0.0000 ( 11927 PWs)   bands (ev):

   -16.6253 -16.5477 -12.1811 -12.1313  -8.4548  -8.4285  -4.4150  -3.8541
     1.8791   2.2044   7.8507   8.2236   8.3887   8.4841   9.1469   9.8150
     9.8359  10.9101  11.6640  12.7801  12.9447  13.3386  14.0062  14.6368
    15.1375  15.6126  15.7707  16.1155  16.6650  17.2376

     occupation numbers 
     1.0000   1.0000   1.0000   1.0000   1.0000   1.0000   1.0000   1.0000
     0.0000   0.0000   0.0000   0.0000   0.0000   0.0000   0.0000   0.0000
     0.0000   0.0000   0.0000   0.0000   0.0000   0.0000   0.0000   0.0000
     0.0000   0.0000   0.0000   0.0000   0.0000   0.0000

          k = 0.1333 0.4773 0.0000 ( 11951 PWs)   bands (ev):

   -16.3879 -16.3122 -12.4957 -12.4442  -8.5175  -8.4909  -4.1756  -3.6414
     1.5804   1.9070   8.1449   8.2793   8.4783   8.6575   9.4949  10.0922
    10.1805  11.1862  11.9469  12.7139  13.0229  13.2198  13.9636  14.8654
    15.1733  15.3582  15.4713  15.8463  16.3994  17.0240

     occupation numbers 
     1.0000   1.0000   1.0000   1.0000   1.0000   1.0000   1.0000   1.0000
     0.0000   0.0000   0.0000   0.0000   0.0000   0.0000   0.0000   0.0000
     0.0000   0.0000   0.0000   0.0000   0.0000   0.0000   0.0000   0.0000
     0.0000   0.0000   0.0000   0.0000   0.0000   0.0000

          k = 0.1333 0.4927 0.0000 ( 11955 PWs)   bands (ev):

   -16.1464 -16.0728 -12.8037 -12.7510  -8.5713  -8.5444  -3.9424  -3.4404
     1.3032   1.6252   8.2249   8.3692   8.6127   8.9867   9.8514  10.3638
    10.5334  11.4635  12.1613  12.5435  12.9872  13.2115  13.9252  14.6789
    15.1079  15.1382  15.4745  15.7076  16.1835  16.8149

     occupation numbers 
     1.0000   1.0000   1.0000   1.0000   1.0000   1.0000   1.0000   1.0000
     0.0000   0.0000   0.0000   0.0000   0.0000   0.0000   0.0000   0.0000
     0.0000   0.0000   0.0000   0.0000   0.0000   0.0000   0.0000   0.0000
     0.0000   0.0000   0.0000   0.0000   0.0000   0.0000

          k = 0.1333 0.5081 0.0000 ( 11947 PWs)   bands (ev):

   -15.9026 -15.8314 -13.1030 -13.0494  -8.6161  -8.5890  -3.7204  -3.2574
     1.0542   1.3640   8.2123   8.3796   8.9273   9.3280  10.2107  10.6264
    10.8917  11.7352  12.1381  12.4062  12.9254  13.2406  13.9782  14.2183
    14.7454  15.0533  15.5417  15.8835  15.9908  16.6144

     occupation numbers 
     1.0000   1.0000   1.0000   1.0000   1.0000   1.0000   1.0000   1.0000
     0.0000   0.0000   0.0000   0.0000   0.0000   0.0000   0.0000   0.0000
     0.0000   0.0000   0.0000   0.0000   0.0000   0.0000   0.0000   0.0000
     0.0000   0.0000   0.0000   0.0000   0.0000   0.0000

          k = 0.1333 0.5235 0.0000 ( 11947 PWs)   bands (ev):

   -15.6599 -15.5919 -13.3894 -13.3359  -8.6520  -8.6247  -3.5167  -3.1003
     0.8419   1.1307   8.1973   8.3708   9.2767   9.6735  10.5564  10.8840
    11.2468  11.8449  12.0023  12.3073  12.8533  13.3796  13.7662  14.0418
    14.4462  14.7269  15.7599  15.7745  16.0792  16.4493

     occupation numbers 
     1.0000   1.0000   1.0000   1.0000   1.0000   1.0000   1.0000   1.0000
     0.0000   0.0000   0.0000   0.0000   0.0000   0.0000   0.0000   0.0000
     0.0000   0.0000   0.0000   0.0000   0.0000   0.0000   0.0000   0.0000
     0.0000   0.0000   0.0000   0.0000   0.0000   0.0000

          k = 0.1333 0.5389 0.0000 ( 11935 PWs)   bands (ev):

   -15.4253 -15.3622 -13.6547 -13.6033  -8.6789  -8.6514  -3.3413  -2.9776
     0.6756   0.9348   8.1850   8.3615   9.6376  10.0171  10.8354  11.1667
    11.4751  11.6191  12.0461  12.3128  12.8073  13.2716  13.6719  13.8180
    14.3895  14.4717  15.5127  15.8169  16.2123  16.5102

     occupation numbers 
     1.0000   1.0000   1.0000   1.0000   1.0000   1.0000   1.0000   1.0000
     0.0000   0.0000   0.0000   0.0000   0.0000   0.0000   0.0000   0.0000
     0.0000   0.0000   0.0000   0.0000   0.0000   0.0000   0.0000   0.0000
     0.0000   0.0000   0.0000   0.0000   0.0000   0.0000

          k = 0.1333 0.5543 0.0000 ( 11952 PWs)   bands (ev):

   -15.2157 -15.1613 -13.8795 -13.8347  -8.6968  -8.6693  -3.2077  -2.8961
     0.5633   0.7891   8.1765   8.3546  10.0042  10.3472  10.9698  11.1460
    11.5016  11.7286  12.0637  12.4119  12.8279  12.9313  13.4633  13.8118
    14.2025  14.6327  15.2581  15.6088  16.4269  16.7178

     occupation numbers 
     1.0000   1.0000   1.0000   1.0000   1.0000   1.0000   1.0000   1.0000
     0.0000   0.0000   0.0000   0.0000   0.0000   0.0000   0.0000   0.0000
     0.0000   0.0000   0.0000   0.0000   0.0000   0.0000   0.0000   0.0000
     0.0000   0.0000   0.0000   0.0000   0.0000   0.0000

          k = 0.1333 0.5697 0.0000 ( 11950 PWs)   bands (ev):

   -15.0735 -15.0328 -14.0194 -13.9882  -8.7058  -8.6782  -3.1333  -2.8573
     0.5081   0.7095   8.1721   8.3510  10.3664  10.6143  10.7973  10.9402
    11.6205  11.9056  12.1690  12.3845  12.6714  12.9320  13.3210  13.5893
    14.4028  14.6538  15.1572  15.3708  16.6327  16.8530

     occupation numbers 
     1.0000   1.0000   1.0000   1.0000   1.0000   1.0000   1.0000   1.0000
     0.0000   0.0000   0.0000   0.0000   0.0000   0.0000   0.0000   0.0000
     0.0000   0.0000   0.0000   0.0000   0.0000   0.0000   0.0000   0.0000
     0.0000   0.0000   0.0000   0.0000   0.0000   0.0000

          k = 0.1467 0.2540 0.0000 ( 11937 PWs)   bands (ev):

   -19.1064 -19.0121  -8.0483  -8.0323  -7.2109  -6.8171  -6.8057  -6.4966
     4.4519   4.8585   5.5765   6.2499   6.3041   6.4150   6.5675   7.8394
     8.2497   8.7422   8.8272   9.9805  10.3769  10.4282  11.0554  13.0386
    14.5298  15.3825  15.4980  16.7503  17.0479  18.5118

     occupation numbers 
     1.0000   1.0000   1.0000   1.0000   1.0000   1.0000   1.0000   1.0000
     0.0000   0.0000   0.0000   0.0000   0.0000   0.0000   0.0000   0.0000
     0.0000   0.0000   0.0000   0.0000   0.0000   0.0000   0.0000   0.0000
     0.0000   0.0000   0.0000   0.0000   0.0000   0.0000

          k = 0.1467 0.2694 0.0000 ( 11921 PWs)   bands (ev):

   -18.9654 -18.8720  -8.3034  -8.2863  -7.0443  -7.0200  -7.0078  -6.3357
     4.6438   5.0519   5.7750   5.9469   6.1167   6.5017   6.7550   8.0172
     8.4376   8.8592   8.9449  10.1585  10.5021  10.5630  11.2450  13.2039
    14.7100  15.7145  15.8155  16.7496  16.8262  18.6706

     occupation numbers 
     1.0000   1.0000   1.0000   1.0000   1.0000   1.0000   1.0000   1.0000
     0.0000   0.0000   0.0000   0.0000   0.0000   0.0000   0.0000   0.0000
     0.0000   0.0000   0.0000   0.0000   0.0000   0.0000   0.0000   0.0000
     0.0000   0.0000   0.0000   0.0000   0.0000   0.0000

          k = 0.1467 0.2848 0.0000 ( 11921 PWs)   bands (ev):

   -18.8164 -18.7240  -8.5714  -8.5523  -7.2143  -7.2007  -6.8687  -6.1666
     4.8468   5.2550   5.6366   5.8119   5.9858   6.7102   6.9529   8.2042
     8.6284   8.9467   9.0300  10.3455  10.6675  10.7481  11.4450  13.3745
    14.8945  16.0007  16.0480  16.5765  16.8773  18.7945

     occupation numbers 
     1.0000   1.0000   1.0000   1.0000   1.0000   1.0000   1.0000   1.0000
     0.0000   0.0000   0.0000   0.0000   0.0000   0.0000   0.0000   0.0000
     0.0000   0.0000   0.0000   0.0000   0.0000   0.0000   0.0000   0.0000
     0.0000   0.0000   0.0000   0.0000   0.0000   0.0000

          k = 0.1467 0.3002 0.0000 ( 11923 PWs)   bands (ev):

   -18.6595 -18.5682  -8.8516  -8.8298  -7.3983  -7.3830  -6.6846  -5.9893
     5.0597   5.3081   5.4802   5.5027   6.2077   6.9302   7.1607   8.3993
     8.8012   9.0254   9.0856  10.5412  10.8724  10.9794  11.6551  13.5487
    15.0727  15.9162  16.3148  16.7162  16.9178  18.7261

     occupation numbers 
     1.0000   1.0000   1.0000   1.0000   1.0000   1.0000   1.0000   1.0000
     0.0000   0.0000   0.0000   0.0000   0.0000   0.0000   0.0000   0.0000
     0.0000   0.0000   0.0000   0.0000   0.0000   0.0000   0.0000   0.0000
     0.0000   0.0000   0.0000   0.0000   0.0000   0.0000

          k = 0.1467 0.3156 0.0000 ( 11941 PWs)   bands (ev):

   -18.4948 -18.4045  -9.1429  -9.1180  -7.5711  -7.5539  -6.4921  -5.8043
     4.9847   5.1861   5.2882   5.7030   6.4412   7.1615   7.3781   8.6010
     8.8973   9.0998   9.1799  10.7450  11.1100  11.2478  11.8749  13.7243
    15.2002  15.7411  16.5003  16.9166  17.0712  18.7301

     occupation numbers 
     1.0000   1.0000   1.0000   1.0000   1.0000   1.0000   1.0000   1.0000
     0.0000   0.0000   0.0000   0.0000   0.0000   0.0000   0.0000   0.0000
     0.0000   0.0000   0.0000   0.0000   0.0000   0.0000   0.0000   0.0000
     0.0000   0.0000   0.0000   0.0000   0.0000   0.0000

          k = 0.1467 0.3310 0.0000 ( 11935 PWs)   bands (ev):

   -18.3224 -18.2332  -9.4434  -9.4155  -7.7324  -7.7133  -6.2915  -5.6119
     4.6555   4.8671   5.5232   5.9401   6.6863   7.4041   7.6045   8.8024
     8.9181   9.1181   9.3845  10.9564  11.3706  11.5437  12.1037  13.8981
    15.1477  15.7412  16.5412  17.0665  17.3686  18.7934

     occupation numbers 
     1.0000   1.0000   1.0000   1.0000   1.0000   1.0000   1.0000   1.0000
     0.0000   0.0000   0.0000   0.0000   0.0000   0.0000   0.0000   0.0000
     0.0000   0.0000   0.0000   0.0000   0.0000   0.0000   0.0000   0.0000
     0.0000   0.0000   0.0000   0.0000   0.0000   0.0000

          k = 0.1467 0.3464 0.0000 ( 11939 PWs)   bands (ev):

   -18.1423 -18.0543  -9.7515  -9.7206  -7.8822  -7.8615  -6.0832  -5.4126
     4.3212   4.5452   5.7697   6.1884   6.9429   7.6578   7.8392   8.9001
     8.9790   9.1596   9.6210  11.1745  11.6434  11.8585  12.3401  14.0664
    14.9475  15.9093  16.5003  17.2064  17.6655  18.8909

     occupation numbers 
     1.0000   1.0000   1.0000   1.0000   1.0000   1.0000   1.0000   1.0000
     0.0000   0.0000   0.0000   0.0000   0.0000   0.0000   0.0000   0.0000
     0.0000   0.0000   0.0000   0.0000   0.0000   0.0000   0.0000   0.0000
     0.0000   0.0000   0.0000   0.0000   0.0000   0.0000

          k = 0.1467 0.3618 0.0000 ( 11935 PWs)   bands (ev):

   -17.9546 -17.8679 -10.0653 -10.0315  -8.0209  -7.9988  -5.8677  -5.2070
     3.9839   4.2214   6.0271   6.4475   7.2109   7.9223   8.0805   8.8768
     9.0267   9.3210   9.8737  11.3982  11.9175  12.1842  12.5818  14.2242
    14.7237  16.1301  16.4446  17.2658  17.9141  18.9678

     occupation numbers 
     1.0000   1.0000   1.0000   1.0000   1.0000   1.0000   1.0000   1.0000
     0.0000   0.0000   0.0000   0.0000   0.0000   0.0000   0.0000   0.0000
     0.0000   0.0000   0.0000   0.0000   0.0000   0.0000   0.0000   0.0000
     0.0000   0.0000   0.0000   0.0000   0.0000   0.0000

          k = 0.1467 0.3772 0.0000 ( 11957 PWs)   bands (ev):

   -17.7596 -17.6741 -10.3832 -10.3466  -8.1488  -8.1255  -5.6454  -4.9956
     3.6451   3.8967   6.2951   6.7169   7.4901   8.1969   8.3254   8.8462
     9.0199   9.5440  10.1385  11.6263  12.1815  12.5132  12.8243  14.3658
    14.5175  16.3635  16.4094  17.2026  18.0203  18.7375

     occupation numbers 
     1.0000   1.0000   1.0000   1.0000   1.0000   1.0000   1.0000   1.0000
     0.0000   0.0000   0.0000   0.0000   0.0000   0.0000   0.0000   0.0000
     0.0000   0.0000   0.0000   0.0000   0.0000   0.0000   0.0000   0.0000
     0.0000   0.0000   0.0000   0.0000   0.0000   0.0000

          k = 0.1467 0.3926 0.0000 ( 11939 PWs)   bands (ev):

   -17.5573 -17.4732 -10.7036 -10.6644  -8.2664  -8.2419  -5.4170  -4.7793
     3.3067   3.5722   6.5734   6.9965   7.7805   8.4783   8.5637   8.8184
     9.0119   9.7833  10.4135  11.8568  12.4219  12.8348  13.0585  14.3445
    14.4935  16.3780  16.6219  17.0256  17.8434  18.3093

     occupation numbers 
     1.0000   1.0000   1.0000   1.0000   1.0000   1.0000   1.0000   1.0000
     0.0000   0.0000   0.0000   0.0000   0.0000   0.0000   0.0000   0.0000
     0.0000   0.0000   0.0000   0.0000   0.0000   0.0000   0.0000   0.0000
     0.0000   0.0000   0.0000   0.0000   0.0000   0.0000

          k = 0.1467 0.4080 0.0000 ( 11935 PWs)   bands (ev):

   -17.3479 -17.2653 -11.0252 -10.9835  -8.3738  -8.3484  -5.1833  -4.5592
     2.9702   3.2491   6.8620   7.2859   8.0813   8.7015   8.7649   8.8523
     9.0502  10.0314  10.6972  12.0874  12.6227  13.1229  13.2753  14.2447
    14.5979  16.3682  16.7186  16.9321  17.5128  17.8012

     occupation numbers 
     1.0000   1.0000   1.0000   1.0000   1.0000   1.0000   1.0000   1.0000
     0.0000   0.0000   0.0000   0.0000   0.0000   0.0000   0.0000   0.0000
     0.0000   0.0000   0.0000   0.0000   0.0000   0.0000   0.0000   0.0000
     0.0000   0.0000   0.0000   0.0000   0.0000   0.0000

          k = 0.1467 0.4234 0.0000 ( 11940 PWs)   bands (ev):

   -17.1318 -17.0506 -11.3466 -11.3027  -8.4713  -8.4452  -4.9453  -4.3366
     2.6377   2.9290   7.1603   7.5843   8.3905   8.7083   8.8442   9.1108
     9.2200  10.2860  10.9877  12.3140  12.7661  13.2916  13.5056  14.2543
    14.6923  16.3168  16.4616  17.1376  17.2410  17.2968

     occupation numbers 
     1.0000   1.0000   1.0000   1.0000   1.0000   1.0000   1.0000   1.0000
     0.0000   0.0000   0.0000   0.0000   0.0000   0.0000   0.0000   0.0000
     0.0000   0.0000   0.0000   0.0000   0.0000   0.0000   0.0000   0.0000
     0.0000   0.0000   0.0000   0.0000   0.0000   0.0000

          k = 0.1467 0.4388 0.0000 ( 11945 PWs)   bands (ev):

   -16.9091 -16.8294 -11.6667 -11.6206  -8.5592  -8.5324  -4.7043  -4.1132
     2.3117   2.6134   7.4680   7.8905   8.6614   8.7153   8.8577   9.4248
     9.4657  10.5458  11.2818  12.5284  12.8406  13.3156  13.7358  14.3827
    14.7948  16.1348  16.1997  16.7756  17.0366  17.4428

     occupation numbers 
     1.0000   1.0000   1.0000   1.0000   1.0000   1.0000   1.0000   1.0000
     0.0000   0.0000   0.0000   0.0000   0.0000   0.0000   0.0000   0.0000
     0.0000   0.0000   0.0000   0.0000   0.0000   0.0000   0.0000   0.0000
     0.0000   0.0000   0.0000   0.0000   0.0000   0.0000

          k = 0.1467 0.4542 0.0000 ( 11943 PWs)   bands (ev):

   -16.6803 -16.6023 -11.9842 -11.9362  -8.6376  -8.6103  -4.4620  -3.8914
     1.9950   2.3045   7.7838   8.2007   8.6522   8.7993   9.0738   9.7280
     9.7525  10.8102  11.5727  12.6982  12.8715  13.2603  13.8956  14.5830
    14.9347  15.8296  15.9419  16.3316  16.8719  17.3663

     occupation numbers 
     1.0000   1.0000   1.0000   1.0000   1.0000   1.0000   1.0000   1.0000
     0.0000   0.0000   0.0000   0.0000   0.0000   0.0000   0.0000   0.0000
     0.0000   0.0000   0.0000   0.0000   0.0000   0.0000   0.0000   0.0000
     0.0000   0.0000   0.0000   0.0000   0.0000   0.0000

          k = 0.1467 0.4696 0.0000 ( 11953 PWs)   bands (ev):

   -16.4459 -16.3697 -12.2981 -12.2483  -8.7066  -8.6788  -4.2206  -3.6742
     1.6914   2.0049   8.1049   8.4832   8.6666   8.7882   9.4092   9.9919
    10.0901  11.0788  11.8454  12.7176  12.9582  13.1743  13.9528  14.8134
    15.1254  15.4514  15.6586  15.9859  16.5809  17.1690

     occupation numbers 
     1.0000   1.0000   1.0000   1.0000   1.0000   1.0000   1.0000   1.0000
     0.0000   0.0000   0.0000   0.0000   0.0000   0.0000   0.0000   0.0000
     0.0000   0.0000   0.0000   0.0000   0.0000   0.0000   0.0000   0.0000
     0.0000   0.0000   0.0000   0.0000   0.0000   0.0000

          k = 0.1467 0.4850 0.0000 ( 11961 PWs)   bands (ev):

   -16.2069 -16.1326 -12.6068 -12.5554  -8.7663  -8.7381  -3.9833  -3.4658
     1.4055   1.7179   8.4127   8.5687   8.7800   8.9016   9.7575  10.2504
    10.4359  11.3511  12.0609  12.6280  12.9821  13.1702  13.9433  14.9383
    15.1166  15.2906  15.4047  15.7294  16.2993  16.9260

     occupation numbers 
     1.0000   1.0000   1.0000   1.0000   1.0000   1.0000   1.0000   1.0000
     0.0000   0.0000   0.0000   0.0000   0.0000   0.0000   0.0000   0.0000
     0.0000   0.0000   0.0000   0.0000   0.0000   0.0000   0.0000   0.0000
     0.0000   0.0000   0.0000   0.0000   0.0000   0.0000

          k = 0.1467 0.5004 0.0000 ( 11953 PWs)   bands (ev):

   -15.9646 -15.8925 -12.9083 -12.8558  -8.8167  -8.7882  -3.7543  -3.2716
     1.1434   1.4479   8.5231   8.6715   8.8815   9.2249  10.1078  10.5013
    10.7868  11.6248  12.1433  12.4672  12.9847  13.2189  13.9569  14.5226
    14.9744  15.1777  15.4967  15.7143  16.0820  16.7058

     occupation numbers 
     1.0000   1.0000   1.0000   1.0000   1.0000   1.0000   1.0000   1.0000
     0.0000   0.0000   0.0000   0.0000   0.0000   0.0000   0.0000   0.0000
     0.0000   0.0000   0.0000   0.0000   0.0000   0.0000   0.0000   0.0000
     0.0000   0.0000   0.0000   0.0000   0.0000   0.0000

          k = 0.1467 0.5158 0.0000 ( 11941 PWs)   bands (ev):

   -15.7214 -15.6522 -13.1997 -13.1467  -8.8579  -8.8292  -3.5394  -3.0990
     0.9129   1.2008   8.5142   8.6932   9.1882   9.5595  10.4393  10.7547
    11.1351  11.8813  12.0372  12.3028  12.9588  13.3421  14.0358  14.0646
    14.6358  14.9149  15.6821  15.8927  15.9472  16.5073

     occupation numbers 
     1.0000   1.0000   1.0000   1.0000   1.0000   1.0000   1.0000   1.0000
     0.0000   0.0000   0.0000   0.0000   0.0000   0.0000   0.0000   0.0000
     0.0000   0.0000   0.0000   0.0000   0.0000   0.0000   0.0000   0.0000
     0.0000   0.0000   0.0000   0.0000   0.0000   0.0000

          k = 0.1467 0.5312 0.0000 ( 11943 PWs)   bands (ev):

   -15.4822 -15.4168 -13.4752 -13.4230  -8.8899  -8.8611  -3.3470  -2.9564
     0.7233   0.9849   8.5015   8.6872   9.5380   9.8930  10.7007  11.0488
    11.4501  11.7476  12.0963  12.2479  12.8650  13.5151  13.6826  14.0208
    14.4383  14.5799  15.6576  15.8528  16.1477  16.4245

     occupation numbers 
     1.0000   1.0000   1.0000   1.0000   1.0000   1.0000   1.0000   1.0000
     0.0000   0.0000   0.0000   0.0000   0.0000   0.0000   0.0000   0.0000
     0.0000   0.0000   0.0000   0.0000   0.0000   0.0000   0.0000   0.0000
     0.0000   0.0000   0.0000   0.0000   0.0000   0.0000

          k = 0.1467 0.5466 0.0000 ( 11948 PWs)   bands (ev):

   -15.2577 -15.1987 -13.7224 -13.6740  -8.9128  -8.8838  -3.1891  -2.8522
     0.5841   0.8113   8.4914   8.6800   9.8983  10.2140  10.8529  11.3650
    11.4140  11.7008  12.1021  12.3873  12.8702  13.1398  13.7171  13.8616
    14.2874  14.5538  15.4173  15.7295  16.3249  16.6014

     occupation numbers 
     1.0000   1.0000   1.0000   1.0000   1.0000   1.0000   1.0000   1.0000
     0.0000   0.0000   0.0000   0.0000   0.0000   0.0000   0.0000   0.0000
     0.0000   0.0000   0.0000   0.0000   0.0000   0.0000   0.0000   0.0000
     0.0000   0.0000   0.0000   0.0000   0.0000   0.0000

          k = 0.1467 0.5620 0.0000 ( 11956 PWs)   bands (ev):

   -15.0747 -15.0272 -13.9112 -13.8731  -8.9265  -8.8974  -3.0815  -2.7914
     0.5016   0.6950   8.4851   8.6751  10.2595  10.4982  10.8878  11.0403
    11.6549  11.8063  12.1783  12.5361  12.7399  13.0206  13.4051  13.7587
    14.3537  14.7034  15.1959  15.4880  16.5233  16.8161

     occupation numbers 
     1.0000   1.0000   1.0000   1.0000   1.0000   1.0000   1.0000   1.0000
     0.0000   0.0000   0.0000   0.0000   0.0000   0.0000   0.0000   0.0000
     0.0000   0.0000   0.0000   0.0000   0.0000   0.0000   0.0000   0.0000
     0.0000   0.0000   0.0000   0.0000   0.0000   0.0000

          k = 0.1467 0.5774 0.0000 ( 11941 PWs)   bands (ev):

   -14.9953 -14.9584 -13.9852 -13.9585  -8.9311  -8.9020  -3.0425  -2.7722
     0.4750   0.6531   8.4830   8.6734  10.5416  10.6526  10.7340  10.8815
    11.6244  12.0639  12.2565  12.3351  12.8862  12.8875  13.4392  13.5070
    14.5655  14.6628  15.1637  15.3213  16.6308  16.8914

     occupation numbers 
     1.0000   1.0000   1.0000   1.0000   1.0000   1.0000   1.0000   1.0000
     0.0000   0.0000   0.0000   0.0000   0.0000   0.0000   0.0000   0.0000
     0.0000   0.0000   0.0000   0.0000   0.0000   0.0000   0.0000   0.0000
     0.0000   0.0000   0.0000   0.0000   0.0000   0.0000

          k = 0.1600 0.2771 0.0000 ( 11921 PWs)   bands (ev):

   -18.8206 -18.7281  -8.5427  -8.5255  -7.2342  -7.2218  -6.8735  -6.1711
     4.8412   5.2508   5.6487   5.8234   5.9799   6.7042   6.9470   8.1989
     8.6319   9.0225   9.1066  10.3390  10.5806  10.6413  11.4386  13.3683
    14.8886  16.0160  16.0434  16.5737  16.8695  18.7888

     occupation numbers 
     1.0000   1.0000   1.0000   1.0000   1.0000   1.0000   1.0000   1.0000
     0.0000   0.0000   0.0000   0.0000   0.0000   0.0000   0.0000   0.0000
     0.0000   0.0000   0.0000   0.0000   0.0000   0.0000   0.0000   0.0000
     0.0000   0.0000   0.0000   0.0000   0.0000   0.0000

          k = 0.1600 0.2925 0.0000 ( 11923 PWs)   bands (ev):

   -18.6678 -18.5764  -8.7946  -8.7762  -7.4397  -7.4264  -6.6940  -5.9983
     5.0489   5.3427   5.4606   5.5250   6.1960   6.9183   7.1493   8.3895
     8.8303   9.1538   9.2347  10.5275  10.7003  10.7732  11.6422  13.5359
    15.0602  15.9024  16.3327  16.7336  16.9002  18.7166

     occupation numbers 
     1.0000   1.0000   1.0000   1.0000   1.0000   1.0000   1.0000   1.0000
     0.0000   0.0000   0.0000   0.0000   0.0000   0.0000   0.0000   0.0000
     0.0000   0.0000   0.0000   0.0000   0.0000   0.0000   0.0000   0.0000
     0.0000   0.0000   0.0000   0.0000   0.0000   0.0000

          k = 0.1600 0.3079 0.0000 ( 11929 PWs)   bands (ev):

   -18.5072 -18.4168  -9.0593  -9.0388  -7.6341  -7.6193  -6.5061  -5.8176
     5.0275   5.2178   5.2717   5.6829   6.4237   7.1438   7.3612   8.5882
     9.0184   9.2602   9.3257  10.7236  10.8647  10.9638  11.8553  13.7044
    15.1767  15.7164  16.5131  16.9619  17.0556  18.7193

     occupation numbers 
     1.0000   1.0000   1.0000   1.0000   1.0000   1.0000   1.0000   1.0000
     0.0000   0.0000   0.0000   0.0000   0.0000   0.0000   0.0000   0.0000
     0.0000   0.0000   0.0000   0.0000   0.0000   0.0000   0.0000   0.0000
     0.0000   0.0000   0.0000   0.0000   0.0000   0.0000

          k = 0.1600 0.3233 0.0000 ( 11935 PWs)   bands (ev):

   -18.3388 -18.2496  -9.3362  -9.3128  -7.8160  -7.7993  -6.3099  -5.6293
     4.7103   4.9084   5.5009   5.9147   6.6630   7.3806   7.5825   8.7939
     9.1483   9.3625   9.4141  10.9272  11.0713  11.2047  12.0769  13.8706
    15.1048  15.7163  16.5340  17.1437  17.3745  18.7845

     occupation numbers 
     1.0000   1.0000   1.0000   1.0000   1.0000   1.0000   1.0000   1.0000
     0.0000   0.0000   0.0000   0.0000   0.0000   0.0000   0.0000   0.0000
     0.0000   0.0000   0.0000   0.0000   0.0000   0.0000   0.0000   0.0000
     0.0000   0.0000   0.0000   0.0000   0.0000   0.0000

          k = 0.1600 0.3387 0.0000 ( 11939 PWs)   bands (ev):

   -18.1628 -18.0747  -9.6239  -9.5974  -7.9847  -7.9660  -6.1059  -5.4339
     4.3872   4.5955   5.7420   6.1573   6.9138   7.6286   7.8124   9.0036
     9.1936   9.3977   9.6091  11.1378  11.3100  11.4829  12.3055  14.0304
    14.8885  15.8818  16.4824  17.3308  17.6858  18.8919

     occupation numbers 
     1.0000   1.0000   1.0000   1.0000   1.0000   1.0000   1.0000   1.0000
     0.0000   0.0000   0.0000   0.0000   0.0000   0.0000   0.0000   0.0000
     0.0000   0.0000   0.0000   0.0000   0.0000   0.0000   0.0000   0.0000
     0.0000   0.0000   0.0000   0.0000   0.0000   0.0000

          k = 0.1600 0.3541 0.0000 ( 11951 PWs)   bands (ev):

   -17.9792 -17.8923  -9.9207  -9.8909  -8.1402  -8.1195  -5.8943  -5.2317
     4.0602   4.2802   5.9939   6.4105   7.1760   7.8876   8.0499   9.1841
     9.2155   9.4211   9.8459  11.3539  11.5683  11.7864  12.5385  14.1791
    14.6513  16.0984  16.4244  17.4451  17.9599  19.0115

     occupation numbers 
     1.0000   1.0000   1.0000   1.0000   1.0000   1.0000   1.0000   1.0000
     0.0000   0.0000   0.0000   0.0000   0.0000   0.0000   0.0000   0.0000
     0.0000   0.0000   0.0000   0.0000   0.0000   0.0000   0.0000   0.0000
     0.0000   0.0000   0.0000   0.0000   0.0000   0.0000

          k = 0.1600 0.3695 0.0000 ( 11953 PWs)   bands (ev):

   -17.7881 -17.7025 -10.2246 -10.1916  -8.2828  -8.2605  -5.6757  -5.0235
     3.7307   3.9633   6.2565   6.6741   7.4496   8.1574   8.2938   9.1738
     9.3212   9.5255  10.1006  11.5739  11.8329  12.1046  12.7706  14.3113
    14.4331  16.3325  16.3901  17.4329  18.1349  18.9925

     occupation numbers 
     1.0000   1.0000   1.0000   1.0000   1.0000   1.0000   1.0000   1.0000
     0.0000   0.0000   0.0000   0.0000   0.0000   0.0000   0.0000   0.0000
     0.0000   0.0000   0.0000   0.0000   0.0000   0.0000   0.0000   0.0000
     0.0000   0.0000   0.0000   0.0000   0.0000   0.0000

          k = 0.1600 0.3849 0.0000 ( 11949 PWs)   bands (ev):

   -17.5898 -17.5055 -10.5336 -10.4978  -8.4133  -8.3894  -5.4506  -4.8099
     3.4001   3.6457   6.5295   6.9479   7.7344   8.4373   8.5414   9.1468
     9.3291   9.7359  10.3673  11.7956  12.0906  12.4276  12.9905  14.2534
    14.4272  16.3799  16.5848  17.2790  18.0565  18.6466

     occupation numbers 
     1.0000   1.0000   1.0000   1.0000   1.0000   1.0000   1.0000   1.0000
     0.0000   0.0000   0.0000   0.0000   0.0000   0.0000   0.0000   0.0000
     0.0000   0.0000   0.0000   0.0000   0.0000   0.0000   0.0000   0.0000
     0.0000   0.0000   0.0000   0.0000   0.0000   0.0000

          k = 0.1600 0.4003 0.0000 ( 11937 PWs)   bands (ev):

   -17.3843 -17.3014 -10.8462 -10.8075  -8.5320  -8.5068  -5.2198  -4.5918
     3.0700   3.3287   6.8128   7.2313   8.0301   8.7247   8.7859   9.1191
     9.3204   9.9714  10.6433  12.0166  12.3268  12.7420  13.1752  14.1498
    14.5233  16.4028  16.8194  17.0406  17.7352  18.1657

     occupation numbers 
     1.0000   1.0000   1.0000   1.0000   1.0000   1.0000   1.0000   1.0000
     0.0000   0.0000   0.0000   0.0000   0.0000   0.0000   0.0000   0.0000
     0.0000   0.0000   0.0000   0.0000   0.0000   0.0000   0.0000   0.0000
     0.0000   0.0000   0.0000   0.0000   0.0000   0.0000

          k = 0.1600 0.4157 0.0000 ( 11943 PWs)   bands (ev):

   -17.1719 -17.0904 -11.1606 -11.1193  -8.6395  -8.6132  -4.9841  -4.3704
     2.7422   3.0135   7.1062   7.5240   8.3361   8.9780   9.0125   9.1287
     9.3334  10.2160  10.9259  12.2326  12.5251  13.0152  13.3065  14.1655
    14.6085  16.4196  16.6810  17.1296  17.3854  17.6461

     occupation numbers 
     1.0000   1.0000   1.0000   1.0000   1.0000   1.0000   1.0000   1.0000
     0.0000   0.0000   0.0000   0.0000   0.0000   0.0000   0.0000   0.0000
     0.0000   0.0000   0.0000   0.0000   0.0000   0.0000   0.0000   0.0000
     0.0000   0.0000   0.0000   0.0000   0.0000   0.0000

          k = 0.1600 0.4311 0.0000 ( 11946 PWs)   bands (ev):

   -16.9529 -16.8729 -11.4754 -11.4317  -8.7363  -8.7091  -4.7446  -4.1472
     2.4188   2.7014   7.4092   7.8252   8.6505   9.0140   9.1412   9.3664
     9.4464  10.4667  11.2113  12.4354  12.6701  13.1470  13.4664  14.3087
    14.6945  16.3224  16.3905  17.1030  17.1536  17.4062

     occupation numbers 
     1.0000   1.0000   1.0000   1.0000   1.0000   1.0000   1.0000   1.0000
     0.0000   0.0000   0.0000   0.0000   0.0000   0.0000   0.0000   0.0000
     0.0000   0.0000   0.0000   0.0000   0.0000   0.0000   0.0000   0.0000
     0.0000   0.0000   0.0000   0.0000   0.0000   0.0000

          k = 0.1600 0.4465 0.0000 ( 11949 PWs)   bands (ev):

   -16.7276 -16.6492 -11.7892 -11.7434  -8.8228  -8.7948  -4.5028  -3.9241
     2.1024   2.3944   7.7214   8.1335   8.9501   9.0043   9.1689   9.6642
     9.6823  10.7224  11.4923  12.5980  12.7702  13.1435  13.6749  14.5276
    14.8001  16.0301  16.1369  16.6296  17.0420  17.5232

     occupation numbers 
     1.0000   1.0000   1.0000   1.0000   1.0000   1.0000   1.0000   1.0000
     0.0000   0.0000   0.0000   0.0000   0.0000   0.0000   0.0000   0.0000
     0.0000   0.0000   0.0000   0.0000   0.0000   0.0000   0.0000   0.0000
     0.0000   0.0000   0.0000   0.0000   0.0000   0.0000

          k = 0.1600 0.4619 0.0000 ( 11945 PWs)   bands (ev):

   -16.4965 -16.4198 -12.1007 -12.0528  -8.8991  -8.8705  -4.2605  -3.7036
     1.7962   2.0946   8.0418   8.4452   8.9623   9.1146   9.3465   9.9070
    10.0119  10.9832  11.7530  12.6619  12.8806  13.1079  13.8361  14.7632
    14.9568  15.6855  15.8523  16.1973  16.8180  17.3347

     occupation numbers 
     1.0000   1.0000   1.0000   1.0000   1.0000   1.0000   1.0000   1.0000
     0.0000   0.0000   0.0000   0.0000   0.0000   0.0000   0.0000   0.0000
     0.0000   0.0000   0.0000   0.0000   0.0000   0.0000   0.0000   0.0000
     0.0000   0.0000   0.0000   0.0000   0.0000   0.0000

          k = 0.1600 0.4773 0.0000 ( 11947 PWs)   bands (ev):

   -16.2602 -16.1854 -12.4085 -12.3588  -8.9655  -8.9364  -4.0204  -3.4894
     1.5044   1.8047   8.3678   8.7399   8.9656   9.1092   9.6778  10.1494
    10.3501  11.2497  11.9590  12.6528  12.9389  13.1258  13.9168  14.9615
    15.1848  15.3034  15.5548  15.8670  16.4849  17.0838

     occupation numbers 
     1.0000   1.0000   1.0000   1.0000   1.0000   1.0000   1.0000   1.0000
     0.0000   0.0000   0.0000   0.0000   0.0000   0.0000   0.0000   0.0000
     0.0000   0.0000   0.0000   0.0000   0.0000   0.0000   0.0000   0.0000
     0.0000   0.0000   0.0000   0.0000   0.0000   0.0000

          k = 0.1600 0.4927 0.0000 ( 11947 PWs)   bands (ev):

   -16.0200 -15.9473 -12.7107 -12.6596  -9.0223  -8.9927  -3.7859  -3.2861
     1.2322   1.5286   8.6865   8.8691   9.1001   9.1515  10.0169  10.3870
    10.6930  11.5218  12.0637  12.5577  12.9839  13.2033  13.9481  14.8196
    15.1165  15.2601  15.4679  15.6553  16.2043  16.8274

     occupation numbers 
     1.0000   1.0000   1.0000   1.0000   1.0000   1.0000   1.0000   1.0000
     0.0000   0.0000   0.0000   0.0000   0.0000   0.0000   0.0000   0.0000
     0.0000   0.0000   0.0000   0.0000   0.0000   0.0000   0.0000   0.0000
     0.0000   0.0000   0.0000   0.0000   0.0000   0.0000

          k = 0.1600 0.5081 0.0000 ( 11947 PWs)   bands (ev):

   -15.7776 -15.7073 -13.0049 -12.9529  -9.0694  -9.0395  -3.5621  -3.1002
     0.9866   1.2712   8.8341   8.9821   9.1679   9.4605  10.3311  10.6361
    11.0331  11.7946  12.0630  12.3622  13.0548  13.3038  14.0044  14.3767
    14.8538  15.0883  15.5990  15.8074  16.0079  16.6041

     occupation numbers 
     1.0000   1.0000   1.0000   1.0000   1.0000   1.0000   1.0000   1.0000
     0.0000   0.0000   0.0000   0.0000   0.0000   0.0000   0.0000   0.0000
     0.0000   0.0000   0.0000   0.0000   0.0000   0.0000   0.0000   0.0000
     0.0000   0.0000   0.0000   0.0000   0.0000   0.0000

          k = 0.1600 0.5235 0.0000 ( 11945 PWs)   bands (ev):

   -15.5364 -15.4693 -13.2871 -13.2350  -9.1070  -9.0768  -3.3559  -2.9395
     0.7764   1.0392   8.8300   9.0228   9.4573   9.7805  10.5689  10.9386
    11.3480  11.9136  12.0727  12.2103  12.9782  13.5316  13.9277  14.0917
    14.5500  14.7805  15.6961  15.8922  16.0722  16.4374

     occupation numbers 
     1.0000   1.0000   1.0000   1.0000   1.0000   1.0000   1.0000   1.0000
     0.0000   0.0000   0.0000   0.0000   0.0000   0.0000   0.0000   0.0000
     0.0000   0.0000   0.0000   0.0000   0.0000   0.0000   0.0000   0.0000
     0.0000   0.0000   0.0000   0.0000   0.0000   0.0000

          k = 0.1600 0.5389 0.0000 ( 11946 PWs)   bands (ev):

   -15.3034 -15.2412 -13.5488 -13.4986  -9.1351  -9.1048  -3.1773  -2.8133
     0.6118   0.8422   8.8199   9.0203   9.8051  10.0895  10.7168  11.2969
    11.5314  11.6970  12.1522  12.3430  12.8964  13.4413  13.8410  13.9740
    14.4357  14.5078  15.5544  15.8411  16.2481  16.5026

     occupation numbers 
     1.0000   1.0000   1.0000   1.0000   1.0000   1.0000   1.0000   1.0000
     0.0000   0.0000   0.0000   0.0000   0.0000   0.0000   0.0000   0.0000
     0.0000   0.0000   0.0000   0.0000   0.0000   0.0000   0.0000   0.0000
     0.0000   0.0000   0.0000   0.0000   0.0000   0.0000

          k = 0.1600 0.5543 0.0000 ( 11954 PWs)   bands (ev):

   -15.0953 -15.0417 -13.7708 -13.7271  -9.1538  -9.1234  -3.0406  -2.7292
     0.5017   0.6933   8.8121   9.0153  10.1606  10.3670  10.7899  11.2755
    11.6611  11.7163  12.2234  12.5248  12.9773  13.0206  13.6403  13.9272
    14.3297  14.6574  15.3282  15.6280  16.4230  16.7244

     occupation numbers 
     1.0000   1.0000   1.0000   1.0000   1.0000   1.0000   1.0000   1.0000
     0.0000   0.0000   0.0000   0.0000   0.0000   0.0000   0.0000   0.0000
     0.0000   0.0000   0.0000   0.0000   0.0000   0.0000   0.0000   0.0000
     0.0000   0.0000   0.0000   0.0000   0.0000   0.0000

          k = 0.1600 0.5697 0.0000 ( 11954 PWs)   bands (ev):

   -14.9544 -14.9142 -13.9090 -13.8789  -9.1632  -9.1327  -2.9639  -2.6891
     0.4490   0.6101   8.8080   9.0124  10.4891  10.5835  10.7832  10.9533
    11.6642  12.0535  12.2571  12.5517  12.8404  13.0908  13.4311  13.6586
    14.5617  14.7649  15.1647  15.3952  16.5593  16.8953

     occupation numbers 
     1.0000   1.0000   1.0000   1.0000   1.0000   1.0000   1.0000   1.0000
     0.0000   0.0000   0.0000   0.0000   0.0000   0.0000   0.0000   0.0000
     0.0000   0.0000   0.0000   0.0000   0.0000   0.0000   0.0000   0.0000
     0.0000   0.0000   0.0000   0.0000   0.0000   0.0000

          k = 0.1733 0.3002 0.0000 ( 11929 PWs)   bands (ev):

   -18.5113 -18.4209  -9.0291  -9.0107  -7.6569  -7.6434  -6.5108  -5.8220
     5.0422   5.2284   5.2662   5.6760   6.4179   7.1379   7.3556   8.5832
     9.0363   9.3373   9.4116  10.7115  10.7776  10.8416  11.8488  13.6978
    15.1687  15.7080  16.5163  16.9832  17.0454  18.7154

     occupation numbers 
     1.0000   1.0000   1.0000   1.0000   1.0000   1.0000   1.0000   1.0000
     0.0000   0.0000   0.0000   0.0000   0.0000   0.0000   0.0000   0.0000
     0.0000   0.0000   0.0000   0.0000   0.0000   0.0000   0.0000   0.0000
     0.0000   0.0000   0.0000   0.0000   0.0000   0.0000

          k = 0.1733 0.3156 0.0000 ( 11933 PWs)   bands (ev):

   -18.3471 -18.2578  -9.2764  -9.2567  -7.8629  -7.8485  -6.3191  -5.6380
     4.7385   4.9291   5.4898   5.9018   6.6513   7.3688   7.5713   8.7848
     9.2361   9.4893   9.5496  10.8681  10.9330  10.9747  12.0638  13.8567
    15.0827  15.7037  16.5284  17.1886  17.3740  18.7789

     occupation numbers 
     1.0000   1.0000   1.0000   1.0000   1.0000   1.0000   1.0000   1.0000
     0.0000   0.0000   0.0000   0.0000   0.0000   0.0000   0.0000   0.0000
     0.0000   0.0000   0.0000   0.0000   0.0000   0.0000   0.0000   0.0000
     0.0000   0.0000   0.0000   0.0000   0.0000   0.0000

          k = 0.1733 0.3310 0.0000 ( 11943 PWs)   bands (ev):

   -18.1751 -18.0869  -9.5366  -9.5147  -8.0555  -8.0395  -6.1194  -5.4466
     4.4282   4.6258   5.7253   6.1385   6.8963   7.6110   7.7957   8.9933
     9.3952   9.6216   9.6603  11.0335  11.1326  11.1764  12.2855  14.0086
    14.8519  15.8652  16.4692  17.4173  17.6917  18.8885

     occupation numbers 
     1.0000   1.0000   1.0000   1.0000   1.0000   1.0000   1.0000   1.0000
     0.0000   0.0000   0.0000   0.0000   0.0000   0.0000   0.0000   0.0000
     0.0000   0.0000   0.0000   0.0000   0.0000   0.0000   0.0000   0.0000
     0.0000   0.0000   0.0000   0.0000   0.0000   0.0000

          k = 0.1733 0.3464 0.0000 ( 11949 PWs)   bands (ev):

   -17.9956 -17.9086  -9.8090  -9.7841  -8.2335  -8.2155  -5.9121  -5.2483
     4.1132   4.3196   5.9717   6.3857   7.1528   7.8642   8.0282   9.2070
     9.4732   9.6859   9.8463  11.2365  11.3460  11.4295  12.5108  14.1485
    14.6013  16.0771  16.4074  17.5890  17.9790  19.0221

     occupation numbers 
     1.0000   1.0000   1.0000   1.0000   1.0000   1.0000   1.0000   1.0000
     0.0000   0.0000   0.0000   0.0000   0.0000   0.0000   0.0000   0.0000
     0.0000   0.0000   0.0000   0.0000   0.0000   0.0000   0.0000   0.0000
     0.0000   0.0000   0.0000   0.0000   0.0000   0.0000

          k = 0.1733 0.3618 0.0000 ( 11951 PWs)   bands (ev):

   -17.8085 -17.7228 -10.0922 -10.0639  -8.3965  -8.3763  -5.6974  -5.0435
     3.7946   4.0112   6.2288   6.6433   7.4206   8.1284   8.2676   9.4203
     9.4936   9.7141  10.0812  11.4639  11.5698  11.7181  12.7336  14.2717
    14.3708  16.3084  16.3726  17.6430  18.2000  19.1379

     occupation numbers 
     1.0000   1.0000   1.0000   1.0000   1.0000   1.0000   1.0000   1.0000
     0.0000   0.0000   0.0000   0.0000   0.0000   0.0000   0.0000   0.0000
     0.0000   0.0000   0.0000   0.0000   0.0000   0.0000   0.0000   0.0000
     0.0000   0.0000   0.0000   0.0000   0.0000   0.0000

          k = 0.1733 0.3772 0.0000 ( 11957 PWs)   bands (ev):

   -17.6142 -17.5297 -10.3841 -10.3525  -8.5448  -8.5226  -5.4760  -4.8329
     3.4737   3.7016   6.4965   6.9109   7.6996   8.4032   8.5123   9.4820
     9.6040   9.7601  10.3362  11.6956  11.8048  12.0276  12.9406  14.1830
    14.3771  16.3729  16.5545  17.5388  18.2433  18.9064

     occupation numbers 
     1.0000   1.0000   1.0000   1.0000   1.0000   1.0000   1.0000   1.0000
     0.0000   0.0000   0.0000   0.0000   0.0000   0.0000   0.0000   0.0000
     0.0000   0.0000   0.0000   0.0000   0.0000   0.0000   0.0000   0.0000
     0.0000   0.0000   0.0000   0.0000   0.0000   0.0000

          k = 0.1733 0.3926 0.0000 ( 11951 PWs)   bands (ev):

   -17.4126 -17.3295 -10.6828 -10.6480  -8.6791  -8.6550  -5.2483  -4.6174
     3.1519   3.3918   6.7744   7.1883   7.9897   8.6880   8.7599   9.4598
     9.6519   9.9333  10.6029  11.9181  12.0460  12.3445  13.1029  14.0761
    14.4650  16.4143  16.8023  17.3000  17.9860  18.5315

     occupation numbers 
     1.0000   1.0000   1.0000   1.0000   1.0000   1.0000   1.0000   1.0000
     0.0000   0.0000   0.0000   0.0000   0.0000   0.0000   0.0000   0.0000
     0.0000   0.0000   0.0000   0.0000   0.0000   0.0000   0.0000   0.0000
     0.0000   0.0000   0.0000   0.0000   0.0000   0.0000

          k = 0.1733 0.4080 0.0000 ( 11945 PWs)   bands (ev):

   -17.2041 -17.1223 -10.9862 -10.9483  -8.8001  -8.7744  -5.0153  -4.3977
     2.8307   3.0827   7.0625   7.4749   8.2905   8.9806   9.0055   9.4332
     9.6473  10.1614  10.8769  12.1265  12.2784  12.6517  13.1852  14.0969
    14.5436  16.4755  16.9201  17.1199  17.6076  18.0197

     occupation numbers 
     1.0000   1.0000   1.0000   1.0000   1.0000   1.0000   1.0000   1.0000
     0.0000   0.0000   0.0000   0.0000   0.0000   0.0000   0.0000   0.0000
     0.0000   0.0000   0.0000   0.0000   0.0000   0.0000   0.0000   0.0000
     0.0000   0.0000   0.0000   0.0000   0.0000   0.0000

          k = 0.1733 0.4234 0.0000 ( 11949 PWs)   bands (ev):

   -16.9888 -16.9086 -11.2924 -11.2518  -8.9086  -8.8816  -4.7778  -4.1754
     2.5121   2.7756   7.3605   7.7701   8.6012   9.2335   9.2647   9.4266
     9.6464  10.4014  11.1532  12.3146  12.4859  12.9020  13.2295  14.2472
    14.6235  16.4886  16.6105  17.2727  17.3478  17.5056

     occupation numbers 
     1.0000   1.0000   1.0000   1.0000   1.0000   1.0000   1.0000   1.0000
     0.0000   0.0000   0.0000   0.0000   0.0000   0.0000   0.0000   0.0000
     0.0000   0.0000   0.0000   0.0000   0.0000   0.0000   0.0000   0.0000
     0.0000   0.0000   0.0000   0.0000   0.0000   0.0000

          k = 0.1733 0.4388 0.0000 ( 11941 PWs)   bands (ev):

   -16.7671 -16.6884 -11.5997 -11.5565  -9.0053  -8.9772  -4.5371  -3.9518
     2.1983   2.4721   7.6680   8.0728   8.9195   9.3302   9.4228   9.6314
     9.6973  10.6479  11.4236  12.4659  12.6599  12.9921  13.3878  14.4740
    14.7168  16.2490  16.3554  16.9719  17.1448  17.6077

     occupation numbers 
     1.0000   1.0000   1.0000   1.0000   1.0000   1.0000   1.0000   1.0000
     0.0000   0.0000   0.0000   0.0000   0.0000   0.0000   0.0000   0.0000
     0.0000   0.0000   0.0000   0.0000   0.0000   0.0000   0.0000   0.0000
     0.0000   0.0000   0.0000   0.0000   0.0000   0.0000

          k = 0.1733 0.4542 0.0000 ( 11935 PWs)   bands (ev):

   -16.5394 -16.4623 -11.9066 -11.8611  -9.0907  -9.0617  -4.2948  -3.7293
     1.8921   2.1739   7.9844   8.3814   9.2317   9.3167   9.4896   9.8579
     9.9474  10.9007  11.6711  12.5614  12.7996  13.0085  13.6073  14.7216
    14.8464  15.9090  16.0625  16.4918  17.0557  17.4737

     occupation numbers 
     1.0000   1.0000   1.0000   1.0000   1.0000   1.0000   1.0000   1.0000
     0.0000   0.0000   0.0000   0.0000   0.0000   0.0000   0.0000   0.0000
     0.0000   0.0000   0.0000   0.0000   0.0000   0.0000   0.0000   0.0000
     0.0000   0.0000   0.0000   0.0000   0.0000   0.0000

          k = 0.1733 0.4696 0.0000 ( 11945 PWs)   bands (ev):

   -16.3063 -16.2310 -12.2114 -12.1638  -9.1653  -9.1356  -4.0530  -3.5108
     1.5971   1.8834   8.3088   8.6922   9.2849   9.4333   9.6324  10.0685
    10.2768  11.1609  11.8632  12.6162  12.8746  13.0719  13.7865  14.9045
    15.0778  15.5469  15.7617  16.0729  16.7354  17.2809

     occupation numbers 
     1.0000   1.0000   1.0000   1.0000   1.0000   1.0000   1.0000   1.0000
     0.0000   0.0000   0.0000   0.0000   0.0000   0.0000   0.0000   0.0000
     0.0000   0.0000   0.0000   0.0000   0.0000   0.0000   0.0000   0.0000
     0.0000   0.0000   0.0000   0.0000   0.0000   0.0000

          k = 0.1733 0.4850 0.0000 ( 11947 PWs)   bands (ev):

   -16.0686 -15.9953 -12.5124 -12.4630  -9.2294  -9.1991  -3.8147  -3.3003
     1.3177   1.6038   8.6390   8.9904   9.2820   9.4413   9.9431  10.2878
    10.6111  11.4298  11.9675  12.6044  12.9455  13.1805  13.8981  15.0036
    15.1756  15.3577  15.4800  15.7680  16.3871  16.9941

     occupation numbers 
     1.0000   1.0000   1.0000   1.0000   1.0000   1.0000   1.0000   1.0000
     0.0000   0.0000   0.0000   0.0000   0.0000   0.0000   0.0000   0.0000
     0.0000   0.0000   0.0000   0.0000   0.0000   0.0000   0.0000   0.0000
     0.0000   0.0000   0.0000   0.0000   0.0000   0.0000

          k = 0.1733 0.5004 0.0000 ( 11947 PWs)   bands (ev):

   -15.8277 -15.7566 -12.8074 -12.7567  -9.2833  -9.2525  -3.5839  -3.1031
     1.0602   1.3390   8.9655   9.1700   9.4052   9.4370  10.2352  10.5313
    10.9419  11.7062  12.0000  12.4609  13.0945  13.2823  13.9718  14.6870
    15.0159  15.2332  15.5792  15.7106  16.1282  16.7332

     occupation numbers 
     1.0000   1.0000   1.0000   1.0000   1.0000   1.0000   1.0000   1.0000
     0.0000   0.0000   0.0000   0.0000   0.0000   0.0000   0.0000   0.0000
     0.0000   0.0000   0.0000   0.0000   0.0000   0.0000   0.0000   0.0000
     0.0000   0.0000   0.0000   0.0000   0.0000   0.0000

          k = 0.1733 0.5158 0.0000 ( 11955 PWs)   bands (ev):

   -15.5861 -15.5178 -13.0933 -13.0419  -9.3272  -9.2959  -3.3665  -2.9267
     0.8325   1.0948   9.1521   9.2917   9.4754   9.6868  10.4457  10.8402
    11.2491  11.9559  12.0256  12.2557  13.1047  13.4882  14.0666  14.2459
    14.7450  14.9778  15.6361  15.9706  16.0017  16.5220

     occupation numbers 
     1.0000   1.0000   1.0000   1.0000   1.0000   1.0000   1.0000   1.0000
     0.0000   0.0000   0.0000   0.0000   0.0000   0.0000   0.0000   0.0000
     0.0000   0.0000   0.0000   0.0000   0.0000   0.0000   0.0000   0.0000
     0.0000   0.0000   0.0000   0.0000   0.0000   0.0000

          k = 0.1733 0.5312 0.0000 ( 11955 PWs)   bands (ev):

   -15.3486 -15.2842 -13.3642 -13.3136  -9.3612  -9.3296  -3.1709  -2.7799
     0.6446   0.8790   9.1548   9.3635   9.7335   9.9781  10.5803  11.2021
    11.4814  11.8577  12.1540  12.2944  12.9957  13.7049  13.8591  14.1389
    14.4990  14.6657  15.6155  15.9390  16.2000  16.4597

     occupation numbers 
     1.0000   1.0000   1.0000   1.0000   1.0000   1.0000   1.0000   1.0000
     0.0000   0.0000   0.0000   0.0000   0.0000   0.0000   0.0000   0.0000
     0.0000   0.0000   0.0000   0.0000   0.0000   0.0000   0.0000   0.0000
     0.0000   0.0000   0.0000   0.0000   0.0000   0.0000

          k = 0.1733 0.5466 0.0000 ( 11962 PWs)   bands (ev):

   -15.1258 -15.0677 -13.6077 -13.5607  -9.3854  -9.3536  -3.0091  -2.6720
     0.5073   0.7026   9.1477   9.3657  10.0743  10.2426  10.6621  11.4849
    11.5907  11.6806  12.2890  12.4962  12.9696  13.3247  13.9032  14.0350
    14.3806  14.5965  15.4575  15.7772  16.3478  16.6391

     occupation numbers 
     1.0000   1.0000   1.0000   1.0000   1.0000   1.0000   1.0000   1.0000
     0.0000   0.0000   0.0000   0.0000   0.0000   0.0000   0.0000   0.0000
     0.0000   0.0000   0.0000   0.0000   0.0000   0.0000   0.0000   0.0000
     0.0000   0.0000   0.0000   0.0000   0.0000   0.0000

          k = 0.1733 0.5620 0.0000 ( 11958 PWs)   bands (ev):

   -14.9443 -14.8975 -13.7940 -13.7572  -9.3999  -9.3680  -2.8981  -2.6088
     0.4280   0.5812   9.1424   9.3631  10.3986  10.4627  10.7021  11.1852
    11.6995  11.9833  12.3037  12.7275  12.9154  13.1367  13.5825  13.8638
    14.5204  14.7803  15.2515  15.5327  16.4817  16.8292

     occupation numbers 
     1.0000   1.0000   1.0000   1.0000   1.0000   1.0000   1.0000   1.0000
     0.0000   0.0000   0.0000   0.0000   0.0000   0.0000   0.0000   0.0000
     0.0000   0.0000   0.0000   0.0000   0.0000   0.0000   0.0000   0.0000
     0.0000   0.0000   0.0000   0.0000   0.0000   0.0000

          k = 0.1733 0.5774 0.0000 ( 11951 PWs)   bands (ev):

   -14.8656 -14.8292 -13.8669 -13.8416  -9.4047  -9.3728  -2.8576  -2.5888
     0.4037   0.5362   9.1405   9.3619  10.5164  10.6245  10.7859  10.9145
    11.7163  12.1807  12.4510  12.4741  13.0833  13.0854  13.5736  13.5737
    14.7316  14.8105  15.1711  15.3697  16.5346  16.9036

     occupation numbers 
     1.0000   1.0000   1.0000   1.0000   1.0000   1.0000   1.0000   1.0000
     0.0000   0.0000   0.0000   0.0000   0.0000   0.0000   0.0000   0.0000
     0.0000   0.0000   0.0000   0.0000   0.0000   0.0000   0.0000   0.0000
     0.0000   0.0000   0.0000   0.0000   0.0000   0.0000

          k = 0.1867 0.3233 0.0000 ( 11941 PWs)   bands (ev):

   -18.1792 -18.0910  -9.5049  -9.4853  -8.0811  -8.0666  -6.1240  -5.4509
     4.4421   4.6359   5.7198   6.1321   6.8905   7.6051   7.7901   8.9885
     9.4477   9.6982   9.7402  10.9406  11.0334  11.1237  12.2789  14.0013
    14.8395  15.8596  16.4643  17.4496  17.6911  18.8868

     occupation numbers 
     1.0000   1.0000   1.0000   1.0000   1.0000   1.0000   1.0000   1.0000
     0.0000   0.0000   0.0000   0.0000   0.0000   0.0000   0.0000   0.0000
     0.0000   0.0000   0.0000   0.0000   0.0000   0.0000   0.0000   0.0000
     0.0000   0.0000   0.0000   0.0000   0.0000   0.0000

          k = 0.1867 0.3387 0.0000 ( 11943 PWs)   bands (ev):

   -18.0037 -17.9167  -9.7464  -9.7255  -8.2857  -8.2702  -5.9210  -5.2566
     4.1403   4.3393   5.9607   6.3732   7.1411   7.8525   8.0170   9.1986
     9.6312   9.8724   9.8985  11.0520  11.1692  11.3267  12.4971  14.1331
    14.5758  16.0664  16.3980  17.6748  17.9787  19.0234

     occupation numbers 
     1.0000   1.0000   1.0000   1.0000   1.0000   1.0000   1.0000   1.0000
     0.0000   0.0000   0.0000   0.0000   0.0000   0.0000   0.0000   0.0000
     0.0000   0.0000   0.0000   0.0000   0.0000   0.0000   0.0000   0.0000
     0.0000   0.0000   0.0000   0.0000   0.0000   0.0000

          k = 0.1867 0.3541 0.0000 ( 11951 PWs)   bands (ev):

   -17.8208 -17.7349 -10.0011  -9.9777  -8.4748  -8.4576  -5.7104  -5.0555
     3.8342   4.0401   6.2122   6.6247   7.4031   8.1109   8.2510   9.4140
     9.7477   9.9711  10.0945  11.2124  11.3816  11.5355  12.7117  14.2476
    14.3326  16.2935  16.3604  17.8064  18.2128  19.1641

     occupation numbers 
     1.0000   1.0000   1.0000   1.0000   1.0000   1.0000   1.0000   1.0000
     0.0000   0.0000   0.0000   0.0000   0.0000   0.0000   0.0000   0.0000
     0.0000   0.0000   0.0000   0.0000   0.0000   0.0000   0.0000   0.0000
     0.0000   0.0000   0.0000   0.0000   0.0000   0.0000

          k = 0.1867 0.3695 0.0000 ( 11955 PWs)   bands (ev):

   -17.6304 -17.5458 -10.2681 -10.2416  -8.6473  -8.6279  -5.4929  -4.8483
     3.5247   3.7391   6.4744   6.8861   7.6764   8.3800   8.4906   9.6325
     9.7936  10.0213  10.3265  11.4167  11.6456  11.7502  12.9074  14.1353
    14.3434  16.3646  16.5336  17.7808  18.3424  19.0788

     occupation numbers 
     1.0000   1.0000   1.0000   1.0000   1.0000   1.0000   1.0000   1.0000
     0.0000   0.0000   0.0000   0.0000   0.0000   0.0000   0.0000   0.0000
     0.0000   0.0000   0.0000   0.0000   0.0000   0.0000   0.0000   0.0000
     0.0000   0.0000   0.0000   0.0000   0.0000   0.0000

          k = 0.1867 0.3849 0.0000 ( 11947 PWs)   bands (ev):

   -17.4328 -17.3496 -10.5458 -10.5158  -8.8032  -8.7815  -5.2688  -4.6357
     3.2130   3.4372   6.7469   7.1573   7.9608   8.6595   8.7340   9.7971
     9.8461  10.0489  10.5791  11.6454  11.9229  11.9847  13.0514  14.0238
    14.4230  16.4149  16.7802  17.5829  18.2262  18.8177

     occupation numbers 
     1.0000   1.0000   1.0000   1.0000   1.0000   1.0000   1.0000   1.0000
     0.0000   0.0000   0.0000   0.0000   0.0000   0.0000   0.0000   0.0000
     0.0000   0.0000   0.0000   0.0000   0.0000   0.0000   0.0000   0.0000
     0.0000   0.0000   0.0000   0.0000   0.0000   0.0000

          k = 0.1867 0.4003 0.0000 ( 11955 PWs)   bands (ev):

   -17.2282 -17.1463 -10.8321 -10.7986  -8.9430  -8.9191  -5.0388  -4.4184
     2.9005   3.1353   7.0297   7.4376   8.2559   8.9487   8.9783   9.7811
     9.9785  10.1421  10.8422  11.8762  12.1568  12.2747  13.1023  14.0470
    14.4950  16.5000  17.0167  17.2868  17.8699  18.4007

     occupation numbers 
     1.0000   1.0000   1.0000   1.0000   1.0000   1.0000   1.0000   1.0000
     0.0000   0.0000   0.0000   0.0000   0.0000   0.0000   0.0000   0.0000
     0.0000   0.0000   0.0000   0.0000   0.0000   0.0000   0.0000   0.0000
     0.0000   0.0000   0.0000   0.0000   0.0000   0.0000

          k = 0.1867 0.4157 0.0000 ( 11941 PWs)   bands (ev):

   -17.0168 -16.9363 -11.1247 -11.0879  -9.0677  -9.0419  -4.8038  -4.1975
     2.5889   2.8344   7.3224   7.7265   8.5612   9.2192   9.2456   9.7567
     9.9888  10.3536  11.1083  12.0900  12.3694  12.5709  13.0831  14.2001
    14.5706  16.5833  16.8782  17.3199  17.4853  17.8779

     occupation numbers 
     1.0000   1.0000   1.0000   1.0000   1.0000   1.0000   1.0000   1.0000
     0.0000   0.0000   0.0000   0.0000   0.0000   0.0000   0.0000   0.0000
     0.0000   0.0000   0.0000   0.0000   0.0000   0.0000   0.0000   0.0000
     0.0000   0.0000   0.0000   0.0000   0.0000   0.0000

          k = 0.1867 0.4311 0.0000 ( 11941 PWs)   bands (ev):

   -16.7988 -16.7199 -11.4214 -11.3816  -9.1783  -9.1509  -4.5649  -3.9744
     2.2800   2.5358   7.6247   8.0229   8.8754   9.4490   9.5378   9.7424
     9.9825  10.5883  11.3673  12.2722  12.5646  12.7943  13.1152  14.4283
    14.6605  16.4990  16.5677  17.2335  17.3413  17.5825

     occupation numbers 
     1.0000   1.0000   1.0000   1.0000   1.0000   1.0000   1.0000   1.0000
     0.0000   0.0000   0.0000   0.0000   0.0000   0.0000   0.0000   0.0000
     0.0000   0.0000   0.0000   0.0000   0.0000   0.0000   0.0000   0.0000
     0.0000   0.0000   0.0000   0.0000   0.0000   0.0000

          k = 0.1867 0.4465 0.0000 ( 11949 PWs)   bands (ev):

   -16.5746 -16.4973 -11.7202 -11.6777  -9.2757  -9.2469  -4.3233  -3.7509
     1.9762   2.2410   7.9363   8.3254   9.1951   9.6422   9.6700   9.9058
     9.9922  10.8323  11.6007  12.4152  12.7162  12.8878  13.3116  14.6850
    14.7783  16.1459  16.3043  16.8366  17.2077  17.6727

     occupation numbers 
     1.0000   1.0000   1.0000   1.0000   1.0000   1.0000   1.0000   1.0000
     0.0000   0.0000   0.0000   0.0000   0.0000   0.0000   0.0000   0.0000
     0.0000   0.0000   0.0000   0.0000   0.0000   0.0000   0.0000   0.0000
     0.0000   0.0000   0.0000   0.0000   0.0000   0.0000

          k = 0.1867 0.4619 0.0000 ( 11953 PWs)   bands (ev):

   -16.3448 -16.2692 -12.0192 -11.9742  -9.3607  -9.3309  -4.0808  -3.5294
     1.6806   1.9520   8.2565   8.6317   9.5062   9.6419   9.7968  10.0623
    10.2180  11.0858  11.7771  12.5271  12.7958  13.0040  13.5500  14.8679
    15.0048  15.7878  15.9794  16.3634  17.0204  17.4696

     occupation numbers 
     1.0000   1.0000   1.0000   1.0000   1.0000   1.0000   1.0000   1.0000
     0.0000   0.0000   0.0000   0.0000   0.0000   0.0000   0.0000   0.0000
     0.0000   0.0000   0.0000   0.0000   0.0000   0.0000   0.0000   0.0000
     0.0000   0.0000   0.0000   0.0000   0.0000   0.0000

          k = 0.1867 0.4773 0.0000 ( 11949 PWs)   bands (ev):

   -16.1100 -16.0362 -12.3165 -12.2694  -9.4340  -9.4033  -3.8399  -3.3133
     1.3971   1.6712   8.5843   8.9374   9.6161   9.7293   9.9366  10.2190
    10.5421  11.3504  11.8739  12.5865  12.8913  13.1447  13.7512  14.9868
    15.2972  15.4166  15.6854  15.9612  16.6389  17.2060

     occupation numbers 
     1.0000   1.0000   1.0000   1.0000   1.0000   1.0000   1.0000   1.0000
     0.0000   0.0000   0.0000   0.0000   0.0000   0.0000   0.0000   0.0000
     0.0000   0.0000   0.0000   0.0000   0.0000   0.0000   0.0000   0.0000
     0.0000   0.0000   0.0000   0.0000   0.0000   0.0000

          k = 0.1867 0.4927 0.0000 ( 11941 PWs)   bands (ev):

   -15.8713 -15.7996 -12.6100 -12.5612  -9.4961  -9.4646  -3.6040  -3.1072
     1.1309   1.4020   8.9176   9.2301   9.6100   9.7700  10.1709  10.4442
    10.8627  11.6264  11.9163  12.5216  13.0772  13.2729  13.8974  14.9611
    15.0851  15.4158  15.5856  15.7221  16.2987  16.9068

     occupation numbers 
     1.0000   1.0000   1.0000   1.0000   1.0000   1.0000   1.0000   1.0000
     0.0000   0.0000   0.0000   0.0000   0.0000   0.0000   0.0000   0.0000
     0.0000   0.0000   0.0000   0.0000   0.0000   0.0000   0.0000   0.0000
     0.0000   0.0000   0.0000   0.0000   0.0000   0.0000

          k = 0.1867 0.5081 0.0000 ( 11961 PWs)   bands (ev):

   -15.6306 -15.5613 -12.8970 -12.8469  -9.5473  -9.5153  -3.3778  -2.9173
     0.8891   1.1490   9.2490   9.4489   9.6764   9.7751  10.3451  10.7553
    11.1596  11.9006  11.9674  12.3586  13.1987  13.4478  14.0193  14.5636
    14.9106  15.1643  15.6213  15.9090  16.0942  16.6501

     occupation numbers 
     1.0000   1.0000   1.0000   1.0000   1.0000   1.0000   1.0000   1.0000
     0.0000   0.0000   0.0000   0.0000   0.0000   0.0000   0.0000   0.0000
     0.0000   0.0000   0.0000   0.0000   0.0000   0.0000   0.0000   0.0000
     0.0000   0.0000   0.0000   0.0000   0.0000   0.0000

          k = 0.1867 0.5235 0.0000 ( 11955 PWs)   bands (ev):

   -15.3911 -15.3251 -13.1730 -13.1228  -9.5880  -9.5555  -3.1683  -2.7519
     0.6809   0.9187   9.4677   9.5923   9.7983   9.8980  10.4590  11.1174
    11.3945  11.9963  12.1321  12.2591  13.1324  13.7217  14.1057  14.1793
    14.6489  14.8728  15.6094  16.0408  16.1532  16.4937

     occupation numbers 
     1.0000   1.0000   1.0000   1.0000   1.0000   1.0000   1.0000   1.0000
     0.0000   0.0000   0.0000   0.0000   0.0000   0.0000   0.0000   0.0000
     0.0000   0.0000   0.0000   0.0000   0.0000   0.0000   0.0000   0.0000
     0.0000   0.0000   0.0000   0.0000   0.0000   0.0000

          k = 0.1867 0.5389 0.0000 ( 11960 PWs)   bands (ev):

   -15.1599 -15.0987 -13.4299 -13.3814  -9.6184  -9.5856  -2.9855  -2.6209
     0.5177   0.7200   9.4808   9.7053  10.0126  10.1378  10.5351  11.4989
    11.5393  11.7852  12.3044  12.4806  13.0279  13.6462  14.0381  14.1545
    14.4904  14.6068  15.5290  15.9269  16.3079  16.5851

     occupation numbers 
     1.0000   1.0000   1.0000   1.0000   1.0000   1.0000   1.0000   1.0000
     0.0000   0.0000   0.0000   0.0000   0.0000   0.0000   0.0000   0.0000
     0.0000   0.0000   0.0000   0.0000   0.0000   0.0000   0.0000   0.0000
     0.0000   0.0000   0.0000   0.0000   0.0000   0.0000

          k = 0.1867 0.5543 0.0000 ( 11958 PWs)   bands (ev):

   -14.9536 -14.9007 -13.6484 -13.6062  -9.6385  -9.6055  -2.8443  -2.5330
     0.4103   0.5660   9.4777   9.7146  10.3020  10.3635  10.5887  11.4212
    11.6951  11.9025  12.4133  12.7002  13.1051  13.2171  13.8436  14.0702
    14.4868  14.7331  15.3703  15.6963  16.4292  16.7661

     occupation numbers 
     1.0000   1.0000   1.0000   1.0000   1.0000   1.0000   1.0000   1.0000
     0.0000   0.0000   0.0000   0.0000   0.0000   0.0000   0.0000   0.0000
     0.0000   0.0000   0.0000   0.0000   0.0000   0.0000   0.0000   0.0000
     0.0000   0.0000   0.0000   0.0000   0.0000   0.0000

          k = 0.1867 0.5697 0.0000 ( 11945 PWs)   bands (ev):

   -14.8137 -14.7742 -13.7846 -13.7560  -9.6486  -9.6155  -2.7645  -2.4910
     0.3624   0.4761   9.4751   9.7148  10.4318  10.5361  10.7500  11.1039
    11.7770  12.2287  12.4054  12.7620  13.0469  13.2758  13.5814  13.7798
    14.7393  14.8969  15.2072  15.4584  16.4919  16.8696

     occupation numbers 
     1.0000   1.0000   1.0000   1.0000   1.0000   1.0000   1.0000   1.0000
     0.0000   0.0000   0.0000   0.0000   0.0000   0.0000   0.0000   0.0000
     0.0000   0.0000   0.0000   0.0000   0.0000   0.0000   0.0000   0.0000
     0.0000   0.0000   0.0000   0.0000   0.0000   0.0000

          k = 0.2000 0.3464 0.0000 ( 11953 PWs)   bands (ev):

   -17.8249 -17.7390  -9.9679  -9.9470  -8.5030  -8.4874  -5.7148  -5.0595
     3.8476   4.0497   6.2067   6.6184   7.3973   8.1050   8.2453   9.4092
     9.8435  10.0892  10.1212  11.1132  11.2194  11.5259  12.7044  14.2395
    14.3198  16.2885  16.3561  17.8745  18.2052  19.1689

     occupation numbers 
     1.0000   1.0000   1.0000   1.0000   1.0000   1.0000   1.0000   1.0000
     0.0000   0.0000   0.0000   0.0000   0.0000   0.0000   0.0000   0.0000
     0.0000   0.0000   0.0000   0.0000   0.0000   0.0000   0.0000   0.0000
     0.0000   0.0000   0.0000   0.0000   0.0000   0.0000

          k = 0.2000 0.3618 0.0000 ( 11939 PWs)   bands (ev):

   -17.6385 -17.5539 -10.2027 -10.1805  -8.7045  -8.6879  -5.5013  -4.8561
     3.5508   3.7578   6.4633   6.8737   7.6648   8.3683   8.4793   9.6244
    10.0042  10.2360  10.3479  11.2199  11.3627  11.7284  12.8908  14.1111
    14.3264  16.3595  16.5230  17.9574  18.3383  19.2437

     occupation numbers 
     1.0000   1.0000   1.0000   1.0000   1.0000   1.0000   1.0000   1.0000
     0.0000   0.0000   0.0000   0.0000   0.0000   0.0000   0.0000   0.0000
     0.0000   0.0000   0.0000   0.0000   0.0000   0.0000   0.0000   0.0000
     0.0000   0.0000   0.0000   0.0000   0.0000   0.0000

          k = 0.2000 0.3772 0.0000 ( 11951 PWs)   bands (ev):

   -17.4450 -17.3616 -10.4510 -10.4263  -8.8884  -8.8700  -5.2811  -4.6467
     3.2509   3.4645   6.7304   7.1386   7.9433   8.6420   8.7171   9.8430
    10.0890  10.3261  10.5808  11.3783  11.5928  11.9326  13.0202  13.9924
    14.3975  16.4126  16.7658  17.8509  18.3480  18.8907

     occupation numbers 
     1.0000   1.0000   1.0000   1.0000   1.0000   1.0000   1.0000   1.0000
     0.0000   0.0000   0.0000   0.0000   0.0000   0.0000   0.0000   0.0000
     0.0000   0.0000   0.0000   0.0000   0.0000   0.0000   0.0000   0.0000
     0.0000   0.0000   0.0000   0.0000   0.0000   0.0000

          k = 0.2000 0.3926 0.0000 ( 11951 PWs)   bands (ev):

   -17.2443 -17.1623 -10.7118 -10.6838  -9.0540  -9.0332  -5.0545  -4.4322
     2.9490   3.1706   7.0077   7.4126   8.2326   8.9258   8.9560  10.0625
    10.1138  10.3700  10.8269  11.5818  11.8715  12.1382  13.0483  14.0143
    14.4623  16.5088  17.0110  17.5772  18.1261  18.6635

     occupation numbers 
     1.0000   1.0000   1.0000   1.0000   1.0000   1.0000   1.0000   1.0000
     0.0000   0.0000   0.0000   0.0000   0.0000   0.0000   0.0000   0.0000
     0.0000   0.0000   0.0000   0.0000   0.0000   0.0000   0.0000   0.0000
     0.0000   0.0000   0.0000   0.0000   0.0000   0.0000

          k = 0.2000 0.4080 0.0000 ( 11953 PWs)   bands (ev):

   -17.0368 -16.9562 -10.9833 -10.9516  -9.2014  -9.1782  -4.8225  -4.2134
     2.6463   2.8769   7.2950   7.6950   8.5322   9.1925   9.2187  10.1057
    10.2683  10.3995  11.0791  11.8042  12.1627  12.3488  12.9954  14.1670
    14.5329  16.6276  17.1476  17.3311  17.7390  18.2663

     occupation numbers 
     1.0000   1.0000   1.0000   1.0000   1.0000   1.0000   1.0000   1.0000
     0.0000   0.0000   0.0000   0.0000   0.0000   0.0000   0.0000   0.0000
     0.0000   0.0000   0.0000   0.0000   0.0000   0.0000   0.0000   0.0000
     0.0000   0.0000   0.0000   0.0000   0.0000   0.0000

          k = 0.2000 0.4234 0.0000 ( 11949 PWs)   bands (ev):

   -16.8226 -16.7435 -11.2630 -11.2278  -9.3316  -9.3061  -4.5858  -3.9914
     2.3445   2.5844   7.5920   7.9848   8.8409   9.4222   9.5187  10.0848
    10.3400  10.5506  11.3247  12.0208  12.4215  12.5738  12.9451  14.3936
    14.6204  16.7006  16.8046  17.3867  17.5341  17.7479

     occupation numbers 
     1.0000   1.0000   1.0000   1.0000   1.0000   1.0000   1.0000   1.0000
     0.0000   0.0000   0.0000   0.0000   0.0000   0.0000   0.0000   0.0000
     0.0000   0.0000   0.0000   0.0000   0.0000   0.0000   0.0000   0.0000
     0.0000   0.0000   0.0000   0.0000   0.0000   0.0000

          k = 0.2000 0.4388 0.0000 ( 11955 PWs)   bands (ev):

   -16.6021 -16.5246 -11.5486 -11.5101  -9.4457  -9.4183  -4.3456  -3.7679
     2.0456   2.2945   7.8984   8.2805   9.1559   9.6402   9.8156  10.0685
    10.3347  10.7800  11.5425  12.2157  12.6004  12.7750  13.0200  14.6531
    14.7343  16.4124  16.5627  17.2058  17.2803  17.7835

     occupation numbers 
     1.0000   1.0000   1.0000   1.0000   1.0000   1.0000   1.0000   1.0000
     0.0000   0.0000   0.0000   0.0000   0.0000   0.0000   0.0000   0.0000
     0.0000   0.0000   0.0000   0.0000   0.0000   0.0000   0.0000   0.0000
     0.0000   0.0000   0.0000   0.0000   0.0000   0.0000

          k = 0.2000 0.4542 0.0000 ( 11957 PWs)   bands (ev):

   -16.3758 -16.2998 -11.8375 -11.7960  -9.5449  -9.5158  -4.1035  -3.5448
     1.7521   2.0086   8.2137   8.5801   9.4695   9.8445   9.9793  10.1902
    10.3261  11.0254  11.7026  12.3839  12.7028  12.9333  13.2545  14.8470
    14.9531  16.0398  16.2300  16.7096  17.2769  17.6044

     occupation numbers 
     1.0000   1.0000   1.0000   1.0000   1.0000   1.0000   1.0000   1.0000
     0.0000   0.0000   0.0000   0.0000   0.0000   0.0000   0.0000   0.0000
     0.0000   0.0000   0.0000   0.0000   0.0000   0.0000   0.0000   0.0000
     0.0000   0.0000   0.0000   0.0000   0.0000   0.0000

          k = 0.2000 0.4696 0.0000 ( 11947 PWs)   bands (ev):

   -16.1441 -16.0700 -12.1276 -12.0835  -9.6303  -9.5999  -3.8612  -3.3248
     1.4674   1.7288   8.5371   8.8800   9.7538   9.9691  10.0502  10.3303
    10.4894  11.2848  11.7897  12.5014  12.8284  13.0976  13.5113  14.9796
    15.2452  15.6716  15.9016  16.2452  16.9401  17.4425

     occupation numbers 
     1.0000   1.0000   1.0000   1.0000   1.0000   1.0000   1.0000   1.0000
     0.0000   0.0000   0.0000   0.0000   0.0000   0.0000   0.0000   0.0000
     0.0000   0.0000   0.0000   0.0000   0.0000   0.0000   0.0000   0.0000
     0.0000   0.0000   0.0000   0.0000   0.0000   0.0000

          k = 0.2000 0.4850 0.0000 ( 11948 PWs)   bands (ev):

   -15.9080 -15.8359 -12.4165 -12.3702  -9.7029  -9.6714  -3.6217  -3.1117
     1.1959   1.4578   8.8675   9.1741   9.9432   9.9527  10.2655  10.4001
    10.7974  11.5582  11.8347  12.5163  13.0340  13.2541  13.7374  15.0542
    15.2964  15.5375  15.6398  15.8732  16.5422  17.1269

     occupation numbers 
     1.0000   1.0000   1.0000   1.0000   1.0000   1.0000   1.0000   1.0000
     0.0000   0.0000   0.0000   0.0000   0.0000   0.0000   0.0000   0.0000
     0.0000   0.0000   0.0000   0.0000   0.0000   0.0000   0.0000   0.0000
     0.0000   0.0000   0.0000   0.0000   0.0000   0.0000

          k = 0.2000 0.5004 0.0000 ( 11953 PWs)   bands (ev):

   -15.6689 -15.5990 -12.7016 -12.6535  -9.7633  -9.7309  -3.3889  -2.9107
     0.9435   1.1993   9.2027   9.4499   9.9405  10.0373  10.3536  10.6848
    11.0824  11.8363  11.9006  12.4292  13.2324  13.4215  13.9259  14.8676
    15.0180  15.3701  15.6876  15.8619  16.2341  16.8266

     occupation numbers 
     1.0000   1.0000   1.0000   1.0000   1.0000   1.0000   1.0000   1.0000
     0.0000   0.0000   0.0000   0.0000   0.0000   0.0000   0.0000   0.0000
     0.0000   0.0000   0.0000   0.0000   0.0000   0.0000   0.0000   0.0000
     0.0000   0.0000   0.0000   0.0000   0.0000   0.0000

          k = 0.2000 0.5158 0.0000 ( 11955 PWs)   bands (ev):

   -15.4292 -15.3621 -12.9793 -12.9303  -9.8121  -9.7790  -3.1682  -2.7292
     0.7185   0.9584   9.5353   9.6749   9.9662  10.0813  10.4087  11.0444
    11.3116  12.0092  12.1178  12.2922  13.2546  13.6841  14.1026  14.4536
    14.8130  15.0803  15.6386  16.1080  16.1313  16.5944

     occupation numbers 
     1.0000   1.0000   1.0000   1.0000   1.0000   1.0000   1.0000   1.0000
     0.0000   0.0000   0.0000   0.0000   0.0000   0.0000   0.0000   0.0000
     0.0000   0.0000   0.0000   0.0000   0.0000   0.0000   0.0000   0.0000
     0.0000   0.0000   0.0000   0.0000   0.0000   0.0000

          k = 0.2000 0.5312 0.0000 ( 11951 PWs)   bands (ev):

   -15.1937 -15.1303 -13.2436 -13.1951  -9.8496  -9.8161  -2.9682  -2.5766
     0.5317   0.7426   9.7580   9.8707  10.0572  10.1493  10.4546  11.4249
    11.4777  11.9615  12.2743  12.4593  13.1516  13.9198  14.0676  14.2769
    14.5739  14.7837  15.5546  16.0775  16.2860  16.5723

     occupation numbers 
     1.0000   1.0000   1.0000   1.0000   1.0000   1.0000   1.0000   1.0000
     0.0000   0.0000   0.0000   0.0000   0.0000   0.0000   0.0000   0.0000
     0.0000   0.0000   0.0000   0.0000   0.0000   0.0000   0.0000   0.0000
     0.0000   0.0000   0.0000   0.0000   0.0000   0.0000

          k = 0.2000 0.5466 0.0000 ( 11958 PWs)   bands (ev):

   -14.9727 -14.9156 -13.4822 -13.4371  -9.8762  -9.8424  -2.8012  -2.4634
     0.3957   0.5623   9.7881  10.0145  10.2155  10.3334  10.4932  11.5886
    11.7110  11.8295  12.5080  12.6767  13.1071  13.5478  14.1138  14.2243
    14.5054  14.6845  15.4508  15.8683  16.4152  16.7279

     occupation numbers 
     1.0000   1.0000   1.0000   1.0000   1.0000   1.0000   1.0000   1.0000
     0.0000   0.0000   0.0000   0.0000   0.0000   0.0000   0.0000   0.0000
     0.0000   0.0000   0.0000   0.0000   0.0000   0.0000   0.0000   0.0000
     0.0000   0.0000   0.0000   0.0000   0.0000   0.0000

          k = 0.2000 0.5620 0.0000 ( 11944 PWs)   bands (ev):

   -14.7926 -14.7465 -13.6654 -13.6303  -9.8921  -9.8581  -2.6853  -2.3967
     0.3210   0.4328   9.7925  10.0343  10.3409  10.4768  10.6716  11.3478
    11.7965  12.2139  12.4749  12.9536  13.1333  13.2940  13.7894  14.0092
    14.6989  14.8974  15.2987  15.6171  16.4706  16.8351

     occupation numbers 
     1.0000   1.0000   1.0000   1.0000   1.0000   1.0000   1.0000   1.0000
     0.0000   0.0000   0.0000   0.0000   0.0000   0.0000   0.0000   0.0000
     0.0000   0.0000   0.0000   0.0000   0.0000   0.0000   0.0000   0.0000
     0.0000   0.0000   0.0000   0.0000   0.0000   0.0000

          k = 0.2000 0.5774 0.0000 ( 11949 PWs)   bands (ev):

   -14.7144 -14.6785 -13.7371 -13.7138  -9.8974  -9.8633  -2.6427  -2.3756
     0.3022   0.3807   9.7928  10.0374  10.3830  10.4848  10.9414  11.0780
    11.8847  12.3221  12.6805  12.6846  13.3095  13.3145  13.6907  13.7433
    14.9292  14.9455  15.2246  15.4469  16.4788  16.8607

     occupation numbers 
     1.0000   1.0000   1.0000   1.0000   1.0000   1.0000   1.0000   1.0000
     0.0000   0.0000   0.0000   0.0000   0.0000   0.0000   0.0000   0.0000
     0.0000   0.0000   0.0000   0.0000   0.0000   0.0000   0.0000   0.0000
     0.0000   0.0000   0.0000   0.0000   0.0000   0.0000

          k = 0.2133 0.3695 0.0000 ( 11931 PWs)   bands (ev):

   -17.4490 -17.3657 -10.4163 -10.3943  -8.9191  -8.9025  -5.2851  -4.6504
     3.2638   3.4736   6.7249   7.1323   7.9375   8.6362   8.7112   9.8380
    10.2208  10.4536  10.5981  11.2806  11.4009  11.9230  13.0098  13.9820
    14.3889  16.4114  16.7608  18.0013  18.3157  18.9892

     occupation numbers 
     1.0000   1.0000   1.0000   1.0000   1.0000   1.0000   1.0000   1.0000
     0.0000   0.0000   0.0000   0.0000   0.0000   0.0000   0.0000   0.0000
     0.0000   0.0000   0.0000   0.0000   0.0000   0.0000   0.0000   0.0000
     0.0000   0.0000   0.0000   0.0000   0.0000   0.0000

          k = 0.2133 0.3849 0.0000 ( 11955 PWs)   bands (ev):

   -17.2524 -17.1703 -10.6437 -10.6203  -9.1159  -9.0983  -5.0624  -4.4391
     2.9738   3.1882   6.9967   7.4000   8.2210   8.9141   8.9441  10.0542
    10.3640  10.6045  10.8407  11.3822  11.5565  12.1171  13.0215  13.9981
    14.4458  16.5112  17.0038  17.8533  18.2051  18.6427

     occupation numbers 
     1.0000   1.0000   1.0000   1.0000   1.0000   1.0000   1.0000   1.0000
     0.0000   0.0000   0.0000   0.0000   0.0000   0.0000   0.0000   0.0000
     0.0000   0.0000   0.0000   0.0000   0.0000   0.0000   0.0000   0.0000
     0.0000   0.0000   0.0000   0.0000   0.0000   0.0000

          k = 0.2133 0.4003 0.0000 ( 11959 PWs)   bands (ev):

   -17.0488 -16.9681 -10.8849 -10.8588  -9.2931  -9.2736  -4.8337  -4.2229
     2.6819   2.9024   7.2785   7.6759   8.5147   9.1743   9.2015  10.2723
    10.4237  10.6918  11.0746  11.5403  11.8073  12.3102  12.9465  14.1472
    14.5102  16.6456  17.2379  17.5405  17.9730  18.3816

     occupation numbers 
     1.0000   1.0000   1.0000   1.0000   1.0000   1.0000   1.0000   1.0000
     0.0000   0.0000   0.0000   0.0000   0.0000   0.0000   0.0000   0.0000
     0.0000   0.0000   0.0000   0.0000   0.0000   0.0000   0.0000   0.0000
     0.0000   0.0000   0.0000   0.0000   0.0000   0.0000

          k = 0.2133 0.4157 0.0000 ( 11967 PWs)   bands (ev):

   -16.8385 -16.7593 -11.1388 -11.1093  -9.4504  -9.4284  -4.5999  -4.0029
     2.3892   2.6171   7.5702   7.9590   8.8176   9.3974   9.4971  10.4246
    10.4984  10.7269  11.2987  11.7489  12.0930  12.5045  12.8593  14.3703
    14.5939  16.7828  17.1095  17.5222  17.6041  18.1286

     occupation numbers 
     1.0000   1.0000   1.0000   1.0000   1.0000   1.0000   1.0000   1.0000
     0.0000   0.0000   0.0000   0.0000   0.0000   0.0000   0.0000   0.0000
     0.0000   0.0000   0.0000   0.0000   0.0000   0.0000   0.0000   0.0000
     0.0000   0.0000   0.0000   0.0000   0.0000   0.0000

          k = 0.2133 0.4311 0.0000 ( 11967 PWs)   bands (ev):

   -16.6218 -16.5441 -11.4033 -11.3700  -9.5882  -9.5636  -4.3618  -3.7803
     2.0975   2.3332   7.8712   8.2479   9.1267   9.6094   9.7981  10.4116
    10.6841  10.7690  11.4961  11.9738  12.3638  12.7019  12.8335  14.6286
    14.7051  16.7091  16.7987  17.3439  17.5959  17.7639

     occupation numbers 
     1.0000   1.0000   1.0000   1.0000   1.0000   1.0000   1.0000   1.0000
     0.0000   0.0000   0.0000   0.0000   0.0000   0.0000   0.0000   0.0000
     0.0000   0.0000   0.0000   0.0000   0.0000   0.0000   0.0000   0.0000
     0.0000   0.0000   0.0000   0.0000   0.0000   0.0000

          k = 0.2133 0.4465 0.0000 ( 11953 PWs)   bands (ev):

   -16.3990 -16.3229 -11.6756 -11.6388  -9.7075  -9.6806  -4.1206  -3.5566
     1.8089   2.0520   8.1813   8.5403   9.4345   9.8108  10.0946  10.3973
    10.6974  10.9819  11.6392  12.1863  12.5698  12.8689  12.9782  14.8326
    14.9160  16.3168  16.5118  17.0861  17.3871  17.8260

     occupation numbers 
     1.0000   1.0000   1.0000   1.0000   1.0000   1.0000   1.0000   1.0000
     0.0000   0.0000   0.0000   0.0000   0.0000   0.0000   0.0000   0.0000
     0.0000   0.0000   0.0000   0.0000   0.0000   0.0000   0.0000   0.0000
     0.0000   0.0000   0.0000   0.0000   0.0000   0.0000

          k = 0.2133 0.4619 0.0000 ( 11947 PWs)   bands (ev):

   -16.1707 -16.0963 -11.9530 -11.9129  -9.8100  -9.7810  -3.8782  -3.3342
     1.5259   1.7752   8.4997   8.8326   9.7150  10.0205  10.2908  10.4835
    10.6813  11.2338  11.7179  12.3523  12.7502  13.0379  13.2379  14.9814
    15.2061  15.9365  16.1485  16.5921  17.2622  17.6240

     occupation numbers 
     1.0000   1.0000   1.0000   1.0000   1.0000   1.0000   1.0000   1.0000
     0.0000   0.0000   0.0000   0.0000   0.0000   0.0000   0.0000   0.0000
     0.0000   0.0000   0.0000   0.0000   0.0000   0.0000   0.0000   0.0000
     0.0000   0.0000   0.0000   0.0000   0.0000   0.0000

          k = 0.2133 0.4773 0.0000 ( 11949 PWs)   bands (ev):

   -15.9376 -15.8651 -12.2328 -12.1899  -9.8969  -9.8663  -3.6366  -3.1160
     1.2523   1.5047   8.8256   9.1195   9.9173  10.2689  10.3182  10.6639
    10.7529  11.5028  11.7639  12.4378  12.9753  13.2170  13.5095  15.1014
    15.4950  15.5675  15.8444  16.1389  16.8437  17.3819

     occupation numbers 
     1.0000   1.0000   1.0000   1.0000   1.0000   1.0000   1.0000   1.0000
     0.0000   0.0000   0.0000   0.0000   0.0000   0.0000   0.0000   0.0000
     0.0000   0.0000   0.0000   0.0000   0.0000   0.0000   0.0000   0.0000
     0.0000   0.0000   0.0000   0.0000   0.0000   0.0000

          k = 0.2133 0.4927 0.0000 ( 11949 PWs)   bands (ev):

   -15.7008 -15.6304 -12.5121 -12.4668  -9.9694  -9.9375  -3.3989  -2.9063
     0.9930   1.2435   9.1575   9.3918  10.0376  10.2860  10.6062  10.6627
    11.0222  11.7784  11.8398  12.4345  13.2068  13.4030  13.7652  15.0865
    15.1890  15.6140  15.7517  15.8705  16.4538  17.0519

     occupation numbers 
     1.0000   1.0000   1.0000   1.0000   1.0000   1.0000   1.0000   1.0000
     0.0000   0.0000   0.0000   0.0000   0.0000   0.0000   0.0000   0.0000
     0.0000   0.0000   0.0000   0.0000   0.0000   0.0000   0.0000   0.0000
     0.0000   0.0000   0.0000   0.0000   0.0000   0.0000

          k = 0.2133 0.5081 0.0000 ( 11952 PWs)   bands (ev):

   -15.4620 -15.3941 -12.7876 -12.7406 -10.0286  -9.9956  -3.1698  -2.7114
     0.7549   0.9958   9.4922   9.6349  10.1082  10.2911  10.6324  10.9839
    11.2421  11.9668  12.0790  12.3550  13.3210  13.6509  14.0032  14.7680
    14.9498  15.3025  15.7478  16.0785  16.2200  16.7609

     occupation numbers 
     1.0000   1.0000   1.0000   1.0000   1.0000   1.0000   1.0000   1.0000
     0.0000   0.0000   0.0000   0.0000   0.0000   0.0000   0.0000   0.0000
     0.0000   0.0000   0.0000   0.0000   0.0000   0.0000   0.0000   0.0000
     0.0000   0.0000   0.0000   0.0000   0.0000   0.0000

          k = 0.2133 0.5235 0.0000 ( 11955 PWs)   bands (ev):

   -15.2247 -15.1598 -13.0545 -13.0070 -10.0751 -10.0414  -2.9558  -2.5396
     0.5478   0.7674   9.8101   9.8376  10.1526  10.3220  10.6248  11.3601
    11.4134  12.0969  12.2370  12.4320  13.2818  13.9413  14.2229  14.3686
    14.7261  14.9977  15.6190  16.2098  16.2689  16.6064

     occupation numbers 
     1.0000   1.0000   1.0000   1.0000   1.0000   1.0000   1.0000   1.0000
     0.0000   0.0000   0.0000   0.0000   0.0000   0.0000   0.0000   0.0000
     0.0000   0.0000   0.0000   0.0000   0.0000   0.0000   0.0000   0.0000
     0.0000   0.0000   0.0000   0.0000   0.0000   0.0000

          k = 0.2133 0.5389 0.0000 ( 11954 PWs)   bands (ev):

   -14.9955 -14.9354 -13.3044 -13.2583 -10.1096 -10.0753  -2.7673  -2.4016
     0.3843   0.5667   9.9430  10.0869  10.2265  10.3969  10.6204  11.5729
    11.7486  11.8910  12.5178  12.6829  13.1826  13.8810  14.2562  14.3554
    14.5644  14.7329  15.4973  16.0447  16.4222  16.7100

     occupation numbers 
     1.0000   1.0000   1.0000   1.0000   1.0000   1.0000   1.0000   1.0000
     0.0000   0.0000   0.0000   0.0000   0.0000   0.0000   0.0000   0.0000
     0.0000   0.0000   0.0000   0.0000   0.0000   0.0000   0.0000   0.0000
     0.0000   0.0000   0.0000   0.0000   0.0000   0.0000

          k = 0.2133 0.5543 0.0000 ( 11944 PWs)   bands (ev):

   -14.7908 -14.7388 -13.5182 -13.4781 -10.1324 -10.0977  -2.6198  -2.3081
     0.2787   0.4060   9.9988  10.1534  10.3503  10.5932  10.6369  11.5790
    11.7826  12.1550  12.6292  12.9257  13.2649  13.4594  14.0652  14.2374
    14.6610  14.8485  15.3866  15.7969  16.4911  16.8278

     occupation numbers 
     1.0000   1.0000   1.0000   1.0000   1.0000   1.0000   1.0000   1.0000
     0.0000   0.0000   0.0000   0.0000   0.0000   0.0000   0.0000   0.0000
     0.0000   0.0000   0.0000   0.0000   0.0000   0.0000   0.0000   0.0000
     0.0000   0.0000   0.0000   0.0000   0.0000   0.0000

          k = 0.2133 0.5697 0.0000 ( 11931 PWs)   bands (ev):

   -14.6517 -14.6128 -13.6520 -13.6257 -10.1437 -10.1089  -2.5353  -2.2633
     0.2394   0.3034  10.0178  10.1684  10.3929  10.6134  10.9255  11.2827
    11.9539  12.4254  12.6228  13.0090  13.2870  13.4857  13.7690  13.9441
    14.9102  15.0502  15.2657  15.5579  16.4799  16.8428

     occupation numbers 
     1.0000   1.0000   1.0000   1.0000   1.0000   1.0000   1.0000   1.0000
     0.0000   0.0000   0.0000   0.0000   0.0000   0.0000   0.0000   0.0000
     0.0000   0.0000   0.0000   0.0000   0.0000   0.0000   0.0000   0.0000
     0.0000   0.0000   0.0000   0.0000   0.0000   0.0000

          k = 0.2267 0.3926 0.0000 ( 11951 PWs)   bands (ev):

   -17.0528 -16.9721 -10.8488 -10.8256  -9.3261  -9.3086  -4.8375  -4.2261
     2.6939   2.9109   7.2730   7.6695   8.5089   9.1679   9.1957  10.2671
    10.5870  10.8235  11.0951  11.4514  11.5791  12.2999  12.9307  14.1407
    14.5026  16.6503  17.2417  17.7578  17.9601  18.3564

     occupation numbers 
     1.0000   1.0000   1.0000   1.0000   1.0000   1.0000   1.0000   1.0000
     0.0000   0.0000   0.0000   0.0000   0.0000   0.0000   0.0000   0.0000
     0.0000   0.0000   0.0000   0.0000   0.0000   0.0000   0.0000   0.0000
     0.0000   0.0000   0.0000   0.0000   0.0000   0.0000

          k = 0.2267 0.4080 0.0000 ( 11959 PWs)   bands (ev):

   -16.8464 -16.7672 -11.0681 -11.0435  -9.5166  -9.4981  -4.6069  -4.0087
     2.4122   2.6334   7.5592   7.9461   8.8058   9.3840   9.4856  10.4824
    10.7116  10.9773  11.3129  11.5541  11.7572  12.4819  12.8218  14.3587
    14.5806  16.8123  17.3977  17.5262  17.7484  18.0592

     occupation numbers 
     1.0000   1.0000   1.0000   1.0000   1.0000   1.0000   1.0000   1.0000
     0.0000   0.0000   0.0000   0.0000   0.0000   0.0000   0.0000   0.0000
     0.0000   0.0000   0.0000   0.0000   0.0000   0.0000   0.0000   0.0000
     0.0000   0.0000   0.0000   0.0000   0.0000   0.0000

          k = 0.2267 0.4234 0.0000 ( 11971 PWs)   bands (ev):

   -16.6336 -16.5558 -11.3017 -11.2742  -9.6858  -9.6652  -4.3715  -3.7878
     2.1298   2.3566   7.8549   8.2281   9.1090   9.5880   9.7819  10.6910
    10.7580  11.0634  11.4643  11.7420  12.0314  12.6664  12.7559  14.6135
    14.6879  16.9442  17.0329  17.4588  17.6795  17.9075

     occupation numbers 
     1.0000   1.0000   1.0000   1.0000   1.0000   1.0000   1.0000   1.0000
     0.0000   0.0000   0.0000   0.0000   0.0000   0.0000   0.0000   0.0000
     0.0000   0.0000   0.0000   0.0000   0.0000   0.0000   0.0000   0.0000
     0.0000   0.0000   0.0000   0.0000   0.0000   0.0000

          k = 0.2267 0.4388 0.0000 ( 11963 PWs)   bands (ev):

   -16.4146 -16.3383 -11.5480 -11.5170  -9.8334  -9.8102  -4.1322  -3.5647
     1.8483   2.0813   8.1596   8.5132   9.4099   9.7809  10.0805  10.7291
    10.9444  11.0857  11.5809  11.9630  12.3216  12.7820  12.8615  14.8224
    14.8915  16.6218  16.8038  17.3803  17.4869  17.7099

     occupation numbers 
     1.0000   1.0000   1.0000   1.0000   1.0000   1.0000   1.0000   1.0000
     0.0000   0.0000   0.0000   0.0000   0.0000   0.0000   0.0000   0.0000
     0.0000   0.0000   0.0000   0.0000   0.0000   0.0000   0.0000   0.0000
     0.0000   0.0000   0.0000   0.0000   0.0000   0.0000

          k = 0.2267 0.4542 0.0000 ( 11957 PWs)   bands (ev):

   -16.1898 -16.1153 -11.8046 -11.7698  -9.9602  -9.9343  -3.8905  -3.3411
     1.5699   1.8089   8.4728   8.7978   9.6807   9.9848  10.3689  10.7221
    11.0636  11.2003  11.6570  12.1544  12.5987  12.9270  13.0730  14.9819
    15.1786  16.2225  16.4329  16.9725  17.5137  17.6127

     occupation numbers 
     1.0000   1.0000   1.0000   1.0000   1.0000   1.0000   1.0000   1.0000
     0.0000   0.0000   0.0000   0.0000   0.0000   0.0000   0.0000   0.0000
     0.0000   0.0000   0.0000   0.0000   0.0000   0.0000   0.0000   0.0000
     0.0000   0.0000   0.0000   0.0000   0.0000   0.0000

          k = 0.2267 0.4696 0.0000 ( 11959 PWs)   bands (ev):

   -15.9600 -15.8872 -12.0684 -12.0301 -10.0677 -10.0394  -3.6480  -3.1196
     1.2974   1.5410   8.7936   9.0761   9.8695  10.2492  10.5780  10.7825
    11.0446  11.4609  11.7078  12.2928  12.8670  13.1409  13.3142  15.1387
    15.4695  15.8397  16.0722  16.4845  17.1741  17.6073

     occupation numbers 
     1.0000   1.0000   1.0000   1.0000   1.0000   1.0000   1.0000   1.0000
     0.0000   0.0000   0.0000   0.0000   0.0000   0.0000   0.0000   0.0000
     0.0000   0.0000   0.0000   0.0000   0.0000   0.0000   0.0000   0.0000
     0.0000   0.0000   0.0000   0.0000   0.0000   0.0000

          k = 0.2267 0.4850 0.0000 ( 11951 PWs)   bands (ev):

   -15.7259 -15.6550 -12.3361 -12.2948 -10.1573 -10.1271  -3.4073  -2.9036
     1.0348   1.2798   9.1208   9.3394   9.9798  10.5615  10.6293  10.9716
    11.0392  11.7297  11.7931  12.3657  13.1187  13.3714  13.5832  15.2114
    15.4571  15.7548  15.8298  16.0519  16.7437  17.3151

     occupation numbers 
     1.0000   1.0000   1.0000   1.0000   1.0000   1.0000   1.0000   1.0000
     0.0000   0.0000   0.0000   0.0000   0.0000   0.0000   0.0000   0.0000
     0.0000   0.0000   0.0000   0.0000   0.0000   0.0000   0.0000   0.0000
     0.0000   0.0000   0.0000   0.0000   0.0000   0.0000

          k = 0.2267 0.5004 0.0000 ( 11945 PWs)   bands (ev):

   -15.4889 -15.4203 -12.6043 -12.5605 -10.2308 -10.1989  -3.1720  -2.6979
     0.7878   1.0285   9.4520   9.5746  10.0472  10.6131  10.9336  10.9894
    11.2027  11.9232  12.0378  12.3671  13.3001  13.6275  13.8624  15.0579
    15.1108  15.5671  15.8565  16.0621  16.3823  16.9857

     occupation numbers 
     1.0000   1.0000   1.0000   1.0000   1.0000   1.0000   1.0000   1.0000
     0.0000   0.0000   0.0000   0.0000   0.0000   0.0000   0.0000   0.0000
     0.0000   0.0000   0.0000   0.0000   0.0000   0.0000   0.0000   0.0000
     0.0000   0.0000   0.0000   0.0000   0.0000   0.0000

          k = 0.2267 0.5158 0.0000 ( 11950 PWs)   bands (ev):

   -15.2514 -15.1856 -12.8687 -12.8233 -10.2893 -10.2562  -2.9473  -2.5097
     0.5644   0.7916   9.7638   9.7815  10.0957  10.6200  10.9718  11.3069
    11.3673  12.1453  12.2236  12.4141  13.3570  13.9146  14.1406  14.6765
    14.8845  15.2279  15.7769  16.2594  16.2886  16.7233

     occupation numbers 
     1.0000   1.0000   1.0000   1.0000   1.0000   1.0000   1.0000   1.0000
     0.0000   0.0000   0.0000   0.0000   0.0000   0.0000   0.0000   0.0000
     0.0000   0.0000   0.0000   0.0000   0.0000   0.0000   0.0000   0.0000
     0.0000   0.0000   0.0000   0.0000   0.0000   0.0000

          k = 0.2267 0.5312 0.0000 ( 11940 PWs)   bands (ev):

   -15.0181 -14.9559 -13.1229 -13.0774 -10.3339 -10.2998  -2.7414  -2.3490
     0.3763   0.5759   9.9012  10.0352  10.1991  10.6339  10.9619  11.5332
    11.6946  12.0442  12.4878  12.6777  13.2966  14.1497  14.2976  14.4308
    14.6538  14.9270  15.5810  16.2185  16.4294  16.6936

     occupation numbers 
     1.0000   1.0000   1.0000   1.0000   1.0000   1.0000   1.0000   1.0000
     0.0000   0.0000   0.0000   0.0000   0.0000   0.0000   0.0000   0.0000
     0.0000   0.0000   0.0000   0.0000   0.0000   0.0000   0.0000   0.0000
     0.0000   0.0000   0.0000   0.0000   0.0000   0.0000

          k = 0.2267 0.5466 0.0000 ( 11940 PWs)   bands (ev):

   -14.7990 -14.7429 -13.3543 -13.3118 -10.3652 -10.3306  -2.5670  -2.2278
     0.2384   0.3915   9.9833  10.0915  10.4673  10.6696  10.9578  11.7219
    11.8193  12.0977  12.7521  12.9080  13.2719  13.8020  14.3341  14.4136
    14.6624  14.8012  15.4504  15.9838  16.5356  16.8318

     occupation numbers 
     1.0000   1.0000   1.0000   1.0000   1.0000   1.0000   1.0000   1.0000
     0.0000   0.0000   0.0000   0.0000   0.0000   0.0000   0.0000   0.0000
     0.0000   0.0000   0.0000   0.0000   0.0000   0.0000   0.0000   0.0000
     0.0000   0.0000   0.0000   0.0000   0.0000   0.0000

          k = 0.2267 0.5620 0.0000 ( 11931 PWs)   bands (ev):

   -14.6198 -14.5745 -13.5335 -13.5008 -10.3839 -10.3488  -2.4440  -2.1557
     0.1666   0.2521  10.0240  10.1049  10.5976  10.8543  10.9709  11.5230
    11.9677  12.4801  12.6847  13.2123  13.3841  13.4910  14.0145  14.1862
    14.8655  15.0424  15.3475  15.7317  16.5196  16.8455

     occupation numbers 
     1.0000   1.0000   1.0000   1.0000   1.0000   1.0000   1.0000   1.0000
     0.0000   0.0000   0.0000   0.0000   0.0000   0.0000   0.0000   0.0000
     0.0000   0.0000   0.0000   0.0000   0.0000   0.0000   0.0000   0.0000
     0.0000   0.0000   0.0000   0.0000   0.0000   0.0000

          k = 0.2267 0.5774 0.0000 ( 11931 PWs)   bands (ev):

   -14.5417 -14.5065 -13.6038 -13.5837 -10.3900 -10.3549  -2.3981  -2.1331
     0.1639   0.1809  10.0359  10.1085  10.6109  10.9326  11.1325  11.2878
    12.1047  12.5069  12.9334  12.9537  13.5641  13.5695  13.8495  13.9397
    15.0324  15.1513  15.3046  15.5688  16.4881  16.8219

     occupation numbers 
     1.0000   1.0000   1.0000   1.0000   1.0000   1.0000   1.0000   1.0000
     0.0000   0.0000   0.0000   0.0000   0.0000   0.0000   0.0000   0.0000
     0.0000   0.0000   0.0000   0.0000   0.0000   0.0000   0.0000   0.0000
     0.0000   0.0000   0.0000   0.0000   0.0000   0.0000

          k = 0.2400 0.4157 0.0000 ( 11961 PWs)   bands (ev):

   -16.6375 -16.5597 -11.2643 -11.2398  -9.7209  -9.7026  -4.3747  -3.7903
     2.1408   2.3644   7.8494   8.2215   9.1030   9.5805   9.7762  10.6965
    10.9363  11.1790  11.5185  11.6466  11.7841  12.6557  12.7345  14.6084
    14.6822  16.9893  17.3127  17.3975  17.6170  17.8788

     occupation numbers 
     1.0000   1.0000   1.0000   1.0000   1.0000   1.0000   1.0000   1.0000
     0.0000   0.0000   0.0000   0.0000   0.0000   0.0000   0.0000   0.0000
     0.0000   0.0000   0.0000   0.0000   0.0000   0.0000   0.0000   0.0000
     0.0000   0.0000   0.0000   0.0000   0.0000   0.0000

          k = 0.2400 0.4311 0.0000 ( 11967 PWs)   bands (ev):

   -16.4224 -16.3461 -11.4750 -11.4492  -9.9035  -9.8841  -4.1380  -3.5687
     1.8686   2.0961   8.1487   8.4996   9.3973   9.7648  10.0700  10.9142
    11.0391  11.3413  11.5735  11.7968  12.0086  12.7327  12.8366  14.8171
    14.8792  16.9419  17.0567  17.2710  17.4286  17.8673

     occupation numbers 
     1.0000   1.0000   1.0000   1.0000   1.0000   1.0000   1.0000   1.0000
     0.0000   0.0000   0.0000   0.0000   0.0000   0.0000   0.0000   0.0000
     0.0000   0.0000   0.0000   0.0000   0.0000   0.0000   0.0000   0.0000
     0.0000   0.0000   0.0000   0.0000   0.0000   0.0000

          k = 0.2400 0.4465 0.0000 ( 11957 PWs)   bands (ev):

   -16.2013 -16.1266 -11.7003 -11.6715 -10.0631 -10.0415  -3.8979  -3.3454
     1.5973   1.8294   8.4565   8.7765   9.6586   9.9615  10.3594  11.0265
    11.1797  11.4336  11.5981  11.9579  12.3130  12.8460  13.0305  14.9809
    15.1621  16.5313  16.7321  17.2840  17.3592  17.4199

     occupation numbers 
     1.0000   1.0000   1.0000   1.0000   1.0000   1.0000   1.0000   1.0000
     0.0000   0.0000   0.0000   0.0000   0.0000   0.0000   0.0000   0.0000
     0.0000   0.0000   0.0000   0.0000   0.0000   0.0000   0.0000   0.0000
     0.0000   0.0000   0.0000   0.0000   0.0000   0.0000

          k = 0.2400 0.4619 0.0000 ( 11947 PWs)   bands (ev):

   -15.9749 -15.9020 -11.9382 -11.9059 -10.1996 -10.1754  -3.6558  -3.1223
     1.3290   1.5658   8.7721   9.0463   9.8329  10.2227  10.6258  11.0363
    11.4097  11.4453  11.6685  12.1063  12.6252  13.0572  13.2424  15.1593
    15.4502  16.1321  16.3409  16.8675  17.2080  17.4143

     occupation numbers 
     1.0000   1.0000   1.0000   1.0000   1.0000   1.0000   1.0000   1.0000
     0.0000   0.0000   0.0000   0.0000   0.0000   0.0000   0.0000   0.0000
     0.0000   0.0000   0.0000   0.0000   0.0000   0.0000   0.0000   0.0000
     0.0000   0.0000   0.0000   0.0000   0.0000   0.0000

          k = 0.2400 0.4773 0.0000 ( 11957 PWs)   bands (ev):

   -15.7439 -15.6728 -12.1858 -12.1498 -10.3141 -10.2872  -3.4137  -2.9020
     1.0667   1.3067   9.0943   9.2998   9.9284  10.5431  10.8208  11.0784
    11.4018  11.6911  11.7693  12.2312  12.9172  13.3225  13.4773  15.3059
    15.6995  15.7832  16.0121  16.3872  17.0307  17.1922

     occupation numbers 
     1.0000   1.0000   1.0000   1.0000   1.0000   1.0000   1.0000   1.0000
     0.0000   0.0000   0.0000   0.0000   0.0000   0.0000   0.0000   0.0000
     0.0000   0.0000   0.0000   0.0000   0.0000   0.0000   0.0000   0.0000
     0.0000   0.0000   0.0000   0.0000   0.0000   0.0000

          k = 0.2400 0.4927 0.0000 ( 11941 PWs)   bands (ev):

   -15.5093 -15.4403 -12.4394 -12.4001 -10.4082 -10.3789  -3.1743  -2.6883
     0.8148   1.0546   9.4206   9.5240   9.9828  10.8710  10.9240  11.1721
    11.4016  11.8902  12.0045  12.3102  13.1623  13.6072  13.7409  15.2738
    15.3655  15.8519  15.9373  16.0682  16.6372  17.1110

     occupation numbers 
     1.0000   1.0000   1.0000   1.0000   1.0000   1.0000   1.0000   1.0000
     0.0000   0.0000   0.0000   0.0000   0.0000   0.0000   0.0000   0.0000
     0.0000   0.0000   0.0000   0.0000   0.0000   0.0000   0.0000   0.0000
     0.0000   0.0000   0.0000   0.0000   0.0000   0.0000

          k = 0.2400 0.5081 0.0000 ( 11945 PWs)   bands (ev):

   -15.2730 -15.2064 -12.6947 -12.6528 -10.4838 -10.4525  -2.9416  -2.4869
     0.5798   0.8129   9.7039   9.7433  10.0213  10.9254  11.2428  11.2764
    11.4369  12.1271  12.2173  12.3997  13.3235  13.8945  14.0321  14.9799
    15.0677  15.4988  15.9628  16.2674  16.3424  16.9226

     occupation numbers 
     1.0000   1.0000   1.0000   1.0000   1.0000   1.0000   1.0000   1.0000
     0.0000   0.0000   0.0000   0.0000   0.0000   0.0000   0.0000   0.0000
     0.0000   0.0000   0.0000   0.0000   0.0000   0.0000   0.0000   0.0000
     0.0000   0.0000   0.0000   0.0000   0.0000   0.0000

          k = 0.2400 0.5235 0.0000 ( 11947 PWs)   bands (ev):

   -15.0380 -14.9746 -12.9462 -12.9028 -10.5423 -10.5095  -2.7221  -2.3063
     0.3713   0.5869   9.8311   9.9695  10.1434  10.9394  11.2977  11.5362
    11.6501  12.1456  12.4558  12.6611  13.3664  14.1717  14.3347  14.5995
    14.8306  15.1575  15.7607  16.3534  16.4188  16.7073

     occupation numbers 
     1.0000   1.0000   1.0000   1.0000   1.0000   1.0000   1.0000   1.0000
     0.0000   0.0000   0.0000   0.0000   0.0000   0.0000   0.0000   0.0000
     0.0000   0.0000   0.0000   0.0000   0.0000   0.0000   0.0000   0.0000
     0.0000   0.0000   0.0000   0.0000   0.0000   0.0000

          k = 0.2400 0.5389 0.0000 ( 11941 PWs)   bands (ev):

   -14.8110 -14.7521 -13.1848 -13.1422 -10.5852 -10.5513  -2.5257  -2.1582
     0.2032   0.3846   9.9083  10.0043  10.4455  10.9465  11.3131  11.7193
    11.9659  12.0584  12.7759  12.9263  13.3292  14.1385  14.4567  14.5740
    14.6624  14.8879  15.5429  16.1753  16.5647  16.7404

     occupation numbers 
     1.0000   1.0000   1.0000   1.0000   1.0000   1.0000   1.0000   1.0000
     0.0000   0.0000   0.0000   0.0000   0.0000   0.0000   0.0000   0.0000
     0.0000   0.0000   0.0000   0.0000   0.0000   0.0000   0.0000   0.0000
     0.0000   0.0000   0.0000   0.0000   0.0000   0.0000

          k = 0.2400 0.5543 0.0000 ( 11926 PWs)   bands (ev):

   -14.6076 -14.5566 -13.3917 -13.3546 -10.6132 -10.5787  -2.3690  -2.0560
     0.0933   0.2182   9.9485  10.0116  10.7447  10.9695  11.3147  11.7441
    11.9600  12.4435  12.8616  13.1912  13.4551  13.7328  14.2841  14.4223
    14.8346  14.9898  15.4264  15.9205  16.5664  16.8524

     occupation numbers 
     1.0000   1.0000   1.0000   1.0000   1.0000   1.0000   1.0000   1.0000
     0.0000   0.0000   0.0000   0.0000   0.0000   0.0000   0.0000   0.0000
     0.0000   0.0000   0.0000   0.0000   0.0000   0.0000   0.0000   0.0000
     0.0000   0.0000   0.0000   0.0000   0.0000   0.0000

          k = 0.2400 0.5697 0.0000 ( 11927 PWs)   bands (ev):

   -14.4685 -14.4302 -13.5226 -13.4997 -10.6271 -10.5922  -2.2772  -2.0068
     0.0572   0.1046   9.9647  10.0140  10.8813  11.1355  11.2996  11.5011
    12.1834  12.6493  12.8911  13.2885  13.5555  13.7166  13.9830  14.1381
    15.0194  15.2212  15.3635  15.6934  16.5152  16.7523

     occupation numbers 
     1.0000   1.0000   1.0000   1.0000   1.0000   1.0000   1.0000   1.0000
     0.0000   0.0000   0.0000   0.0000   0.0000   0.0000   0.0000   0.0000
     0.0000   0.0000   0.0000   0.0000   0.0000   0.0000   0.0000   0.0000
     0.0000   0.0000   0.0000   0.0000   0.0000   0.0000

          k = 0.2533 0.4388 0.0000 ( 11959 PWs)   bands (ev):

   -16.2051 -16.1304 -11.6618 -11.6362 -10.1000 -10.0810  -3.9004  -3.3469
     1.6066   1.8363   8.4511   8.7694   9.6510   9.9535  10.3545  11.1424
    11.2450  11.4882  11.6876  11.9045  12.0686  12.8260  13.0198  14.9803
    15.1566  16.8003  16.8674  17.1049  17.1864  17.7513

     occupation numbers 
     1.0000   1.0000   1.0000   1.0000   1.0000   1.0000   1.0000   1.0000
     0.0000   0.0000   0.0000   0.0000   0.0000   0.0000   0.0000   0.0000
     0.0000   0.0000   0.0000   0.0000   0.0000   0.0000   0.0000   0.0000
     0.0000   0.0000   0.0000   0.0000   0.0000   0.0000

          k = 0.2533 0.4542 0.0000 ( 11961 PWs)   bands (ev):

   -15.9824 -15.9094 -11.8635 -11.8365 -10.2730 -10.2530  -3.6598  -3.1237
     1.3452   1.5783   8.7613   9.0312   9.8136  10.2091  10.6211  11.2969
    11.4048  11.6354  11.7164  12.0043  12.3008  13.0252  13.2207  15.1675
    15.4404  16.4361  16.5895  16.8861  17.1226  17.2835

     occupation numbers 
     1.0000   1.0000   1.0000   1.0000   1.0000   1.0000   1.0000   1.0000
     0.0000   0.0000   0.0000   0.0000   0.0000   0.0000   0.0000   0.0000
     0.0000   0.0000   0.0000   0.0000   0.0000   0.0000   0.0000   0.0000
     0.0000   0.0000   0.0000   0.0000   0.0000   0.0000

          k = 0.2533 0.4696 0.0000 ( 11957 PWs)   bands (ev):

   -15.7548 -15.6835 -12.0798 -12.0499 -10.4213 -10.3991  -3.4176  -2.9011
     1.0866   1.3232   9.0782   9.2754   9.8954  10.5250  10.8441  11.3338
    11.6215  11.7194  11.8265  12.0825  12.6112  13.2891  13.4412  15.3563
    15.7192  16.0475  16.2330  16.7522  16.8037  17.0432

     occupation numbers 
     1.0000   1.0000   1.0000   1.0000   1.0000   1.0000   1.0000   1.0000
     0.0000   0.0000   0.0000   0.0000   0.0000   0.0000   0.0000   0.0000
     0.0000   0.0000   0.0000   0.0000   0.0000   0.0000   0.0000   0.0000
     0.0000   0.0000   0.0000   0.0000   0.0000   0.0000

          k = 0.2533 0.4850 0.0000 ( 11955 PWs)   bands (ev):

   -15.5231 -15.4538 -12.3084 -12.2749 -10.5450 -10.5200  -3.1760  -2.6821
     0.8340   1.0728   9.3994   9.4886   9.9360  10.8689  11.0069  11.3566
    11.7241  11.8923  11.9924  12.1985  12.9083  13.5854  13.6823  15.4524
    15.6505  15.9704  16.0087  16.3003  16.7042  16.8855

     occupation numbers 
     1.0000   1.0000   1.0000   1.0000   1.0000   1.0000   1.0000   1.0000
     0.0000   0.0000   0.0000   0.0000   0.0000   0.0000   0.0000   0.0000
     0.0000   0.0000   0.0000   0.0000   0.0000   0.0000   0.0000   0.0000
     0.0000   0.0000   0.0000   0.0000   0.0000   0.0000

          k = 0.2533 0.5004 0.0000 ( 11949 PWs)   bands (ev):

   -15.2887 -15.2217 -12.5452 -12.5083 -10.6454 -10.6178  -2.9381  -2.4709
     0.5922   0.8295   9.6563   9.7159   9.9626  11.1283  11.2305  11.3751
    11.7649  12.1001  12.1887  12.3682  13.1573  13.8845  13.9530  15.2659
    15.2970  15.8205  16.0350  16.2538  16.4904  16.7151

     occupation numbers 
     1.0000   1.0000   1.0000   1.0000   1.0000   1.0000   1.0000   1.0000
     0.0000   0.0000   0.0000   0.0000   0.0000   0.0000   0.0000   0.0000
     0.0000   0.0000   0.0000   0.0000   0.0000   0.0000   0.0000   0.0000
     0.0000   0.0000   0.0000   0.0000   0.0000   0.0000

          k = 0.2533 0.5158 0.0000 ( 11955 PWs)   bands (ev):

   -15.0540 -14.9897 -12.7853 -12.7458 -10.7243 -10.6944  -2.7085  -2.2740
     0.3686   0.5973   9.7709   9.9097  10.1013  11.2160  11.4251  11.6164
    11.7787  12.1788  12.4328  12.6434  13.3210  14.1566  14.2635  14.9015
    15.0305  15.4292  16.0155  16.3286  16.3873  16.6571

     occupation numbers 
     1.0000   1.0000   1.0000   1.0000   1.0000   1.0000   1.0000   1.0000
     0.0000   0.0000   0.0000   0.0000   0.0000   0.0000   0.0000   0.0000
     0.0000   0.0000   0.0000   0.0000   0.0000   0.0000   0.0000   0.0000
     0.0000   0.0000   0.0000   0.0000   0.0000   0.0000

          k = 0.2533 0.5312 0.0000 ( 11956 PWs)   bands (ev):

   -14.8231 -14.7624 -13.0215 -12.9809 -10.7836 -10.7520  -2.4949  -2.1017
     0.1748   0.3822   9.8375   9.9257  10.4107  11.2379  11.5635  11.8176
    11.9930  12.1080  12.7594  12.9346  13.3746  14.3687  14.5316  14.5992
    14.8020  15.0992  15.7219  16.3478  16.4720  16.5274

     occupation numbers 
     1.0000   1.0000   1.0000   1.0000   1.0000   1.0000   1.0000   1.0000
     0.0000   0.0000   0.0000   0.0000   0.0000   0.0000   0.0000   0.0000
     0.0000   0.0000   0.0000   0.0000   0.0000   0.0000   0.0000   0.0000
     0.0000   0.0000   0.0000   0.0000   0.0000   0.0000

          k = 0.2533 0.5466 0.0000 ( 11931 PWs)   bands (ev):

   -14.6058 -14.5508 -13.2409 -13.2024 -10.8249 -10.7920  -2.3099  -1.9681
     0.0277   0.1943   9.8703   9.9243  10.7279  11.2396  11.6421  11.9343
    11.9729  12.4035  13.0048  13.1793  13.4434  14.0800  14.4941  14.6243
    14.8506  14.9603  15.5159  16.1172  16.4359  16.6036

     occupation numbers 
     1.0000   1.0000   1.0000   1.0000   1.0000   1.0000   1.0000   1.0000
     0.0000   0.0000   0.0000   0.0000   0.0000   0.0000   0.0000   0.0000
     0.0000   0.0000   0.0000   0.0000   0.0000   0.0000   0.0000   0.0000
     0.0000   0.0000   0.0000   0.0000   0.0000   0.0000

          k = 0.2533 0.5620 0.0000 ( 11924 PWs)   bands (ev):

   -14.4267 -14.3821 -13.4142 -13.3851 -10.8492 -10.8155  -2.1757  -1.8872
    -0.0530   0.0501   9.8835   9.9220  11.0122  11.2602  11.6092  11.7649
    12.2112  12.7752  12.9218  13.4997  13.6504  13.7282  14.2372  14.3843
    14.9955  15.1930  15.4471  15.8638  16.4253  16.5589

     occupation numbers 
     1.0000   1.0000   1.0000   1.0000   1.0000   1.0000   1.0000   1.0000
     0.0000   0.0000   0.0000   0.0000   0.0000   0.0000   0.0000   0.0000
     0.0000   0.0000   0.0000   0.0000   0.0000   0.0000   0.0000   0.0000
     0.0000   0.0000   0.0000   0.0000   0.0000   0.0000

          k = 0.2533 0.5774 0.0000 ( 11923 PWs)   bands (ev):

   -14.3476 -14.3131 -13.4825 -13.4679 -10.8572 -10.8233  -2.1244  -1.8619
    -0.0666  -0.0163   9.8867   9.9211  11.1303  11.3917  11.4312  11.7222
    12.3695  12.7310  13.2209  13.2557  13.8405  13.8428  14.0375  14.1517
    15.0721  15.3377  15.4453  15.7166  16.4603  16.4692

     occupation numbers 
     1.0000   1.0000   1.0000   1.0000   1.0000   1.0000   1.0000   1.0000
     0.0000   0.0000   0.0000   0.0000   0.0000   0.0000   0.0000   0.0000
     0.0000   0.0000   0.0000   0.0000   0.0000   0.0000   0.0000   0.0000
     0.0000   0.0000   0.0000   0.0000   0.0000   0.0000

          k = 0.2667 0.4619 0.0000 ( 11961 PWs)   bands (ev):

   -15.7584 -15.6871 -12.0406 -12.0139 -10.4597 -10.4403  -3.4190  -2.9009
     1.0934   1.3288   9.0728   9.2672   9.8841  10.5189  10.8429  11.5278
    11.5598  11.8025  11.8096  12.2359  12.2978  13.2789  13.4321  15.3709
    15.7170  16.2918  16.3348  16.5671  16.8583  17.1864

     occupation numbers 
     1.0000   1.0000   1.0000   1.0000   1.0000   1.0000   1.0000   1.0000
     0.0000   0.0000   0.0000   0.0000   0.0000   0.0000   0.0000   0.0000
     0.0000   0.0000   0.0000   0.0000   0.0000   0.0000   0.0000   0.0000
     0.0000   0.0000   0.0000   0.0000   0.0000   0.0000

          k = 0.2667 0.4773 0.0000 ( 11957 PWs)   bands (ev):

   -15.5300 -15.4606 -12.2329 -12.2047 -10.6209 -10.6006  -3.1770  -2.6791
     0.8440   1.0821   9.3888   9.4705   9.9118  10.8579  11.0132  11.6030
    11.7673  11.9146  12.0510  12.2480  12.5855  13.5713  13.6632  15.5573
    15.9134  16.0122  16.0778  16.3982  16.6608  16.7520

     occupation numbers 
     1.0000   1.0000   1.0000   1.0000   1.0000   1.0000   1.0000   1.0000
     0.0000   0.0000   0.0000   0.0000   0.0000   0.0000   0.0000   0.0000
     0.0000   0.0000   0.0000   0.0000   0.0000   0.0000   0.0000   0.0000
     0.0000   0.0000   0.0000   0.0000   0.0000   0.0000

          k = 0.2667 0.4927 0.0000 ( 11953 PWs)   bands (ev):

   -15.2983 -15.2310 -12.4394 -12.4084 -10.7555 -10.7331  -2.9362  -2.4614
     0.6003   0.8401   9.6266   9.6990   9.9260  11.1634  11.2134  11.6011
    11.9964  12.0575  12.2543  12.3335  12.8895  13.8797  13.9140  15.5269
    15.5760  15.9639  16.1590  16.2026  16.3968  16.6164

     occupation numbers 
     1.0000   1.0000   1.0000   1.0000   1.0000   1.0000   1.0000   1.0000
     0.0000   0.0000   0.0000   0.0000   0.0000   0.0000   0.0000   0.0000
     0.0000   0.0000   0.0000   0.0000   0.0000   0.0000   0.0000   0.0000
     0.0000   0.0000   0.0000   0.0000   0.0000   0.0000

          k = 0.2667 0.5081 0.0000 ( 11947 PWs)   bands (ev):

   -15.0650 -15.0002 -12.6567 -12.6225 -10.8640 -10.8389  -2.6999  -2.2525
     0.3674   0.6052   9.7285   9.8655  10.0742  11.3340  11.5415  11.6271
    12.1072  12.1481  12.4344  12.6277  13.1452  14.1517  14.2174  15.1961
    15.2643  15.7545  16.0989  16.1870  16.3202  16.5623

     occupation numbers 
     1.0000   1.0000   1.0000   1.0000   1.0000   1.0000   1.0000   1.0000
     0.0000   0.0000   0.0000   0.0000   0.0000   0.0000   0.0000   0.0000
     0.0000   0.0000   0.0000   0.0000   0.0000   0.0000   0.0000   0.0000
     0.0000   0.0000   0.0000   0.0000   0.0000   0.0000

          k = 0.2667 0.5235 0.0000 ( 11941 PWs)   bands (ev):

   -14.8330 -14.7712 -12.8791 -12.8424 -10.9476 -10.9201  -2.4735  -2.0601
     0.1540   0.3820   9.7832   9.8654  10.3840  11.4833  11.6179  11.9711
    12.1035  12.1739  12.7455  12.9307  13.3193  14.3887  14.5384  14.8328
    15.0040  15.3635  15.9727  16.1469  16.2350  16.5476

     occupation numbers 
     1.0000   1.0000   1.0000   1.0000   1.0000   1.0000   1.0000   1.0000
     0.0000   0.0000   0.0000   0.0000   0.0000   0.0000   0.0000   0.0000
     0.0000   0.0000   0.0000   0.0000   0.0000   0.0000   0.0000   0.0000
     0.0000   0.0000   0.0000   0.0000   0.0000   0.0000

          k = 0.2667 0.5389 0.0000 ( 11948 PWs)   bands (ev):

   -14.6084 -14.5509 -13.0972 -13.0600 -11.0083 -10.9787  -2.2663  -1.8967
    -0.0257   0.1779   9.8061   9.8533  10.7008  11.5005  11.8055  12.0448
    12.1677  12.3737  13.0565  13.1984  13.4297  14.4070  14.5811  14.8145
    14.8592  15.0724  15.6666  16.1142  16.2492  16.3695

     occupation numbers 
     1.0000   1.0000   1.0000   1.0000   1.0000   1.0000   1.0000   1.0000
     0.0000   0.0000   0.0000   0.0000   0.0000   0.0000   0.0000   0.0000
     0.0000   0.0000   0.0000   0.0000   0.0000   0.0000   0.0000   0.0000
     0.0000   0.0000   0.0000   0.0000   0.0000   0.0000

          k = 0.2667 0.5543 0.0000 ( 11925 PWs)   bands (ev):

   -14.4056 -14.3555 -13.2922 -13.2593 -11.0477 -11.0168  -2.0955  -1.7796
    -0.1510   0.0065   9.8123   9.8433  11.0030  11.4969  11.8382  12.0163
    12.2746  12.7656  13.0896  13.4896  13.6619  14.0287  14.4593  14.6253
    15.0128  15.1564  15.5041  16.0232  16.1066  16.3378

     occupation numbers 
     1.0000   1.0000   1.0000   1.0000   1.0000   1.0000   1.0000   1.0000
     0.0000   0.0000   0.0000   0.0000   0.0000   0.0000   0.0000   0.0000
     0.0000   0.0000   0.0000   0.0000   0.0000   0.0000   0.0000   0.0000
     0.0000   0.0000   0.0000   0.0000   0.0000   0.0000

          k = 0.2667 0.5697 0.0000 ( 11928 PWs)   bands (ev):

   -14.2644 -14.2268 -13.4189 -13.4013 -11.0671 -11.0355  -1.9914  -1.7226
    -0.2042  -0.1057   9.8126   9.8381  11.2487  11.5160  11.6585  12.0379
    12.4791  12.8953  13.1962  13.5954  13.8426  13.9598  14.2063  14.3489
    15.0831  15.3516  15.5232  15.7922  16.1184  16.3188

     occupation numbers 
     1.0000   1.0000   1.0000   1.0000   1.0000   1.0000   1.0000   1.0000
     0.0000   0.0000   0.0000   0.0000   0.0000   0.0000   0.0000   0.0000
     0.0000   0.0000   0.0000   0.0000   0.0000   0.0000   0.0000   0.0000
     0.0000   0.0000   0.0000   0.0000   0.0000   0.0000

          k = 0.2800 0.4850 0.0000 ( 11971 PWs)   bands (ev):

   -15.3015 -15.2342 -12.4001 -12.3723 -10.7950 -10.7756  -2.9356  -2.4582
     0.6030   0.8437   9.6165   9.6933   9.9136  11.1646  11.2077  11.7708
    11.9116  12.0654  12.3184  12.5342  12.5977  13.8777  13.9032  15.7303
    15.8015  15.8183  16.0087  16.2960  16.5080  16.6447

     occupation numbers 
     1.0000   1.0000   1.0000   1.0000   1.0000   1.0000   1.0000   1.0000
     0.0000   0.0000   0.0000   0.0000   0.0000   0.0000   0.0000   0.0000
     0.0000   0.0000   0.0000   0.0000   0.0000   0.0000   0.0000   0.0000
     0.0000   0.0000   0.0000   0.0000   0.0000   0.0000

          k = 0.2800 0.5004 0.0000 ( 11951 PWs)   bands (ev):

   -15.0706 -15.0055 -12.5824 -12.5533 -10.9412 -10.9212  -2.6957  -2.2416
     0.3670   0.6095   9.7068   9.8423  10.0610  11.3422  11.5649  11.7927
    12.0435  12.3126  12.5730  12.6178  12.8836  14.1531  14.1962  15.4771
    15.5180  15.8469  15.8924  16.1303  16.4365  16.5419

     occupation numbers 
     1.0000   1.0000   1.0000   1.0000   1.0000   1.0000   1.0000   1.0000
     0.0000   0.0000   0.0000   0.0000   0.0000   0.0000   0.0000   0.0000
     0.0000   0.0000   0.0000   0.0000   0.0000   0.0000   0.0000   0.0000
     0.0000   0.0000   0.0000   0.0000   0.0000   0.0000

          k = 0.2800 0.5158 0.0000 ( 11939 PWs)   bands (ev):

   -14.8394 -14.7770 -12.7776 -12.7460 -11.0587 -11.0368  -2.4609  -2.0345
     0.1414   0.3825   9.7494   9.8277  10.3677  11.5584  11.7507  11.9639
    12.1202  12.4436  12.7594  12.9252  13.1466  14.3987  14.5148  15.1249
    15.2146  15.6730  15.8137  15.9274  16.3196  16.4712

     occupation numbers 
     1.0000   1.0000   1.0000   1.0000   1.0000   1.0000   1.0000   1.0000
     0.0000   0.0000   0.0000   0.0000   0.0000   0.0000   0.0000   0.0000
     0.0000   0.0000   0.0000   0.0000   0.0000   0.0000   0.0000   0.0000
     0.0000   0.0000   0.0000   0.0000   0.0000   0.0000

          k = 0.2800 0.5312 0.0000 ( 11940 PWs)   bands (ev):

   -14.6117 -14.5528 -12.9797 -12.9460 -11.1479 -11.1236  -2.2376  -1.8460
    -0.0636   0.1676   9.7613   9.8036  10.6808  11.7130  11.8299  12.1087
    12.3479  12.4722  13.0623  13.2149  13.3572  14.5827  14.7543  14.8352
    15.0011  15.2981  15.7452  15.8470  16.0878  16.4350

     occupation numbers 
     1.0000   1.0000   1.0000   1.0000   1.0000   1.0000   1.0000   1.0000
     0.0000   0.0000   0.0000   0.0000   0.0000   0.0000   0.0000   0.0000
     0.0000   0.0000   0.0000   0.0000   0.0000   0.0000   0.0000   0.0000
     0.0000   0.0000   0.0000   0.0000   0.0000   0.0000

          k = 0.2800 0.5466 0.0000 ( 11938 PWs)   bands (ev):

   -14.3960 -14.3423 -13.1768 -13.1436 -11.2099 -11.1837  -2.0374  -1.6918
    -0.2304  -0.0254   9.7584   9.7836  10.9832  11.7055  11.9842  12.1130
    12.4989  12.7436  13.2171  13.4856  13.6185  14.3689  14.6012  14.8667
    15.0608  15.1442  15.5564  15.7675  16.0156  16.3292

     occupation numbers 
     1.0000   1.0000   1.0000   1.0000   1.0000   1.0000   1.0000   1.0000
     0.0000   0.0000   0.0000   0.0000   0.0000   0.0000   0.0000   0.0000
     0.0000   0.0000   0.0000   0.0000   0.0000   0.0000   0.0000   0.0000
     0.0000   0.0000   0.0000   0.0000   0.0000   0.0000

          k = 0.2800 0.5620 0.0000 ( 11930 PWs)   bands (ev):

   -14.2149 -14.1708 -13.3403 -13.3153 -11.2464 -11.2188  -1.8846  -1.5941
    -0.3332  -0.1764   9.7521   9.7710  11.2553  11.6881  11.8690  12.2650
    12.6013  13.0780  13.1835  13.8070  13.9029  14.0118  14.4312  14.5937
    15.1287  15.3223  15.4609  15.7391  15.9319  16.2269

     occupation numbers 
     1.0000   1.0000   1.0000   1.0000   1.0000   1.0000   1.0000   1.0000
     0.0000   0.0000   0.0000   0.0000   0.0000   0.0000   0.0000   0.0000
     0.0000   0.0000   0.0000   0.0000   0.0000   0.0000   0.0000   0.0000
     0.0000   0.0000   0.0000   0.0000   0.0000   0.0000

          k = 0.2800 0.5774 0.0000 ( 11935 PWs)   bands (ev):

   -14.1323 -14.0985 -13.4048 -13.4004 -11.2584 -11.2304  -1.8230  -1.5635
    -0.3619  -0.2410   9.7493   9.7667  11.4091  11.6586  11.7849  12.3092
    12.7281  12.9791  13.5335  13.5863  14.1010  14.1305  14.2506  14.3711
    15.1167  15.3997  15.5753  15.6161  15.9040  16.2146

     occupation numbers 
     1.0000   1.0000   1.0000   1.0000   1.0000   1.0000   1.0000   1.0000
     0.0000   0.0000   0.0000   0.0000   0.0000   0.0000   0.0000   0.0000
     0.0000   0.0000   0.0000   0.0000   0.0000   0.0000   0.0000   0.0000
     0.0000   0.0000   0.0000   0.0000   0.0000   0.0000

          k = 0.2933 0.5081 0.0000 ( 11941 PWs)   bands (ev):

   -14.8416 -14.7790 -12.7399 -12.7110 -11.0983 -11.0798  -2.4568  -2.0259
     0.1372   0.3827   9.7380   9.8149  10.3622  11.5617  11.8357  11.9802
    12.0763  12.5805  12.8683  12.9217  12.9473  14.4044  14.5072  15.3403
    15.3507  15.5850  15.7178  16.0837  16.0867  16.5755

     occupation numbers 
     1.0000   1.0000   1.0000   1.0000   1.0000   1.0000   1.0000   1.0000
     0.0000   0.0000   0.0000   0.0000   0.0000   0.0000   0.0000   0.0000
     0.0000   0.0000   0.0000   0.0000   0.0000   0.0000   0.0000   0.0000
     0.0000   0.0000   0.0000   0.0000   0.0000   0.0000

          k = 0.2933 0.5235 0.0000 ( 11938 PWs)   bands (ev):

   -14.6138 -14.5542 -12.9114 -12.8814 -11.2244 -11.2057  -2.2233  -1.8196
    -0.0834   0.1627   9.7385   9.7781  10.6706  11.8103  11.8687  12.1200
    12.3398  12.7166  13.0792  13.1903  13.2434  14.6350  14.8007  15.0508
    15.1164  15.4438  15.5846  15.7429  16.0411  16.3237

     occupation numbers 
     1.0000   1.0000   1.0000   1.0000   1.0000   1.0000   1.0000   1.0000
     0.0000   0.0000   0.0000   0.0000   0.0000   0.0000   0.0000   0.0000
     0.0000   0.0000   0.0000   0.0000   0.0000   0.0000   0.0000   0.0000
     0.0000   0.0000   0.0000   0.0000   0.0000   0.0000

          k = 0.2933 0.5389 0.0000 ( 11941 PWs)   bands (ev):

   -14.3922 -14.3365 -13.0915 -13.0603 -11.3184 -11.2985  -2.0023  -1.6333
    -0.2832  -0.0450   9.7253   9.7462  10.9695  11.8500  12.0492  12.1460
    12.7208  12.7660  13.2528  13.4890  13.5641  14.6720  14.7404  15.0202
    15.0570  15.2056  15.4423  15.6285  15.9636  16.0868

     occupation numbers 
     1.0000   1.0000   1.0000   1.0000   1.0000   1.0000   1.0000   1.0000
     0.0000   0.0000   0.0000   0.0000   0.0000   0.0000   0.0000   0.0000
     0.0000   0.0000   0.0000   0.0000   0.0000   0.0000   0.0000   0.0000
     0.0000   0.0000   0.0000   0.0000   0.0000   0.0000

          k = 0.2933 0.5543 0.0000 ( 11932 PWs)   bands (ev):

   -14.1888 -14.1396 -13.2650 -13.2358 -11.3805 -11.3590  -1.8095  -1.4883
    -0.4390  -0.2270   9.7102   9.7238  11.2449  11.8265  12.0250  12.3447
    12.8094  13.1186  13.2772  13.8114  13.8831  14.3299  14.5932  14.8458
    15.1695  15.2107  15.3586  15.5522  15.8799  16.0567

     occupation numbers 
     1.0000   1.0000   1.0000   1.0000   1.0000   1.0000   1.0000   1.0000
     0.0000   0.0000   0.0000   0.0000   0.0000   0.0000   0.0000   0.0000
     0.0000   0.0000   0.0000   0.0000   0.0000   0.0000   0.0000   0.0000
     0.0000   0.0000   0.0000   0.0000   0.0000   0.0000

          k = 0.2933 0.5697 0.0000 ( 11923 PWs)   bands (ev):

   -14.0408 -14.0036 -13.3875 -13.3726 -11.4112 -11.3888  -1.6819  -1.4139
    -0.5176  -0.3503   9.7008   9.7124  11.4599  11.7771  11.9528  12.4841
    12.9228  13.1497  13.5278  13.9183  14.1234  14.2035  14.4250  14.5628
    15.1420  15.2431  15.3760  15.5539  15.8642  16.0785

     occupation numbers 
     1.0000   1.0000   1.0000   1.0000   1.0000   1.0000   1.0000   1.0000
     0.0000   0.0000   0.0000   0.0000   0.0000   0.0000   0.0000   0.0000
     0.0000   0.0000   0.0000   0.0000   0.0000   0.0000   0.0000   0.0000
     0.0000   0.0000   0.0000   0.0000   0.0000   0.0000

          k = 0.3067 0.5312 0.0000 ( 11953 PWs)   bands (ev):

   -14.3913 -14.3350 -13.0596 -13.0296 -11.3567 -11.3405  -1.9906  -1.6126
    -0.3019  -0.0515   9.7142   9.7335  10.9648  11.9033  12.0615  12.1612
    12.7212  12.8917  13.2337  13.4825  13.5426  14.8376  14.9207  14.9338
    15.0022  15.2252  15.4558  15.6568  15.6930  16.2235

     occupation numbers 
     1.0000   1.0000   1.0000   1.0000   1.0000   1.0000   1.0000   1.0000
     0.0000   0.0000   0.0000   0.0000   0.0000   0.0000   0.0000   0.0000
     0.0000   0.0000   0.0000   0.0000   0.0000   0.0000   0.0000   0.0000
     0.0000   0.0000   0.0000   0.0000   0.0000   0.0000

          k = 0.3067 0.5466 0.0000 ( 11926 PWs)   bands (ev):

   -14.1779 -14.1261 -13.2181 -13.1877 -11.4527 -11.4375  -1.7706  -1.4253
    -0.5016  -0.2537   9.6891   9.6992  11.2379  11.9009  12.1086  12.3629
    12.9818  13.1111  13.3349  13.8217  13.8481  14.6334  14.7248  14.9783
    15.0007  15.1326  15.3467  15.5877  15.6193  16.0119

     occupation numbers 
     1.0000   1.0000   1.0000   1.0000   1.0000   1.0000   1.0000   1.0000
     0.0000   0.0000   0.0000   0.0000   0.0000   0.0000   0.0000   0.0000
     0.0000   0.0000   0.0000   0.0000   0.0000   0.0000   0.0000   0.0000
     0.0000   0.0000   0.0000   0.0000   0.0000   0.0000

          k = 0.3067 0.5620 0.0000 ( 11917 PWs)   bands (ev):

   -13.9905 -13.9466 -13.3678 -13.3412 -11.5108 -11.4955  -1.5848  -1.2883
    -0.6496  -0.4252   9.6710   9.6781  11.4663  11.8786  12.0637  12.5581
    13.0742  13.3284  13.5073  14.1067  14.1537  14.3106  14.5743  14.7821
    14.9702  15.0714  15.3572  15.4838  15.6585  15.9959

     occupation numbers 
     1.0000   1.0000   1.0000   1.0000   1.0000   1.0000   1.0000   0.9993
     0.0003   0.0000   0.0000   0.0000   0.0000   0.0000   0.0000   0.0000
     0.0000   0.0000   0.0000   0.0000   0.0000   0.0000   0.0000   0.0000
     0.0000   0.0000   0.0000   0.0000   0.0000   0.0000

          k = 0.3067 0.5774 0.0000 ( 11931 PWs)   bands (ev):

   -13.8959 -13.8630 -13.4392 -13.4269 -11.5302 -11.5148  -1.4989  -1.2438
    -0.6985  -0.5055   9.6644   9.6710  11.5768  11.8520  12.0332  12.6302
    13.2037  13.2215  13.8560  13.9347  14.3088  14.3912  14.4910  14.5678
    14.9622  15.0270  15.3457  15.4474  15.6891  16.0870

     occupation numbers 
     1.0000   1.0000   1.0000   1.0000   1.0000   1.0000   1.0000   0.9970
     0.0017   0.0000   0.0000   0.0000   0.0000   0.0000   0.0000   0.0000
     0.0000   0.0000   0.0000   0.0000   0.0000   0.0000   0.0000   0.0000
     0.0000   0.0000   0.0000   0.0000   0.0000   0.0000

          k = 0.3200 0.5543 0.0000 ( 11925 PWs)   bands (ev):

   -13.9749 -13.9280 -13.3586 -13.3277 -11.5451 -11.5342  -1.5496  -1.2319
    -0.7085  -0.4525   9.6611   9.6661  11.4662  11.9165  12.1021  12.5762
    13.1383  13.4031  13.4985  14.1194  14.1478  14.5447  14.5975  14.7410
    14.9209  15.1196  15.1700  15.5185  15.6474  15.8819

     occupation numbers 
     1.0000   1.0000   1.0000   1.0000   1.0000   1.0000   1.0000   0.9957
     0.0024   0.0000   0.0000   0.0000   0.0000   0.0000   0.0000   0.0000
     0.0000   0.0000   0.0000   0.0000   0.0000   0.0000   0.0000   0.0000
     0.0000   0.0000   0.0000   0.0000   0.0000   0.0000

          k = 0.3200 0.5697 0.0000 ( 11929 PWs)   bands (ev):

   -13.8057 -13.7678 -13.4905 -13.4631 -11.5919 -11.5840  -1.3712  -1.1000
    -0.8546  -0.6121   9.6461   9.6491  11.6131  11.9308  12.0618  12.6959
    13.2767  13.3959  13.8734  14.2307  14.3491  14.4291  14.5178  14.6473
    14.7817  14.9832  15.1459  15.4126  15.7001  15.8413

     occupation numbers 
     1.0000   1.0000   1.0000   1.0000   1.0000   1.0000   1.0000   0.8949
     0.0972   0.0001   0.0000   0.0000   0.0000   0.0000   0.0000   0.0000
     0.0000   0.0000   0.0000   0.0000   0.0000   0.0000   0.0000   0.0000
     0.0000   0.0000   0.0000   0.0000   0.0000   0.0000

          k = 0.3333 0.5774 0.0000 ( 11919 PWs)   bands (ev):

   -13.6541 -13.6206 -13.6206 -13.5903 -11.6171 -11.6171  -1.2374  -0.9865
    -0.9865  -0.7242   9.6384   9.6384  11.6600  12.0066  12.0066  12.7409
    13.3937  13.3937  14.1324  14.2843  14.2843  14.3818  14.6136  14.6136
    14.6996  14.9871  14.9871  15.3916  15.7330  15.7330

     occupation numbers 
     1.0000   1.0000   1.0000   1.0000   1.0000   1.0000   0.9963   0.5292
     0.5291   0.0040   0.0000   0.0000   0.0000   0.0000   0.0000   0.0000
     0.0000   0.0000   0.0000   0.0000   0.0000   0.0000   0.0000   0.0000
     0.0000   0.0000   0.0000   0.0000   0.0000   0.0000

     the Fermi energy is    -0.9794 ev
     (compare with:    -0.9868 eV, computed in scf)

     Writing all to output data dir /home/ubuntu/projects/Graphene-Band-Structure-Quantum-Espresso/outputs/field_0/PBE-d3/coupled/data/coupled.save/ :
     XML data file, pseudopotentials, collected wavefunctions

     init_run     :      0.84s CPU      0.95s WALL (       1 calls)
     electrons    :    494.56s CPU    501.66s WALL (       1 calls)

     Called by init_run:
     wfcinit      :      0.00s CPU      0.00s WALL (       1 calls)
     wfcinit:atom :      0.05s CPU      0.13s WALL (      32 calls)
     wfcinit:wfcr :      7.18s CPU      7.46s WALL (      32 calls)
     potinit      :      0.15s CPU      0.19s WALL (       1 calls)
     hinit0       :      0.56s CPU      0.59s WALL (       1 calls)

     Called by electrons:
     c_bands      :    494.56s CPU    501.55s WALL (       1 calls)
     v_of_rho     :      0.08s CPU      0.12s WALL (       1 calls)
     v_h          :      0.00s CPU      0.01s WALL (       1 calls)
     v_xc         :      0.08s CPU      0.11s WALL (       1 calls)

     Called by c_bands:
     init_us_2    :      0.11s CPU      0.12s WALL (      32 calls)
     cegterg      :    238.90s CPU    243.15s WALL (      81 calls)

     Called by sum_band:

     Called by *egterg:
     cdiaghg      :      2.10s CPU      2.13s WALL (    1458 calls)
     cegterg:over :     44.95s CPU     45.47s WALL (    1426 calls)
     cegterg:upda :     27.79s CPU     28.29s WALL (    1426 calls)
     cegterg:last :     58.18s CPU     58.85s WALL (     711 calls)
     h_psi        :    105.68s CPU    108.05s WALL (    1539 calls)
     g_psi        :      1.01s CPU      1.02s WALL (    1426 calls)

     Called by h_psi:
     h_psi:calbec :     15.81s CPU     16.01s WALL (    1539 calls)
     vloc_psi     :     72.89s CPU     74.23s WALL (    1539 calls)
     add_vuspsi   :     16.51s CPU     16.74s WALL (    1539 calls)

     General routines
     calbec       :     15.80s CPU     16.00s WALL (    1539 calls)
     fft          :      0.45s CPU      0.46s WALL (      11 calls)
     fftw         :     63.04s CPU     64.05s WALL (   42920 calls)

     Parallel routines

     PWSCF        :   8m16.12s CPU   8m23.70s WALL


   This run was terminated on:  15:41:16   3Oct2026            

=------------------------------------------------------------------------------=
   JOB DONE.
=------------------------------------------------------------------------------=
