&CONTROL
   calculation      = 'nscf'
   verbosity        = 'high'
   tprnfor          = .true.
   outdir           = '/home/ubuntu/projects/Graphene-Band-Structure-Quantum-Espresso/outputs/field_0/PBE-d3/coupled/data'
   prefix           = 'coupled'
   disk_io          = 'low'
   pseudo_dir       = '/home/ubuntu/projects/Graphene-Band-Structure-Quantum-Espresso/pseudo'
/
&SYSTEM
   nbnd             = 24
   ecutwfc          = 80.0
   ecutrho          = 320.0
   occupations      = 'smearing'
   degauss          = 0.01
   smearing         = 'gauss'
   vdw_corr         = 'grimme-d3'
   ntyp             = 1
   nat              = 4
   ibrav            = 0
/
&ELECTRONS
   electron_maxstep = 200
   conv_thr         = 1e-08
   mixing_beta      = 0.7
/
&IONS
/
&CELL
/
&FCP
/
&RISM
/
ATOMIC_SPECIES
C 12.011 C.upf

K_POINTS automatic
30 30 1  0 0 0

CELL_PARAMETERS angstrom
2.45999984708052 0.00000000000000 0.00000000000000
-1.22999992354026 2.13042136756791 0.00000000000000
0.00000000000000 0.00000000000000 23.34999874850822

ATOMIC_POSITIONS angstrom
C 0.0000000000 0.0000000000 9.9192452483  
C 1.2300000000 0.7101408311 9.9208208575  
C 1.2300000000 0.7101408311 13.4291791425  
C 0.0000000000 1.4202816622 13.4307547517  

