
     Program PWSCF v.7.6 starts on  4Oct2026 at  4:12:14 

     This program is part of the open-source Quantum ESPRESSO suite
     for quantum simulation of materials; please cite
         "P. Giannozzi et al., J. Phys.:Condens. Matter 21 395502 (2009);
         "P. Giannozzi et al., J. Phys.:Condens. Matter 29 465901 (2017);
         "P. Giannozzi et al., J. Chem. Phys. 152 154105 (2020);
          URL http://www.quantum-espresso.org", 
     in publications or presentations arising from this work. More details at
     http://www.quantum-espresso.org/quote

     Parallel version (MPI), running on    16 processors

     MPI processes distributed on     1 nodes
     27913 MiB available memory on the printing compute node when the environment starts

     Waiting for input...
     Reading input from standard input
Warning: card &CELL ignored
Warning: card &FCP ignored
Warning: card &RISM ignored

     Current dimensions of program PWSCF are:
     Max number of different atomic species (ntypx) = 10
     Max number of k-points (npk) =  40000
     Max angular momentum in pseudopotentials (lmaxx) =  4
     Message from routine setup:
     using ibrav=0 with symmetry is DISCOURAGED, use correct ibrav instead

     K-points division:     npool     =      16
     Subspace diagonalization in iterative solution of the eigenvalue problem:
     a serial algorithm will be used


     G-vector sticks info
     --------------------
     sticks:   dense  smooth     PW     G-vecs:    dense   smooth      PW
     Sum         535     535    163                94953    94953   15739

     Using Slab Decomposition



     bravais-lattice index     =            0
     lattice parameter (alat)  =       4.6487  a.u.
     unit-cell volume          =     825.8174 (a.u.)^3
     number of atoms/cell      =            4
     number of atomic types    =            1
     number of electrons       =        16.00
     number of Kohn-Sham states=           14
     kinetic-energy cutoff     =      90.0000  Ry
     charge density cutoff     =     360.0000  Ry
     scf convergence threshold =      1.0E-08
     mixing beta               =       0.7000
     number of iterations used =            8  plain     mixing
     Exchange-correlation= PBE
                           (   1   4   3   4   0   0   0)

     celldm(1)=   4.648726  celldm(2)=   0.000000  celldm(3)=   0.000000
     celldm(4)=   0.000000  celldm(5)=   0.000000  celldm(6)=   0.000000

     crystal axes: (cart. coord. in units of alat)
               a(1) = (   1.000000   0.000000   0.000000 )  
               a(2) = (  -0.500000   0.866025   0.000000 )  
               a(3) = (   0.000000   0.000000   9.491870 )  

     reciprocal axes: (cart. coord. in units 2 pi/alat)
               b(1) = (  1.000000  0.577351 -0.000000 )  
               b(2) = (  0.000000  1.154701  0.000000 )  
               b(3) = (  0.000000 -0.000000  0.105353 )  


     PseudoPot. # 1 for C  read from file:
     /home/ubuntu/projects/Graphene-Band-Structure-Quantum-Espresso/pseudo/C.upf
     MD5 check sum: 34a24e64c0a39f27c6c36b90a16ac686
     Pseudo is Norm-conserving + core correction, Zval =  4.0
     Generated using ONCVPSP code by D. R. Hamann
     Using radial grid of 1248 points,  4 beta functions with: 
                l(1) =   0
                l(2) =   0
                l(3) =   1
                l(4) =   1

     atomic species   valence    mass     pseudopotential
     C                 4.00    12.01100     C ( 1.00)

     12 Sym. Ops., with inversion, found ( 6 have fractional translation)


                                    s                        frac. trans.

      isym =  1     identity                                     

 cryst.   s( 1) = (     1          0          0      )
                  (     0          1          0      )
                  (     0          0          1      )

 cart.    s( 1) = (  1.0000000  0.0000000  0.0000000 )
                  (  0.0000000  1.0000000  0.0000000 )
                  (  0.0000000  0.0000000  1.0000000 )


      isym =  2     180 deg rotation - cart. axis [1,0,0]        

 cryst.   s( 2) = (     1          0          0      )    f =( -0.3333335 )
                  (    -1         -1          0      )       (  0.3333330 )
                  (     0          0         -1      )       ( -0.0000001 )

 cart.    s( 2) = (  1.0000000  0.0000000  0.0000000 )    f =( -0.5000000 )
                  (  0.0000000 -1.0000000  0.0000000 )       (  0.2886747 )
                  (  0.0000000  0.0000000 -1.0000000 )       ( -0.0000005 )


      isym =  3     120 deg rotation - cryst. axis [0,0,1]       

 cryst.   s( 3) = (     0          1          0      )
                  (    -1         -1          0      )
                  (     0          0          1      )

 cart.    s( 3) = ( -0.5000000 -0.8660258  0.0000000 )
                  (  0.8660250 -0.5000000  0.0000000 )
                  (  0.0000000  0.0000000  1.0000000 )


      isym =  4     120 deg rotation - cryst. axis [0,0,-1]      

 cryst.   s( 4) = (    -1         -1          0      )
                  (     1          0          0      )
                  (     0          0          1      )

 cart.    s( 4) = ( -0.5000000  0.8660258  0.0000000 )
                  ( -0.8660250 -0.5000000  0.0000000 )
                  (  0.0000000  0.0000000  1.0000000 )


      isym =  5     180 deg rotation - cryst. axis [0,1,0]       

 cryst.   s( 5) = (    -1         -1          0      )    f =( -0.3333335 )
                  (     0          1          0      )       (  0.3333335 )
                  (     0          0         -1      )       ( -0.0000001 )

 cart.    s( 5) = ( -0.5000000 -0.8660258  0.0000000 )    f =( -0.5000003 )
                  ( -0.8660250  0.5000000  0.0000000 )       (  0.2886752 )
                  (  0.0000000  0.0000000 -1.0000000 )       ( -0.0000005 )


      isym =  6     180 deg rotation - cryst. axis [1,1,0]       

 cryst.   s( 6) = (     0          1          0      )    f =( -0.3333330 )
                  (     1          0          0      )       (  0.3333335 )
                  (     0          0         -1      )       ( -0.0000001 )

 cart.    s( 6) = ( -0.5000000  0.8660258  0.0000000 )    f =( -0.4999997 )
                  (  0.8660250  0.5000000  0.0000000 )       (  0.2886752 )
                  (  0.0000000  0.0000000 -1.0000000 )       ( -0.0000005 )


      isym =  7     inversion                                    

 cryst.   s( 7) = (    -1          0          0      )    f =( -0.3333335 )
                  (     0         -1          0      )       (  0.3333330 )
                  (     0          0         -1      )       ( -0.0000001 )

 cart.    s( 7) = ( -1.0000000  0.0000000  0.0000000 )    f =( -0.5000000 )
                  (  0.0000000 -1.0000000  0.0000000 )       (  0.2886747 )
                  (  0.0000000  0.0000000 -1.0000000 )       ( -0.0000005 )


      isym =  8     inv. 180 deg rotation - cart. axis [1,0,0]   

 cryst.   s( 8) = (    -1          0          0      )
                  (     1          1          0      )
                  (     0          0          1      )

 cart.    s( 8) = ( -1.0000000  0.0000000  0.0000000 )
                  (  0.0000000  1.0000000  0.0000000 )
                  (  0.0000000  0.0000000  1.0000000 )


      isym =  9     inv. 120 deg rotation - cryst. axis [0,0,1]  

 cryst.   s( 9) = (     0         -1          0      )    f =( -0.3333330 )
                  (     1          1          0      )       (  0.3333335 )
                  (     0          0         -1      )       ( -0.0000001 )

 cart.    s( 9) = (  0.5000000  0.8660258  0.0000000 )    f =( -0.4999997 )
                  ( -0.8660250  0.5000000  0.0000000 )       (  0.2886752 )
                  (  0.0000000  0.0000000 -1.0000000 )       ( -0.0000005 )


      isym = 10     inv. 120 deg rotation - cryst. axis [0,0,-1] 

 cryst.   s(10) = (     1          1          0      )    f =( -0.3333335 )
                  (    -1          0          0      )       (  0.3333335 )
                  (     0          0         -1      )       ( -0.0000001 )

 cart.    s(10) = (  0.5000000 -0.8660258  0.0000000 )    f =( -0.5000003 )
                  (  0.8660250  0.5000000  0.0000000 )       (  0.2886752 )
                  (  0.0000000  0.0000000 -1.0000000 )       ( -0.0000005 )


      isym = 11     inv. 180 deg rotation - cryst. axis [0,1,0]  

 cryst.   s(11) = (     1          1          0      )
                  (     0         -1          0      )
                  (     0          0          1      )

 cart.    s(11) = (  0.5000000  0.8660258  0.0000000 )
                  (  0.8660250 -0.5000000  0.0000000 )
                  (  0.0000000  0.0000000  1.0000000 )


      isym = 12     inv. 180 deg rotation - cryst. axis [1,1,0]  

 cryst.   s(12) = (     0         -1          0      )
                  (    -1          0          0      )
                  (     0          0          1      )

 cart.    s(12) = (  0.5000000 -0.8660258  0.0000000 )
                  ( -0.8660250 -0.5000000  0.0000000 )
                  (  0.0000000  0.0000000  1.0000000 )


   Cartesian axes

     site n.     atom                  positions (alat units)
         1        C      tau(   1) = (   0.0000000   0.0000000   4.0321860  )
         2        C      tau(   2) = (   0.5000000   0.2886752   4.0328411  )
         3        C      tau(   3) = (   0.5000000   0.2886752   5.4590294  )
         4        C      tau(   4) = (   0.0000000   0.5773503   5.4596845  )

     --------------------------------------------
     DFT-D3 Dispersion Correction (3-body terms):
     --------------------------------------------
       Reference C6 values for interpolation: 

         atom   Coordination number   C6
         C          0.000            98.23
         C          0.987            86.49
         C          1.998            58.72
         C          2.999            51.56
         C          3.984            36.41

       Values used:

         atom   Coordination number  R0_AB[au]  C6      C8
         C          3.321            2.750     48.15   1392.48
         C          3.321            2.750     48.14   1392.42
         C          3.321            2.750     48.14   1392.42
         C          3.321            2.750     48.15   1392.48

         Molecular C6 ( Ry / a.u.^6 ) =       770.33


   Crystallographic axes

     site n.     atom                  positions (cryst. coord.)
         1        C      tau(   1) = (  0.0000000  0.0000000  0.4248042  )
         2        C      tau(   2) = (  0.6666668  0.3333335  0.4248732  )
         3        C      tau(   3) = (  0.6666668  0.3333335  0.5751269  )
         4        C      tau(   4) = (  0.3333335  0.6666670  0.5751959  )

     number of k points=    27  Gaussian smearing, width (Ry)=  0.0100
                       cart. coord. in units 2pi/alat
        k(    1) = (   0.0000000   0.0000000   0.0000000), wk =   0.0088889
        k(    2) = (   0.0000000   0.0769801   0.0000000), wk =   0.0533333
        k(    3) = (   0.0000000   0.1539601   0.0000000), wk =   0.0533333
        k(    4) = (   0.0000000   0.2309402   0.0000000), wk =   0.0533333
        k(    5) = (   0.0000000   0.3079203   0.0000000), wk =   0.0533333
        k(    6) = (   0.0000000   0.3849004   0.0000000), wk =   0.0533333
        k(    7) = (   0.0000000   0.4618804   0.0000000), wk =   0.0533333
        k(    8) = (   0.0000000   0.5388605   0.0000000), wk =   0.0533333
        k(    9) = (   0.0666667   0.1154701   0.0000000), wk =   0.0533333
        k(   10) = (   0.0666667   0.1924502   0.0000000), wk =   0.1066667
        k(   11) = (   0.0666667   0.2694303   0.0000000), wk =   0.1066667
        k(   12) = (   0.0666667   0.3464103   0.0000000), wk =   0.1066667
        k(   13) = (   0.0666667   0.4233904   0.0000000), wk =   0.1066667
        k(   14) = (   0.0666667   0.5003705   0.0000000), wk =   0.1066667
        k(   15) = (   0.0666667   0.5773505   0.0000000), wk =   0.0533333
        k(   16) = (   0.1333333   0.2309402   0.0000000), wk =   0.0533333
        k(   17) = (   0.1333333   0.3079203   0.0000000), wk =   0.1066667
        k(   18) = (   0.1333333   0.3849004   0.0000000), wk =   0.1066667
        k(   19) = (   0.1333333   0.4618804   0.0000000), wk =   0.1066667
        k(   20) = (   0.1333333   0.5388605   0.0000000), wk =   0.1066667
        k(   21) = (   0.2000000   0.3464103   0.0000000), wk =   0.0533333
        k(   22) = (   0.2000000   0.4233904   0.0000000), wk =   0.1066667
        k(   23) = (   0.2000000   0.5003705   0.0000000), wk =   0.1066667
        k(   24) = (   0.2000000   0.5773505   0.0000000), wk =   0.0533333
        k(   25) = (   0.2666667   0.4618804   0.0000000), wk =   0.0533333
        k(   26) = (   0.2666667   0.5388605   0.0000000), wk =   0.1066667
        k(   27) = (   0.3333333   0.5773505   0.0000000), wk =   0.0177778

                       cryst. coord.
        k(    1) = (   0.0000000   0.0000000   0.0000000), wk =   0.0088889
        k(    2) = (   0.0000000   0.0666667   0.0000000), wk =   0.0533333
        k(    3) = (   0.0000000   0.1333333   0.0000000), wk =   0.0533333
        k(    4) = (   0.0000000   0.2000000   0.0000000), wk =   0.0533333
        k(    5) = (   0.0000000   0.2666667   0.0000000), wk =   0.0533333
        k(    6) = (   0.0000000   0.3333333   0.0000000), wk =   0.0533333
        k(    7) = (   0.0000000   0.4000000   0.0000000), wk =   0.0533333
        k(    8) = (   0.0000000   0.4666667   0.0000000), wk =   0.0533333
        k(    9) = (   0.0666667   0.0666667   0.0000000), wk =   0.0533333
        k(   10) = (   0.0666667   0.1333333   0.0000000), wk =   0.1066667
        k(   11) = (   0.0666667   0.2000000   0.0000000), wk =   0.1066667
        k(   12) = (   0.0666667   0.2666667   0.0000000), wk =   0.1066667
        k(   13) = (   0.0666667   0.3333333   0.0000000), wk =   0.1066667
        k(   14) = (   0.0666667   0.4000000   0.0000000), wk =   0.1066667
        k(   15) = (   0.0666667   0.4666667   0.0000000), wk =   0.0533333
        k(   16) = (   0.1333333   0.1333333   0.0000000), wk =   0.0533333
        k(   17) = (   0.1333333   0.2000000   0.0000000), wk =   0.1066667
        k(   18) = (   0.1333333   0.2666667   0.0000000), wk =   0.1066667
        k(   19) = (   0.1333333   0.3333333   0.0000000), wk =   0.1066667
        k(   20) = (   0.1333333   0.4000000   0.0000000), wk =   0.1066667
        k(   21) = (   0.2000000   0.2000000   0.0000000), wk =   0.0533333
        k(   22) = (   0.2000000   0.2666667   0.0000000), wk =   0.1066667
        k(   23) = (   0.2000000   0.3333333   0.0000000), wk =   0.1066667
        k(   24) = (   0.2000000   0.4000000   0.0000000), wk =   0.0533333
        k(   25) = (   0.2666667   0.2666667   0.0000000), wk =   0.0533333
        k(   26) = (   0.2666667   0.3333333   0.0000000), wk =   0.1066667
        k(   27) = (   0.3333333   0.3333333   0.0000000), wk =   0.0177778

     Dense  grid:    94953 G-vectors     FFT dimensions: (  30,  30, 270)

     Dynamical RAM for                 wfc:       2.54 MB

     Dynamical RAM for     wfc (w. buffer):       7.63 MB

     Dynamical RAM for           str. fact:       1.45 MB

     Dynamical RAM for           local pot:       0.00 MB

     Dynamical RAM for          nlocal pot:       5.81 MB

     Dynamical RAM for                qrad:       0.44 MB

     Dynamical RAM for          rho,v,vnew:       9.91 MB

     Dynamical RAM for               rhoin:       3.30 MB

     Dynamical RAM for            rho*nmix:      23.18 MB

     Dynamical RAM for           G-vectors:       6.16 MB

     Dynamical RAM for          h,s,v(r/c):       0.04 MB

     Dynamical RAM for          <psi|beta>:       0.01 MB

     Dynamical RAM for                 psi:       5.09 MB

     Dynamical RAM for                hpsi:       5.09 MB

     Dynamical RAM for      wfcinit/wfcrot:       5.09 MB

     Estimated static dynamical RAM per process >      46.87 MB

     Estimated max dynamical RAM per process >      80.26 MB

     Estimated total dynamical RAM >     936.50 MB

     Initial potential from superposition of free atoms

     starting charge      15.9998, renormalised to      16.0000

     negative rho (up, down):  7.778E-06 0.000E+00
     Starting wfcs are   16 randomized atomic wfcs

     total cpu time spent up to now is        1.7 secs

     Self-consistent Calculation

     iteration #  1     ecut=    90.00 Ry     beta= 0.70
     Davidson diagonalization with overlap

---- Real-time Memory Report at c_bands before calling an iterative solver
            96 MiB given to the printing process from OS
             0 MiB allocation reported by mallinfo(arena+hblkhd)
         26678 MiB available memory on the node where the printing process lives
------------------
     ethr =  1.00E-02,  avg # of iterations =  6.5

     total cpu time spent up to now is        3.5 secs

     total energy              =     -48.16065141 Ry
     estimated scf accuracy    <       0.37185478 Ry

     iteration #  2     ecut=    90.00 Ry     beta= 0.70
     Davidson diagonalization with overlap

---- Real-time Memory Report at c_bands before calling an iterative solver
           121 MiB given to the printing process from OS
             0 MiB allocation reported by mallinfo(arena+hblkhd)
         26402 MiB available memory on the node where the printing process lives
------------------
     ethr =  2.32E-03,  avg # of iterations =  5.2

     total cpu time spent up to now is        5.3 secs

     total energy              =     -48.20644665 Ry
     estimated scf accuracy    <       0.00416009 Ry

     iteration #  3     ecut=    90.00 Ry     beta= 0.70
     Davidson diagonalization with overlap

---- Real-time Memory Report at c_bands before calling an iterative solver
           124 MiB given to the printing process from OS
             0 MiB allocation reported by mallinfo(arena+hblkhd)
         26402 MiB available memory on the node where the printing process lives
------------------
     ethr =  2.60E-05,  avg # of iterations = 12.4

     total cpu time spent up to now is        7.3 secs

     total energy              =     -48.20729400 Ry
     estimated scf accuracy    <       0.00065422 Ry

     iteration #  4     ecut=    90.00 Ry     beta= 0.70
     Davidson diagonalization with overlap

---- Real-time Memory Report at c_bands before calling an iterative solver
           127 MiB given to the printing process from OS
             0 MiB allocation reported by mallinfo(arena+hblkhd)
         26411 MiB available memory on the node where the printing process lives
------------------
     ethr =  4.09E-06,  avg # of iterations =  7.6

     total cpu time spent up to now is        8.5 secs

     total energy              =     -48.20741283 Ry
     estimated scf accuracy    <       0.00052914 Ry

     iteration #  5     ecut=    90.00 Ry     beta= 0.70
     Davidson diagonalization with overlap

---- Real-time Memory Report at c_bands before calling an iterative solver
           130 MiB given to the printing process from OS
             0 MiB allocation reported by mallinfo(arena+hblkhd)
         26421 MiB available memory on the node where the printing process lives
------------------
     ethr =  3.31E-06,  avg # of iterations =  4.5

     total cpu time spent up to now is        9.9 secs

     total energy              =     -48.20751465 Ry
     estimated scf accuracy    <       0.00000389 Ry

     iteration #  6     ecut=    90.00 Ry     beta= 0.70
     Davidson diagonalization with overlap

---- Real-time Memory Report at c_bands before calling an iterative solver
           133 MiB given to the printing process from OS
             0 MiB allocation reported by mallinfo(arena+hblkhd)
         26446 MiB available memory on the node where the printing process lives
------------------
     ethr =  2.43E-08,  avg # of iterations =  3.0

     total cpu time spent up to now is       11.4 secs

     total energy              =     -48.20751618 Ry
     estimated scf accuracy    <       0.00000017 Ry

     iteration #  7     ecut=    90.00 Ry     beta= 0.70
     Davidson diagonalization with overlap

---- Real-time Memory Report at c_bands before calling an iterative solver
           136 MiB given to the printing process from OS
             0 MiB allocation reported by mallinfo(arena+hblkhd)
         26431 MiB available memory on the node where the printing process lives
------------------
     ethr =  1.09E-09,  avg # of iterations =  4.1

     total cpu time spent up to now is       12.7 secs

     End of self-consistent calculation

          k = 0.0000 0.0000 0.0000 ( 11659 PWs)   bands (ev):

   -20.6288 -20.5243  -9.0352  -8.2669  -4.0346  -4.0346  -4.0290  -4.0290
     2.3944   2.7786   3.4535   4.1959   4.5405   5.8955

     occupation numbers 
     1.0000   1.0000   1.0000   1.0000   1.0000   1.0000   1.0000   1.0000
     0.0000   0.0000   0.0000   0.0000   0.0000   0.0000

          k = 0.0000 0.0770 0.0000 ( 11791 PWs)   bands (ev):

   -20.5231 -20.4194  -8.9072  -8.1423  -4.4623  -4.4533  -4.2603  -4.2524
     2.5362   2.9225   3.5998   4.3414   4.6807   6.0307

     occupation numbers 
     1.0000   1.0000   1.0000   1.0000   1.0000   1.0000   1.0000   1.0000
     0.0000   0.0000   0.0000   0.0000   0.0000   0.0000

          k = 0.0000 0.1540 0.0000 ( 11788 PWs)   bands (ev):

   -20.2068 -20.1052  -8.5253  -7.7707  -5.5984  -5.5820  -4.8312  -4.8199
     2.9616   3.3534   4.0385   4.7777   5.1008   6.4346

     occupation numbers 
     1.0000   1.0000   1.0000   1.0000   1.0000   1.0000   1.0000   1.0000
     0.0000   0.0000   0.0000   0.0000   0.0000   0.0000

          k = 0.0000 0.2309 0.0000 ( 11848 PWs)   bands (ev):

   -19.6820 -19.5839  -7.8960  -7.1620  -7.1560  -7.1301  -5.5444  -5.5307
     3.6697   4.0693   4.7696   5.5031   5.7948   7.0643

     occupation numbers 
     1.0000   1.0000   1.0000   1.0000   1.0000   1.0000   1.0000   1.0000
     0.0000   0.0000   0.0000   0.0000   0.0000   0.0000

          k = 0.0000 0.3079 0.0000 ( 11876 PWs)   bands (ev):

   -18.9530 -18.8597  -8.9011  -8.8661  -7.0332  -6.3265  -6.2383  -6.2229
     4.6566   5.0414   5.7361   5.7888   5.9573   6.5274

     occupation numbers 
     1.0000   1.0000   1.0000   1.0000   1.0000   1.0000   1.0000   1.0000
     0.0000   0.0000   0.0000   0.0000   0.0000   0.0000

          k = 0.0000 0.3849 0.0000 ( 11914 PWs)   bands (ev):

   -18.0272 -17.9399 -10.6782 -10.6336  -6.8154  -6.7990  -5.9669  -5.3081
     3.7905   4.1379   5.9124   6.3646   6.8168   6.9163

     occupation numbers 
     1.0000   1.0000   1.0000   1.0000   1.0000   1.0000   1.0000   1.0000
     0.0000   0.0000   0.0000   0.0000   0.0000   0.0000

          k = 0.0000 0.4619 0.0000 ( 11910 PWs)   bands (ev):

   -16.9201 -16.8405 -12.3886 -12.3354  -7.2226  -7.2056  -4.7738  -4.2050
     2.0116   2.4052   6.5851   6.7112   7.4922   7.9406

     occupation numbers 
     1.0000   1.0000   1.0000   1.0000   1.0000   1.0000   1.0000   1.0000
     0.0000   0.0000   0.0000   0.0000   0.0000   0.0000

          k = 0.0000 0.5389 0.0000 ( 11924 PWs)   bands (ev):

   -15.7044 -15.6394 -13.9086 -13.8547  -7.4321  -7.4148  -3.7185  -3.3549
     0.7672   1.0978   6.4817   6.6226   9.2552   9.7480

     occupation numbers 
     1.0000   1.0000   1.0000   1.0000   1.0000   1.0000   1.0000   1.0000
     0.0000   0.0000   0.0000   0.0000   0.0000   0.0000

          k = 0.0667 0.1155 0.0000 ( 11813 PWs)   bands (ev):

   -20.3121 -20.2098  -8.6523  -7.8942  -5.1897  -5.1808  -4.7089  -4.7022
     2.8199   3.2099   3.8923   4.6324   4.9611   6.3013

     occupation numbers 
     1.0000   1.0000   1.0000   1.0000   1.0000   1.0000   1.0000   1.0000
     0.0000   0.0000   0.0000   0.0000   0.0000   0.0000

          k = 0.0667 0.1925 0.0000 ( 11832 PWs)   bands (ev):

   -19.8916 -19.7921  -8.1465  -7.4026  -6.4473  -6.4302  -5.4432  -5.4318
     3.3871   3.7838   4.4773   5.2137   5.5206   6.8372

     occupation numbers 
     1.0000   1.0000   1.0000   1.0000   1.0000   1.0000   1.0000   1.0000
     0.0000   0.0000   0.0000   0.0000   0.0000   0.0000

          k = 0.0667 0.2694 0.0000 ( 11880 PWs)   bands (ev):

   -19.2647 -19.1694  -8.0407  -8.0126  -7.3993  -6.6791  -6.2081  -6.1923
     4.2358   4.6388   5.3543   6.0781   6.3322   6.5318

     occupation numbers 
     1.0000   1.0000   1.0000   1.0000   1.0000   1.0000   1.0000   1.0000
     0.0000   0.0000   0.0000   0.0000   0.0000   0.0000

          k = 0.0667 0.3464 0.0000 ( 11910 PWs)   bands (ev):

   -18.4372 -18.3473  -9.7709  -9.7323  -6.8753  -6.8570  -6.4310  -5.7481
     4.6612   4.9531   5.3629   5.8088   6.5219   7.2285

     occupation numbers 
     1.0000   1.0000   1.0000   1.0000   1.0000   1.0000   1.0000   1.0000
     0.0000   0.0000   0.0000   0.0000   0.0000   0.0000

          k = 0.0667 0.4234 0.0000 ( 11938 PWs)   bands (ev):

   -17.4195 -17.3364 -11.5008 -11.4526  -7.3825  -7.3629  -5.2872  -4.6677
     2.8316   3.1909   6.7356   7.1032   7.2678   7.3169

     occupation numbers 
     1.0000   1.0000   1.0000   1.0000   1.0000   1.0000   1.0000   1.0000
     0.0000   0.0000   0.0000   0.0000   0.0000   0.0000

          k = 0.0667 0.5004 0.0000 ( 11920 PWs)   bands (ev):

   -16.2406 -16.1666 -13.1287 -13.0733  -7.6974  -7.6771  -4.1023  -3.6166
     1.2595   1.6244   6.9858   7.1280   8.4421   8.9029

     occupation numbers 
     1.0000   1.0000   1.0000   1.0000   1.0000   1.0000   1.0000   1.0000
     0.0000   0.0000   0.0000   0.0000   0.0000   0.0000

          k = 0.0667 0.5774 0.0000 ( 11913 PWs)   bands (ev):

   -15.2555 -15.2176 -14.2359 -14.2072  -7.8040  -7.7835  -3.4140  -3.1409
     0.5706   0.8359   6.9321   7.0808  10.2611  10.3518

     occupation numbers 
     1.0000   1.0000   1.0000   1.0000   1.0000   1.0000   1.0000   1.0000
     0.0000   0.0000   0.0000   0.0000   0.0000   0.0000

          k = 0.1333 0.2309 0.0000 ( 11879 PWs)   bands (ev):

   -19.3689 -19.2729  -7.5504  -7.5353  -7.5218  -6.7974  -6.4107  -6.4003
     4.0956   4.4993   5.2086   5.9399   6.2182   6.8423

     occupation numbers 
     1.0000   1.0000   1.0000   1.0000   1.0000   1.0000   1.0000   1.0000
     0.0000   0.0000   0.0000   0.0000   0.0000   0.0000

          k = 0.1333 0.3079 0.0000 ( 11929 PWs)   bands (ev):

   -18.6435 -18.5522  -8.9549  -8.9289  -7.3256  -7.3081  -6.6661  -5.9717
     5.0809   5.2485   5.4574   5.5118   6.2317   6.9548

     occupation numbers 
     1.0000   1.0000   1.0000   1.0000   1.0000   1.0000   1.0000   1.0000
     0.0000   0.0000   0.0000   0.0000   0.0000   0.0000

          k = 0.1333 0.3849 0.0000 ( 11925 PWs)   bands (ev):

   -17.7234 -17.6382 -10.5583 -10.5189  -8.0066  -7.9830  -5.6069  -4.9602
     3.5403   3.8122   6.3445   6.7714   7.5425   8.2428

     occupation numbers 
     1.0000   1.0000   1.0000   1.0000   1.0000   1.0000   1.0000   1.0000
     0.0000   0.0000   0.0000   0.0000   0.0000   0.0000

          k = 0.1333 0.4619 0.0000 ( 11927 PWs)   bands (ev):

   -16.6258 -16.5482 -12.1817 -12.1319  -8.4554  -8.4290  -4.4154  -3.8545
     1.8787   2.2040   7.8508   8.2235   8.3885   8.4839

     occupation numbers 
     1.0000   1.0000   1.0000   1.0000   1.0000   1.0000   1.0000   1.0000
     0.0000   0.0000   0.0000   0.0000   0.0000   0.0000

          k = 0.1333 0.5389 0.0000 ( 11935 PWs)   bands (ev):

   -15.4258 -15.3628 -13.6552 -13.6038  -8.6795  -8.6520  -3.3416  -2.9780
     0.6752   0.9344   8.1845   8.3610   9.6375  10.0173

     occupation numbers 
     1.0000   1.0000   1.0000   1.0000   1.0000   1.0000   1.0000   1.0000
     0.0000   0.0000   0.0000   0.0000   0.0000   0.0000

          k = 0.2000 0.3464 0.0000 ( 11953 PWs)   bands (ev):

   -17.8254 -17.7395  -9.9684  -9.9476  -8.5035  -8.4880  -5.7152  -5.0599
     3.8472   4.0493   6.2067   6.6185   7.3978   8.1059

     occupation numbers 
     1.0000   1.0000   1.0000   1.0000   1.0000   1.0000   1.0000   1.0000
     0.0000   0.0000   0.0000   0.0000   0.0000   0.0000

          k = 0.2000 0.4234 0.0000 ( 11949 PWs)   bands (ev):

   -16.8231 -16.7440 -11.2636 -11.2284  -9.3321  -9.3067  -4.5862  -3.9919
     2.3440   2.5840   7.5919   7.9848   8.8413   9.4288

     occupation numbers 
     1.0000   1.0000   1.0000   1.0000   1.0000   1.0000   1.0000   1.0000
     0.0000   0.0000   0.0000   0.0000   0.0000   0.0000

          k = 0.2000 0.5004 0.0000 ( 11953 PWs)   bands (ev):

   -15.6694 -15.5995 -12.7021 -12.6540  -9.7638  -9.7315  -3.3893  -2.9111
     0.9431   1.1989   9.2028   9.4499   9.9402  10.0371

     occupation numbers 
     1.0000   1.0000   1.0000   1.0000   1.0000   1.0000   1.0000   1.0000
     0.0000   0.0000   0.0000   0.0000   0.0000   0.0000

          k = 0.2000 0.5774 0.0000 ( 11949 PWs)   bands (ev):

   -14.7149 -14.6790 -13.7376 -13.7143  -9.8980  -9.8639  -2.6431  -2.3761
     0.3018   0.3802   9.7924  10.0369  10.3829  10.4845

     occupation numbers 
     1.0000   1.0000   1.0000   1.0000   1.0000   1.0000   1.0000   1.0000
     0.0000   0.0000   0.0000   0.0000   0.0000   0.0000

          k = 0.2667 0.4619 0.0000 ( 11961 PWs)   bands (ev):

   -15.7589 -15.6876 -12.0411 -12.0144 -10.4603 -10.4409  -3.4193  -2.9013
     1.0930   1.3284   9.0728   9.2672   9.8838  10.5197

     occupation numbers 
     1.0000   1.0000   1.0000   1.0000   1.0000   1.0000   1.0000   1.0000
     0.0000   0.0000   0.0000   0.0000   0.0000   0.0000

          k = 0.2667 0.5389 0.0000 ( 11948 PWs)   bands (ev):

   -14.6089 -14.5514 -13.0977 -13.0605 -11.0089 -10.9793  -2.2667  -1.8971
    -0.0261   0.1775   9.8058   9.8530  10.7007  11.5005

     occupation numbers 
     1.0000   1.0000   1.0000   1.0000   1.0000   1.0000   1.0000   1.0000
     0.0000   0.0000   0.0000   0.0000   0.0000   0.0000

          k = 0.3333 0.5774 0.0000 ( 11919 PWs)   bands (ev):

   -13.6545 -13.6212 -13.6212 -13.5908 -11.6176 -11.6176  -1.2377  -0.9870
    -0.9870  -0.7245   9.6381   9.6381  11.6597  12.0067

     occupation numbers 
     1.0000   1.0000   1.0000   1.0000   1.0000   1.0000   0.9954   0.5007
     0.5007   0.0032   0.0000   0.0000   0.0000   0.0000

     the Fermi energy is    -0.9868 ev

!    total energy              =     -48.20751626 Ry
     estimated scf accuracy    <          3.5E-09 Ry
     smearing contrib. (-TS)   =      -0.00010319 Ry
     internal energy E=F+TS    =     -48.20741307 Ry

     The total energy is F=E-TS. E is the sum of the following terms:
     one-electron contribution =    -690.11871604 Ry
     hartree contribution      =     348.48566230 Ry
     xc contribution           =     -17.18435062 Ry
     ewald contribution        =     310.62697813 Ry
     DFT-D3 Dispersion         =      -0.01698685 Ry

     convergence has been achieved in   7 iterations

     Forces acting on atoms (cartesian axes, Ry/au):

     atom    1 type  1   force =     0.00000000   -0.00000000    0.00078366
     atom    2 type  1   force =     0.00000000    0.00000000   -0.00077001
     atom    3 type  1   force =     0.00000000   -0.00000000    0.00077001
     atom    4 type  1   force =     0.00000000    0.00000000   -0.00078366
     The non-local contrib.  to forces
     atom    1 type  1   force =     0.00000000   -0.00000000    0.00064165
     atom    2 type  1   force =    -0.00000000   -0.00000000   -0.00266550
     atom    3 type  1   force =     0.00000000   -0.00000000    0.00266550
     atom    4 type  1   force =     0.00000000    0.00000000   -0.00064165
     The ionic contribution  to forces
     atom    1 type  1   force =     0.00000053    0.00000661  -15.04397785
     atom    2 type  1   force =    -0.00000053   -0.00000661  -15.00809069
     atom    3 type  1   force =    -0.00000053    0.00000661   15.00809069
     atom    4 type  1   force =     0.00000053   -0.00000661   15.04397785
     The local contribution  to forces
     atom    1 type  1   force =    -0.00000000   -0.00000181   15.04290071
     atom    2 type  1   force =    -0.00000042   -0.00000024   15.00874402
     atom    3 type  1   force =    -0.00000042   -0.00000386  -15.00874400
     atom    4 type  1   force =    -0.00000000   -0.00000229  -15.04290070
     The core correction contribution to forces
     atom    1 type  1   force =    -0.00000000   -0.00000001    0.00004552
     atom    2 type  1   force =     0.00000003    0.00000016    0.00005455
     atom    3 type  1   force =     0.00000003    0.00000015   -0.00005455
     atom    4 type  1   force =    -0.00000000    0.00000031   -0.00004552
     The Hubbard contrib.    to forces
     atom    1 type  1   force =     0.00000000    0.00000000    0.00000000
     atom    2 type  1   force =     0.00000000    0.00000000    0.00000000
     atom    3 type  1   force =     0.00000000    0.00000000    0.00000000
     atom    4 type  1   force =     0.00000000    0.00000000    0.00000000
     The SCF correction term to forces
     atom    1 type  1   force =     0.00000000    0.00000000   -0.00000296
     atom    2 type  1   force =    -0.00000000   -0.00000000   -0.00000346
     atom    3 type  1   force =    -0.00000000    0.00000000    0.00000346
     atom    4 type  1   force =     0.00000000    0.00000000    0.00000296

     DFT-D3 dispersion contribution to forces:
     atom    1 type  1   force =    -0.00000000   -0.00000000    0.00117659
     atom    2 type  1   force =     0.00000000    0.00000000    0.00119108
     atom    3 type  1   force =     0.00000000   -0.00000000   -0.00119108
     atom    4 type  1   force =    -0.00000000    0.00000000   -0.00117659

     Total force =     0.001554     Total SCF correction =     0.000006

     DFT-D3 dispersion Force =     0.002368

     Writing all to output data dir /home/ubuntu/projects/Graphene-Band-Structure-Quantum-Espresso/outputs/field_0/PBE-d3/coupled/data/coupled.save/ :
     XML data file, charge density, pseudopotentials, collected wavefunctions

     init_run     :      1.41s CPU      1.53s WALL (       1 calls)
     electrons    :     11.00s CPU     11.09s WALL (       1 calls)
     forces       :      0.46s CPU      0.49s WALL (       1 calls)
     force_dftd3  :      0.18s CPU      0.18s WALL (       1 calls)

     Called by init_run:
     wfcinit      :      0.44s CPU      0.46s WALL (       1 calls)
     wfcinit:atom :      0.00s CPU      0.01s WALL (       2 calls)
     wfcinit:wfcr :      0.41s CPU      0.42s WALL (       2 calls)
     potinit      :      0.28s CPU      0.32s WALL (       1 calls)
     hinit0       :      0.62s CPU      0.65s WALL (       1 calls)

     Called by electrons:
     c_bands      :      8.81s CPU      8.84s WALL (       7 calls)
     sum_band     :      0.82s CPU      0.84s WALL (       7 calls)
     v_of_rho     :      0.64s CPU      0.69s WALL (       8 calls)
     v_h          :      0.04s CPU      0.04s WALL (       8 calls)
     v_xc         :      0.67s CPU      0.74s WALL (       9 calls)
     mix_rho      :      0.07s CPU      0.08s WALL (       7 calls)
     energy_dftd3 :      0.09s CPU      0.09s WALL (       1 calls)

     Called by c_bands:
     init_us_2    :      0.09s CPU      0.10s WALL (      32 calls)
     cegterg      :      4.71s CPU      4.74s WALL (      14 calls)

     Called by sum_band:
     sum_band:wei :      0.00s CPU      0.00s WALL (       7 calls)
     sum_band:loo :      0.39s CPU      0.39s WALL (       7 calls)
     sum_band:buf :      0.01s CPU      0.01s WALL (      14 calls)
     sum_band:ini :      0.04s CPU      0.04s WALL (      14 calls)

     Called by *egterg:
     cdiaghg      :      0.03s CPU      0.03s WALL (      93 calls)
     cegterg:over :      0.48s CPU      0.48s WALL (      79 calls)
     cegterg:upda :      0.33s CPU      0.33s WALL (      79 calls)
     cegterg:last :      0.59s CPU      0.59s WALL (      38 calls)
     h_psi        :      3.49s CPU      3.51s WALL (      95 calls)
     g_psi        :      0.02s CPU      0.02s WALL (      79 calls)

     Called by h_psi:
     h_psi:calbec :      0.49s CPU      0.49s WALL (      95 calls)
     vloc_psi     :      2.48s CPU      2.50s WALL (      95 calls)
     add_vuspsi   :      0.50s CPU      0.50s WALL (      95 calls)

     General routines
     calbec       :      0.56s CPU      0.56s WALL (     103 calls)
     fft          :      0.70s CPU      0.71s WALL (      90 calls)
     ffts         :      0.02s CPU      0.02s WALL (       7 calls)
     fftw         :      2.43s CPU      2.44s WALL (    1478 calls)

     Parallel routines

     PWSCF        :     13.10s CPU     13.40s WALL


   This run was terminated on:   4:12:28   4Oct2026            

=------------------------------------------------------------------------------=
   JOB DONE.
=------------------------------------------------------------------------------=
