
     Program PWSCF v.7.6 starts on 17Sep2026 at  1:58:49 

     This program is part of the open-source Quantum ESPRESSO suite
     for quantum simulation of materials; please cite
         "P. Giannozzi et al., J. Phys.:Condens. Matter 21 395502 (2009);
         "P. Giannozzi et al., J. Phys.:Condens. Matter 29 465901 (2017);
         "P. Giannozzi et al., J. Chem. Phys. 152 154105 (2020);
          URL http://www.quantum-espresso.org", 
     in publications or presentations arising from this work. More details at
     http://www.quantum-espresso.org/quote

     Parallel version (MPI), running on     4 processors

     MPI processes distributed on     1 nodes
     565 MiB available memory on the printing compute node when the environment starts

     Waiting for input...
     Reading input from standard input
Warning: card &IONS ignored
Warning: card &CELL ignored
Warning: card &FCP ignored
Warning: card &RISM ignored

     Current dimensions of program PWSCF are:
     Max number of different atomic species (ntypx) = 10
     Max number of k-points (npk) =  40000
     Max angular momentum in pseudopotentials (lmaxx) =  4
     file C.pbe-n-kjpaw_psl.1.0.0.UPF: wavefunction(s)  2S 2P renormalized

     Atomic positions and unit cell read from directory:
     /home/ubuntu/projects/Graphene-Band-Structure-Quantum-Espresso/outputs/field_0/top/data/top.save/

     Message from routine setup:
     using ibrav=0 with symmetry is DISCOURAGED, use correct ibrav instead

     K-points division:     npool     =       4
     Subspace diagonalization in iterative solution of the eigenvalue problem:
     a serial algorithm will be used


     G-vector sticks info
     --------------------
     sticks:   dense  smooth     PW     G-vecs:    dense   smooth      PW
     Sum         595     361    109               111671    52021    9049

     Using Slab Decomposition



     bravais-lattice index     =            0
     lattice parameter (alat)  =       4.6487  a.u.
     unit-cell volume          =     825.8174 (a.u.)^3
     number of atoms/cell      =            2
     number of atomic types    =            1
     number of electrons       =         8.00
     number of Kohn-Sham states=           12
     kinetic-energy cutoff     =      60.0000  Ry
     charge density cutoff     =     400.0000  Ry
     Exchange-correlation= SLA  PW   PBX  PBC
                           (   1   4   3   4   0   0   0)

     celldm(1)=   4.648726  celldm(2)=   0.000000  celldm(3)=   0.000000
     celldm(4)=   0.000000  celldm(5)=   0.000000  celldm(6)=   0.000000

     crystal axes: (cart. coord. in units of alat)
               a(1) = (   1.000000   0.000000   0.000000 )  
               a(2) = (  -0.500000   0.866025   0.000000 )  
               a(3) = (   0.000000   0.000000   9.491870 )  

     reciprocal axes: (cart. coord. in units 2 pi/alat)
               b(1) = (  1.000000  0.577351 -0.000000 )  
               b(2) = (  0.000000  1.154701  0.000000 )  
               b(3) = (  0.000000 -0.000000  0.105353 )  


     PseudoPot. # 1 for C  read from file:
     /home/ubuntu/projects/Graphene-Band-Structure-Quantum-Espresso/pseudo/C.pbe-n-kjpaw_psl.1.0.0.UPF
     MD5 check sum: 5f16ad9a65e90284d1d834d4ab3b0f7d
     Pseudo is Projector augmented-wave + core cor, Zval =  4.0
     Generated using &quot;atomic&quot; code by A. Dal Corso  v.6.3
     Shape of augmentation charge: PSQ
     Using radial grid of 1073 points,  4 beta functions with: 
                l(1) =   0
                l(2) =   0
                l(3) =   1
                l(4) =   1
     Q(r) pseudized with 0 coefficients 


     atomic species   valence    mass     pseudopotential
     C                 4.00    12.01100     C ( 1.00)

      6 Sym. Ops. (no inversion) found


                                    s                        frac. trans.

      isym =  1     identity                                     

 cryst.   s( 1) = (     1          0          0      )
                  (     0          1          0      )
                  (     0          0          1      )

 cart.    s( 1) = (  1.0000000  0.0000000  0.0000000 )
                  (  0.0000000  1.0000000  0.0000000 )
                  (  0.0000000  0.0000000  1.0000000 )


      isym =  2     120 deg rotation - cryst. axis [0,0,1]       

 cryst.   s( 2) = (     0          1          0      )
                  (    -1         -1          0      )
                  (     0          0          1      )

 cart.    s( 2) = ( -0.5000000 -0.8660258  0.0000000 )
                  (  0.8660250 -0.5000000  0.0000000 )
                  (  0.0000000  0.0000000  1.0000000 )


      isym =  3     120 deg rotation - cryst. axis [0,0,-1]      

 cryst.   s( 3) = (    -1         -1          0      )
                  (     1          0          0      )
                  (     0          0          1      )

 cart.    s( 3) = ( -0.5000000  0.8660258  0.0000000 )
                  ( -0.8660250 -0.5000000  0.0000000 )
                  (  0.0000000  0.0000000  1.0000000 )


      isym =  4     inv. 180 deg rotation - cart. axis [1,0,0]   

 cryst.   s( 4) = (    -1          0          0      )
                  (     1          1          0      )
                  (     0          0          1      )

 cart.    s( 4) = ( -1.0000000  0.0000000  0.0000000 )
                  (  0.0000000  1.0000000  0.0000000 )
                  (  0.0000000  0.0000000  1.0000000 )


      isym =  5     inv. 180 deg rotation - cryst. axis [0,1,0]  

 cryst.   s( 5) = (     1          1          0      )
                  (     0         -1          0      )
                  (     0          0          1      )

 cart.    s( 5) = (  0.5000000  0.8660258  0.0000000 )
                  (  0.8660250 -0.5000000  0.0000000 )
                  (  0.0000000  0.0000000  1.0000000 )


      isym =  6     inv. 180 deg rotation - cryst. axis [1,1,0]  

 cryst.   s( 6) = (     0         -1          0      )
                  (    -1          0          0      )
                  (     0          0          1      )

 cart.    s( 6) = (  0.5000000 -0.8660258  0.0000000 )
                  ( -0.8660250 -0.5000000  0.0000000 )
                  (  0.0000000  0.0000000  1.0000000 )


   Cartesian axes

     site n.     atom                  positions (alat units)
         1        C      tau(   1) = (   0.5000000   0.2886752   5.5765393  )
         2        C      tau(   2) = (   0.0000000   0.5773503   5.5763614  )

   Crystallographic axes

     site n.     atom                  positions (cryst. coord.)
         1        C      tau(   1) = (  0.6666668  0.3333335  0.5875069  )
         2        C      tau(   2) = (  0.3333335  0.6666670  0.5874882  )

     number of k points=    91  Gaussian smearing, width (Ry)=  0.0100
                       cart. coord. in units 2pi/alat
        k(    1) = (   0.0000000   0.0000000   0.0000000), wk =   0.0022222
        k(    2) = (   0.0000000   0.0384900   0.0000000), wk =   0.0133333
        k(    3) = (   0.0000000   0.0769801   0.0000000), wk =   0.0133333
        k(    4) = (   0.0000000   0.1154701   0.0000000), wk =   0.0133333
        k(    5) = (   0.0000000   0.1539601   0.0000000), wk =   0.0133333
        k(    6) = (   0.0000000   0.1924502   0.0000000), wk =   0.0133333
        k(    7) = (   0.0000000   0.2309402   0.0000000), wk =   0.0133333
        k(    8) = (   0.0000000   0.2694303   0.0000000), wk =   0.0133333
        k(    9) = (   0.0000000   0.3079203   0.0000000), wk =   0.0133333
        k(   10) = (   0.0000000   0.3464103   0.0000000), wk =   0.0133333
        k(   11) = (   0.0000000   0.3849004   0.0000000), wk =   0.0133333
        k(   12) = (   0.0000000   0.4233904   0.0000000), wk =   0.0133333
        k(   13) = (   0.0000000   0.4618804   0.0000000), wk =   0.0133333
        k(   14) = (   0.0000000   0.5003705   0.0000000), wk =   0.0133333
        k(   15) = (   0.0000000   0.5388605   0.0000000), wk =   0.0133333
        k(   16) = (   0.0000000  -0.5773505   0.0000000), wk =   0.0066667
        k(   17) = (   0.0333333   0.0577351   0.0000000), wk =   0.0133333
        k(   18) = (   0.0333333   0.0962251   0.0000000), wk =   0.0266667
        k(   19) = (   0.0333333   0.1347151   0.0000000), wk =   0.0266667
        k(   20) = (   0.0333333   0.1732052   0.0000000), wk =   0.0266667
        k(   21) = (   0.0333333   0.2116952   0.0000000), wk =   0.0266667
        k(   22) = (   0.0333333   0.2501852   0.0000000), wk =   0.0266667
        k(   23) = (   0.0333333   0.2886753   0.0000000), wk =   0.0266667
        k(   24) = (   0.0333333   0.3271653   0.0000000), wk =   0.0266667
        k(   25) = (   0.0333333   0.3656553   0.0000000), wk =   0.0266667
        k(   26) = (   0.0333333   0.4041454   0.0000000), wk =   0.0266667
        k(   27) = (   0.0333333   0.4426354   0.0000000), wk =   0.0266667
        k(   28) = (   0.0333333   0.4811254   0.0000000), wk =   0.0266667
        k(   29) = (   0.0333333   0.5196155   0.0000000), wk =   0.0266667
        k(   30) = (   0.0333333   0.5581055   0.0000000), wk =   0.0266667
        k(   31) = (   0.0666667   0.1154701   0.0000000), wk =   0.0133333
        k(   32) = (   0.0666667   0.1539601   0.0000000), wk =   0.0266667
        k(   33) = (   0.0666667   0.1924502   0.0000000), wk =   0.0266667
        k(   34) = (   0.0666667   0.2309402   0.0000000), wk =   0.0266667
        k(   35) = (   0.0666667   0.2694303   0.0000000), wk =   0.0266667
        k(   36) = (   0.0666667   0.3079203   0.0000000), wk =   0.0266667
        k(   37) = (   0.0666667   0.3464103   0.0000000), wk =   0.0266667
        k(   38) = (   0.0666667   0.3849004   0.0000000), wk =   0.0266667
        k(   39) = (   0.0666667   0.4233904   0.0000000), wk =   0.0266667
        k(   40) = (   0.0666667   0.4618804   0.0000000), wk =   0.0266667
        k(   41) = (   0.0666667   0.5003705   0.0000000), wk =   0.0266667
        k(   42) = (   0.0666667   0.5388605   0.0000000), wk =   0.0266667
        k(   43) = (   0.0666667   0.5773505   0.0000000), wk =   0.0133333
        k(   44) = (   0.1000000   0.1732052   0.0000000), wk =   0.0133333
        k(   45) = (   0.1000000   0.2116952   0.0000000), wk =   0.0266667
        k(   46) = (   0.1000000   0.2501852   0.0000000), wk =   0.0266667
        k(   47) = (   0.1000000   0.2886753   0.0000000), wk =   0.0266667
        k(   48) = (   0.1000000   0.3271653   0.0000000), wk =   0.0266667
        k(   49) = (   0.1000000   0.3656553   0.0000000), wk =   0.0266667
        k(   50) = (   0.1000000   0.4041454   0.0000000), wk =   0.0266667
        k(   51) = (   0.1000000   0.4426354   0.0000000), wk =   0.0266667
        k(   52) = (   0.1000000   0.4811254   0.0000000), wk =   0.0266667
        k(   53) = (   0.1000000   0.5196155   0.0000000), wk =   0.0266667
        k(   54) = (   0.1000000   0.5581055   0.0000000), wk =   0.0266667
        k(   55) = (   0.1333333   0.2309402   0.0000000), wk =   0.0133333
        k(   56) = (   0.1333333   0.2694303   0.0000000), wk =   0.0266667
        k(   57) = (   0.1333333   0.3079203   0.0000000), wk =   0.0266667
        k(   58) = (   0.1333333   0.3464103   0.0000000), wk =   0.0266667
        k(   59) = (   0.1333333   0.3849004   0.0000000), wk =   0.0266667
        k(   60) = (   0.1333333   0.4233904   0.0000000), wk =   0.0266667
        k(   61) = (   0.1333333   0.4618804   0.0000000), wk =   0.0266667
        k(   62) = (   0.1333333   0.5003705   0.0000000), wk =   0.0266667
        k(   63) = (   0.1333333   0.5388605   0.0000000), wk =   0.0266667
        k(   64) = (   0.1333333   0.5773505   0.0000000), wk =   0.0133333
        k(   65) = (   0.1666667   0.2886753   0.0000000), wk =   0.0133333
        k(   66) = (   0.1666667   0.3271653   0.0000000), wk =   0.0266667
        k(   67) = (   0.1666667   0.3656553   0.0000000), wk =   0.0266667
        k(   68) = (   0.1666667   0.4041454   0.0000000), wk =   0.0266667
        k(   69) = (   0.1666667   0.4426354   0.0000000), wk =   0.0266667
        k(   70) = (   0.1666667   0.4811254   0.0000000), wk =   0.0266667
        k(   71) = (   0.1666667   0.5196155   0.0000000), wk =   0.0266667
        k(   72) = (   0.1666667   0.5581055   0.0000000), wk =   0.0266667
        k(   73) = (   0.2000000   0.3464103   0.0000000), wk =   0.0133333
        k(   74) = (   0.2000000   0.3849004   0.0000000), wk =   0.0266667
        k(   75) = (   0.2000000   0.4233904   0.0000000), wk =   0.0266667
        k(   76) = (   0.2000000   0.4618804   0.0000000), wk =   0.0266667
        k(   77) = (   0.2000000   0.5003705   0.0000000), wk =   0.0266667
        k(   78) = (   0.2000000   0.5388605   0.0000000), wk =   0.0266667
        k(   79) = (   0.2000000   0.5773505   0.0000000), wk =   0.0133333
        k(   80) = (   0.2333333   0.4041454   0.0000000), wk =   0.0133333
        k(   81) = (   0.2333333   0.4426354   0.0000000), wk =   0.0266667
        k(   82) = (   0.2333333   0.4811254   0.0000000), wk =   0.0266667
        k(   83) = (   0.2333333   0.5196155   0.0000000), wk =   0.0266667
        k(   84) = (   0.2333333   0.5581055   0.0000000), wk =   0.0266667
        k(   85) = (   0.2666667   0.4618804   0.0000000), wk =   0.0133333
        k(   86) = (   0.2666667   0.5003705   0.0000000), wk =   0.0266667
        k(   87) = (   0.2666667   0.5388605   0.0000000), wk =   0.0266667
        k(   88) = (   0.2666667   0.5773505   0.0000000), wk =   0.0133333
        k(   89) = (   0.3000000   0.5196155   0.0000000), wk =   0.0133333
        k(   90) = (   0.3000000   0.5581055   0.0000000), wk =   0.0266667
        k(   91) = (   0.3333333   0.5773505   0.0000000), wk =   0.0044444

                       cryst. coord.
        k(    1) = (   0.0000000   0.0000000   0.0000000), wk =   0.0022222
        k(    2) = (   0.0000000   0.0333333   0.0000000), wk =   0.0133333
        k(    3) = (   0.0000000   0.0666667   0.0000000), wk =   0.0133333
        k(    4) = (   0.0000000   0.1000000   0.0000000), wk =   0.0133333
        k(    5) = (   0.0000000   0.1333333   0.0000000), wk =   0.0133333
        k(    6) = (   0.0000000   0.1666667   0.0000000), wk =   0.0133333
        k(    7) = (   0.0000000   0.2000000   0.0000000), wk =   0.0133333
        k(    8) = (   0.0000000   0.2333333   0.0000000), wk =   0.0133333
        k(    9) = (   0.0000000   0.2666667   0.0000000), wk =   0.0133333
        k(   10) = (   0.0000000   0.3000000   0.0000000), wk =   0.0133333
        k(   11) = (   0.0000000   0.3333333   0.0000000), wk =   0.0133333
        k(   12) = (   0.0000000   0.3666667   0.0000000), wk =   0.0133333
        k(   13) = (   0.0000000   0.4000000   0.0000000), wk =   0.0133333
        k(   14) = (   0.0000000   0.4333333   0.0000000), wk =   0.0133333
        k(   15) = (   0.0000000   0.4666667   0.0000000), wk =   0.0133333
        k(   16) = (   0.0000000  -0.5000000   0.0000000), wk =   0.0066667
        k(   17) = (   0.0333333   0.0333333   0.0000000), wk =   0.0133333
        k(   18) = (   0.0333333   0.0666667   0.0000000), wk =   0.0266667
        k(   19) = (   0.0333333   0.1000000   0.0000000), wk =   0.0266667
        k(   20) = (   0.0333333   0.1333333   0.0000000), wk =   0.0266667
        k(   21) = (   0.0333333   0.1666667   0.0000000), wk =   0.0266667
        k(   22) = (   0.0333333   0.2000000   0.0000000), wk =   0.0266667
        k(   23) = (   0.0333333   0.2333333   0.0000000), wk =   0.0266667
        k(   24) = (   0.0333333   0.2666667   0.0000000), wk =   0.0266667
        k(   25) = (   0.0333333   0.3000000   0.0000000), wk =   0.0266667
        k(   26) = (   0.0333333   0.3333333   0.0000000), wk =   0.0266667
        k(   27) = (   0.0333333   0.3666667   0.0000000), wk =   0.0266667
        k(   28) = (   0.0333333   0.4000000   0.0000000), wk =   0.0266667
        k(   29) = (   0.0333333   0.4333333   0.0000000), wk =   0.0266667
        k(   30) = (   0.0333333   0.4666667   0.0000000), wk =   0.0266667
        k(   31) = (   0.0666667   0.0666667   0.0000000), wk =   0.0133333
        k(   32) = (   0.0666667   0.1000000   0.0000000), wk =   0.0266667
        k(   33) = (   0.0666667   0.1333333   0.0000000), wk =   0.0266667
        k(   34) = (   0.0666667   0.1666667   0.0000000), wk =   0.0266667
        k(   35) = (   0.0666667   0.2000000   0.0000000), wk =   0.0266667
        k(   36) = (   0.0666667   0.2333333   0.0000000), wk =   0.0266667
        k(   37) = (   0.0666667   0.2666667   0.0000000), wk =   0.0266667
        k(   38) = (   0.0666667   0.3000000   0.0000000), wk =   0.0266667
        k(   39) = (   0.0666667   0.3333333   0.0000000), wk =   0.0266667
        k(   40) = (   0.0666667   0.3666667   0.0000000), wk =   0.0266667
        k(   41) = (   0.0666667   0.4000000   0.0000000), wk =   0.0266667
        k(   42) = (   0.0666667   0.4333333   0.0000000), wk =   0.0266667
        k(   43) = (   0.0666667   0.4666667   0.0000000), wk =   0.0133333
        k(   44) = (   0.1000000   0.1000000   0.0000000), wk =   0.0133333
        k(   45) = (   0.1000000   0.1333333   0.0000000), wk =   0.0266667
        k(   46) = (   0.1000000   0.1666667   0.0000000), wk =   0.0266667
        k(   47) = (   0.1000000   0.2000000   0.0000000), wk =   0.0266667
        k(   48) = (   0.1000000   0.2333333   0.0000000), wk =   0.0266667
        k(   49) = (   0.1000000   0.2666667   0.0000000), wk =   0.0266667
        k(   50) = (   0.1000000   0.3000000   0.0000000), wk =   0.0266667
        k(   51) = (   0.1000000   0.3333333   0.0000000), wk =   0.0266667
        k(   52) = (   0.1000000   0.3666667   0.0000000), wk =   0.0266667
        k(   53) = (   0.1000000   0.4000000   0.0000000), wk =   0.0266667
        k(   54) = (   0.1000000   0.4333333   0.0000000), wk =   0.0266667
        k(   55) = (   0.1333333   0.1333333   0.0000000), wk =   0.0133333
        k(   56) = (   0.1333333   0.1666667   0.0000000), wk =   0.0266667
        k(   57) = (   0.1333333   0.2000000   0.0000000), wk =   0.0266667
        k(   58) = (   0.1333333   0.2333333   0.0000000), wk =   0.0266667
        k(   59) = (   0.1333333   0.2666667   0.0000000), wk =   0.0266667
        k(   60) = (   0.1333333   0.3000000   0.0000000), wk =   0.0266667
        k(   61) = (   0.1333333   0.3333333   0.0000000), wk =   0.0266667
        k(   62) = (   0.1333333   0.3666667   0.0000000), wk =   0.0266667
        k(   63) = (   0.1333333   0.4000000   0.0000000), wk =   0.0266667
        k(   64) = (   0.1333333   0.4333333   0.0000000), wk =   0.0133333
        k(   65) = (   0.1666667   0.1666667   0.0000000), wk =   0.0133333
        k(   66) = (   0.1666667   0.2000000   0.0000000), wk =   0.0266667
        k(   67) = (   0.1666667   0.2333333   0.0000000), wk =   0.0266667
        k(   68) = (   0.1666667   0.2666667   0.0000000), wk =   0.0266667
        k(   69) = (   0.1666667   0.3000000   0.0000000), wk =   0.0266667
        k(   70) = (   0.1666667   0.3333333   0.0000000), wk =   0.0266667
        k(   71) = (   0.1666667   0.3666667   0.0000000), wk =   0.0266667
        k(   72) = (   0.1666667   0.4000000   0.0000000), wk =   0.0266667
        k(   73) = (   0.2000000   0.2000000   0.0000000), wk =   0.0133333
        k(   74) = (   0.2000000   0.2333333   0.0000000), wk =   0.0266667
        k(   75) = (   0.2000000   0.2666667   0.0000000), wk =   0.0266667
        k(   76) = (   0.2000000   0.3000000   0.0000000), wk =   0.0266667
        k(   77) = (   0.2000000   0.3333333   0.0000000), wk =   0.0266667
        k(   78) = (   0.2000000   0.3666667   0.0000000), wk =   0.0266667
        k(   79) = (   0.2000000   0.4000000   0.0000000), wk =   0.0133333
        k(   80) = (   0.2333333   0.2333333   0.0000000), wk =   0.0133333
        k(   81) = (   0.2333333   0.2666667   0.0000000), wk =   0.0266667
        k(   82) = (   0.2333333   0.3000000   0.0000000), wk =   0.0266667
        k(   83) = (   0.2333333   0.3333333   0.0000000), wk =   0.0266667
        k(   84) = (   0.2333333   0.3666667   0.0000000), wk =   0.0266667
        k(   85) = (   0.2666667   0.2666667   0.0000000), wk =   0.0133333
        k(   86) = (   0.2666667   0.3000000   0.0000000), wk =   0.0266667
        k(   87) = (   0.2666667   0.3333333   0.0000000), wk =   0.0266667
        k(   88) = (   0.2666667   0.3666667   0.0000000), wk =   0.0133333
        k(   89) = (   0.3000000   0.3000000   0.0000000), wk =   0.0133333
        k(   90) = (   0.3000000   0.3333333   0.0000000), wk =   0.0266667
        k(   91) = (   0.3333333   0.3333333   0.0000000), wk =   0.0044444

     Dense  grid:   111671 G-vectors     FFT dimensions: (  30,  30, 288)

     Smooth grid:    52021 G-vectors     FFT dimensions: (  24,  24, 225)

     Dynamical RAM for                 wfc:       1.19 MB

     Dynamical RAM for     wfc (w. buffer):      28.48 MB

     Dynamical RAM for           str. fact:       1.70 MB

     Dynamical RAM for           local pot:       0.00 MB

     Dynamical RAM for          nlocal pot:       1.58 MB

     Dynamical RAM for                qrad:       0.46 MB

     Dynamical RAM for          rho,v,vnew:      11.04 MB

     Dynamical RAM for           G-vectors:       6.79 MB

     Dynamical RAM for          h,s,v(r/c):       0.03 MB

     Dynamical RAM for          <psi|beta>:       0.00 MB

     Dynamical RAM for                 psi:       2.37 MB

     Dynamical RAM for                hpsi:       2.37 MB

     Dynamical RAM for                spsi:       2.37 MB

     Dynamical RAM for      wfcinit/wfcrot:       2.38 MB

     Dynamical RAM for           addusdens:      20.45 MB

     Estimated static dynamical RAM per process >      63.35 MB

     Estimated max dynamical RAM per process >      83.80 MB

     Estimated total dynamical RAM >     335.20 MB
 ----2D----2D----2D----2D----2D----2D----2D----2D----2D----2D----2D----2D
  The code is running with the 2D cutoff
  Please refer to:
  Sohier, T., Calandra, M., & Mauri, F. (2017), 
  Density functional perturbation theory for gated two-dimensional heterostructures:
  Theoretical developments and application to flexural phonons in graphene.
  Physical Review B, 96(7), 75448. https://doi.org/10.1103/PhysRevB.96.075448
 ----2D----2D----2D----2D----2D----2D----2D----2D----2D----2D----2D----2D

     Check: negative core charge=   -0.000002

     The potential is recalculated from file :
     /home/ubuntu/projects/Graphene-Band-Structure-Quantum-Espresso/outputs/field_0/top/data/top.save/charge-density


     negative rho (up, down):  1.441E-04 0.000E+00
     Starting wfcs are    8 randomized atomic wfcs +    4 random wfcs
     Checking if some PAW data can be deallocated... 

     Band Structure Calculation
     Davidson diagonalization with overlap

     Computing kpt #:     1  of    23 on this pool
     total cpu time spent up to now is        5.5 secs

     Computing kpt #:     2  of    23 on this pool
     total cpu time spent up to now is        7.9 secs

     Computing kpt #:     3  of    23 on this pool
     total cpu time spent up to now is       10.4 secs

     Computing kpt #:     4  of    23 on this pool
     total cpu time spent up to now is       13.1 secs

     Computing kpt #:     5  of    23 on this pool
     total cpu time spent up to now is       15.5 secs

     Computing kpt #:     6  of    23 on this pool
     total cpu time spent up to now is       18.0 secs

     Computing kpt #:     7  of    23 on this pool
     total cpu time spent up to now is       21.3 secs

     Computing kpt #:     8  of    23 on this pool
     total cpu time spent up to now is       24.9 secs

     Computing kpt #:     9  of    23 on this pool
     total cpu time spent up to now is       28.0 secs

     Computing kpt #:    10  of    23 on this pool
     total cpu time spent up to now is       30.9 secs

     Computing kpt #:    11  of    23 on this pool
     total cpu time spent up to now is       34.5 secs

     Computing kpt #:    12  of    23 on this pool
     total cpu time spent up to now is       37.7 secs

     Computing kpt #:    13  of    23 on this pool
     total cpu time spent up to now is       41.2 secs

     Computing kpt #:    14  of    23 on this pool
     total cpu time spent up to now is       44.3 secs

     Computing kpt #:    15  of    23 on this pool
     total cpu time spent up to now is       47.5 secs

     Computing kpt #:    16  of    23 on this pool
     total cpu time spent up to now is       50.1 secs

     Computing kpt #:    17  of    23 on this pool
     total cpu time spent up to now is       53.1 secs

     Computing kpt #:    18  of    23 on this pool
     total cpu time spent up to now is       56.1 secs

     Computing kpt #:    19  of    23 on this pool
     total cpu time spent up to now is       58.4 secs

     Computing kpt #:    20  of    23 on this pool
     total cpu time spent up to now is       60.9 secs

     Computing kpt #:    21  of    23 on this pool
     c_bands:  1 eigenvalues not converged
     total cpu time spent up to now is       64.5 secs

     Computing kpt #:    22  of    23 on this pool
     total cpu time spent up to now is       67.7 secs

     Computing kpt #:    23  of    23 on this pool
     total cpu time spent up to now is       69.5 secs

     ethr =  1.25E-10,  avg # of iterations = 65.3

     total cpu time spent up to now is       70.1 secs

     End of band structure calculation

          k = 0.0000 0.0000 0.0000 (  6469 PWs)   bands (ev):

   -23.8086 -11.8925  -7.2716  -7.2716  -1.0384  -0.4052   0.1201   0.4689
     1.5480   2.0850   3.5720   4.1555

     occupation numbers 
     1.0000   1.0000   1.0000   1.0000   0.0000   0.0000   0.0000   0.0000
     0.0000   0.0000   0.0000   0.0000

          k = 0.0000 0.0385 0.0000 (  6459 PWs)   bands (ev):

   -23.7822 -11.8609  -7.3808  -7.3296  -1.0025  -0.3687   0.1567   0.5053
     1.5843   2.1213   3.6071   4.1726

     occupation numbers 
     1.0000   1.0000   1.0000   1.0000   0.0000   0.0000   0.0000   0.0000
     0.0000   0.0000   0.0000   0.0000

          k = 0.0000 0.0770 0.0000 (  6464 PWs)   bands (ev):

   -23.7032 -11.7662  -7.6972  -7.4955  -0.8949  -0.2593   0.2664   0.6145
     1.6933   2.2300   3.7119   4.2123

     occupation numbers 
     1.0000   1.0000   1.0000   1.0000   0.0000   0.0000   0.0000   0.0000
     0.0000   0.0000   0.0000   0.0000

          k = 0.0000 0.1155 0.0000 (  6488 PWs)   bands (ev):

   -23.5717 -11.6089  -8.1921  -7.7488  -0.7154  -0.0770   0.4493   0.7965
     1.8749   2.4111   3.8833   4.2499

     occupation numbers 
     1.0000   1.0000   1.0000   1.0000   0.0000   0.0000   0.0000   0.0000
     0.0000   0.0000   0.0000   0.0000

          k = 0.0000 0.1540 0.0000 (  6496 PWs)   bands (ev):

   -23.3878 -11.3895  -8.8283  -8.0628  -0.4642   0.1781   0.7055   1.0512
     2.1292   2.6643   4.0912   4.2903

     occupation numbers 
     1.0000   1.0000   1.0000   1.0000   0.0000   0.0000   0.0000   0.0000
     0.0000   0.0000   0.0000   0.0000

          k = 0.0000 0.1925 0.0000 (  6486 PWs)   bands (ev):

   -23.1519 -11.1092  -9.5686  -8.4114  -0.1413   0.5058   1.0347   1.3782
     2.4558   2.9890   4.1458   4.5130

     occupation numbers 
     1.0000   1.0000   1.0000   1.0000   0.0000   0.0000   0.0000   0.0000
     0.0000   0.0000   0.0000   0.0000

          k = 0.0000 0.2309 0.0000 (  6474 PWs)   bands (ev):

   -22.8645 -10.7694 -10.3804  -8.7721   0.2531   0.9056   1.4371   1.7768
     2.8541   3.3819   4.0753   4.4087

     occupation numbers 
     1.0000   1.0000   1.0000   1.0000   0.0000   0.0000   0.0000   0.0000
     0.0000   0.0000   0.0000   0.0000

          k = 0.0000 0.2694 0.0000 (  6494 PWs)   bands (ev):

   -22.5262 -11.2373 -10.3723  -9.1270   0.7187   1.3758   1.9124   2.2438
     3.3206   3.5136   3.8907   3.9713

     occupation numbers 
     1.0000   1.0000   1.0000   1.0000   0.0000   0.0000   0.0000   0.0000
     0.0000   0.0000   0.0000   0.0000

          k = 0.0000 0.3079 0.0000 (  6492 PWs)   bands (ev):

   -22.1376 -12.1180  -9.9210  -9.4623   1.2550   1.9026   2.4604   2.5675
     2.8643   3.7581   3.9531   4.4091

     occupation numbers 
     1.0000   1.0000   1.0000   1.0000   0.0000   0.0000   0.0000   0.0000
     0.0000   0.0000   0.0000   0.0000

          k = 0.0000 0.3464 0.0000 (  6492 PWs)   bands (ev):

   -21.7000 -13.0062  -9.7679  -9.4204   1.6378   1.8610   2.5708   3.0788
     3.4269   3.6942   4.5096   5.0189

     occupation numbers 
     1.0000   1.0000   1.0000   1.0000   0.0000   0.0000   0.0000   0.0000
     0.0000   0.0000   0.0000   0.0000

          k = 0.0000 0.3849 0.0000 (  6484 PWs)   bands (ev):

   -21.2146 -13.8887 -10.0364  -8.8778   0.7190   2.5334   3.2472   3.5575
     3.7975   4.1114   5.1945   5.7004

     occupation numbers 
     1.0000   1.0000   1.0000   1.0000   0.0000   0.0000   0.0000   0.0000
     0.0000   0.0000   0.0000   0.0000

          k = 0.0000 0.4234 0.0000 (  6498 PWs)   bands (ev):

   -20.6838 -14.7546 -10.2622  -8.3056  -0.1885   3.2315   3.5130   4.0049
     4.5516   4.8697   5.9549   6.4510

     occupation numbers 
     1.0000   1.0000   1.0000   1.0000   0.0000   0.0000   0.0000   0.0000
     0.0000   0.0000   0.0000   0.0000

          k = 0.0000 0.4619 0.0000 (  6490 PWs)   bands (ev):

   -20.1114 -15.5935 -10.4414  -7.7264  -1.0407   3.3442   4.1287   4.8342
     5.3904   5.6986   6.7876   7.2679

     occupation numbers 
     1.0000   1.0000   1.0000   1.0000   0.0000   0.0000   0.0000   0.0000
     0.0000   0.0000   0.0000   0.0000

          k = 0.0000 0.5004 0.0000 (  6488 PWs)   bands (ev):

   -19.5067 -16.3916 -10.5712  -7.1838  -1.7843   3.2883   5.0011   5.7320
     6.3026   6.5962   7.6910   8.1444

     occupation numbers 
     1.0000   1.0000   1.0000   1.0000   0.0000   0.0000   0.0000   0.0000
     0.0000   0.0000   0.0000   0.0000

          k = 0.0000 0.5389 0.0000 (  6524 PWs)   bands (ev):

   -18.9036 -17.1119 -10.6498  -6.7631  -2.3280   3.2504   5.9433   6.6938
     7.2865   7.5576   8.0063   8.6664

     occupation numbers 
     1.0000   1.0000   1.0000   1.0000   0.0000   0.0000   0.0000   0.0000
     0.0000   0.0000   0.0000   0.0000

          k = 0.0000-0.5774 0.0000 (  6508 PWs)   bands (ev):

   -18.5359 -17.5188 -10.6761  -6.5962  -2.5362   3.2374   6.8770   7.0219
     7.6434   7.7849   8.3388   8.3487

     occupation numbers 
     1.0000   1.0000   1.0000   1.0000   0.0000   0.0000   0.0000   0.0000
     0.0000   0.0000   0.0000   0.0000

          k = 0.0333 0.0577 0.0000 (  6475 PWs)   bands (ev):

   -23.7296 -11.7977  -7.5895  -7.4455  -0.9308  -0.2958   0.2298   0.5781
     1.6570   2.1938   3.6771   4.2118

     occupation numbers 
     1.0000   1.0000   1.0000   1.0000   0.0000   0.0000   0.0000   0.0000
     0.0000   0.0000   0.0000   0.0000

          k = 0.0333 0.0962 0.0000 (  6479 PWs)   bands (ev):

   -23.6243 -11.6717  -7.9855  -7.6649  -0.7872  -0.1499   0.3762   0.7238
     1.8023   2.3387   3.8164   4.2751

     occupation numbers 
     1.0000   1.0000   1.0000   1.0000   0.0000   0.0000   0.0000   0.0000
     0.0000   0.0000   0.0000   0.0000

          k = 0.0333 0.1347 0.0000 (  6491 PWs)   bands (ev):

   -23.4665 -11.4834  -8.5398  -7.9600  -0.5718   0.0688   0.5957   0.9421
     2.0203   2.5558   4.0183   4.3284

     occupation numbers 
     1.0000   1.0000   1.0000   1.0000   0.0000   0.0000   0.0000   0.0000
     0.0000   0.0000   0.0000   0.0000

          k = 0.0333 0.1732 0.0000 (  6490 PWs)   bands (ev):

   -23.2567 -11.2335  -9.2178  -8.3019  -0.2847   0.3602   0.8884   1.2329
     2.3108   2.8449   4.2125   4.4172

     occupation numbers 
     1.0000   1.0000   1.0000   1.0000   0.0000   0.0000   0.0000   0.0000
     0.0000   0.0000   0.0000   0.0000

          k = 0.0333 0.2117 0.0000 (  6502 PWs)   bands (ev):

   -22.9950 -10.9234  -9.9855  -8.6652   0.0740   0.7240   1.2542   1.5959
     2.6736   3.2047   4.2138   4.7225

     occupation numbers 
     1.0000   1.0000   1.0000   1.0000   0.0000   0.0000   0.0000   0.0000
     0.0000   0.0000   0.0000   0.0000

          k = 0.0333 0.2502 0.0000 (  6482 PWs)   bands (ev):

   -22.6822 -10.8134 -10.5548  -9.0296   0.5041   1.1594   1.6932   2.0297
     3.1074   3.6171   3.9642   4.1323

     occupation numbers 
     1.0000   1.0000   1.0000   1.0000   0.0000   0.0000   0.0000   0.0000
     0.0000   0.0000   0.0000   0.0000

          k = 0.0333 0.2887 0.0000 (  6484 PWs)   bands (ev):

   -22.3187 -11.6774 -10.1303  -9.3796   1.0051   1.6626   2.2049   2.5199
     3.0689   3.6038   4.0305   4.1580

     occupation numbers 
     1.0000   1.0000   1.0000   1.0000   0.0000   0.0000   0.0000   0.0000
     0.0000   0.0000   0.0000   0.0000

          k = 0.0333 0.3272 0.0000 (  6487 PWs)   bands (ev):

   -21.9056 -12.5584  -9.7036  -9.6539   1.5765   2.0233   2.3339   2.7890
     3.1408   3.8579   4.2328   4.7301

     occupation numbers 
     1.0000   1.0000   1.0000   1.0000   0.0000   0.0000   0.0000   0.0000
     0.0000   0.0000   0.0000   0.0000

          k = 0.0333 0.3657 0.0000 (  6486 PWs)   bands (ev):

   -21.4441 -13.4414  -9.9931  -9.1313   1.1642   2.2168   2.9223   3.4387
     3.7597   3.7852   4.8699   5.3759

     occupation numbers 
     1.0000   1.0000   1.0000   1.0000   0.0000   0.0000   0.0000   0.0000
     0.0000   0.0000   0.0000   0.0000

          k = 0.0333 0.4041 0.0000 (  6497 PWs)   bands (ev):

   -20.9359 -14.3139 -10.2419  -8.5720   0.2483   2.9196   3.6371   3.6425
     4.1893   4.5071   5.5929   6.0916

     occupation numbers 
     1.0000   1.0000   1.0000   1.0000   0.0000   0.0000   0.0000   0.0000
     0.0000   0.0000   0.0000   0.0000

          k = 0.0333 0.4426 0.0000 (  6493 PWs)   bands (ev):

   -20.3839 -15.1654 -10.4456  -7.9925  -0.6334   3.4698   3.7742   4.4360
     4.9891   5.3005   6.3895   6.8746

     occupation numbers 
     1.0000   1.0000   1.0000   1.0000   0.0000   0.0000   0.0000   0.0000
     0.0000   0.0000   0.0000   0.0000

          k = 0.0333 0.4811 0.0000 (  6498 PWs)   bands (ev):

   -19.7938 -15.9846 -10.6008  -7.4239  -1.4373   3.4344   4.5817   5.2991
     5.8647   6.1632   7.2576   7.7204

     occupation numbers 
     1.0000   1.0000   1.0000   1.0000   0.0000   0.0000   0.0000   0.0000
     0.0000   0.0000   0.0000   0.0000

          k = 0.0333 0.5196 0.0000 (  6505 PWs)   bands (ev):

   -19.1823 -16.7509 -10.7055  -6.9275  -2.0946   3.3862   5.4902   6.2282
     6.8130   7.0923   8.1936   8.5694

     occupation numbers 
     1.0000   1.0000   1.0000   1.0000   0.0000   0.0000   0.0000   0.0000
     0.0000   0.0000   0.0000   0.0000

          k = 0.0333 0.5581 0.0000 (  6512 PWs)   bands (ev):

   -18.6337 -17.3776 -10.7581  -6.6155  -2.4880   3.3605   6.4605   7.2141
     7.4978   7.8356   8.0560   8.2981

     occupation numbers 
     1.0000   1.0000   1.0000   1.0000   0.0000   0.0000   0.0000   0.0000
     0.0000   0.0000   0.0000   0.0000

          k = 0.0667 0.1155 0.0000 (  6499 PWs)   bands (ev):

   -23.4928 -11.5147  -8.4236  -7.9436  -0.6077   0.0324   0.5591   0.9057
     1.9840   2.5197   3.9900   4.3988

     occupation numbers 
     1.0000   1.0000   1.0000   1.0000   0.0000   0.0000   0.0000   0.0000
     0.0000   0.0000   0.0000   0.0000

          k = 0.0667 0.1540 0.0000 (  6481 PWs)   bands (ev):

   -23.3091 -11.2958  -8.9941  -8.2924  -0.3564   0.2874   0.8153   1.1603
     2.2384   2.7728   4.2245   4.5211

     occupation numbers 
     1.0000   1.0000   1.0000   1.0000   0.0000   0.0000   0.0000   0.0000
     0.0000   0.0000   0.0000   0.0000

          k = 0.0667 0.1925 0.0000 (  6491 PWs)   bands (ev):

   -23.0735 -11.0160  -9.6755  -8.6735  -0.0334   0.6151   1.1446   1.4873
     2.5654   3.0976   4.4407   4.6690

     occupation numbers 
     1.0000   1.0000   1.0000   1.0000   0.0000   0.0000   0.0000   0.0000
     0.0000   0.0000   0.0000   0.0000

          k = 0.0667 0.2309 0.0000 (  6488 PWs)   bands (ev):

   -22.7864 -10.6769 -10.4403  -9.0599   0.3611   1.0148   1.5470   1.8860
     2.9645   3.4908   4.2326   4.4638

     occupation numbers 
     1.0000   1.0000   1.0000   1.0000   0.0000   0.0000   0.0000   0.0000
     0.0000   0.0000   0.0000   0.0000

          k = 0.0667 0.2694 0.0000 (  6480 PWs)   bands (ev):

   -22.4484 -11.2616 -10.2806  -9.4336   0.8268   1.4852   2.0225   2.3531
     3.3867   3.4344   3.9766   4.3955

     occupation numbers 
     1.0000   1.0000   1.0000   1.0000   0.0000   0.0000   0.0000   0.0000
     0.0000   0.0000   0.0000   0.0000

          k = 0.0667 0.3079 0.0000 (  6479 PWs)   bands (ev):

   -22.0604 -12.1161  -9.8302  -9.7822   1.3633   2.0089   2.4968   2.5708
     2.9308   3.9619   4.3068   4.5104

     occupation numbers 
     1.0000   1.0000   1.0000   1.0000   0.0000   0.0000   0.0000   0.0000
     0.0000   0.0000   0.0000   0.0000

          k = 0.0667 0.3464 0.0000 (  6491 PWs)   bands (ev):

   -21.6234 -12.9850 -10.0970  -9.3304   1.5631   1.9698   2.6682   3.1911
     3.5288   4.1430   4.6259   5.1200

     occupation numbers 
     1.0000   1.0000   1.0000   1.0000   0.0000   0.0000   0.0000   0.0000
     0.0000   0.0000   0.0000   0.0000

          k = 0.0667 0.3849 0.0000 (  6493 PWs)   bands (ev):

   -21.1388 -13.8533 -10.3716  -8.7885   0.6579   2.6445   3.3495   3.8684
     4.0565   4.2140   5.3045   5.7994

     occupation numbers 
     1.0000   1.0000   1.0000   1.0000   0.0000   0.0000   0.0000   0.0000
     0.0000   0.0000   0.0000   0.0000

          k = 0.0667 0.4234 0.0000 (  6487 PWs)   bands (ev):

   -20.6090 -14.7087 -10.6015  -8.2167  -0.2338   3.3777   3.9393   4.1065
     4.6624   4.9709   6.0637   6.5460

     occupation numbers 
     1.0000   1.0000   1.0000   1.0000   0.0000   0.0000   0.0000   0.0000
     0.0000   0.0000   0.0000   0.0000

          k = 0.0667 0.4619 0.0000 (  6487 PWs)   bands (ev):

   -20.0379 -15.5397 -10.7833  -7.6370  -1.0738   3.8008   4.2457   4.9333
     5.4999   5.7972   6.8958   7.3556

     occupation numbers 
     1.0000   1.0000   1.0000   1.0000   0.0000   0.0000   0.0000   0.0000
     0.0000   0.0000   0.0000   0.0000

          k = 0.0667 0.5004 0.0000 (  6503 PWs)   bands (ev):

   -19.4348 -16.3319 -10.9147  -7.0926  -1.8102   3.7560   5.1059   5.8261
     6.4117   6.6898   7.7982   8.2156

     occupation numbers 
     1.0000   1.0000   1.0000   1.0000   0.0000   0.0000   0.0000   0.0000
     0.0000   0.0000   0.0000   0.0000

          k = 0.0667 0.5389 0.0000 (  6509 PWs)   bands (ev):

   -18.8340 -17.0475 -10.9941  -6.6686  -2.3517   3.7190   6.0446   6.7775
     7.3949   7.6397   8.0936   8.7723

     occupation numbers 
     1.0000   1.0000   1.0000   1.0000   0.0000   0.0000   0.0000   0.0000
     0.0000   0.0000   0.0000   0.0000

          k = 0.0667 0.5774 0.0000 (  6480 PWs)   bands (ev):

   -18.4683 -17.4516 -11.0206  -6.4996  -2.5603   3.7061   6.9707   7.1215
     7.6660   7.8944   8.4460   8.4569

     occupation numbers 
     1.0000   1.0000   1.0000   1.0000   0.0000   0.0000   0.0000   0.0000
     0.0000   0.0000   0.0000   0.0000

          k = 0.1000 0.1732 0.0000 (  6479 PWs)   bands (ev):

   -23.0996 -11.0469  -9.5458  -8.7029  -0.0692   0.5787   1.1080   1.4510
     2.5293   3.0618   4.4944   4.7629

     occupation numbers 
     1.0000   1.0000   1.0000   1.0000   0.0000   0.0000   0.0000   0.0000
     0.0000   0.0000   0.0000   0.0000

          k = 0.1000 0.2117 0.0000 (  6475 PWs)   bands (ev):

   -22.8385 -10.7381 -10.1926  -9.1390   0.2897   0.9424   1.4740   1.8140
     2.8928   3.4220   4.3815   4.7660

     occupation numbers 
     1.0000   1.0000   1.0000   1.0000   0.0000   0.0000   0.0000   0.0000
     0.0000   0.0000   0.0000   0.0000

          k = 0.1000 0.2502 0.0000 (  6481 PWs)   bands (ev):

   -22.5263 -10.9231 -10.3711  -9.5627   0.7199   1.3779   1.9130   2.2481
     3.3285   3.6041   3.8628   4.8701

     occupation numbers 
     1.0000   1.0000   1.0000   1.0000   0.0000   0.0000   0.0000   0.0000
     0.0000   0.0000   0.0000   0.0000

          k = 0.1000 0.2887 0.0000 (  6477 PWs)   bands (ev):

   -22.1638 -11.7151  -9.9551  -9.9483   1.2211   1.8814   2.4251   2.7002
     2.8411   3.8349   4.3610   4.8419

     occupation numbers 
     1.0000   1.0000   1.0000   1.0000   0.0000   0.0000   0.0000   0.0000
     0.0000   0.0000   0.0000   0.0000

          k = 0.1000 0.3272 0.0000 (  6487 PWs)   bands (ev):

   -21.7518 -12.5443 -10.3078  -9.4737   1.7928   1.8887   2.4844   3.0100
     3.3425   4.4011   4.7707   4.9342

     occupation numbers 
     1.0000   1.0000   1.0000   1.0000   0.0000   0.0000   0.0000   0.0000
     0.0000   0.0000   0.0000   0.0000

          k = 0.1000 0.3657 0.0000 (  6475 PWs)   bands (ev):

   -21.2917 -13.3901 -10.6164  -8.9528   1.0142   2.4342   3.1264   3.6669
     3.9912   4.6228   5.0975   5.5765

     occupation numbers 
     1.0000   1.0000   1.0000   1.0000   0.0000   0.0000   0.0000   0.0000
     0.0000   0.0000   0.0000   0.0000

          k = 0.1000 0.4041 0.0000 (  6485 PWs)   bands (ev):

   -20.7853 -14.2358 -10.8777  -8.3947   0.1335   3.1434   3.8467   4.3794
     4.5476   4.7112   5.8118   6.2853

     occupation numbers 
     1.0000   1.0000   1.0000   1.0000   0.0000   0.0000   0.0000   0.0000
     0.0000   0.0000   0.0000   0.0000

          k = 0.1000 0.4426 0.0000 (  6490 PWs)   bands (ev):

   -20.2356 -15.0678 -11.0893  -7.8153  -0.7186   3.9103   4.4405   4.6361
     5.2095   5.4999   6.6064   7.0556

     occupation numbers 
     1.0000   1.0000   1.0000   1.0000   0.0000   0.0000   0.0000   0.0000
     0.0000   0.0000   0.0000   0.0000

          k = 0.1000 0.4811 0.0000 (  6491 PWs)   bands (ev):

   -19.6485 -15.8724 -11.2496  -7.2445  -1.5022   4.3203   4.8026   5.4905
     6.0834   6.3540   7.4729   7.8748

     occupation numbers 
     1.0000   1.0000   1.0000   1.0000   0.0000   0.0000   0.0000   0.0000
     0.0000   0.0000   0.0000   0.0000

          k = 0.1000 0.5196 0.0000 (  6503 PWs)   bands (ev):

   -19.0409 -16.6278 -11.3571  -6.7425  -2.1501   4.2831   5.6964   6.4015
     7.0306   7.2652   8.4050   8.6714

     occupation numbers 
     1.0000   1.0000   1.0000   1.0000   0.0000   0.0000   0.0000   0.0000
     0.0000   0.0000   0.0000   0.0000

          k = 0.1000 0.5581 0.0000 (  6500 PWs)   bands (ev):

   -18.4970 -17.2462 -11.4111  -6.4239  -2.5428   4.2584   6.6577   7.3356
     7.6826   8.0521   8.1387   8.4872

     occupation numbers 
     1.0000   1.0000   1.0000   1.0000   0.0000   0.0000   0.0000   0.0000
     0.0000   0.0000   0.0000   0.0000

          k = 0.1333 0.2309 0.0000 (  6457 PWs)   bands (ev):

   -22.5523 -10.7774 -10.4012  -9.6402   0.6842   1.3420   1.8766   2.2128
     3.2929   3.6870   3.8179   5.1195

     occupation numbers 
     1.0000   1.0000   1.0000   1.0000   0.0000   0.0000   0.0000   0.0000
     0.0000   0.0000   0.0000   0.0000

          k = 0.1333 0.2694 0.0000 (  6490 PWs)   bands (ev):

   -22.2156 -11.4402 -10.1211 -10.0076   1.1500   1.8129   2.3522   2.6809
     2.9326   3.7651   4.2844   5.3672

     occupation numbers 
     1.0000   1.0000   1.0000   1.0000   0.0000   0.0000   0.0000   0.0000
     0.0000   0.0000   0.0000   0.0000

          k = 0.1333 0.3079 0.0000 (  6480 PWs)   bands (ev):

   -21.8290 -12.1752 -10.5495  -9.5601   1.6865   2.1116   2.3679   2.9009
     3.2275   4.3085   4.8208   5.4290

     occupation numbers 
     1.0000   1.0000   1.0000   1.0000   0.0000   0.0000   0.0000   0.0000
     0.0000   0.0000   0.0000   0.0000

          k = 0.1333 0.3464 0.0000 (  6479 PWs)   bands (ev):

   -21.3939 -12.9603 -10.9172  -9.0632   1.2842   2.2931   2.9744   3.5223
     3.8403   4.9161   5.3905   5.4253

     occupation numbers 
     1.0000   1.0000   1.0000   1.0000   0.0000   0.0000   0.0000   0.0000
     0.0000   0.0000   0.0000   0.0000

          k = 0.1333 0.3849 0.0000 (  6474 PWs)   bands (ev):

   -20.9118 -13.7708 -11.2255  -8.5238   0.4367   2.9689   3.6578   4.2158
     4.5229   5.2635   5.6453   6.0950

     occupation numbers 
     1.0000   1.0000   1.0000   1.0000   0.0000   0.0000   0.0000   0.0000
     0.0000   0.0000   0.0000   0.0000

          k = 0.1333 0.4234 0.0000 (  6485 PWs)   bands (ev):

   -20.3851 -14.5857 -11.4765  -7.9534  -0.4023   3.7119   4.4091   4.9722
     5.1959   5.2732   6.3912   6.8238

     occupation numbers 
     1.0000   1.0000   1.0000   1.0000   0.0000   0.0000   0.0000   0.0000
     0.0000   0.0000   0.0000   0.0000

          k = 0.1333 0.4619 0.0000 (  6494 PWs)   bands (ev):

   -19.8180 -15.3880 -11.6714  -7.3724  -1.2025   4.5140   5.1051   5.2233
     5.8296   6.0870   7.2200   7.5964

     occupation numbers 
     1.0000   1.0000   1.0000   1.0000   0.0000   0.0000   0.0000   0.0000
     0.0000   0.0000   0.0000   0.0000

          k = 0.1333 0.5004 0.0000 (  6495 PWs)   bands (ev):

   -19.2201 -16.1593 -11.8106  -6.8220  -1.9154   5.0018   5.4301   6.0897
     6.7390   6.9549   8.1189   8.3572

     occupation numbers 
     1.0000   1.0000   1.0000   1.0000   0.0000   0.0000   0.0000   0.0000
     0.0000   0.0000   0.0000   0.0000

          k = 0.1333 0.5389 0.0000 (  6490 PWs)   bands (ev):

   -18.6257 -16.8597 -11.8941  -6.3868  -2.4503   4.9774   6.3473   6.9724
     7.7199   7.8383   8.3441   8.7512

     occupation numbers 
     1.0000   1.0000   1.0000   1.0000   0.0000   0.0000   0.0000   0.0000
     0.0000   0.0000   0.0000   0.0000

          k = 0.1333 0.5774 0.0000 (  6486 PWs)   bands (ev):

   -18.2656 -17.2556 -11.9220  -6.2107  -2.6601   4.9653   7.2464   7.4174
     7.5806   8.2227   8.7588   8.7665

     occupation numbers 
     1.0000   1.0000   1.0000   1.0000   0.0000   0.0000   0.0000   0.0000
     0.0000   0.0000   0.0000   0.0000

          k = 0.1667 0.2887 0.0000 (  6494 PWs)   bands (ev):

   -21.8548 -12.0118 -10.6723  -9.5889   1.6510   2.2004   2.3194   2.8644
     3.1881   4.2740   4.7825   5.8321

     occupation numbers 
     1.0000   1.0000   1.0000   1.0000   0.0000   0.0000   0.0000   0.0000
     0.0000   0.0000   0.0000   0.0000

          k = 0.1667 0.3272 0.0000 (  6476 PWs)   bands (ev):

   -21.4452 -12.6571 -11.1614  -9.1187   1.4323   2.2224   2.8963   3.4496
     3.7636   4.8541   5.3486   6.0890

     occupation numbers 
     1.0000   1.0000   1.0000   1.0000   0.0000   0.0000   0.0000   0.0000
     0.0000   0.0000   0.0000   0.0000

          k = 0.1667 0.3657 0.0000 (  6476 PWs)   bands (ev):

   -20.9880 -13.3715 -11.5644  -8.6020   0.6399   2.8633   3.5424   4.1074
     4.4082   5.5014   5.9786   6.1275

     occupation numbers 
     1.0000   1.0000   1.0000   1.0000   0.0000   0.0000   0.0000   0.0000
     0.0000   0.0000   0.0000   0.0000

          k = 0.1667 0.4041 0.0000 (  6474 PWs)   bands (ev):

   -20.4854 -14.1295 -11.8843  -8.0473  -0.1606   3.5726   4.2546   4.8374
     5.1193   6.0197   6.2737   6.6647

     occupation numbers 
     1.0000   1.0000   1.0000   1.0000   0.0000   0.0000   0.0000   0.0000
     0.0000   0.0000   0.0000   0.0000

          k = 0.1667 0.4426 0.0000 (  6475 PWs)   bands (ev):

   -19.9405 -14.9030 -12.1312  -7.4687  -0.9472   4.3479   5.0270   5.6350
     5.8917   5.9717   7.0416   7.3872

     occupation numbers 
     1.0000   1.0000   1.0000   1.0000   0.0000   0.0000   0.0000   0.0000
     0.0000   0.0000   0.0000   0.0000

          k = 0.1667 0.4811 0.0000 (  6474 PWs)   bands (ev):

   -19.3596 -15.6679 -12.3121  -6.8933  -1.6858   5.1825   5.8448   5.8942
     6.5221   6.7133   7.9027   8.0867

     occupation numbers 
     1.0000   1.0000   1.0000   1.0000   0.0000   0.0000   0.0000   0.0000
     0.0000   0.0000   0.0000   0.0000

          k = 0.1667 0.5196 0.0000 (  6492 PWs)   bands (ev):

   -18.7597 -16.3958 -12.4311  -6.3784  -2.3132   5.8017   6.1235   6.6609
     7.4655   7.5502   8.6088   8.8169

     occupation numbers 
     1.0000   1.0000   1.0000   1.0000   0.0000   0.0000   0.0000   0.0000
     0.0000   0.0000   0.0000   0.0000

          k = 0.1667 0.5581 0.0000 (  6496 PWs)   bands (ev):

   -18.2247 -16.9964 -12.4902  -6.0427  -2.7063   5.7948   7.0466   7.2909
     8.0373   8.2905   8.4841   8.8989

     occupation numbers 
     1.0000   1.0000   1.0000   1.0000   0.0000   0.0000   0.0000   0.0000
     0.0000   0.0000   0.0000   0.0000

          k = 0.2000 0.3464 0.0000 (  6482 PWs)   bands (ev):

   -21.0134 -13.1899 -11.7276  -8.6282   0.7119   2.8280   3.5033   4.0711
     4.3696   5.4706   5.9394   6.6719

     occupation numbers 
     1.0000   1.0000   1.0000   1.0000   0.0000   0.0000   0.0000   0.0000
     0.0000   0.0000   0.0000   0.0000

          k = 0.2000 0.3849 0.0000 (  6476 PWs)   bands (ev):

   -20.5356 -13.7988 -12.1955  -8.0948  -0.0283   3.5023   4.1759   4.7652
     5.0413   6.1553   6.5832   6.9227

     occupation numbers 
     1.0000   1.0000   1.0000   1.0000   0.0000   0.0000   0.0000   0.0000
     0.0000   0.0000   0.0000   0.0000

          k = 0.2000 0.4234 0.0000 (  6465 PWs)   bands (ev):

   -20.0145 -14.4772 -12.5499  -7.5284  -0.7735   4.2435   4.9059   5.5313
     5.7718   6.8256   7.0026   7.2557

     occupation numbers 
     1.0000   1.0000   1.0000   1.0000   0.0000   0.0000   0.0000   0.0000
     0.0000   0.0000   0.0000   0.0000

          k = 0.2000 0.4619 0.0000 (  6463 PWs)   bands (ev):

   -19.4544 -15.1926 -12.8049  -6.9464  -1.5014   5.0483   5.6729   6.3664
     6.5461   6.8296   7.7616   7.8892

     occupation numbers 
     1.0000   1.0000   1.0000   1.0000   0.0000   0.0000   0.0000   0.0000
     0.0000   0.0000   0.0000   0.0000

          k = 0.2000 0.5004 0.0000 (  6474 PWs)   bands (ev):

   -18.8655 -15.9087 -12.9772  -6.3848  -2.1714   5.9092   6.4133   6.7614
     7.2860   7.3304   8.3935   8.6492

     occupation numbers 
     1.0000   1.0000   1.0000   1.0000   0.0000   0.0000   0.0000   0.0000
     0.0000   0.0000   0.0000   0.0000

          k = 0.2000 0.5389 0.0000 (  6478 PWs)   bands (ev):

   -18.2817 -16.5745 -13.0772  -5.9252  -2.6978   6.6633   6.8803   6.9494
     8.1048   8.2591   8.7096   8.9281

     occupation numbers 
     1.0000   1.0000   1.0000   1.0000   0.0000   0.0000   0.0000   0.0000
     0.0000   0.0000   0.0000   0.0000

          k = 0.2000 0.5774 0.0000 (  6484 PWs)   bands (ev):

   -17.9282 -16.9563 -13.1101  -5.7314  -2.9142   6.6852   7.1210   7.6833
     7.9002   8.7696   9.1675   9.2958

     occupation numbers 
     1.0000   1.0000   1.0000   1.0000   0.0000   0.0000   0.0000   0.0000
     0.0000   0.0000   0.0000   0.0000

          k = 0.2333 0.4041 0.0000 (  6446 PWs)   bands (ev):

   -20.0392 -14.2784 -12.7476  -7.5485  -0.7116   4.2084   4.8648   5.4952
     5.7313   6.8759   7.2106   7.6155

     occupation numbers 
     1.0000   1.0000   1.0000   1.0000   0.0000   0.0000   0.0000   0.0000
     0.0000   0.0000   0.0000   0.0000

          k = 0.2333 0.4426 0.0000 (  6452 PWs)   bands (ev):

   -19.5023 -14.8394 -13.1701  -6.9745  -1.3981   4.9788   5.5831   6.2967
     6.4601   7.6221   7.7844   7.8318

     occupation numbers 
     1.0000   1.0000   1.0000   1.0000   0.0000   0.0000   0.0000   0.0000
     0.0000   0.0000   0.0000   0.0000

          k = 0.2333 0.4811 0.0000 (  6443 PWs)   bands (ev):

   -18.9317 -15.4686 -13.4566  -6.3939  -2.0653   5.8083   6.2493   7.1668
     7.1932   7.7086   8.2452   8.5443

     occupation numbers 
     1.0000   1.0000   1.0000   1.0000   0.0000   0.0000   0.0000   0.0000
     0.0000   0.0000   0.0000   0.0000

          k = 0.2333 0.5196 0.0000 (  6451 PWs)   bands (ev):

   -18.3442 -16.1166 -13.6305  -5.8544  -2.6640   6.6782   6.6844   7.6438
     7.9483   8.1185   8.8280   9.1587

     occupation numbers 
     1.0000   1.0000   1.0000   1.0000   0.0000   0.0000   0.0000   0.0000
     0.0000   0.0000   0.0000   0.0000

          k = 0.2333 0.5581 0.0000 (  6468 PWs)   bands (ev):

   -17.8194 -16.6779 -13.7127  -5.4784  -3.0701   6.8225   7.5065   7.6861
     8.5217   8.8065   9.1290   9.5421

     occupation numbers 
     1.0000   1.0000   1.0000   1.0000   0.0000   0.0000   0.0000   0.0000
     0.0000   0.0000   0.0000   0.0000

          k = 0.2667 0.4619 0.0000 (  6452 PWs)   bands (ev):

   -18.9541 -15.2584 -13.6806  -6.3978  -2.0261   5.7738   6.1913   7.1326
     7.1466   8.1937   8.3969   8.6454

     occupation numbers 
     1.0000   1.0000   1.0000   1.0000   0.0000   0.0000   0.0000   0.0000
     0.0000   0.0000   0.0000   0.0000

          k = 0.2667 0.5004 0.0000 (  6436 PWs)   bands (ev):

   -18.3801 -15.7618 -14.0313  -5.8220  -2.6367   6.5288   6.6179   7.8665
     8.0338   8.5021   8.7610   9.0889

     occupation numbers 
     1.0000   1.0000   1.0000   1.0000   0.0000   0.0000   0.0000   0.0000
     0.0000   0.0000   0.0000   0.0000

          k = 0.2667 0.5389 0.0000 (  6444 PWs)   bands (ev):

   -17.8112 -16.3097 -14.2234  -5.3108  -3.1682   6.6004   7.4840   8.4236
     8.7233   8.9645   9.1080   9.5633

     occupation numbers 
     1.0000   1.0000   1.0000   1.0000   0.0000   0.0000   0.0000   0.0000
     0.0000   0.0000   0.0000   0.0000

          k = 0.2667 0.5774 0.0000 (  6432 PWs)   bands (ev):

   -17.4568 -16.6615 -14.2835  -5.0657  -3.4200   6.6009   8.2222   8.2691
     8.6547   9.5345   9.8581  10.0181

     occupation numbers 
     1.0000   1.0000   1.0000   1.0000   0.0000   0.0000   0.0000   0.0000
     0.0000   0.0000   0.0000   0.0000

          k = 0.3000 0.5196 0.0000 (  6422 PWs)   bands (ev):

   -17.8157 -16.1188 -14.4554  -5.2518  -3.2019   6.5205   7.4526   8.6909
     8.8660   8.9412   9.2071   9.5452

     occupation numbers 
     1.0000   1.0000   1.0000   1.0000   0.0000   0.0000   0.0000   0.0000
     0.0000   0.0000   0.0000   0.0000

          k = 0.3000 0.5581 0.0000 (  6447 PWs)   bands (ev):

   -17.2963 -16.5319 -14.6716  -4.7631  -3.6867   6.4633   8.2364   8.7621
     9.1775   9.6266   9.9777  10.4065

     occupation numbers 
     1.0000   1.0000   1.0000   1.0000   0.0000   0.0000   0.0000   0.0000
     0.0000   0.0000   0.0000   0.0000

          k = 0.3333 0.5774 0.0000 (  6450 PWs)   bands (ev):

   -16.8529 -16.8528 -14.8466  -4.2196  -4.2195   6.4070   8.7036   8.7037
     9.2815  10.5162  10.5163  10.8685

     occupation numbers 
     1.0000   1.0000   1.0000   0.5003   0.4997   0.0000   0.0000   0.0000
     0.0000   0.0000   0.0000   0.0000

     the Fermi energy is    -4.2196 ev
     (compare with:    -4.2189 eV, computed in scf)

     Writing all to output data dir /home/ubuntu/projects/Graphene-Band-Structure-Quantum-Espresso/outputs/field_0/top/data/top.save/ :
     XML data file, pseudopotentials, collected wavefunctions

     init_run     :      1.60s CPU      1.73s WALL (       1 calls)
     electrons    :     67.83s CPU     68.19s WALL (       1 calls)

     Called by init_run:
     wfcinit      :      0.00s CPU      0.00s WALL (       1 calls)
     wfcinit:atom :      0.01s CPU      0.02s WALL (      23 calls)
     wfcinit:wfcr :      0.95s CPU      0.95s WALL (      23 calls)
     potinit      :      0.50s CPU      0.55s WALL (       1 calls)
     hinit0       :      0.95s CPU      0.97s WALL (       1 calls)

     Called by electrons:
     c_bands      :     67.83s CPU     68.17s WALL (       1 calls)
     v_of_rho     :      0.10s CPU      0.14s WALL (       1 calls)
     v_h          :      0.00s CPU      0.01s WALL (       1 calls)
     v_xc         :      0.10s CPU      0.14s WALL (       1 calls)
     newd         :      0.06s CPU      0.08s WALL (       1 calls)
     PAW_pot      :      0.09s CPU      0.09s WALL (       1 calls)

     Called by c_bands:
     init_us_2    :      0.03s CPU      0.03s WALL (      23 calls)
     cegterg      :     47.15s CPU     47.45s WALL (      91 calls)

     Called by sum_band:

     Called by *egterg:
     cdiaghg      :      0.34s CPU      0.34s WALL (    1630 calls)
     cegterg:over :      5.00s CPU      5.02s WALL (    1607 calls)
     cegterg:upda :      3.20s CPU      3.21s WALL (    1607 calls)
     cegterg:last :     10.29s CPU     10.33s WALL (    1093 calls)
     h_psi        :     25.94s CPU     26.15s WALL (    1721 calls)
     s_psi        :      2.17s CPU      2.19s WALL (    1721 calls)
     g_psi        :      0.29s CPU      0.29s WALL (    1607 calls)

     Called by h_psi:
     h_psi:calbec :      2.25s CPU      2.26s WALL (    1721 calls)
     vloc_psi     :     21.36s CPU     21.54s WALL (    1721 calls)
     add_vuspsi   :      2.19s CPU      2.20s WALL (    1721 calls)

     General routines
     calbec       :      2.24s CPU      2.26s WALL (    1721 calls)
     fft          :      0.69s CPU      0.70s WALL (      13 calls)
     ffts         :      0.25s CPU      0.25s WALL (       1 calls)
     fftw         :     18.47s CPU     18.57s WALL (   22796 calls)
     interpolate  :      0.26s CPU      0.26s WALL (       1 calls)

     Parallel routines

     PAW routines
     PAW_pot      :      0.09s CPU      0.09s WALL (       1 calls)

     PWSCF        :   1m 9.73s CPU   1m10.39s WALL


   This run was terminated on:   1:59:59  17Sep2026            

=------------------------------------------------------------------------------=
   JOB DONE.
=------------------------------------------------------------------------------=
Note: The following floating-point exceptions are signalling: IEEE_UNDERFLOW_FLAG IEEE_DENORMAL
