
     Program PWSCF v.7.6 starts on 25Sep2026 at  2:42: 0 

     This program is part of the open-source Quantum ESPRESSO suite
     for quantum simulation of materials; please cite
         "P. Giannozzi et al., J. Phys.:Condens. Matter 21 395502 (2009);
         "P. Giannozzi et al., J. Phys.:Condens. Matter 29 465901 (2017);
         "P. Giannozzi et al., J. Chem. Phys. 152 154105 (2020);
          URL http://www.quantum-espresso.org", 
     in publications or presentations arising from this work. More details at
     http://www.quantum-espresso.org/quote

     Parallel version (MPI), running on     4 processors

     MPI processes distributed on     1 nodes
     597 MiB available memory on the printing compute node when the environment starts

     Waiting for input...
     Reading input from standard input
Warning: card &IONS ignored
Warning: card &CELL ignored
Warning: card &FCP ignored
Warning: card &RISM ignored

     Current dimensions of program PWSCF are:
     Max number of different atomic species (ntypx) = 10
     Max number of k-points (npk) =  40000
     Max angular momentum in pseudopotentials (lmaxx) =  4

     Atomic positions and unit cell read from directory:
     /home/ubuntu/projects/Graphene-Band-Structure-Quantum-Espresso/outputs/field_0/ts/coupled/data/coupled.save/

     Message from routine setup:
     using ibrav=0 with symmetry is DISCOURAGED, use correct ibrav instead

     K-points division:     npool     =       4
     Subspace diagonalization in iterative solution of the eigenvalue problem:
     a serial algorithm will be used


     G-vector sticks info
     --------------------
     sticks:   dense  smooth     PW     G-vecs:    dense   smooth      PW
     Sum         595     475    151               111671    79745   13381

     Using Slab Decomposition



     bravais-lattice index     =            0
     lattice parameter (alat)  =       4.6487  a.u.
     unit-cell volume          =     825.8174 (a.u.)^3
     number of atoms/cell      =            4
     number of atomic types    =            1
     number of electrons       =        16.00
     number of Kohn-Sham states=           24
     kinetic-energy cutoff     =      80.0000  Ry
     charge density cutoff     =     400.0000  Ry
     Exchange-correlation= PBE
                           (   1   4   3   4   0   0   0)

     celldm(1)=   4.648726  celldm(2)=   0.000000  celldm(3)=   0.000000
     celldm(4)=   0.000000  celldm(5)=   0.000000  celldm(6)=   0.000000

     crystal axes: (cart. coord. in units of alat)
               a(1) = (   1.000000   0.000000   0.000000 )  
               a(2) = (  -0.500000   0.866025   0.000000 )  
               a(3) = (   0.000000   0.000000   9.491870 )  

     reciprocal axes: (cart. coord. in units 2 pi/alat)
               b(1) = (  1.000000  0.577351 -0.000000 )  
               b(2) = (  0.000000  1.154701  0.000000 )  
               b(3) = (  0.000000 -0.000000  0.105353 )  


     PseudoPot. # 1 for C  read from file:
     /home/ubuntu/projects/Graphene-Band-Structure-Quantum-Espresso/pseudo/C.upf
     MD5 check sum: 34a24e64c0a39f27c6c36b90a16ac686
     Pseudo is Norm-conserving + core correction, Zval =  4.0
     Generated using ONCVPSP code by D. R. Hamann
     Using radial grid of 1248 points,  4 beta functions with: 
                l(1) =   0
                l(2) =   0
                l(3) =   1
                l(4) =   1

     atomic species   valence    mass     pseudopotential
     C                 4.00    12.01100     C ( 1.00)

     12 Sym. Ops., with inversion, found ( 6 have fractional translation)


                                    s                        frac. trans.

      isym =  1     identity                                     

 cryst.   s( 1) = (     1          0          0      )
                  (     0          1          0      )
                  (     0          0          1      )

 cart.    s( 1) = (  1.0000000  0.0000000  0.0000000 )
                  (  0.0000000  1.0000000  0.0000000 )
                  (  0.0000000  0.0000000  1.0000000 )


      isym =  2     180 deg rotation - cart. axis [1,0,0]        

 cryst.   s( 2) = (     1          0          0      )    f =( -0.3333335 )
                  (    -1         -1          0      )       (  0.3333330 )
                  (     0          0         -1      )       ( -0.0000001 )

 cart.    s( 2) = (  1.0000000  0.0000000  0.0000000 )    f =( -0.5000000 )
                  (  0.0000000 -1.0000000  0.0000000 )       (  0.2886747 )
                  (  0.0000000  0.0000000 -1.0000000 )       ( -0.0000005 )


      isym =  3     120 deg rotation - cryst. axis [0,0,1]       

 cryst.   s( 3) = (     0          1          0      )
                  (    -1         -1          0      )
                  (     0          0          1      )

 cart.    s( 3) = ( -0.5000000 -0.8660258  0.0000000 )
                  (  0.8660250 -0.5000000  0.0000000 )
                  (  0.0000000  0.0000000  1.0000000 )


      isym =  4     120 deg rotation - cryst. axis [0,0,-1]      

 cryst.   s( 4) = (    -1         -1          0      )
                  (     1          0          0      )
                  (     0          0          1      )

 cart.    s( 4) = ( -0.5000000  0.8660258  0.0000000 )
                  ( -0.8660250 -0.5000000  0.0000000 )
                  (  0.0000000  0.0000000  1.0000000 )


      isym =  5     180 deg rotation - cryst. axis [0,1,0]       

 cryst.   s( 5) = (    -1         -1          0      )    f =( -0.3333335 )
                  (     0          1          0      )       (  0.3333335 )
                  (     0          0         -1      )       ( -0.0000001 )

 cart.    s( 5) = ( -0.5000000 -0.8660258  0.0000000 )    f =( -0.5000003 )
                  ( -0.8660250  0.5000000  0.0000000 )       (  0.2886752 )
                  (  0.0000000  0.0000000 -1.0000000 )       ( -0.0000005 )


      isym =  6     180 deg rotation - cryst. axis [1,1,0]       

 cryst.   s( 6) = (     0          1          0      )    f =( -0.3333330 )
                  (     1          0          0      )       (  0.3333335 )
                  (     0          0         -1      )       ( -0.0000001 )

 cart.    s( 6) = ( -0.5000000  0.8660258  0.0000000 )    f =( -0.4999997 )
                  (  0.8660250  0.5000000  0.0000000 )       (  0.2886752 )
                  (  0.0000000  0.0000000 -1.0000000 )       ( -0.0000005 )


      isym =  7     inversion                                    

 cryst.   s( 7) = (    -1          0          0      )    f =( -0.3333335 )
                  (     0         -1          0      )       (  0.3333330 )
                  (     0          0         -1      )       ( -0.0000001 )

 cart.    s( 7) = ( -1.0000000  0.0000000  0.0000000 )    f =( -0.5000000 )
                  (  0.0000000 -1.0000000  0.0000000 )       (  0.2886747 )
                  (  0.0000000  0.0000000 -1.0000000 )       ( -0.0000005 )


      isym =  8     inv. 180 deg rotation - cart. axis [1,0,0]   

 cryst.   s( 8) = (    -1          0          0      )
                  (     1          1          0      )
                  (     0          0          1      )

 cart.    s( 8) = ( -1.0000000  0.0000000  0.0000000 )
                  (  0.0000000  1.0000000  0.0000000 )
                  (  0.0000000  0.0000000  1.0000000 )


      isym =  9     inv. 120 deg rotation - cryst. axis [0,0,1]  

 cryst.   s( 9) = (     0         -1          0      )    f =( -0.3333330 )
                  (     1          1          0      )       (  0.3333335 )
                  (     0          0         -1      )       ( -0.0000001 )

 cart.    s( 9) = (  0.5000000  0.8660258  0.0000000 )    f =( -0.4999997 )
                  ( -0.8660250  0.5000000  0.0000000 )       (  0.2886752 )
                  (  0.0000000  0.0000000 -1.0000000 )       ( -0.0000005 )


      isym = 10     inv. 120 deg rotation - cryst. axis [0,0,-1] 

 cryst.   s(10) = (     1          1          0      )    f =( -0.3333335 )
                  (    -1          0          0      )       (  0.3333335 )
                  (     0          0         -1      )       ( -0.0000001 )

 cart.    s(10) = (  0.5000000 -0.8660258  0.0000000 )    f =( -0.5000003 )
                  (  0.8660250  0.5000000  0.0000000 )       (  0.2886752 )
                  (  0.0000000  0.0000000 -1.0000000 )       ( -0.0000005 )


      isym = 11     inv. 180 deg rotation - cryst. axis [0,1,0]  

 cryst.   s(11) = (     1          1          0      )
                  (     0         -1          0      )
                  (     0          0          1      )

 cart.    s(11) = (  0.5000000  0.8660258  0.0000000 )
                  (  0.8660250 -0.5000000  0.0000000 )
                  (  0.0000000  0.0000000  1.0000000 )


      isym = 12     inv. 180 deg rotation - cryst. axis [1,1,0]  

 cryst.   s(12) = (     0         -1          0      )
                  (    -1          0          0      )
                  (     0          0          1      )

 cart.    s(12) = (  0.5000000 -0.8660258  0.0000000 )
                  ( -0.8660250 -0.5000000  0.0000000 )
                  (  0.0000000  0.0000000  1.0000000 )


   Cartesian axes

     site n.     atom                  positions (alat units)
         1        C      tau(   1) = (   0.0000000   0.0000000   4.0322439  )
         2        C      tau(   2) = (   0.5000000   0.2886752   4.0328737  )
         3        C      tau(   3) = (   0.5000000   0.2886752   5.4589968  )
         4        C      tau(   4) = (   0.0000000   0.5773503   5.4596266  )

   Crystallographic axes

     site n.     atom                  positions (cryst. coord.)
         1        C      tau(   1) = (  0.0000000  0.0000000  0.4248103  )
         2        C      tau(   2) = (  0.6666668  0.3333335  0.4248766  )
         3        C      tau(   3) = (  0.6666668  0.3333335  0.5751234  )
         4        C      tau(   4) = (  0.3333335  0.6666670  0.5751898  )

     number of k points=    91  Gaussian smearing, width (Ry)=  0.0100
                       cart. coord. in units 2pi/alat
        k(    1) = (   0.0000000   0.0000000   0.0000000), wk =   0.0022222
        k(    2) = (   0.0000000   0.0384900   0.0000000), wk =   0.0133333
        k(    3) = (   0.0000000   0.0769801   0.0000000), wk =   0.0133333
        k(    4) = (   0.0000000   0.1154701   0.0000000), wk =   0.0133333
        k(    5) = (   0.0000000   0.1539601   0.0000000), wk =   0.0133333
        k(    6) = (   0.0000000   0.1924502   0.0000000), wk =   0.0133333
        k(    7) = (   0.0000000   0.2309402   0.0000000), wk =   0.0133333
        k(    8) = (   0.0000000   0.2694303   0.0000000), wk =   0.0133333
        k(    9) = (   0.0000000   0.3079203   0.0000000), wk =   0.0133333
        k(   10) = (   0.0000000   0.3464103   0.0000000), wk =   0.0133333
        k(   11) = (   0.0000000   0.3849004   0.0000000), wk =   0.0133333
        k(   12) = (   0.0000000   0.4233904   0.0000000), wk =   0.0133333
        k(   13) = (   0.0000000   0.4618804   0.0000000), wk =   0.0133333
        k(   14) = (   0.0000000   0.5003705   0.0000000), wk =   0.0133333
        k(   15) = (   0.0000000   0.5388605   0.0000000), wk =   0.0133333
        k(   16) = (   0.0000000  -0.5773505   0.0000000), wk =   0.0066667
        k(   17) = (   0.0333333   0.0577351   0.0000000), wk =   0.0133333
        k(   18) = (   0.0333333   0.0962251   0.0000000), wk =   0.0266667
        k(   19) = (   0.0333333   0.1347151   0.0000000), wk =   0.0266667
        k(   20) = (   0.0333333   0.1732052   0.0000000), wk =   0.0266667
        k(   21) = (   0.0333333   0.2116952   0.0000000), wk =   0.0266667
        k(   22) = (   0.0333333   0.2501852   0.0000000), wk =   0.0266667
        k(   23) = (   0.0333333   0.2886753   0.0000000), wk =   0.0266667
        k(   24) = (   0.0333333   0.3271653   0.0000000), wk =   0.0266667
        k(   25) = (   0.0333333   0.3656553   0.0000000), wk =   0.0266667
        k(   26) = (   0.0333333   0.4041454   0.0000000), wk =   0.0266667
        k(   27) = (   0.0333333   0.4426354   0.0000000), wk =   0.0266667
        k(   28) = (   0.0333333   0.4811254   0.0000000), wk =   0.0266667
        k(   29) = (   0.0333333   0.5196155   0.0000000), wk =   0.0266667
        k(   30) = (   0.0333333   0.5581055   0.0000000), wk =   0.0266667
        k(   31) = (   0.0666667   0.1154701   0.0000000), wk =   0.0133333
        k(   32) = (   0.0666667   0.1539601   0.0000000), wk =   0.0266667
        k(   33) = (   0.0666667   0.1924502   0.0000000), wk =   0.0266667
        k(   34) = (   0.0666667   0.2309402   0.0000000), wk =   0.0266667
        k(   35) = (   0.0666667   0.2694303   0.0000000), wk =   0.0266667
        k(   36) = (   0.0666667   0.3079203   0.0000000), wk =   0.0266667
        k(   37) = (   0.0666667   0.3464103   0.0000000), wk =   0.0266667
        k(   38) = (   0.0666667   0.3849004   0.0000000), wk =   0.0266667
        k(   39) = (   0.0666667   0.4233904   0.0000000), wk =   0.0266667
        k(   40) = (   0.0666667   0.4618804   0.0000000), wk =   0.0266667
        k(   41) = (   0.0666667   0.5003705   0.0000000), wk =   0.0266667
        k(   42) = (   0.0666667   0.5388605   0.0000000), wk =   0.0266667
        k(   43) = (   0.0666667   0.5773505   0.0000000), wk =   0.0133333
        k(   44) = (   0.1000000   0.1732052   0.0000000), wk =   0.0133333
        k(   45) = (   0.1000000   0.2116952   0.0000000), wk =   0.0266667
        k(   46) = (   0.1000000   0.2501852   0.0000000), wk =   0.0266667
        k(   47) = (   0.1000000   0.2886753   0.0000000), wk =   0.0266667
        k(   48) = (   0.1000000   0.3271653   0.0000000), wk =   0.0266667
        k(   49) = (   0.1000000   0.3656553   0.0000000), wk =   0.0266667
        k(   50) = (   0.1000000   0.4041454   0.0000000), wk =   0.0266667
        k(   51) = (   0.1000000   0.4426354   0.0000000), wk =   0.0266667
        k(   52) = (   0.1000000   0.4811254   0.0000000), wk =   0.0266667
        k(   53) = (   0.1000000   0.5196155   0.0000000), wk =   0.0266667
        k(   54) = (   0.1000000   0.5581055   0.0000000), wk =   0.0266667
        k(   55) = (   0.1333333   0.2309402   0.0000000), wk =   0.0133333
        k(   56) = (   0.1333333   0.2694303   0.0000000), wk =   0.0266667
        k(   57) = (   0.1333333   0.3079203   0.0000000), wk =   0.0266667
        k(   58) = (   0.1333333   0.3464103   0.0000000), wk =   0.0266667
        k(   59) = (   0.1333333   0.3849004   0.0000000), wk =   0.0266667
        k(   60) = (   0.1333333   0.4233904   0.0000000), wk =   0.0266667
        k(   61) = (   0.1333333   0.4618804   0.0000000), wk =   0.0266667
        k(   62) = (   0.1333333   0.5003705   0.0000000), wk =   0.0266667
        k(   63) = (   0.1333333   0.5388605   0.0000000), wk =   0.0266667
        k(   64) = (   0.1333333   0.5773505   0.0000000), wk =   0.0133333
        k(   65) = (   0.1666667   0.2886753   0.0000000), wk =   0.0133333
        k(   66) = (   0.1666667   0.3271653   0.0000000), wk =   0.0266667
        k(   67) = (   0.1666667   0.3656553   0.0000000), wk =   0.0266667
        k(   68) = (   0.1666667   0.4041454   0.0000000), wk =   0.0266667
        k(   69) = (   0.1666667   0.4426354   0.0000000), wk =   0.0266667
        k(   70) = (   0.1666667   0.4811254   0.0000000), wk =   0.0266667
        k(   71) = (   0.1666667   0.5196155   0.0000000), wk =   0.0266667
        k(   72) = (   0.1666667   0.5581055   0.0000000), wk =   0.0266667
        k(   73) = (   0.2000000   0.3464103   0.0000000), wk =   0.0133333
        k(   74) = (   0.2000000   0.3849004   0.0000000), wk =   0.0266667
        k(   75) = (   0.2000000   0.4233904   0.0000000), wk =   0.0266667
        k(   76) = (   0.2000000   0.4618804   0.0000000), wk =   0.0266667
        k(   77) = (   0.2000000   0.5003705   0.0000000), wk =   0.0266667
        k(   78) = (   0.2000000   0.5388605   0.0000000), wk =   0.0266667
        k(   79) = (   0.2000000   0.5773505   0.0000000), wk =   0.0133333
        k(   80) = (   0.2333333   0.4041454   0.0000000), wk =   0.0133333
        k(   81) = (   0.2333333   0.4426354   0.0000000), wk =   0.0266667
        k(   82) = (   0.2333333   0.4811254   0.0000000), wk =   0.0266667
        k(   83) = (   0.2333333   0.5196155   0.0000000), wk =   0.0266667
        k(   84) = (   0.2333333   0.5581055   0.0000000), wk =   0.0266667
        k(   85) = (   0.2666667   0.4618804   0.0000000), wk =   0.0133333
        k(   86) = (   0.2666667   0.5003705   0.0000000), wk =   0.0266667
        k(   87) = (   0.2666667   0.5388605   0.0000000), wk =   0.0266667
        k(   88) = (   0.2666667   0.5773505   0.0000000), wk =   0.0133333
        k(   89) = (   0.3000000   0.5196155   0.0000000), wk =   0.0133333
        k(   90) = (   0.3000000   0.5581055   0.0000000), wk =   0.0266667
        k(   91) = (   0.3333333   0.5773505   0.0000000), wk =   0.0044444

                       cryst. coord.
        k(    1) = (   0.0000000   0.0000000   0.0000000), wk =   0.0022222
        k(    2) = (   0.0000000   0.0333333   0.0000000), wk =   0.0133333
        k(    3) = (   0.0000000   0.0666667   0.0000000), wk =   0.0133333
        k(    4) = (   0.0000000   0.1000000   0.0000000), wk =   0.0133333
        k(    5) = (   0.0000000   0.1333333   0.0000000), wk =   0.0133333
        k(    6) = (   0.0000000   0.1666667   0.0000000), wk =   0.0133333
        k(    7) = (   0.0000000   0.2000000   0.0000000), wk =   0.0133333
        k(    8) = (   0.0000000   0.2333333   0.0000000), wk =   0.0133333
        k(    9) = (   0.0000000   0.2666667   0.0000000), wk =   0.0133333
        k(   10) = (   0.0000000   0.3000000   0.0000000), wk =   0.0133333
        k(   11) = (   0.0000000   0.3333333   0.0000000), wk =   0.0133333
        k(   12) = (   0.0000000   0.3666667   0.0000000), wk =   0.0133333
        k(   13) = (   0.0000000   0.4000000   0.0000000), wk =   0.0133333
        k(   14) = (   0.0000000   0.4333333   0.0000000), wk =   0.0133333
        k(   15) = (   0.0000000   0.4666667   0.0000000), wk =   0.0133333
        k(   16) = (   0.0000000  -0.5000000   0.0000000), wk =   0.0066667
        k(   17) = (   0.0333333   0.0333333   0.0000000), wk =   0.0133333
        k(   18) = (   0.0333333   0.0666667   0.0000000), wk =   0.0266667
        k(   19) = (   0.0333333   0.1000000   0.0000000), wk =   0.0266667
        k(   20) = (   0.0333333   0.1333333   0.0000000), wk =   0.0266667
        k(   21) = (   0.0333333   0.1666667   0.0000000), wk =   0.0266667
        k(   22) = (   0.0333333   0.2000000   0.0000000), wk =   0.0266667
        k(   23) = (   0.0333333   0.2333333   0.0000000), wk =   0.0266667
        k(   24) = (   0.0333333   0.2666667   0.0000000), wk =   0.0266667
        k(   25) = (   0.0333333   0.3000000   0.0000000), wk =   0.0266667
        k(   26) = (   0.0333333   0.3333333   0.0000000), wk =   0.0266667
        k(   27) = (   0.0333333   0.3666667   0.0000000), wk =   0.0266667
        k(   28) = (   0.0333333   0.4000000   0.0000000), wk =   0.0266667
        k(   29) = (   0.0333333   0.4333333   0.0000000), wk =   0.0266667
        k(   30) = (   0.0333333   0.4666667   0.0000000), wk =   0.0266667
        k(   31) = (   0.0666667   0.0666667   0.0000000), wk =   0.0133333
        k(   32) = (   0.0666667   0.1000000   0.0000000), wk =   0.0266667
        k(   33) = (   0.0666667   0.1333333   0.0000000), wk =   0.0266667
        k(   34) = (   0.0666667   0.1666667   0.0000000), wk =   0.0266667
        k(   35) = (   0.0666667   0.2000000   0.0000000), wk =   0.0266667
        k(   36) = (   0.0666667   0.2333333   0.0000000), wk =   0.0266667
        k(   37) = (   0.0666667   0.2666667   0.0000000), wk =   0.0266667
        k(   38) = (   0.0666667   0.3000000   0.0000000), wk =   0.0266667
        k(   39) = (   0.0666667   0.3333333   0.0000000), wk =   0.0266667
        k(   40) = (   0.0666667   0.3666667   0.0000000), wk =   0.0266667
        k(   41) = (   0.0666667   0.4000000   0.0000000), wk =   0.0266667
        k(   42) = (   0.0666667   0.4333333   0.0000000), wk =   0.0266667
        k(   43) = (   0.0666667   0.4666667   0.0000000), wk =   0.0133333
        k(   44) = (   0.1000000   0.1000000   0.0000000), wk =   0.0133333
        k(   45) = (   0.1000000   0.1333333   0.0000000), wk =   0.0266667
        k(   46) = (   0.1000000   0.1666667   0.0000000), wk =   0.0266667
        k(   47) = (   0.1000000   0.2000000   0.0000000), wk =   0.0266667
        k(   48) = (   0.1000000   0.2333333   0.0000000), wk =   0.0266667
        k(   49) = (   0.1000000   0.2666667   0.0000000), wk =   0.0266667
        k(   50) = (   0.1000000   0.3000000   0.0000000), wk =   0.0266667
        k(   51) = (   0.1000000   0.3333333   0.0000000), wk =   0.0266667
        k(   52) = (   0.1000000   0.3666667   0.0000000), wk =   0.0266667
        k(   53) = (   0.1000000   0.4000000   0.0000000), wk =   0.0266667
        k(   54) = (   0.1000000   0.4333333   0.0000000), wk =   0.0266667
        k(   55) = (   0.1333333   0.1333333   0.0000000), wk =   0.0133333
        k(   56) = (   0.1333333   0.1666667   0.0000000), wk =   0.0266667
        k(   57) = (   0.1333333   0.2000000   0.0000000), wk =   0.0266667
        k(   58) = (   0.1333333   0.2333333   0.0000000), wk =   0.0266667
        k(   59) = (   0.1333333   0.2666667   0.0000000), wk =   0.0266667
        k(   60) = (   0.1333333   0.3000000   0.0000000), wk =   0.0266667
        k(   61) = (   0.1333333   0.3333333   0.0000000), wk =   0.0266667
        k(   62) = (   0.1333333   0.3666667   0.0000000), wk =   0.0266667
        k(   63) = (   0.1333333   0.4000000   0.0000000), wk =   0.0266667
        k(   64) = (   0.1333333   0.4333333   0.0000000), wk =   0.0133333
        k(   65) = (   0.1666667   0.1666667   0.0000000), wk =   0.0133333
        k(   66) = (   0.1666667   0.2000000   0.0000000), wk =   0.0266667
        k(   67) = (   0.1666667   0.2333333   0.0000000), wk =   0.0266667
        k(   68) = (   0.1666667   0.2666667   0.0000000), wk =   0.0266667
        k(   69) = (   0.1666667   0.3000000   0.0000000), wk =   0.0266667
        k(   70) = (   0.1666667   0.3333333   0.0000000), wk =   0.0266667
        k(   71) = (   0.1666667   0.3666667   0.0000000), wk =   0.0266667
        k(   72) = (   0.1666667   0.4000000   0.0000000), wk =   0.0266667
        k(   73) = (   0.2000000   0.2000000   0.0000000), wk =   0.0133333
        k(   74) = (   0.2000000   0.2333333   0.0000000), wk =   0.0266667
        k(   75) = (   0.2000000   0.2666667   0.0000000), wk =   0.0266667
        k(   76) = (   0.2000000   0.3000000   0.0000000), wk =   0.0266667
        k(   77) = (   0.2000000   0.3333333   0.0000000), wk =   0.0266667
        k(   78) = (   0.2000000   0.3666667   0.0000000), wk =   0.0266667
        k(   79) = (   0.2000000   0.4000000   0.0000000), wk =   0.0133333
        k(   80) = (   0.2333333   0.2333333   0.0000000), wk =   0.0133333
        k(   81) = (   0.2333333   0.2666667   0.0000000), wk =   0.0266667
        k(   82) = (   0.2333333   0.3000000   0.0000000), wk =   0.0266667
        k(   83) = (   0.2333333   0.3333333   0.0000000), wk =   0.0266667
        k(   84) = (   0.2333333   0.3666667   0.0000000), wk =   0.0266667
        k(   85) = (   0.2666667   0.2666667   0.0000000), wk =   0.0133333
        k(   86) = (   0.2666667   0.3000000   0.0000000), wk =   0.0266667
        k(   87) = (   0.2666667   0.3333333   0.0000000), wk =   0.0266667
        k(   88) = (   0.2666667   0.3666667   0.0000000), wk =   0.0133333
        k(   89) = (   0.3000000   0.3000000   0.0000000), wk =   0.0133333
        k(   90) = (   0.3000000   0.3333333   0.0000000), wk =   0.0266667
        k(   91) = (   0.3333333   0.3333333   0.0000000), wk =   0.0044444

     Dense  grid:   111671 G-vectors     FFT dimensions: (  30,  30, 288)

     Smooth grid:    79745 G-vectors     FFT dimensions: (  27,  27, 256)

     Dynamical RAM for                 wfc:       3.65 MB

     Dynamical RAM for     wfc (w. buffer):      87.71 MB

     Dynamical RAM for           str. fact:       1.70 MB

     Dynamical RAM for           local pot:       0.00 MB

     Dynamical RAM for          nlocal pot:       4.87 MB

     Dynamical RAM for                qrad:       0.46 MB

     Dynamical RAM for          rho,v,vnew:      11.04 MB

     Dynamical RAM for           G-vectors:       7.00 MB

     Dynamical RAM for          h,s,v(r/c):       0.11 MB

     Dynamical RAM for          <psi|beta>:       0.01 MB

     Dynamical RAM for                 psi:       7.31 MB

     Dynamical RAM for                hpsi:       7.31 MB

     Dynamical RAM for      wfcinit/wfcrot:       7.32 MB

     Estimated static dynamical RAM per process >     126.08 MB

     Estimated max dynamical RAM per process >     140.81 MB

     Estimated total dynamical RAM >     563.26 MB

   TS-vdW initialization
   ---------------------

   Determining TS-vdW damping function parameters...
     ddamp = 20.000000
     sR =  0.940000
   Initializing species #   1 with atomic symbol C  
     Equispaced/Uniform radial atomic grid detected...
     Radial grid parameter: NrgpA is  1248.
     Radial grid parameter: gfctrA is  1.000000.
     Radial grid parameter: dxA is  0.010000.
     The number of valence electrons, eref, is         3.999997992905759.
     The reference free atom volume, vref, is        38.949206933621483 bohr^3.
     Determining intial radial grid cutoff...
     An acceptable radial grid cutoff was determined by retaining  801 of 1248 radial grid points.
     The magnitude of the atomic pseudo-density at the radial grid cutoff is  8.758705E-07.
     Using this radial grid cutoff value of         8.000000000000000 au:
     The free atom volume computed with this cutoff is        38.564933645733234 bohr^3 with an error of  0.987%.
     Linear grid spacing was computed as:         0.001800000000000 bohr.
     The free atom static dipole polarizability is     12.000000 bohr^3.
     The free atom homonuclear C6 coefficient is     46.600000 Hartree bohr^6.
     The free atom vdW radius is      3.590000 bohr.

     The potential is recalculated from file :
     /home/ubuntu/projects/Graphene-Band-Structure-Quantum-Espresso/outputs/field_0/ts/coupled/data/coupled.save/charge-density

     Starting wfcs are   16 randomized atomic wfcs +    8 random wfcs

     Band Structure Calculation
     Davidson diagonalization with overlap

     Computing kpt #:     1  of    23 on this pool
     total cpu time spent up to now is       11.6 secs

     Computing kpt #:     2  of    23 on this pool
     total cpu time spent up to now is       20.7 secs

     Computing kpt #:     3  of    23 on this pool
     total cpu time spent up to now is       29.9 secs

     Computing kpt #:     4  of    23 on this pool
     total cpu time spent up to now is       40.3 secs

     Computing kpt #:     5  of    23 on this pool
     total cpu time spent up to now is       50.0 secs

     Computing kpt #:     6  of    23 on this pool
     total cpu time spent up to now is       58.9 secs

     Computing kpt #:     7  of    23 on this pool
     total cpu time spent up to now is       67.5 secs

     Computing kpt #:     8  of    23 on this pool
     total cpu time spent up to now is       78.0 secs

     Computing kpt #:     9  of    23 on this pool
     total cpu time spent up to now is       88.8 secs

     Computing kpt #:    10  of    23 on this pool
     total cpu time spent up to now is       98.9 secs

     Computing kpt #:    11  of    23 on this pool
     c_bands:  1 eigenvalues not converged
     total cpu time spent up to now is      106.9 secs

     Computing kpt #:    12  of    23 on this pool
     total cpu time spent up to now is      116.9 secs

     Computing kpt #:    13  of    23 on this pool
     total cpu time spent up to now is      126.5 secs

     Computing kpt #:    14  of    23 on this pool
     total cpu time spent up to now is      135.0 secs

     Computing kpt #:    15  of    23 on this pool
     total cpu time spent up to now is      145.4 secs

     Computing kpt #:    16  of    23 on this pool
     total cpu time spent up to now is      153.8 secs

     Computing kpt #:    17  of    23 on this pool
     total cpu time spent up to now is      163.6 secs

     Computing kpt #:    18  of    23 on this pool
     total cpu time spent up to now is      175.8 secs

     Computing kpt #:    19  of    23 on this pool
     total cpu time spent up to now is      185.0 secs

     Computing kpt #:    20  of    23 on this pool
     total cpu time spent up to now is      199.4 secs

     Computing kpt #:    21  of    23 on this pool
     total cpu time spent up to now is      213.8 secs

     Computing kpt #:    22  of    23 on this pool
     total cpu time spent up to now is      226.9 secs

     Computing kpt #:    23  of    23 on this pool
     total cpu time spent up to now is      235.8 secs

     ethr =  6.25E-11,  avg # of iterations = 59.3

     total cpu time spent up to now is      237.2 secs

     End of band structure calculation

          k = 0.0000 0.0000 0.0000 ( 10049 PWs)   bands (ev):

   -20.6598 -20.5549  -9.0721  -8.3004  -4.0635  -4.0635  -4.0579  -4.0578
     2.1890   2.5302   3.4194   4.1516   4.4225   5.8081   6.0840   7.4223
     7.4227   7.4398   7.4401   7.8945   8.8392  10.4450  10.5188  10.9865

     occupation numbers 
     1.0000   1.0000   1.0000   1.0000   1.0000   1.0000   1.0000   1.0000
     0.0000   0.0000   0.0000   0.0000   0.0000   0.0000   0.0000   0.0000
     0.0000   0.0000   0.0000   0.0000   0.0000   0.0000   0.0000   0.0000

          k = 0.0000 0.0385 0.0000 ( 10077 PWs)   bands (ev):

   -20.6334 -20.5286  -9.0401  -8.2692  -4.1733  -4.1667  -4.1220  -4.1156
     2.2246   2.5663   3.4559   4.1880   4.4574   5.8422   6.1196   7.4374
     7.4577   7.5384   7.5558   7.9291   8.8756  10.3514  10.4275  11.0210

     occupation numbers 
     1.0000   1.0000   1.0000   1.0000   1.0000   1.0000   1.0000   1.0000
     0.0000   0.0000   0.0000   0.0000   0.0000   0.0000   0.0000   0.0000
     0.0000   0.0000   0.0000   0.0000   0.0000   0.0000   0.0000   0.0000

          k = 0.0000 0.0770 0.0000 ( 10077 PWs)   bands (ev):

   -20.5541 -20.4499  -8.9442  -8.1758  -4.4913  -4.4823  -4.2892  -4.2813
     2.3314   2.6742   3.5655   4.2972   4.5620   5.9443   6.2264   7.4703
     7.4989   7.8773   7.8946   8.0328   8.9847  10.0762  10.1593  11.1245

     occupation numbers 
     1.0000   1.0000   1.0000   1.0000   1.0000   1.0000   1.0000   1.0000
     0.0000   0.0000   0.0000   0.0000   0.0000   0.0000   0.0000   0.0000
     0.0000   0.0000   0.0000   0.0000   0.0000   0.0000   0.0000   0.0000

          k = 0.0000 0.1155 0.0000 ( 10079 PWs)   bands (ev):

   -20.4221 -20.3188  -8.7846  -8.0205  -4.9885  -4.9761  -4.5443  -4.5345
     2.5094   2.8542   3.7483   4.4792   4.7363   6.1142   6.4042   7.4934
     7.5351   8.2048   8.4171   8.4341   9.1652   9.6344   9.7301  11.2966

     occupation numbers 
     1.0000   1.0000   1.0000   1.0000   1.0000   1.0000   1.0000   1.0000
     0.0000   0.0000   0.0000   0.0000   0.0000   0.0000   0.0000   0.0000
     0.0000   0.0000   0.0000   0.0000   0.0000   0.0000   0.0000   0.0000

          k = 0.0000 0.1540 0.0000 ( 10059 PWs)   bands (ev):

   -20.2377 -20.1357  -8.5621  -7.8040  -5.6275  -5.6111  -4.8603  -4.8489
     2.7585   3.1059   4.0041   4.7338   4.9799   6.3509   6.6518   7.4830
     7.5398   8.4424   9.0454   9.1285   9.1452   9.1646   9.4179  11.5367

     occupation numbers 
     1.0000   1.0000   1.0000   1.0000   1.0000   1.0000   1.0000   1.0000
     0.0000   0.0000   0.0000   0.0000   0.0000   0.0000   0.0000   0.0000
     0.0000   0.0000   0.0000   0.0000   0.0000   0.0000   0.0000   0.0000

          k = 0.0000 0.1925 0.0000 ( 10013 PWs)   bands (ev):

   -20.0012 -19.9007  -8.2776  -7.5277  -6.3709  -6.3501  -5.2109  -5.1982
     3.0787   3.4291   4.3329   5.0610   5.2922   6.6509   6.9633   7.4341
     7.5026   8.3340   8.4622   8.7774   9.7383   9.9810   9.9973  11.8437

     occupation numbers 
     1.0000   1.0000   1.0000   1.0000   1.0000   1.0000   1.0000   1.0000
     0.0000   0.0000   0.0000   0.0000   0.0000   0.0000   0.0000   0.0000
     0.0000   0.0000   0.0000   0.0000   0.0000   0.0000   0.0000   0.0000

          k = 0.0000 0.2309 0.0000 ( 10009 PWs)   bands (ev):

   -19.7129 -19.6143  -7.9325  -7.1947  -7.1856  -7.1595  -5.5736  -5.5597
     3.4696   3.8230   4.7346   5.4600   5.6706   6.9912   7.2413   7.3830
     7.4550   7.5736   7.7283   9.1412  10.1288  10.9458  10.9615  12.2163

     occupation numbers 
     1.0000   1.0000   1.0000   1.0000   1.0000   1.0000   1.0000   1.0000
     0.0000   0.0000   0.0000   0.0000   0.0000   0.0000   0.0000   0.0000
     0.0000   0.0000   0.0000   0.0000   0.0000   0.0000   0.0000   0.0000

          k = 0.0000 0.2694 0.0000 ( 10009 PWs)   bands (ev):

   -19.3735 -19.2772  -8.0464  -8.0162  -7.5288  -6.8023  -5.9304  -5.9156
     3.9307   4.2859   5.2088   5.9266   6.1015   6.6297   6.8227   7.1854
     7.2671   7.5801   7.8684   9.5833  10.5886  11.9962  12.0114  12.6522

     occupation numbers 
     1.0000   1.0000   1.0000   1.0000   1.0000   1.0000   1.0000   1.0000
     0.0000   0.0000   0.0000   0.0000   0.0000   0.0000   0.0000   0.0000
     0.0000   0.0000   0.0000   0.0000   0.0000   0.0000   0.0000   0.0000

          k = 0.0000 0.3079 0.0000 (  9969 PWs)   bands (ev):

   -18.9838 -18.8901  -8.9306  -8.8955  -7.0693  -6.3593  -6.2675  -6.2520
     4.4612   4.8050   5.6976   5.7519   5.9241   6.4845   6.6408   7.0583
     7.1979   8.0370   8.3951  10.0913  11.1171  13.1061  13.1208  13.1477

     occupation numbers 
     1.0000   1.0000   1.0000   1.0000   1.0000   1.0000   1.0000   1.0000
     0.0000   0.0000   0.0000   0.0000   0.0000   0.0000   0.0000   0.0000
     0.0000   0.0000   0.0000   0.0000   0.0000   0.0000   0.0000   0.0000

          k = 0.0000 0.3464 0.0000 (  9972 PWs)   bands (ev):

   -18.5447 -18.4539  -9.8222  -9.7822  -6.5748  -6.5587  -6.5583  -5.8692
     4.6882   5.0005   5.0723   5.4856   6.3726   6.8821   6.9625   7.1267
     7.3452   8.6009   8.9984  10.6625  11.7128  13.6951  14.2478  14.2619

     occupation numbers 
     1.0000   1.0000   1.0000   1.0000   1.0000   1.0000   1.0000   1.0000
     0.0000   0.0000   0.0000   0.0000   0.0000   0.0000   0.0000   0.0000
     0.0000   0.0000   0.0000   0.0000   0.0000   0.0000   0.0000   0.0000

          k = 0.0000 0.3849 0.0000 (  9978 PWs)   bands (ev):

   -18.0578 -17.9702 -10.7080 -10.6633  -6.8447  -6.8282  -6.0024  -5.3404
     3.7566   4.1064   5.7274   6.1301   6.7754   6.8743   7.0954   7.7976
     7.9403   9.2344   9.6725  11.2931  12.3728  14.2548  14.4586  15.3455

     occupation numbers 
     1.0000   1.0000   1.0000   1.0000   1.0000   1.0000   1.0000   1.0000
     0.0000   0.0000   0.0000   0.0000   0.0000   0.0000   0.0000   0.0000
     0.0000   0.0000   0.0000   0.0000   0.0000   0.0000   0.0000   0.0000

          k = 0.0000 0.4234 0.0000 (  9942 PWs)   bands (ev):

   -17.5251 -17.4411 -11.5770 -11.5277  -7.0717  -7.0548  -5.4126  -4.7875
     2.8350   3.2154   6.4262   6.6444   6.8155   6.9123   7.8421   8.5561
     8.6429   9.9299  10.4148  11.9765  13.0870  13.9218  14.6474  14.9820

     occupation numbers 
     1.0000   1.0000   1.0000   1.0000   1.0000   1.0000   1.0000   1.0000
     0.0000   0.0000   0.0000   0.0000   0.0000   0.0000   0.0000   0.0000
     0.0000   0.0000   0.0000   0.0000   0.0000   0.0000   0.0000   0.0000

          k = 0.0000 0.4619 0.0000 (  9950 PWs)   bands (ev):

   -16.9505 -16.8706 -12.4187 -12.3653  -7.2519  -7.2348  -4.8084  -4.2368
     1.9771   2.3731   6.5517   6.6775   7.3108   7.7028   8.6748   9.3867
     9.4095  10.6817  11.2211  12.6885  13.0946  13.7397  13.8925  14.5449

     occupation numbers 
     1.0000   1.0000   1.0000   1.0000   1.0000   1.0000   1.0000   1.0000
     0.0000   0.0000   0.0000   0.0000   0.0000   0.0000   0.0000   0.0000
     0.0000   0.0000   0.0000   0.0000   0.0000   0.0000   0.0000   0.0000

          k = 0.0000 0.5004 0.0000 (  9918 PWs)   bands (ev):

   -16.3429 -16.2681 -13.2191 -13.1627  -7.3824  -7.3651  -4.2280  -3.7392
     1.2436   1.6275   6.4894   6.6266   8.1636   8.5799   9.5768  10.2273
    10.2867  11.4749  12.0508  12.1440  12.6725  13.3825  13.7200  14.1298

     occupation numbers 
     1.0000   1.0000   1.0000   1.0000   1.0000   1.0000   1.0000   1.0000
     0.0000   0.0000   0.0000   0.0000   0.0000   0.0000   0.0000   0.0000
     0.0000   0.0000   0.0000   0.0000   0.0000   0.0000   0.0000   0.0000

          k = 0.0000 0.5389 0.0000 (  9930 PWs)   bands (ev):

   -15.7345 -15.6691 -13.9392 -13.8850  -7.4614  -7.4440  -3.7516  -3.3863
     0.7317   1.0645   6.4491   6.5906   9.0864   9.5194  10.5392  11.0598
    11.0840  11.2547  11.5921  12.3163  12.6042  12.9264  13.1755  13.4066

     occupation numbers 
     1.0000   1.0000   1.0000   1.0000   1.0000   1.0000   1.0000   1.0000
     0.0000   0.0000   0.0000   0.0000   0.0000   0.0000   0.0000   0.0000
     0.0000   0.0000   0.0000   0.0000   0.0000   0.0000   0.0000   0.0000

          k = 0.0000-0.5774 0.0000 (  9910 PWs)   bands (ev):

   -15.3528 -15.3144 -14.3342 -14.3050  -7.4878  -7.4704  -3.5435  -3.2686
     0.5497   0.8383   6.4354   6.5782  10.0221  10.1005  10.4954  10.5337
    11.5229  11.5766  11.9088  12.0804  12.3186  12.3309  13.1748  13.4273

     occupation numbers 
     1.0000   1.0000   1.0000   1.0000   1.0000   1.0000   1.0000   1.0000
     0.0000   0.0000   0.0000   0.0000   0.0000   0.0000   0.0000   0.0000
     0.0000   0.0000   0.0000   0.0000   0.0000   0.0000   0.0000   0.0000

          k = 0.0333 0.0577 0.0000 ( 10081 PWs)   bands (ev):

   -20.5805 -20.4761  -8.9761  -8.2069  -4.3824  -4.3758  -4.2381  -4.2321
     2.2958   2.6383   3.5290   4.2608   4.5271   5.9103   6.1908   7.4725
     7.4979   7.7542   7.7715   7.9982   8.9485  10.1672  10.2478  11.0900

     occupation numbers 
     1.0000   1.0000   1.0000   1.0000   1.0000   1.0000   1.0000   1.0000
     0.0000   0.0000   0.0000   0.0000   0.0000   0.0000   0.0000   0.0000
     0.0000   0.0000   0.0000   0.0000   0.0000   0.0000   0.0000   0.0000

          k = 0.0333 0.0962 0.0000 ( 10077 PWs)   bands (ev):

   -20.4749 -20.3712  -8.8484  -8.0825  -4.7800  -4.7710  -4.4589  -4.4515
     2.4382   2.7822   3.6752   4.4064   4.6666   6.0464   6.3332   7.5268
     7.5621   8.1362   8.1630   8.1805   9.0934   9.8095   9.8992  11.2277

     occupation numbers 
     1.0000   1.0000   1.0000   1.0000   1.0000   1.0000   1.0000   1.0000
     0.0000   0.0000   0.0000   0.0000   0.0000   0.0000   0.0000   0.0000
     0.0000   0.0000   0.0000   0.0000   0.0000   0.0000   0.0000   0.0000

          k = 0.0333 0.1347 0.0000 ( 10065 PWs)   bands (ev):

   -20.3167 -20.2141  -8.6573  -7.8966  -5.3371  -5.3240  -4.7561  -4.7464
     2.6518   2.9981   3.8945   4.6247   4.8757   6.2500   6.5463   7.5597
     7.6088   8.3418   8.7488   8.7671   9.2900   9.3161   9.4021  11.4336

     occupation numbers 
     1.0000   1.0000   1.0000   1.0000   1.0000   1.0000   1.0000   1.0000
     0.0000   0.0000   0.0000   0.0000   0.0000   0.0000   0.0000   0.0000
     0.0000   0.0000   0.0000   0.0000   0.0000   0.0000   0.0000   0.0000

          k = 0.0333 0.1732 0.0000 ( 10049 PWs)   bands (ev):

   -20.1062 -20.0050  -8.4038  -7.6502  -6.0182  -6.0006  -5.1002  -5.0885
     2.9365   3.2855   4.1868   4.9157   5.1539   6.5196   6.8282   7.5481
     7.6119   8.5936   8.6573   8.7954   9.4859   9.5071   9.5978  11.7068

     occupation numbers 
     1.0000   1.0000   1.0000   1.0000   1.0000   1.0000   1.0000   1.0000
     0.0000   0.0000   0.0000   0.0000   0.0000   0.0000   0.0000   0.0000
     0.0000   0.0000   0.0000   0.0000   0.0000   0.0000   0.0000   0.0000

          k = 0.0333 0.2117 0.0000 ( 10021 PWs)   bands (ev):

   -19.8438 -19.7444  -8.0890  -7.3446  -6.7892  -6.7668  -5.4657  -5.4523
     3.2921   3.6443   4.5521   5.2789   5.5000   6.8481   7.1649   7.4981
     7.5644   7.9041   8.0544   8.9687   9.9505  10.3507  10.3718  12.0461

     occupation numbers 
     1.0000   1.0000   1.0000   1.0000   1.0000   1.0000   1.0000   1.0000
     0.0000   0.0000   0.0000   0.0000   0.0000   0.0000   0.0000   0.0000
     0.0000   0.0000   0.0000   0.0000   0.0000   0.0000   0.0000   0.0000

          k = 0.0333 0.2502 0.0000 ( 10003 PWs)   bands (ev):

   -19.5300 -19.4327  -7.7145  -7.6205  -7.5934  -6.9816  -5.8321  -5.8175
     3.7182   4.0731   4.9902   5.7132   5.9093   7.0242   7.1119   7.3308
     7.3580   7.5456   7.6767   9.3763  10.3758  11.3044  11.3320  12.4495

     occupation numbers 
     1.0000   1.0000   1.0000   1.0000   1.0000   1.0000   1.0000   1.0000
     0.0000   0.0000   0.0000   0.0000   0.0000   0.0000   0.0000   0.0000
     0.0000   0.0000   0.0000   0.0000   0.0000   0.0000   0.0000   0.0000

          k = 0.0333 0.2887 0.0000 (  9984 PWs)   bands (ev):

   -19.1654 -19.0705  -8.4882  -8.4559  -7.2826  -6.5646  -6.1840  -6.1685
     4.2143   4.5680   5.5003   6.0966   6.2289   6.2907   6.4927   7.2327
     7.3425   7.8121   8.1482   9.8510  10.8697  12.3115  12.3565  12.9143

     occupation numbers 
     1.0000   1.0000   1.0000   1.0000   1.0000   1.0000   1.0000   1.0000
     0.0000   0.0000   0.0000   0.0000   0.0000   0.0000   0.0000   0.0000
     0.0000   0.0000   0.0000   0.0000   0.0000   0.0000   0.0000   0.0000

          k = 0.0333 0.3272 0.0000 (  9983 PWs)   bands (ev):

   -18.7510 -18.6589  -9.3727  -9.3354  -6.7969  -6.5098  -6.4935  -6.0974
     4.7773   5.0175   5.3007   5.4677   6.0849   6.7998   6.9017   7.1176
     7.2885   8.3308   8.7137  10.3896  11.4314  13.2983  13.4058  13.4395

     occupation numbers 
     1.0000   1.0000   1.0000   1.0000   1.0000   1.0000   1.0000   1.0000
     0.0000   0.0000   0.0000   0.0000   0.0000   0.0000   0.0000   0.0000
     0.0000   0.0000   0.0000   0.0000   0.0000   0.0000   0.0000   0.0000

          k = 0.0333 0.3657 0.0000 (  9974 PWs)   bands (ev):

   -18.2880 -18.1989 -10.2589 -10.2168  -6.8009  -6.7840  -6.2626  -5.5868
     4.2125   4.5396   5.4151   5.8167   6.7287   6.9535   7.0603   7.4750
     7.6502   8.9293   9.3522  10.9888  12.0587  13.9674  14.0819  14.4049

     occupation numbers 
     1.0000   1.0000   1.0000   1.0000   1.0000   1.0000   1.0000   1.0000
     0.0000   0.0000   0.0000   0.0000   0.0000   0.0000   0.0000   0.0000
     0.0000   0.0000   0.0000   0.0000   0.0000   0.0000   0.0000   0.0000

          k = 0.0333 0.4041 0.0000 (  9958 PWs)   bands (ev):

   -17.7781 -17.6923 -11.1346 -11.0878  -7.0511  -7.0337  -5.6881  -5.0438
     3.2802   3.6417   6.1090   6.5077   6.8491   6.9595   7.4826   8.1942
     8.3061   9.5925  10.0600  11.6435  12.7456  14.0800  14.5637  14.9579

     occupation numbers 
     1.0000   1.0000   1.0000   1.0000   1.0000   1.0000   1.0000   1.0000
     0.0000   0.0000   0.0000   0.0000   0.0000   0.0000   0.0000   0.0000
     0.0000   0.0000   0.0000   0.0000   0.0000   0.0000   0.0000   0.0000

          k = 0.0333 0.4426 0.0000 (  9934 PWs)   bands (ev):

   -17.2241 -17.1421 -11.9892 -11.9380  -7.2559  -7.2381  -5.0879  -4.4874
     2.3878   2.7740   6.6878   6.7843   6.9991   7.3172   8.2765   8.9887
     9.0400  10.3140  10.8337  12.3418  13.4096  13.5796  14.2517  14.8204

     occupation numbers 
     1.0000   1.0000   1.0000   1.0000   1.0000   1.0000   1.0000   1.0000
     0.0000   0.0000   0.0000   0.0000   0.0000   0.0000   0.0000   0.0000
     0.0000   0.0000   0.0000   0.0000   0.0000   0.0000   0.0000   0.0000

          k = 0.0333 0.4811 0.0000 (  9940 PWs)   bands (ev):

   -16.6316 -16.5541 -12.8109 -12.7560  -7.4120  -7.3939  -4.4888  -3.9542
     1.5848   1.9750   6.6370   6.7712   7.7529   8.1566   9.1440   9.8304
     9.8537  11.0850  11.6657  12.6176  12.9773  13.3479  13.9349  14.4364

     occupation numbers 
     1.0000   1.0000   1.0000   1.0000   1.0000   1.0000   1.0000   1.0000
     0.0000   0.0000   0.0000   0.0000   0.0000   0.0000   0.0000   0.0000
     0.0000   0.0000   0.0000   0.0000   0.0000   0.0000   0.0000   0.0000

          k = 0.0333 0.5196 0.0000 (  9948 PWs)   bands (ev):

   -16.0164 -15.9453 -13.5788 -13.5224  -7.5172  -7.4990  -3.9458  -3.5142
     0.9486   1.3072   6.5849   6.7261   8.6426   9.0644  10.0769  10.6605
    10.7853  11.6150  11.8351  12.2138  12.5362  13.1084  13.5533  13.8845

     occupation numbers 
     1.0000   1.0000   1.0000   1.0000   1.0000   1.0000   1.0000   1.0000
     0.0000   0.0000   0.0000   0.0000   0.0000   0.0000   0.0000   0.0000
     0.0000   0.0000   0.0000   0.0000   0.0000   0.0000   0.0000   0.0000

          k = 0.0333 0.5581 0.0000 (  9932 PWs)   bands (ev):

   -15.4580 -15.4049 -14.2004 -14.1560  -7.5701  -7.5518  -3.5756  -3.2728
     0.5921   0.8894   6.5576   6.7016   9.5916  10.0261  10.5966  10.9695
    11.1180  11.5666  11.7680  12.0982  12.4795  12.7702  12.9777  13.5029

     occupation numbers 
     1.0000   1.0000   1.0000   1.0000   1.0000   1.0000   1.0000   1.0000
     0.0000   0.0000   0.0000   0.0000   0.0000   0.0000   0.0000   0.0000
     0.0000   0.0000   0.0000   0.0000   0.0000   0.0000   0.0000   0.0000

          k = 0.0667 0.1155 0.0000 ( 10077 PWs)   bands (ev):

   -20.3431 -20.2403  -8.6891  -7.9275  -5.2187  -5.2098  -4.7380  -4.7312
     2.6162   2.9621   3.8579   4.5884   4.8410   6.2165   6.5112   7.6403
     7.6845   8.3081   8.5593   8.5781   9.2738   9.3831   9.4825  11.3990

     occupation numbers 
     1.0000   1.0000   1.0000   1.0000   1.0000   1.0000   1.0000   1.0000
     0.0000   0.0000   0.0000   0.0000   0.0000   0.0000   0.0000   0.0000
     0.0000   0.0000   0.0000   0.0000   0.0000   0.0000   0.0000   0.0000

          k = 0.0667 0.1540 0.0000 ( 10049 PWs)   bands (ev):

   -20.1588 -20.0573  -8.4670  -7.7116  -5.7917  -5.7796  -5.0887  -5.0801
     2.8655   3.2138   4.1138   4.8431   5.0850   6.4540   6.7599   7.7390
     7.7952   8.5465   8.8176   8.9318   9.0801   9.1023   9.5253  11.6376

     occupation numbers 
     1.0000   1.0000   1.0000   1.0000   1.0000   1.0000   1.0000   1.0000
     0.0000   0.0000   0.0000   0.0000   0.0000   0.0000   0.0000   0.0000
     0.0000   0.0000   0.0000   0.0000   0.0000   0.0000   0.0000   0.0000

          k = 0.0667 0.1925 0.0000 ( 10034 PWs)   bands (ev):

   -19.9225 -19.8225  -8.1831  -7.4359  -6.4764  -6.4592  -5.4724  -5.4610
     3.1857   3.5369   4.4426   5.1703   5.3978   6.7565   7.0766   7.7701
     7.8356   8.1421   8.2700   8.8595   9.7321   9.7657   9.8507  11.9422

     occupation numbers 
     1.0000   1.0000   1.0000   1.0000   1.0000   1.0000   1.0000   1.0000
     0.0000   0.0000   0.0000   0.0000   0.0000   0.0000   0.0000   0.0000
     0.0000   0.0000   0.0000   0.0000   0.0000   0.0000   0.0000   0.0000

          k = 0.0667 0.2309 0.0000 ( 10004 PWs)   bands (ev):

   -19.6345 -19.5365  -7.8386  -7.2450  -7.2226  -7.1015  -5.8614  -5.8475
     3.5767   3.9310   4.8444   5.5695   5.7774   7.1039   7.3296   7.4594
     7.5263   7.7681   7.8397   9.2331  10.2305  10.5184  10.5562  12.3110

     occupation numbers 
     1.0000   1.0000   1.0000   1.0000   1.0000   1.0000   1.0000   1.0000
     0.0000   0.0000   0.0000   0.0000   0.0000   0.0000   0.0000   0.0000
     0.0000   0.0000   0.0000   0.0000   0.0000   0.0000   0.0000   0.0000

          k = 0.0667 0.2694 0.0000 (  9986 PWs)   bands (ev):

   -19.2955 -19.1997  -8.0700  -8.0418  -7.4356  -6.7120  -6.2374  -6.2216
     4.0380   4.3941   5.3188   6.0358   6.2092   6.4993   6.6929   7.5414
     7.6029   7.7997   7.9874   9.6730  10.6904  11.3774  11.4401  12.7409

     occupation numbers 
     1.0000   1.0000   1.0000   1.0000   1.0000   1.0000   1.0000   1.0000
     0.0000   0.0000   0.0000   0.0000   0.0000   0.0000   0.0000   0.0000
     0.0000   0.0000   0.0000   0.0000   0.0000   0.0000   0.0000   0.0000

          k = 0.0667 0.3079 0.0000 (  9972 PWs)   bands (ev):

   -18.9063 -18.8131  -8.9281  -8.8946  -6.9769  -6.5881  -6.5708  -6.2699
     4.5686   4.9120   5.6004   5.8003   5.8755   6.5910   6.7501   7.4993
     7.6216   8.1293   8.5014  10.1764  11.2170  12.2679  12.3801  13.2269

     occupation numbers 
     1.0000   1.0000   1.0000   1.0000   1.0000   1.0000   1.0000   1.0000
     0.0000   0.0000   0.0000   0.0000   0.0000   0.0000   0.0000   0.0000
     0.0000   0.0000   0.0000   0.0000   0.0000   0.0000   0.0000   0.0000

          k = 0.0667 0.3464 0.0000 (  9960 PWs)   bands (ev):

   -18.4679 -18.3776  -9.8005  -9.7618  -6.9046  -6.8863  -6.4668  -5.7806
     4.6251   4.9203   5.1727   5.5717   6.4846   7.1870   7.2482   7.4032
     7.5915   8.6839   9.1016  10.7402  11.8091  13.0977  13.3266  13.7597

     occupation numbers 
     1.0000   1.0000   1.0000   1.0000   1.0000   1.0000   1.0000   1.0000
     0.0000   0.0000   0.0000   0.0000   0.0000   0.0000   0.0000   0.0000
     0.0000   0.0000   0.0000   0.0000   0.0000   0.0000   0.0000   0.0000

          k = 0.0667 0.3849 0.0000 (  9955 PWs)   bands (ev):

   -17.9817 -17.8946 -10.6722 -10.6285  -7.1808  -7.1617  -5.9116  -5.2526
     3.7044   4.0341   5.8372   6.2319   7.1504   7.2452   7.3663   7.9055
     8.0436   9.3100   9.7729  11.3592  12.4614  13.6644  14.1621  14.3294

     occupation numbers 
     1.0000   1.0000   1.0000   1.0000   1.0000   1.0000   1.0000   1.0000
     0.0000   0.0000   0.0000   0.0000   0.0000   0.0000   0.0000   0.0000
     0.0000   0.0000   0.0000   0.0000   0.0000   0.0000   0.0000   0.0000

          k = 0.0667 0.4234 0.0000 (  9952 PWs)   bands (ev):

   -17.4500 -17.3665 -11.5307 -11.4823  -7.4120  -7.3923  -5.3223  -4.6998
     2.7981   3.1596   6.5618   6.9473   7.1561   7.2649   7.9523   8.6613
     8.7316   9.9950  10.5109  12.0237  13.1485  13.6709  14.3989  14.8240

     occupation numbers 
     1.0000   1.0000   1.0000   1.0000   1.0000   1.0000   1.0000   1.0000
     0.0000   0.0000   0.0000   0.0000   0.0000   0.0000   0.0000   0.0000
     0.0000   0.0000   0.0000   0.0000   0.0000   0.0000   0.0000   0.0000

          k = 0.0667 0.4619 0.0000 (  9951 PWs)   bands (ev):

   -16.8768 -16.7973 -12.3646 -12.3119  -7.5947  -7.5746  -4.7179  -4.1481
     1.9517   2.3302   7.0087   7.1287   7.4377   7.8005   8.7821   9.4858
     9.4900  10.7302  11.3089  12.6966  13.0547  13.6728  13.9339  14.4467

     occupation numbers 
     1.0000   1.0000   1.0000   1.0000   1.0000   1.0000   1.0000   1.0000
     0.0000   0.0000   0.0000   0.0000   0.0000   0.0000   0.0000   0.0000
     0.0000   0.0000   0.0000   0.0000   0.0000   0.0000   0.0000   0.0000

          k = 0.0667 0.5004 0.0000 (  9948 PWs)   bands (ev):

   -16.2708 -16.1965 -13.1590 -13.1033  -7.7268  -7.7065  -4.1362  -3.6481
     1.2248   1.5921   6.9531   7.0960   8.2663   8.6707   9.6805  10.2837
    10.3859  11.4940  12.0958  12.2080  12.7088  13.3046  13.7335  14.1789

     occupation numbers 
     1.0000   1.0000   1.0000   1.0000   1.0000   1.0000   1.0000   1.0000
     0.0000   0.0000   0.0000   0.0000   0.0000   0.0000   0.0000   0.0000
     0.0000   0.0000   0.0000   0.0000   0.0000   0.0000   0.0000   0.0000

          k = 0.0667 0.5389 0.0000 (  9944 PWs)   bands (ev):

   -15.6646 -15.5998 -13.8744 -13.8208  -7.8067  -7.7861  -3.6569  -3.2916
     0.7159   1.0306   6.9132   7.0612   9.1841   9.6003  10.6293  11.0731
    11.1577  11.3434  11.6628  12.2983  12.6301  12.9778  13.2672  13.4960

     occupation numbers 
     1.0000   1.0000   1.0000   1.0000   1.0000   1.0000   1.0000   1.0000
     0.0000   0.0000   0.0000   0.0000   0.0000   0.0000   0.0000   0.0000
     0.0000   0.0000   0.0000   0.0000   0.0000   0.0000   0.0000   0.0000

          k = 0.0667 0.5774 0.0000 (  9926 PWs)   bands (ev):

   -15.2852 -15.2470 -14.2667 -14.2379  -7.8334  -7.8128  -3.4465  -3.1724
     0.5354   0.8026   6.8995   7.0490  10.1101  10.1928  10.5389  10.6093
    11.5467  11.6680  11.9260  12.1151  12.4199  12.4367  13.1786  13.4217

     occupation numbers 
     1.0000   1.0000   1.0000   1.0000   1.0000   1.0000   1.0000   1.0000
     0.0000   0.0000   0.0000   0.0000   0.0000   0.0000   0.0000   0.0000
     0.0000   0.0000   0.0000   0.0000   0.0000   0.0000   0.0000   0.0000

          k = 0.1000 0.1732 0.0000 ( 10027 PWs)   bands (ev):

   -19.9487 -19.8486  -8.2145  -7.4663  -6.3441  -6.3323  -5.4999  -5.4916
     3.1503   3.5012   4.4062   5.1340   5.3637   6.7253   7.0443   7.9546
     8.0095   8.2316   8.3474   8.8203   9.4358   9.4623   9.8109  11.9072

     occupation numbers 
     1.0000   1.0000   1.0000   1.0000   1.0000   1.0000   1.0000   1.0000
     0.0000   0.0000   0.0000   0.0000   0.0000   0.0000   0.0000   0.0000
     0.0000   0.0000   0.0000   0.0000   0.0000   0.0000   0.0000   0.0000

          k = 0.1000 0.2117 0.0000 ( 10002 PWs)   bands (ev):

   -19.6868 -19.5885  -7.9008  -7.1623  -6.9937  -6.9780  -5.9382  -5.9276
     3.5060   3.8598   4.7715   5.4975   5.7109   7.0606   7.3950   7.5101
     7.6530   8.1204   8.1970   9.1588   9.9046   9.9447  10.1673  12.2405

     occupation numbers 
     1.0000   1.0000   1.0000   1.0000   1.0000   1.0000   1.0000   1.0000
     0.0000   0.0000   0.0000   0.0000   0.0000   0.0000   0.0000   0.0000
     0.0000   0.0000   0.0000   0.0000   0.0000   0.0000   0.0000   0.0000

          k = 0.1000 0.2502 0.0000 (  9984 PWs)   bands (ev):

   -19.3737 -19.2774  -7.7282  -7.7066  -7.5277  -6.8008  -6.3649  -6.3508
     3.9322   4.2889   5.2097   5.9323   6.1231   6.7297   6.8921   7.4721
     7.8074   8.1656   8.2479   9.5625  10.5120  10.5915  10.6169  12.6340

     occupation numbers 
     1.0000   1.0000   1.0000   1.0000   1.0000   1.0000   1.0000   1.0000
     0.0000   0.0000   0.0000   0.0000   0.0000   0.0000   0.0000   0.0000
     0.0000   0.0000   0.0000   0.0000   0.0000   0.0000   0.0000   0.0000

          k = 0.1000 0.2887 0.0000 (  9985 PWs)   bands (ev):

   -19.0100 -18.9161  -8.5242  -8.4962  -7.0975  -6.7601  -6.7430  -6.3855
     4.4284   4.7846   5.7198   5.8862   6.0721   6.4454   6.6185   7.9136
     8.0376   8.2286   8.3838  10.0289  11.0627  11.2967  11.3871  13.0820

     occupation numbers 
     1.0000   1.0000   1.0000   1.0000   1.0000   1.0000   1.0000   1.0000
     0.0000   0.0000   0.0000   0.0000   0.0000   0.0000   0.0000   0.0000
     0.0000   0.0000   0.0000   0.0000   0.0000   0.0000   0.0000   0.0000

          k = 0.1000 0.3272 0.0000 (  9972 PWs)   bands (ev):

   -18.5967 -18.5056  -9.3573  -9.3233  -7.1151  -7.0958  -6.6136  -5.9202
     4.9509   5.0077   5.2260   5.3992   6.3042   7.0222   7.1528   7.9593
     8.0891   8.5135   8.9250  10.5545  11.6225  12.0877  12.2515  13.5735

     occupation numbers 
     1.0000   1.0000   1.0000   1.0000   1.0000   1.0000   1.0000   1.0000
     0.0000   0.0000   0.0000   0.0000   0.0000   0.0000   0.0000   0.0000
     0.0000   0.0000   0.0000   0.0000   0.0000   0.0000   0.0000   0.0000

          k = 0.1000 0.3657 0.0000 (  9976 PWs)   bands (ev):

   -18.1351 -18.0470 -10.2067 -10.1671  -7.4256  -7.4047  -6.0810  -5.4113
     4.0805   4.3670   5.6296   6.0135   6.9579   7.6558   7.7000   7.8741
     8.0587   9.0897   9.5563  11.1336  12.2373  12.8240  13.1269  14.0854

     occupation numbers 
     1.0000   1.0000   1.0000   1.0000   1.0000   1.0000   1.0000   1.0000
     0.0000   0.0000   0.0000   0.0000   0.0000   0.0000   0.0000   0.0000
     0.0000   0.0000   0.0000   0.0000   0.0000   0.0000   0.0000   0.0000

          k = 0.1000 0.4041 0.0000 (  9961 PWs)   bands (ev):

   -17.6270 -17.5423 -11.0558 -11.0110  -7.6885  -7.6664  -5.5079  -4.8692
     3.1827   3.5055   6.3296   6.7178   7.6545   7.7321   7.8628   8.4077
     8.5003   9.7328  10.2560  11.7563  12.8810  13.3191  13.8659  14.5646

     occupation numbers 
     1.0000   1.0000   1.0000   1.0000   1.0000   1.0000   1.0000   1.0000
     0.0000   0.0000   0.0000   0.0000   0.0000   0.0000   0.0000   0.0000
     0.0000   0.0000   0.0000   0.0000   0.0000   0.0000   0.0000   0.0000

          k = 0.1000 0.4426 0.0000 (  9961 PWs)   bands (ev):

   -17.0753 -16.9944 -11.8908 -11.8413  -7.9014  -7.8785  -4.9081  -4.3123
     2.3187   2.6686   7.0870   7.4616   7.6540   7.7703   8.4942   9.1965
     9.2031  10.4250  11.0155  12.3981  13.1749  13.5738  13.9963  14.4748

     occupation numbers 
     1.0000   1.0000   1.0000   1.0000   1.0000   1.0000   1.0000   1.0000
     0.0000   0.0000   0.0000   0.0000   0.0000   0.0000   0.0000   0.0000
     0.0000   0.0000   0.0000   0.0000   0.0000   0.0000   0.0000   0.0000

          k = 0.1000 0.4811 0.0000 (  9974 PWs)   bands (ev):

   -16.4858 -16.4094 -12.6981 -12.6446  -8.0625  -8.0391  -4.3077  -3.7758
     1.5346   1.8910   7.5175   7.6545   7.9805   8.3442   9.3544   9.9564
    10.0550  11.1494  11.8092  12.6216  12.9352  13.2730  13.7936  14.6191

     occupation numbers 
     1.0000   1.0000   1.0000   1.0000   1.0000   1.0000   1.0000   1.0000
     0.0000   0.0000   0.0000   0.0000   0.0000   0.0000   0.0000   0.0000
     0.0000   0.0000   0.0000   0.0000   0.0000   0.0000   0.0000   0.0000

          k = 0.1000 0.5196 0.0000 (  9966 PWs)   bands (ev):

   -15.8745 -15.8045 -13.4550 -13.3999  -8.1707  -8.1469  -3.7601  -3.3290
     0.9076   1.2327   7.4717   7.6277   8.8431   9.2333  10.2682  10.7191
    10.9706  11.7280  11.8297  12.2826  12.6125  13.1287  13.6835  13.8959

     occupation numbers 
     1.0000   1.0000   1.0000   1.0000   1.0000   1.0000   1.0000   1.0000
     0.0000   0.0000   0.0000   0.0000   0.0000   0.0000   0.0000   0.0000
     0.0000   0.0000   0.0000   0.0000   0.0000   0.0000   0.0000   0.0000

          k = 0.1000 0.5581 0.0000 (  9938 PWs)   bands (ev):

   -15.3211 -15.2689 -14.0684 -14.0251  -8.2249  -8.2010  -3.3834  -3.0813
     0.5559   0.8122   7.4449   7.6047   9.7798  10.1574  10.7665  10.9590
    11.3179  11.6106  11.8912  12.2180  12.5663  12.8179  13.1643  13.5748

     occupation numbers 
     1.0000   1.0000   1.0000   1.0000   1.0000   1.0000   1.0000   1.0000
     0.0000   0.0000   0.0000   0.0000   0.0000   0.0000   0.0000   0.0000
     0.0000   0.0000   0.0000   0.0000   0.0000   0.0000   0.0000   0.0000

          k = 0.1333 0.2309 0.0000 (  9979 PWs)   bands (ev):

   -19.3998 -19.3033  -7.5796  -7.5643  -7.5580  -6.8305  -6.4403  -6.4298
     3.8970   4.2537   5.1733   5.8970   6.0922   6.8130   6.9674   7.4314
     7.7871   8.4586   8.5408   9.5248  10.1237  10.1667  10.5544  12.5978

     occupation numbers 
     1.0000   1.0000   1.0000   1.0000   1.0000   1.0000   1.0000   1.0000
     0.0000   0.0000   0.0000   0.0000   0.0000   0.0000   0.0000   0.0000
     0.0000   0.0000   0.0000   0.0000   0.0000   0.0000   0.0000   0.0000

          k = 0.1333 0.2694 0.0000 (  9979 PWs)   bands (ev):

   -19.0619 -18.9677  -8.2449  -8.2259  -7.1579  -6.9236  -6.9104  -6.4435
     4.3582   4.7175   5.6478   6.0485   6.2178   6.3697   6.5424   7.8632
     8.2364   8.6655   8.7547   9.9528  10.5255  10.5997  11.0115  13.0076

     occupation numbers 
     1.0000   1.0000   1.0000   1.0000   1.0000   1.0000   1.0000   1.0000
     0.0000   0.0000   0.0000   0.0000   0.0000   0.0000   0.0000   0.0000
     0.0000   0.0000   0.0000   0.0000   0.0000   0.0000   0.0000   0.0000

          k = 0.1333 0.3079 0.0000 (  9973 PWs)   bands (ev):

   -18.6742 -18.5826  -8.9842  -8.9581  -7.3553  -7.3377  -6.7020  -6.0044
     4.8880   5.1800   5.3051   5.4282   6.1951   6.9126   7.0534   8.3485
     8.5977   8.8016   8.8709  10.4387  11.1288  11.2661  11.5378  13.4571

     occupation numbers 
     1.0000   1.0000   1.0000   1.0000   1.0000   1.0000   1.0000   1.0000
     0.0000   0.0000   0.0000   0.0000   0.0000   0.0000   0.0000   0.0000
     0.0000   0.0000   0.0000   0.0000   0.0000   0.0000   0.0000   0.0000

          k = 0.1333 0.3464 0.0000 (  9972 PWs)   bands (ev):

   -18.2377 -18.1489  -9.7737  -9.7404  -7.7258  -7.7047  -6.1947  -5.5181
     4.3731   4.6105   5.4901   5.8624   6.8139   7.5265   7.6232   8.5744
     8.7065   8.9626   9.4166  10.9755  11.8256  12.0614  12.1358  13.9197

     occupation numbers 
     1.0000   1.0000   1.0000   1.0000   1.0000   1.0000   1.0000   1.0000
     0.0000   0.0000   0.0000   0.0000   0.0000   0.0000   0.0000   0.0000
     0.0000   0.0000   0.0000   0.0000   0.0000   0.0000   0.0000   0.0000

          k = 0.1333 0.3849 0.0000 (  9950 PWs)   bands (ev):

   -17.7540 -17.6684 -10.5879 -10.5483  -8.0363  -8.0127  -5.6422  -4.9924
     3.5085   3.7820   6.1573   6.5328   7.5030   8.2011   8.2220   8.4964
     8.6809   9.5375  10.0728  11.5519  12.4708  12.7723  12.8951  14.3400

     occupation numbers 
     1.0000   1.0000   1.0000   1.0000   1.0000   1.0000   1.0000   1.0000
     0.0000   0.0000   0.0000   0.0000   0.0000   0.0000   0.0000   0.0000
     0.0000   0.0000   0.0000   0.0000   0.0000   0.0000   0.0000   0.0000

          k = 0.1333 0.4234 0.0000 (  9971 PWs)   bands (ev):

   -17.2255 -17.1435 -11.4064 -11.3611  -8.2890  -8.2637  -5.0545  -4.4404
     2.6541   2.9609   6.8900   7.2680   8.2449   8.3703   8.5135   8.9785
     9.0062  10.1801  10.7899  12.1454  12.8743  13.3219  13.5835  14.2613

     occupation numbers 
     1.0000   1.0000   1.0000   1.0000   1.0000   1.0000   1.0000   1.0000
     0.0000   0.0000   0.0000   0.0000   0.0000   0.0000   0.0000   0.0000
     0.0000   0.0000   0.0000   0.0000   0.0000   0.0000   0.0000   0.0000

          k = 0.1333 0.4619 0.0000 (  9968 PWs)   bands (ev):

   -16.6562 -16.5783 -12.2116 -12.1616  -8.4851  -8.4587  -4.4498  -3.8862
     1.8456   2.1729   7.6805   8.0459   8.3003   8.4409   9.1030   9.6892
     9.7949  10.8539  11.5367  12.6693  12.8507  13.2456  13.8983  14.5007

     occupation numbers 
     1.0000   1.0000   1.0000   1.0000   1.0000   1.0000   1.0000   1.0000
     0.0000   0.0000   0.0000   0.0000   0.0000   0.0000   0.0000   0.0000
     0.0000   0.0000   0.0000   0.0000   0.0000   0.0000   0.0000   0.0000

          k = 0.1333 0.5004 0.0000 (  9957 PWs)   bands (ev):

   -16.0554 -15.9826 -12.9853 -12.9319  -8.6252  -8.5980  -3.8637  -3.3780
     1.1406   1.4595   8.1840   8.3397   8.5981   8.9336   9.9725  10.3922
    10.6693  11.5304  12.0877  12.3324  12.8140  13.1009  13.7811  14.3894

     occupation numbers 
     1.0000   1.0000   1.0000   1.0000   1.0000   1.0000   1.0000   1.0000
     0.0000   0.0000   0.0000   0.0000   0.0000   0.0000   0.0000   0.0000
     0.0000   0.0000   0.0000   0.0000   0.0000   0.0000   0.0000   0.0000

          k = 0.1333 0.5389 0.0000 (  9964 PWs)   bands (ev):

   -15.4558 -15.3925 -13.6856 -13.6340  -8.7092  -8.6817  -3.3746  -3.0093
     0.6411   0.9021   8.1517   8.3292   9.4756   9.8097  10.7297  11.1219
    11.3627  11.5301  11.8850  12.1994  12.6812  13.2185  13.5542  13.7536

     occupation numbers 
     1.0000   1.0000   1.0000   1.0000   1.0000   1.0000   1.0000   1.0000
     0.0000   0.0000   0.0000   0.0000   0.0000   0.0000   0.0000   0.0000
     0.0000   0.0000   0.0000   0.0000   0.0000   0.0000   0.0000   0.0000

          k = 0.1333 0.5774 0.0000 (  9932 PWs)   bands (ev):

   -15.0822 -15.0449 -14.0697 -14.0424  -8.7372  -8.7095  -3.1563  -2.8844
     0.4667   0.6661   8.1384   8.3184  10.3585  10.4588  10.5743  10.7251
    11.4554  11.8827  12.1403  12.2190  12.7212  12.7520  13.2791  13.3937

     occupation numbers 
     1.0000   1.0000   1.0000   1.0000   1.0000   1.0000   1.0000   1.0000
     0.0000   0.0000   0.0000   0.0000   0.0000   0.0000   0.0000   0.0000
     0.0000   0.0000   0.0000   0.0000   0.0000   0.0000   0.0000   0.0000

          k = 0.1667 0.2887 0.0000 (  9987 PWs)   bands (ev):

   -18.7001 -18.6082  -8.8168  -8.7989  -7.4755  -7.4625  -6.7315  -6.0326
     4.8536   5.2157   5.3165   5.4967   6.1586   6.8756   7.0178   8.3198
     8.7251   9.1344   9.2210  10.3982  10.6470  10.7129  11.4941  13.4174

     occupation numbers 
     1.0000   1.0000   1.0000   1.0000   1.0000   1.0000   1.0000   1.0000
     0.0000   0.0000   0.0000   0.0000   0.0000   0.0000   0.0000   0.0000
     0.0000   0.0000   0.0000   0.0000   0.0000   0.0000   0.0000   0.0000

          k = 0.1667 0.3272 0.0000 (  9974 PWs)   bands (ev):

   -18.2891 -18.2000  -9.4652  -9.4425  -7.9672  -7.9508  -6.2518  -5.5718
     4.5391   4.7377   5.4200   5.7838   6.7413   7.4535   7.5561   8.8295
     9.2021   9.4315   9.4829  10.8883  11.0275  11.1571  12.0362  13.8330

     occupation numbers 
     1.0000   1.0000   1.0000   1.0000   1.0000   1.0000   1.0000   1.0000
     0.0000   0.0000   0.0000   0.0000   0.0000   0.0000   0.0000   0.0000
     0.0000   0.0000   0.0000   0.0000   0.0000   0.0000   0.0000   0.0000

          k = 0.1667 0.3657 0.0000 (  9975 PWs)   bands (ev):

   -17.8304 -17.7444 -10.1842 -10.1534  -8.3736  -8.3521  -5.7234  -5.0672
     3.7342   3.9593   6.0529   6.4183   7.3951   8.1009   8.1471   9.2968
     9.3585   9.5414   9.9731  11.4155  11.6286  11.8754  12.6123  14.1967

     occupation numbers 
     1.0000   1.0000   1.0000   1.0000   1.0000   1.0000   1.0000   1.0000
     0.0000   0.0000   0.0000   0.0000   0.0000   0.0000   0.0000   0.0000
     0.0000   0.0000   0.0000   0.0000   0.0000   0.0000   0.0000   0.0000

          k = 0.1667 0.4041 0.0000 (  9989 PWs)   bands (ev):

   -17.3261 -17.2434 -10.9466 -10.9081  -8.6964  -8.6709  -5.1538  -4.5280
     2.9188   3.1754   6.7525   7.1169   8.1174   8.7691   8.8113   9.2383
     9.4442  10.0104  10.6381  11.9534  12.2410  12.6607  13.0919  14.0082

     occupation numbers 
     1.0000   1.0000   1.0000   1.0000   1.0000   1.0000   1.0000   1.0000
     0.0000   0.0000   0.0000   0.0000   0.0000   0.0000   0.0000   0.0000
     0.0000   0.0000   0.0000   0.0000   0.0000   0.0000   0.0000   0.0000

          k = 0.1667 0.4426 0.0000 (  9993 PWs)   bands (ev):

   -16.7792 -16.7004 -11.7238 -11.6790  -8.9453  -8.9171  -4.5557  -3.9707
     2.1194   2.4039   7.5156   7.8733   8.8928   9.1257   9.2612   9.5541
     9.6126  10.6262  11.3287  12.4386  12.6235  13.0053  13.4825  14.3692

     occupation numbers 
     1.0000   1.0000   1.0000   1.0000   1.0000   1.0000   1.0000   1.0000
     0.0000   0.0000   0.0000   0.0000   0.0000   0.0000   0.0000   0.0000
     0.0000   0.0000   0.0000   0.0000   0.0000   0.0000   0.0000   0.0000

          k = 0.1667 0.4811 0.0000 (  9951 PWs)   bands (ev):

   -16.1959 -16.1215 -12.4917 -12.4420  -9.1276  -9.0977  -3.9526  -3.4272
     1.3779   1.6729   8.3351   8.6658   9.0649   9.2320   9.7545  10.1266
    10.4372  11.2647  11.8567  12.5507  12.8342  13.0182  13.7946  14.8717

     occupation numbers 
     1.0000   1.0000   1.0000   1.0000   1.0000   1.0000   1.0000   1.0000
     0.0000   0.0000   0.0000   0.0000   0.0000   0.0000   0.0000   0.0000
     0.0000   0.0000   0.0000   0.0000   0.0000   0.0000   0.0000   0.0000

          k = 0.1667 0.5196 0.0000 (  9951 PWs)   bands (ev):

   -15.5925 -15.5245 -13.2214 -13.1694  -9.2474  -9.2165  -3.3948  -2.9643
     0.7705   1.0350   8.9564   9.1278   9.2953   9.5299  10.4054  10.8510
    11.2334  11.8596  11.9401  12.0928  12.8858  13.3945  13.9336  14.0319

     occupation numbers 
     1.0000   1.0000   1.0000   1.0000   1.0000   1.0000   1.0000   1.0000
     0.0000   0.0000   0.0000   0.0000   0.0000   0.0000   0.0000   0.0000
     0.0000   0.0000   0.0000   0.0000   0.0000   0.0000   0.0000   0.0000

          k = 0.1667 0.5581 0.0000 (  9953 PWs)   bands (ev):

   -15.0482 -14.9976 -13.8170 -13.7763  -9.3069  -9.2756  -3.0014  -2.7004
     0.4298   0.6040   8.9426   9.1557  10.1449  10.2640  10.6385  11.0880
    11.5166  11.7832  12.1107  12.5481  12.9124  12.9387  13.5546  13.7617

     occupation numbers 
     1.0000   1.0000   1.0000   1.0000   1.0000   1.0000   1.0000   1.0000
     0.0000   0.0000   0.0000   0.0000   0.0000   0.0000   0.0000   0.0000
     0.0000   0.0000   0.0000   0.0000   0.0000   0.0000   0.0000   0.0000

          k = 0.2000 0.3464 0.0000 (  9967 PWs)   bands (ev):

   -17.8560 -17.7697  -9.9976  -9.9767  -8.5337  -8.5181  -5.7506  -5.0923
     3.8167   4.0196   6.0180   6.3794   7.3589   8.0644   8.1125   9.3506
     9.7718  10.0388  10.0534  11.0800  11.1892  11.3908  12.5666  14.1471

     occupation numbers 
     1.0000   1.0000   1.0000   1.0000   1.0000   1.0000   1.0000   1.0000
     0.0000   0.0000   0.0000   0.0000   0.0000   0.0000   0.0000   0.0000
     0.0000   0.0000   0.0000   0.0000   0.0000   0.0000   0.0000   0.0000

          k = 0.2000 0.3849 0.0000 ( 10011 PWs)   bands (ev):

   -17.3766 -17.2935 -10.6098 -10.5834  -9.0043  -8.9847  -5.2040  -4.5725
     3.0688   3.2872   6.6830   7.0392   8.0454   8.7061   8.7422   9.8982
    10.0647  10.3158  10.5872  11.4402  11.6944  11.8973  12.9473  13.8854

     occupation numbers 
     1.0000   1.0000   1.0000   1.0000   1.0000   1.0000   1.0000   1.0000
     0.0000   0.0000   0.0000   0.0000   0.0000   0.0000   0.0000   0.0000
     0.0000   0.0000   0.0000   0.0000   0.0000   0.0000   0.0000   0.0000

          k = 0.2000 0.4234 0.0000 (  9999 PWs)   bands (ev):

   -16.8536 -16.7741 -11.2931 -11.2577  -9.3624  -9.3369  -4.6209  -4.0237
     2.3127   2.5538   7.4125   7.7557   8.7928   9.3048   9.4773  10.0475
    10.3021  10.4944  11.1987  11.9756  12.3398  12.4777  12.8860  14.2598

     occupation numbers 
     1.0000   1.0000   1.0000   1.0000   1.0000   1.0000   1.0000   1.0000
     0.0000   0.0000   0.0000   0.0000   0.0000   0.0000   0.0000   0.0000
     0.0000   0.0000   0.0000   0.0000   0.0000   0.0000   0.0000   0.0000

          k = 0.2000 0.4619 0.0000 (  9981 PWs)   bands (ev):

   -16.2914 -16.2160 -12.0128 -11.9698  -9.6201  -9.5902  -4.0168  -3.4661
     1.5762   1.8369   8.2022   8.5133   9.5438   9.8755   9.9397  10.2814
    10.2939  11.0762  11.6377  12.3906  12.6806  12.8930  13.3310  14.8133

     occupation numbers 
     1.0000   1.0000   1.0000   1.0000   1.0000   1.0000   1.0000   1.0000
     0.0000   0.0000   0.0000   0.0000   0.0000   0.0000   0.0000   0.0000
     0.0000   0.0000   0.0000   0.0000   0.0000   0.0000   0.0000   0.0000

          k = 0.2000 0.5004 0.0000 (  9955 PWs)   bands (ev):

   -15.6996 -15.6294 -12.7320 -12.6838  -9.7941  -9.7616  -3.4229  -2.9424
     0.9108   1.1680   9.0428   9.2650   9.8919   9.9603  10.2961  10.6506
    11.0132  11.7297  11.8092  12.3420  13.1144  13.3099  13.8177  14.7329

     occupation numbers 
     1.0000   1.0000   1.0000   1.0000   1.0000   1.0000   1.0000   1.0000
     0.0000   0.0000   0.0000   0.0000   0.0000   0.0000   0.0000   0.0000
     0.0000   0.0000   0.0000   0.0000   0.0000   0.0000   0.0000   0.0000

          k = 0.2000 0.5389 0.0000 (  9944 PWs)   bands (ev):

   -15.1107 -15.0498 -13.3981 -13.3505  -9.8951  -9.8612  -2.9129  -2.5461
     0.4234   0.6153   9.7218   9.8900  10.0053  10.1075  10.3982  11.4004
    11.5773  11.7147  12.3238  12.4368  12.9523  13.6831  14.0323  14.1599

     occupation numbers 
     1.0000   1.0000   1.0000   1.0000   1.0000   1.0000   1.0000   1.0000
     0.0000   0.0000   0.0000   0.0000   0.0000   0.0000   0.0000   0.0000
     0.0000   0.0000   0.0000   0.0000   0.0000   0.0000   0.0000   0.0000

          k = 0.2000 0.5774 0.0000 (  9948 PWs)   bands (ev):

   -14.7445 -14.7085 -13.7681 -13.7447  -9.9282  -9.8939  -2.6755  -2.4074
     0.2690   0.3484   9.7532   9.9980  10.2920  10.4128  10.8019  10.9209
    11.6793  12.1250  12.6231  12.6430  13.2105  13.2670  13.5896  13.6071

     occupation numbers 
     1.0000   1.0000   1.0000   1.0000   1.0000   1.0000   1.0000   1.0000
     0.0000   0.0000   0.0000   0.0000   0.0000   0.0000   0.0000   0.0000
     0.0000   0.0000   0.0000   0.0000   0.0000   0.0000   0.0000   0.0000

          k = 0.2333 0.4041 0.0000 (  9999 PWs)   bands (ev):

   -16.8784 -16.7988 -11.0886 -11.0646  -9.5563  -9.5383  -4.6429  -4.0417
     2.3837   2.6050   7.3778   7.7156   8.7564   9.2648   9.4427  10.4217
    10.7139  10.9683  11.2143  11.5093  11.6376  12.3378  12.7558  14.2226

     occupation numbers 
     1.0000   1.0000   1.0000   1.0000   1.0000   1.0000   1.0000   1.0000
     0.0000   0.0000   0.0000   0.0000   0.0000   0.0000   0.0000   0.0000
     0.0000   0.0000   0.0000   0.0000   0.0000   0.0000   0.0000   0.0000

          k = 0.2333 0.4426 0.0000 (  9981 PWs)   bands (ev):

   -16.3395 -16.2637 -11.6529 -11.6229  -9.9816  -9.9591  -4.0503  -3.4874
     1.6913   1.9246   8.1336   8.4290   9.4655   9.7962  10.1738  10.8343
    10.9846  11.2260  11.4983  11.9015  12.2679  12.7342  12.8115  14.8106

     occupation numbers 
     1.0000   1.0000   1.0000   1.0000   1.0000   1.0000   1.0000   1.0000
     0.0000   0.0000   0.0000   0.0000   0.0000   0.0000   0.0000   0.0000
     0.0000   0.0000   0.0000   0.0000   0.0000   0.0000   0.0000   0.0000

          k = 0.2333 0.4811 0.0000 (  9971 PWs)   bands (ev):

   -15.7665 -15.6952 -12.2869 -12.2478 -10.2718 -10.2428  -3.4450  -2.9344
     1.0201   1.2636   8.9431   9.1296   9.8578  10.5216  10.6847  10.9470
    11.1824  11.6048  11.6869  12.2480  12.9622  13.2519  13.4158  15.1085

     occupation numbers 
     1.0000   1.0000   1.0000   1.0000   1.0000   1.0000   1.0000   1.0000
     0.0000   0.0000   0.0000   0.0000   0.0000   0.0000   0.0000   0.0000
     0.0000   0.0000   0.0000   0.0000   0.0000   0.0000   0.0000   0.0000

          k = 0.2333 0.5196 0.0000 (  9957 PWs)   bands (ev):

   -15.1756 -15.1106 -12.9382 -12.8936 -10.4481 -10.4149  -2.8686  -2.4397
     0.4358   0.6580   9.6759   9.7850   9.9811  10.7264  11.0870  11.3099
    11.4392  12.0778  12.2639  12.3932  13.2447  13.9297  14.1317  14.5108

     occupation numbers 
     1.0000   1.0000   1.0000   1.0000   1.0000   1.0000   1.0000   1.0000
     0.0000   0.0000   0.0000   0.0000   0.0000   0.0000   0.0000   0.0000
     0.0000   0.0000   0.0000   0.0000   0.0000   0.0000   0.0000   0.0000

          k = 0.2333 0.5581 0.0000 (  9941 PWs)   bands (ev):

   -14.6422 -14.5936 -13.4953 -13.4599 -10.5313 -10.4963  -2.4373  -2.1363
     0.0969   0.2017   9.9053   9.9921  10.6162  10.7830  11.0948  11.5152
    11.7647  12.3901  12.6047  13.1361  13.3246  13.4984  14.0841  14.1697

     occupation numbers 
     1.0000   1.0000   1.0000   1.0000   1.0000   1.0000   1.0000   1.0000
     0.0000   0.0000   0.0000   0.0000   0.0000   0.0000   0.0000   0.0000
     0.0000   0.0000   0.0000   0.0000   0.0000   0.0000   0.0000   0.0000

          k = 0.2667 0.4619 0.0000 (  9977 PWs)   bands (ev):

   -15.7891 -15.7175 -12.0704 -12.0436 -10.4911 -10.4716  -3.4532  -2.9326
     1.0616   1.2980   8.9091   9.0803   9.7907  10.4853  10.7577  11.4676
    11.4747  11.7346  11.7512  12.1988  12.2491  13.1834  13.3116  15.2601

     occupation numbers 
     1.0000   1.0000   1.0000   1.0000   1.0000   1.0000   1.0000   1.0000
     0.0000   0.0000   0.0000   0.0000   0.0000   0.0000   0.0000   0.0000
     0.0000   0.0000   0.0000   0.0000   0.0000   0.0000   0.0000   0.0000

          k = 0.2667 0.5004 0.0000 (  9963 PWs)   bands (ev):

   -15.2123 -15.1459 -12.5769 -12.5442 -10.8444 -10.8206  -2.8509  -2.3869
     0.4500   0.6905   9.5554   9.7170   9.8348  11.0877  11.3496  11.5503
    12.0295  12.0577  12.2645  12.3498  12.9719  13.9137  13.9523  15.1721

     occupation numbers 
     1.0000   1.0000   1.0000   1.0000   1.0000   1.0000   1.0000   1.0000
     0.0000   0.0000   0.0000   0.0000   0.0000   0.0000   0.0000   0.0000
     0.0000   0.0000   0.0000   0.0000   0.0000   0.0000   0.0000   0.0000

          k = 0.2667 0.5389 0.0000 (  9955 PWs)   bands (ev):

   -14.6388 -14.5810 -13.1274 -13.0900 -11.0397 -11.0100  -2.2995  -1.9281
    -0.0578   0.1466   9.7220   9.7882  10.5583  11.4456  11.6400  11.9491
    12.1046  12.3242  12.9677  13.0766  13.3145  14.2710  14.4598  14.7229

     occupation numbers 
     1.0000   1.0000   1.0000   1.0000   1.0000   1.0000   1.0000   1.0000
     0.0000   0.0000   0.0000   0.0000   0.0000   0.0000   0.0000   0.0000
     0.0000   0.0000   0.0000   0.0000   0.0000   0.0000   0.0000   0.0000

          k = 0.2667 0.5774 0.0000 (  9962 PWs)   bands (ev):

   -14.2727 -14.2384 -13.4657 -13.4554 -11.1009 -11.0691  -2.0097  -1.7476
    -0.2403  -0.1549   9.7403   9.7713  11.2110  11.4258  11.5148  11.9723
    12.3587  12.6437  13.2871  13.3603  13.8544  13.9193  14.0828  14.1022

     occupation numbers 
     1.0000   1.0000   1.0000   1.0000   1.0000   1.0000   1.0000   1.0000
     0.0000   0.0000   0.0000   0.0000   0.0000   0.0000   0.0000   0.0000
     0.0000   0.0000   0.0000   0.0000   0.0000   0.0000   0.0000   0.0000

          k = 0.3000 0.5196 0.0000 (  9963 PWs)   bands (ev):

   -14.6445 -14.5846 -12.9322 -12.9027 -11.2660 -11.2482  -2.2548  -1.8476
    -0.1180   0.1310   9.6519   9.7103  10.5258  11.6172  11.8255  12.0547
    12.2913  12.7062  13.0379  13.0874  13.1043  14.5433  14.6767  14.9020

     occupation numbers 
     1.0000   1.0000   1.0000   1.0000   1.0000   1.0000   1.0000   1.0000
     0.0000   0.0000   0.0000   0.0000   0.0000   0.0000   0.0000   0.0000
     0.0000   0.0000   0.0000   0.0000   0.0000   0.0000   0.0000   0.0000

          k = 0.3000 0.5581 0.0000 (  9970 PWs)   bands (ev):

   -14.1185 -14.0717 -13.3442 -13.3165 -11.4830 -11.4644  -1.7293  -1.4191
    -0.5763  -0.3579   9.6194   9.6340  11.2526  11.7776  11.9711  12.2958
    12.8461  13.1499  13.2568  13.8320  13.9510  14.1755  14.4498  14.7054

     occupation numbers 
     1.0000   1.0000   1.0000   1.0000   1.0000   1.0000   1.0000   1.0000
     0.0000   0.0000   0.0000   0.0000   0.0000   0.0000   0.0000   0.0000
     0.0000   0.0000   0.0000   0.0000   0.0000   0.0000   0.0000   0.0000

          k = 0.3333 0.5774 0.0000 (  9978 PWs)   bands (ev):

   -13.6841 -13.6506 -13.6506 -13.6201 -11.6490 -11.6490  -1.2702  -1.0185
    -1.0185  -0.7548   9.5727   9.5727  11.5887  11.9123  11.9124  12.6281
    13.2390  13.2392  13.9419  14.1595  14.1596  14.2207  14.5274  14.5275

     occupation numbers 
     1.0000   1.0000   1.0000   1.0000   1.0000   1.0000   0.9956   0.5007
     0.5007   0.0031   0.0000   0.0000   0.0000   0.0000   0.0000   0.0000
     0.0000   0.0000   0.0000   0.0000   0.0000   0.0000   0.0000   0.0000

     the Fermi energy is    -1.0183 ev
     (compare with:    -1.0187 eV, computed in scf)

     Writing all to output data dir /home/ubuntu/projects/Graphene-Band-Structure-Quantum-Espresso/outputs/field_0/ts/coupled/data/coupled.save/ :
     XML data file, pseudopotentials, collected wavefunctions

     init_run     :      1.58s CPU      1.81s WALL (       1 calls)
     electrons    :    230.45s CPU    235.28s WALL (       1 calls)

     Called by init_run:
     wfcinit      :      0.00s CPU      0.00s WALL (       1 calls)
     wfcinit:atom :      0.04s CPU      0.09s WALL (      23 calls)
     wfcinit:wfcr :      4.35s CPU      4.50s WALL (      23 calls)
     potinit      :      0.62s CPU      0.75s WALL (       1 calls)
     hinit0       :      0.85s CPU      0.89s WALL (       1 calls)
     tsvdw_pair   :      0.00s CPU      0.00s WALL (       1 calls)

     Called by electrons:
     c_bands      :    230.44s CPU    235.26s WALL (       1 calls)
     v_of_rho     :      0.21s CPU      0.31s WALL (       1 calls)
     v_h          :      0.01s CPU      0.01s WALL (       1 calls)
     v_xc         :      0.12s CPU      0.19s WALL (       1 calls)
     tsvdw_rhotot :      0.00s CPU      0.00s WALL (       1 calls)
     tsvdw_screen :      0.04s CPU      0.05s WALL (       1 calls)
     tsvdw_veff   :      0.00s CPU      0.00s WALL (       1 calls)
     tsvdw_dveff  :      0.03s CPU      0.04s WALL (       1 calls)
     tsvdw_energy :      0.01s CPU      0.01s WALL (       1 calls)

     Called by c_bands:
     init_us_2    :      0.07s CPU      0.08s WALL (      23 calls)
     cegterg      :    165.61s CPU    169.36s WALL (      73 calls)

     Called by sum_band:

     Called by *egterg:
     cdiaghg      :      1.35s CPU      1.37s WALL (    1285 calls)
     cegterg:over :     25.70s CPU     26.11s WALL (    1262 calls)
     cegterg:upda :     16.53s CPU     16.96s WALL (    1262 calls)
     cegterg:last :     33.62s CPU     34.14s WALL (     713 calls)
     h_psi        :     88.53s CPU     90.69s WALL (    1358 calls)
     g_psi        :      0.74s CPU      0.76s WALL (    1262 calls)

     Called by h_psi:
     h_psi:calbec :     11.58s CPU     11.79s WALL (    1358 calls)
     vloc_psi     :     64.66s CPU     65.84s WALL (    1358 calls)
     add_vuspsi   :     11.91s CPU     12.10s WALL (    1358 calls)

     General routines
     calbec       :     11.57s CPU     11.79s WALL (    1358 calls)
     fft          :      0.74s CPU      0.75s WALL (      12 calls)
     ffts         :      0.40s CPU      0.41s WALL (       1 calls)
     fftw         :     58.02s CPU     59.12s WALL (   32306 calls)
     interpolate  :      0.41s CPU      0.42s WALL (       1 calls)

     Parallel routines

     PWSCF        :   3m52.29s CPU   3m57.90s WALL


   This run was terminated on:   2:45:58  25Sep2026            

=------------------------------------------------------------------------------=
   JOB DONE.
=------------------------------------------------------------------------------=
Note: The following floating-point exceptions are signalling: IEEE_UNDERFLOW_FLAG IEEE_DENORMAL
Note: The following floating-point exceptions are signalling: IEEE_UNDERFLOW_FLAG IEEE_DENORMAL
Note: The following floating-point exceptions are signalling: IEEE_UNDERFLOW_FLAG IEEE_DENORMAL
Note: The following floating-point exceptions are signalling: IEEE_UNDERFLOW_FLAG IEEE_DENORMAL
