
     Program PWSCF v.7.6 starts on 19Sep2026 at 16:59:20 

     This program is part of the open-source Quantum ESPRESSO suite
     for quantum simulation of materials; please cite
         "P. Giannozzi et al., J. Phys.:Condens. Matter 21 395502 (2009);
         "P. Giannozzi et al., J. Phys.:Condens. Matter 29 465901 (2017);
         "P. Giannozzi et al., J. Chem. Phys. 152 154105 (2020);
          URL http://www.quantum-espresso.org", 
     in publications or presentations arising from this work. More details at
     http://www.quantum-espresso.org/quote

     Parallel version (MPI), running on     4 processors

     MPI processes distributed on     1 nodes
     656 MiB available memory on the printing compute node when the environment starts

     Waiting for input...
     Reading input from standard input
Warning: card &CELL ignored
Warning: card &FCP ignored
Warning: card &RISM ignored

     Current dimensions of program PWSCF are:
     Max number of different atomic species (ntypx) = 10
     Max number of k-points (npk) =  40000
     Max angular momentum in pseudopotentials (lmaxx) =  4
     Presently no symmetry can be used with electric field


     File /home/ubuntu/projects/Graphene-Band-Structure-Quantum-Espresso/outputs/field_0.05/coupled/data/coupled.update deleted, as requested

     File /home/ubuntu/projects/Graphene-Band-Structure-Quantum-Espresso/outputs/field_0.05/coupled/data/coupled.bfgs deleted, as requested
     file C.pbe-n-kjpaw_psl.1.0.0.UPF: wavefunction(s)  2S 2P renormalized

     K-points division:     npool     =       4
     Subspace diagonalization in iterative solution of the eigenvalue problem:
     a serial algorithm will be used


     G-vector sticks info
     --------------------
     sticks:   dense  smooth     PW     G-vecs:    dense   smooth      PW
     Sum         595     361    121               111671    52021   10303

     Using Slab Decomposition



     bravais-lattice index     =            0
     lattice parameter (alat)  =       4.6487  a.u.
     unit-cell volume          =     825.8174 (a.u.)^3
     number of atoms/cell      =            4
     number of atomic types    =            1
     number of electrons       =        16.00
     number of Kohn-Sham states=           14
     kinetic-energy cutoff     =      60.0000  Ry
     charge density cutoff     =     400.0000  Ry
     scf convergence threshold =      1.0E-08
     mixing beta               =       0.7000
     number of iterations used =            8  plain     mixing
     Exchange-correlation= SLA  PW   PBX  PBC
                           (   1   4   3   4   0   0   0)

     celldm(1)=   4.648726  celldm(2)=   0.000000  celldm(3)=   0.000000
     celldm(4)=   0.000000  celldm(5)=   0.000000  celldm(6)=   0.000000

     crystal axes: (cart. coord. in units of alat)
               a(1) = (   1.000000   0.000000   0.000000 )  
               a(2) = (  -0.500000   0.866025   0.000000 )  
               a(3) = (   0.000000   0.000000   9.491870 )  

     reciprocal axes: (cart. coord. in units 2 pi/alat)
               b(1) = (  1.000000  0.577351 -0.000000 )  
               b(2) = (  0.000000  1.154701  0.000000 )  
               b(3) = (  0.000000 -0.000000  0.105353 )  


     PseudoPot. # 1 for C  read from file:
     /home/ubuntu/projects/Graphene-Band-Structure-Quantum-Espresso/pseudo/C.pbe-n-kjpaw_psl.1.0.0.UPF
     MD5 check sum: 5f16ad9a65e90284d1d834d4ab3b0f7d
     Pseudo is Projector augmented-wave + core cor, Zval =  4.0
     Generated using &quot;atomic&quot; code by A. Dal Corso  v.6.3
     Shape of augmentation charge: PSQ
     Using radial grid of 1073 points,  4 beta functions with: 
                l(1) =   0
                l(2) =   0
                l(3) =   1
                l(4) =   1
     Q(r) pseudized with 0 coefficients 


     atomic species   valence    mass     pseudopotential
     C                 4.00    12.01100     C ( 1.00)

     No symmetry found


                                    s                        frac. trans.

      isym =  1     identity                                     

 cryst.   s( 1) = (     1          0          0      )
                  (     0          1          0      )
                  (     0          0          1      )

 cart.    s( 1) = (  1.0000000  0.0000000  0.0000000 )
                  (  0.0000000  1.0000000  0.0000000 )
                  (  0.0000000  0.0000000  1.0000000 )


   Cartesian axes

     site n.     atom                  positions (alat units)
         1        C      tau(   1) = (  -0.0000769   0.0002186   0.9268707  )
         2        C      tau(   2) = (   0.5000756   0.2884466   0.9213759  )
         3        C      tau(   3) = (   0.4997754   0.2886448   8.5675947  )
         4        C      tau(   4) = (   0.0002260   0.5773906   8.5678997  )

     --------------------------------------------
     DFT-D3 Dispersion Correction (3-body terms):
     --------------------------------------------
       Reference C6 values for interpolation: 

         atom   Coordination number   C6
         C          0.000            98.23
         C          0.987            86.49
         C          1.998            58.72
         C          2.999            51.56
         C          3.984            36.41

       Values used:

         atom   Coordination number  R0_AB[au]  C6      C8
         C          3.317            2.750     48.22   1394.72
         C          3.317            2.750     48.22   1394.71
         C          3.317            2.750     48.22   1394.71
         C          3.317            2.750     48.22   1394.71

         Molecular C6 ( Ry / a.u.^6 ) =       771.58


   Crystallographic axes

     site n.     atom                  positions (cryst. coord.)
         1        C      tau(   1) = (  0.0000493  0.0002524  0.0976489  )
         2        C      tau(   2) = (  0.6666104  0.3330696  0.0970700  )
         3        C      tau(   3) = (  0.6664246  0.3332985  0.9026245  )
         4        C      tau(   4) = (  0.3335828  0.6667136  0.9026567  )

     number of k points=   113  Gaussian smearing, width (Ry)=  0.0100
                       cart. coord. in units 2pi/alat
        k(    1) = (   0.0000000   0.0000000   0.0000000), wk =   0.0088889
        k(    2) = (   0.0000000   0.0769801   0.0000000), wk =   0.0177778
        k(    3) = (   0.0000000   0.1539601   0.0000000), wk =   0.0177778
        k(    4) = (   0.0000000   0.2309402   0.0000000), wk =   0.0177778
        k(    5) = (   0.0000000   0.3079203   0.0000000), wk =   0.0177778
        k(    6) = (   0.0000000   0.3849004   0.0000000), wk =   0.0177778
        k(    7) = (   0.0000000   0.4618804   0.0000000), wk =   0.0177778
        k(    8) = (   0.0000000   0.5388605   0.0000000), wk =   0.0177778
        k(    9) = (   0.0666667   0.0384900   0.0000000), wk =   0.0177778
        k(   10) = (   0.0666667   0.1154701   0.0000000), wk =   0.0177778
        k(   11) = (   0.0666667   0.1924502   0.0000000), wk =   0.0177778
        k(   12) = (   0.0666667   0.2694303   0.0000000), wk =   0.0177778
        k(   13) = (   0.0666667   0.3464103   0.0000000), wk =   0.0177778
        k(   14) = (   0.0666667   0.4233904   0.0000000), wk =   0.0177778
        k(   15) = (   0.0666667   0.5003705   0.0000000), wk =   0.0177778
        k(   16) = (   0.0666667   0.5773505   0.0000000), wk =   0.0177778
        k(   17) = (   0.0666667  -0.5003705   0.0000000), wk =   0.0177778
        k(   18) = (   0.0666667  -0.4233904   0.0000000), wk =   0.0177778
        k(   19) = (   0.0666667  -0.3464103   0.0000000), wk =   0.0177778
        k(   20) = (   0.0666667  -0.2694303   0.0000000), wk =   0.0177778
        k(   21) = (   0.0666667  -0.1924502   0.0000000), wk =   0.0177778
        k(   22) = (   0.0666667  -0.1154701   0.0000000), wk =   0.0177778
        k(   23) = (   0.0666667  -0.0384900   0.0000000), wk =   0.0177778
        k(   24) = (   0.1333333   0.0769801   0.0000000), wk =   0.0177778
        k(   25) = (   0.1333333   0.1539601   0.0000000), wk =   0.0177778
        k(   26) = (   0.1333333   0.2309402   0.0000000), wk =   0.0177778
        k(   27) = (   0.1333333   0.3079203   0.0000000), wk =   0.0177778
        k(   28) = (   0.1333333   0.3849004   0.0000000), wk =   0.0177778
        k(   29) = (   0.1333333   0.4618804   0.0000000), wk =   0.0177778
        k(   30) = (   0.1333333   0.5388605   0.0000000), wk =   0.0177778
        k(   31) = (   0.1333333   0.6158406   0.0000000), wk =   0.0177778
        k(   32) = (   0.1333333  -0.4618804   0.0000000), wk =   0.0177778
        k(   33) = (   0.1333333  -0.3849004   0.0000000), wk =   0.0177778
        k(   34) = (   0.1333333  -0.3079203   0.0000000), wk =   0.0177778
        k(   35) = (   0.1333333  -0.2309402   0.0000000), wk =   0.0177778
        k(   36) = (   0.1333333  -0.1539601   0.0000000), wk =   0.0177778
        k(   37) = (   0.1333333  -0.0769801   0.0000000), wk =   0.0177778
        k(   38) = (   0.1333333   0.0000000   0.0000000), wk =   0.0177778
        k(   39) = (   0.2000000   0.1154701   0.0000000), wk =   0.0177778
        k(   40) = (   0.2000000   0.1924502   0.0000000), wk =   0.0177778
        k(   41) = (   0.2000000   0.2694303   0.0000000), wk =   0.0177778
        k(   42) = (   0.2000000   0.3464103   0.0000000), wk =   0.0177778
        k(   43) = (   0.2000000   0.4233904   0.0000000), wk =   0.0177778
        k(   44) = (   0.2000000   0.5003705   0.0000000), wk =   0.0177778
        k(   45) = (   0.2000000   0.5773505   0.0000000), wk =   0.0177778
        k(   46) = (   0.2000000   0.6543306   0.0000000), wk =   0.0177778
        k(   47) = (   0.2000000  -0.4233904   0.0000000), wk =   0.0177778
        k(   48) = (   0.2000000  -0.3464103   0.0000000), wk =   0.0177778
        k(   49) = (   0.2000000  -0.2694303   0.0000000), wk =   0.0177778
        k(   50) = (   0.2000000  -0.1924502   0.0000000), wk =   0.0177778
        k(   51) = (   0.2000000  -0.1154701   0.0000000), wk =   0.0177778
        k(   52) = (   0.2000000  -0.0384900   0.0000000), wk =   0.0177778
        k(   53) = (   0.2000000   0.0384900   0.0000000), wk =   0.0177778
        k(   54) = (   0.2666667   0.1539601   0.0000000), wk =   0.0177778
        k(   55) = (   0.2666667   0.2309402   0.0000000), wk =   0.0177778
        k(   56) = (   0.2666667   0.3079203   0.0000000), wk =   0.0177778
        k(   57) = (   0.2666667   0.3849004   0.0000000), wk =   0.0177778
        k(   58) = (   0.2666667   0.4618804   0.0000000), wk =   0.0177778
        k(   59) = (   0.2666667   0.5388605   0.0000000), wk =   0.0177778
        k(   60) = (   0.2666667   0.6158406   0.0000000), wk =   0.0177778
        k(   61) = (   0.2666667   0.6928206   0.0000000), wk =   0.0177778
        k(   62) = (   0.2666667  -0.3849004   0.0000000), wk =   0.0177778
        k(   63) = (   0.2666667  -0.3079203   0.0000000), wk =   0.0177778
        k(   64) = (   0.2666667  -0.2309402   0.0000000), wk =   0.0177778
        k(   65) = (   0.2666667  -0.1539601   0.0000000), wk =   0.0177778
        k(   66) = (   0.2666667  -0.0769801   0.0000000), wk =   0.0177778
        k(   67) = (   0.2666667   0.0000000   0.0000000), wk =   0.0177778
        k(   68) = (   0.2666667   0.0769801   0.0000000), wk =   0.0177778
        k(   69) = (   0.3333333   0.1924502   0.0000000), wk =   0.0177778
        k(   70) = (   0.3333333   0.2694303   0.0000000), wk =   0.0177778
        k(   71) = (   0.3333333   0.3464103   0.0000000), wk =   0.0177778
        k(   72) = (   0.3333333   0.4233904   0.0000000), wk =   0.0177778
        k(   73) = (   0.3333333   0.5003705   0.0000000), wk =   0.0177778
        k(   74) = (   0.3333333   0.5773505   0.0000000), wk =   0.0177778
        k(   75) = (   0.3333333   0.6543306   0.0000000), wk =   0.0177778
        k(   76) = (   0.3333333   0.7313107   0.0000000), wk =   0.0177778
        k(   77) = (   0.3333333  -0.3464103   0.0000000), wk =   0.0177778
        k(   78) = (   0.3333333  -0.2694303   0.0000000), wk =   0.0177778
        k(   79) = (   0.3333333  -0.1924502   0.0000000), wk =   0.0177778
        k(   80) = (   0.3333333  -0.1154701   0.0000000), wk =   0.0177778
        k(   81) = (   0.3333333  -0.0384900   0.0000000), wk =   0.0177778
        k(   82) = (   0.3333333   0.0384900   0.0000000), wk =   0.0177778
        k(   83) = (   0.3333333   0.1154701   0.0000000), wk =   0.0177778
        k(   84) = (   0.4000000   0.2309402   0.0000000), wk =   0.0177778
        k(   85) = (   0.4000000   0.3079203   0.0000000), wk =   0.0177778
        k(   86) = (   0.4000000   0.3849004   0.0000000), wk =   0.0177778
        k(   87) = (   0.4000000   0.4618804   0.0000000), wk =   0.0177778
        k(   88) = (   0.4000000   0.5388605   0.0000000), wk =   0.0177778
        k(   89) = (   0.4000000   0.6158406   0.0000000), wk =   0.0177778
        k(   90) = (   0.4000000   0.6928206   0.0000000), wk =   0.0177778
        k(   91) = (   0.4000000   0.7698007   0.0000000), wk =   0.0177778
        k(   92) = (   0.4000000  -0.3079203   0.0000000), wk =   0.0177778
        k(   93) = (   0.4000000  -0.2309402   0.0000000), wk =   0.0177778
        k(   94) = (   0.4000000  -0.1539601   0.0000000), wk =   0.0177778
        k(   95) = (   0.4000000  -0.0769801   0.0000000), wk =   0.0177778
        k(   96) = (   0.4000000   0.0000000   0.0000000), wk =   0.0177778
        k(   97) = (   0.4000000   0.0769801   0.0000000), wk =   0.0177778
        k(   98) = (   0.4000000   0.1539601   0.0000000), wk =   0.0177778
        k(   99) = (   0.4666667   0.2694303   0.0000000), wk =   0.0177778
        k(  100) = (   0.4666667   0.3464103   0.0000000), wk =   0.0177778
        k(  101) = (   0.4666667   0.4233904   0.0000000), wk =   0.0177778
        k(  102) = (   0.4666667   0.5003705   0.0000000), wk =   0.0177778
        k(  103) = (   0.4666667   0.5773505   0.0000000), wk =   0.0177778
        k(  104) = (   0.4666667   0.6543306   0.0000000), wk =   0.0177778
        k(  105) = (   0.4666667   0.7313107   0.0000000), wk =   0.0177778
        k(  106) = (   0.4666667   0.8082908   0.0000000), wk =   0.0177778
        k(  107) = (   0.4666667  -0.2694303   0.0000000), wk =   0.0177778
        k(  108) = (   0.4666667  -0.1924502   0.0000000), wk =   0.0177778
        k(  109) = (   0.4666667  -0.1154701   0.0000000), wk =   0.0177778
        k(  110) = (   0.4666667  -0.0384900   0.0000000), wk =   0.0177778
        k(  111) = (   0.4666667   0.0384900   0.0000000), wk =   0.0177778
        k(  112) = (   0.4666667   0.1154701   0.0000000), wk =   0.0177778
        k(  113) = (   0.4666667   0.1924502   0.0000000), wk =   0.0177778

                       cryst. coord.
        k(    1) = (   0.0000000   0.0000000   0.0000000), wk =   0.0088889
        k(    2) = (   0.0000000   0.0666667   0.0000000), wk =   0.0177778
        k(    3) = (   0.0000000   0.1333333   0.0000000), wk =   0.0177778
        k(    4) = (   0.0000000   0.2000000   0.0000000), wk =   0.0177778
        k(    5) = (   0.0000000   0.2666667   0.0000000), wk =   0.0177778
        k(    6) = (   0.0000000   0.3333333   0.0000000), wk =   0.0177778
        k(    7) = (   0.0000000   0.4000000   0.0000000), wk =   0.0177778
        k(    8) = (   0.0000000   0.4666667   0.0000000), wk =   0.0177778
        k(    9) = (   0.0666667   0.0000000   0.0000000), wk =   0.0177778
        k(   10) = (   0.0666667   0.0666667   0.0000000), wk =   0.0177778
        k(   11) = (   0.0666667   0.1333333   0.0000000), wk =   0.0177778
        k(   12) = (   0.0666667   0.2000000   0.0000000), wk =   0.0177778
        k(   13) = (   0.0666667   0.2666667   0.0000000), wk =   0.0177778
        k(   14) = (   0.0666667   0.3333333   0.0000000), wk =   0.0177778
        k(   15) = (   0.0666667   0.4000000   0.0000000), wk =   0.0177778
        k(   16) = (   0.0666667   0.4666667   0.0000000), wk =   0.0177778
        k(   17) = (   0.0666667  -0.4666667   0.0000000), wk =   0.0177778
        k(   18) = (   0.0666667  -0.4000000   0.0000000), wk =   0.0177778
        k(   19) = (   0.0666667  -0.3333333   0.0000000), wk =   0.0177778
        k(   20) = (   0.0666667  -0.2666667   0.0000000), wk =   0.0177778
        k(   21) = (   0.0666667  -0.2000000   0.0000000), wk =   0.0177778
        k(   22) = (   0.0666667  -0.1333333   0.0000000), wk =   0.0177778
        k(   23) = (   0.0666667  -0.0666667   0.0000000), wk =   0.0177778
        k(   24) = (   0.1333333   0.0000000   0.0000000), wk =   0.0177778
        k(   25) = (   0.1333333   0.0666667   0.0000000), wk =   0.0177778
        k(   26) = (   0.1333333   0.1333333   0.0000000), wk =   0.0177778
        k(   27) = (   0.1333333   0.2000000   0.0000000), wk =   0.0177778
        k(   28) = (   0.1333333   0.2666667   0.0000000), wk =   0.0177778
        k(   29) = (   0.1333333   0.3333333   0.0000000), wk =   0.0177778
        k(   30) = (   0.1333333   0.4000000   0.0000000), wk =   0.0177778
        k(   31) = (   0.1333333   0.4666667   0.0000000), wk =   0.0177778
        k(   32) = (   0.1333333  -0.4666667   0.0000000), wk =   0.0177778
        k(   33) = (   0.1333333  -0.4000000   0.0000000), wk =   0.0177778
        k(   34) = (   0.1333333  -0.3333333   0.0000000), wk =   0.0177778
        k(   35) = (   0.1333333  -0.2666667   0.0000000), wk =   0.0177778
        k(   36) = (   0.1333333  -0.2000000   0.0000000), wk =   0.0177778
        k(   37) = (   0.1333333  -0.1333333   0.0000000), wk =   0.0177778
        k(   38) = (   0.1333333  -0.0666667   0.0000000), wk =   0.0177778
        k(   39) = (   0.2000000   0.0000000   0.0000000), wk =   0.0177778
        k(   40) = (   0.2000000   0.0666667   0.0000000), wk =   0.0177778
        k(   41) = (   0.2000000   0.1333333   0.0000000), wk =   0.0177778
        k(   42) = (   0.2000000   0.2000000   0.0000000), wk =   0.0177778
        k(   43) = (   0.2000000   0.2666667   0.0000000), wk =   0.0177778
        k(   44) = (   0.2000000   0.3333333   0.0000000), wk =   0.0177778
        k(   45) = (   0.2000000   0.4000000   0.0000000), wk =   0.0177778
        k(   46) = (   0.2000000   0.4666667   0.0000000), wk =   0.0177778
        k(   47) = (   0.2000000  -0.4666667   0.0000000), wk =   0.0177778
        k(   48) = (   0.2000000  -0.4000000   0.0000000), wk =   0.0177778
        k(   49) = (   0.2000000  -0.3333333   0.0000000), wk =   0.0177778
        k(   50) = (   0.2000000  -0.2666667   0.0000000), wk =   0.0177778
        k(   51) = (   0.2000000  -0.2000000   0.0000000), wk =   0.0177778
        k(   52) = (   0.2000000  -0.1333333   0.0000000), wk =   0.0177778
        k(   53) = (   0.2000000  -0.0666667   0.0000000), wk =   0.0177778
        k(   54) = (   0.2666667   0.0000000   0.0000000), wk =   0.0177778
        k(   55) = (   0.2666667   0.0666667   0.0000000), wk =   0.0177778
        k(   56) = (   0.2666667   0.1333333   0.0000000), wk =   0.0177778
        k(   57) = (   0.2666667   0.2000000   0.0000000), wk =   0.0177778
        k(   58) = (   0.2666667   0.2666667   0.0000000), wk =   0.0177778
        k(   59) = (   0.2666667   0.3333333   0.0000000), wk =   0.0177778
        k(   60) = (   0.2666667   0.4000000   0.0000000), wk =   0.0177778
        k(   61) = (   0.2666667   0.4666667   0.0000000), wk =   0.0177778
        k(   62) = (   0.2666667  -0.4666667   0.0000000), wk =   0.0177778
        k(   63) = (   0.2666667  -0.4000000   0.0000000), wk =   0.0177778
        k(   64) = (   0.2666667  -0.3333333   0.0000000), wk =   0.0177778
        k(   65) = (   0.2666667  -0.2666667   0.0000000), wk =   0.0177778
        k(   66) = (   0.2666667  -0.2000000   0.0000000), wk =   0.0177778
        k(   67) = (   0.2666667  -0.1333333   0.0000000), wk =   0.0177778
        k(   68) = (   0.2666667  -0.0666667   0.0000000), wk =   0.0177778
        k(   69) = (   0.3333333   0.0000000   0.0000000), wk =   0.0177778
        k(   70) = (   0.3333333   0.0666667   0.0000000), wk =   0.0177778
        k(   71) = (   0.3333333   0.1333333   0.0000000), wk =   0.0177778
        k(   72) = (   0.3333333   0.2000000   0.0000000), wk =   0.0177778
        k(   73) = (   0.3333333   0.2666667   0.0000000), wk =   0.0177778
        k(   74) = (   0.3333333   0.3333333   0.0000000), wk =   0.0177778
        k(   75) = (   0.3333333   0.4000000   0.0000000), wk =   0.0177778
        k(   76) = (   0.3333333   0.4666667   0.0000000), wk =   0.0177778
        k(   77) = (   0.3333333  -0.4666667   0.0000000), wk =   0.0177778
        k(   78) = (   0.3333333  -0.4000000   0.0000000), wk =   0.0177778
        k(   79) = (   0.3333333  -0.3333333   0.0000000), wk =   0.0177778
        k(   80) = (   0.3333333  -0.2666667   0.0000000), wk =   0.0177778
        k(   81) = (   0.3333333  -0.2000000   0.0000000), wk =   0.0177778
        k(   82) = (   0.3333333  -0.1333333   0.0000000), wk =   0.0177778
        k(   83) = (   0.3333333  -0.0666667   0.0000000), wk =   0.0177778
        k(   84) = (   0.4000000   0.0000000   0.0000000), wk =   0.0177778
        k(   85) = (   0.4000000   0.0666667   0.0000000), wk =   0.0177778
        k(   86) = (   0.4000000   0.1333333   0.0000000), wk =   0.0177778
        k(   87) = (   0.4000000   0.2000000   0.0000000), wk =   0.0177778
        k(   88) = (   0.4000000   0.2666667   0.0000000), wk =   0.0177778
        k(   89) = (   0.4000000   0.3333333   0.0000000), wk =   0.0177778
        k(   90) = (   0.4000000   0.4000000   0.0000000), wk =   0.0177778
        k(   91) = (   0.4000000   0.4666667   0.0000000), wk =   0.0177778
        k(   92) = (   0.4000000  -0.4666667   0.0000000), wk =   0.0177778
        k(   93) = (   0.4000000  -0.4000000   0.0000000), wk =   0.0177778
        k(   94) = (   0.4000000  -0.3333333   0.0000000), wk =   0.0177778
        k(   95) = (   0.4000000  -0.2666667   0.0000000), wk =   0.0177778
        k(   96) = (   0.4000000  -0.2000000   0.0000000), wk =   0.0177778
        k(   97) = (   0.4000000  -0.1333333   0.0000000), wk =   0.0177778
        k(   98) = (   0.4000000  -0.0666667   0.0000000), wk =   0.0177778
        k(   99) = (   0.4666667   0.0000000   0.0000000), wk =   0.0177778
        k(  100) = (   0.4666667   0.0666667   0.0000000), wk =   0.0177778
        k(  101) = (   0.4666667   0.1333333   0.0000000), wk =   0.0177778
        k(  102) = (   0.4666667   0.2000000   0.0000000), wk =   0.0177778
        k(  103) = (   0.4666667   0.2666667   0.0000000), wk =   0.0177778
        k(  104) = (   0.4666667   0.3333333   0.0000000), wk =   0.0177778
        k(  105) = (   0.4666667   0.4000000   0.0000000), wk =   0.0177778
        k(  106) = (   0.4666667   0.4666667   0.0000000), wk =   0.0177778
        k(  107) = (   0.4666667  -0.4666667   0.0000000), wk =   0.0177778
        k(  108) = (   0.4666667  -0.4000000   0.0000000), wk =   0.0177778
        k(  109) = (   0.4666667  -0.3333333   0.0000000), wk =   0.0177778
        k(  110) = (   0.4666667  -0.2666667   0.0000000), wk =   0.0177778
        k(  111) = (   0.4666667  -0.2000000   0.0000000), wk =   0.0177778
        k(  112) = (   0.4666667  -0.1333333   0.0000000), wk =   0.0177778
        k(  113) = (   0.4666667  -0.0666667   0.0000000), wk =   0.0177778

     Dense  grid:   111671 G-vectors     FFT dimensions: (  30,  30, 288)

     Smooth grid:    52021 G-vectors     FFT dimensions: (  24,  24, 225)

     Dynamical RAM for                 wfc:       1.38 MB

     Dynamical RAM for     wfc (w. buffer):      41.53 MB

     Dynamical RAM for           str. fact:       1.70 MB

     Dynamical RAM for           local pot:       0.00 MB

     Dynamical RAM for          nlocal pot:       3.16 MB

     Dynamical RAM for                qrad:       0.46 MB

     Dynamical RAM for          rho,v,vnew:      11.04 MB

     Dynamical RAM for               rhoin:       3.68 MB

     Dynamical RAM for            rho*nmix:      27.26 MB

     Dynamical RAM for           G-vectors:       6.79 MB

     Dynamical RAM for          h,s,v(r/c):       0.04 MB

     Dynamical RAM for          <psi|beta>:       0.01 MB

     Dynamical RAM for                 psi:       2.77 MB

     Dynamical RAM for                hpsi:       2.77 MB

     Dynamical RAM for                spsi:       2.77 MB

     Dynamical RAM for      wfcinit/wfcrot:       2.77 MB

     Dynamical RAM for           addusdens:      21.30 MB

     Dynamical RAM for          addusforce:      23.43 MB

     Estimated static dynamical RAM per process >      81.67 MB

     Estimated max dynamical RAM per process >     132.37 MB

     Estimated total dynamical RAM >     447.67 MB

     Adding external electric field
        E field amplitude [Ha a.u.]:  5.0000E-02
        Potential amp.        3.9713 Ry
        Total length         39.7126 bohr


     Check: negative core charge=   -0.000003

     Initial potential from superposition of free atoms

     starting charge      15.9998, renormalised to      16.0000

     negative rho (up, down):  1.175E-04 0.000E+00
     Starting wfcs are   16 randomized atomic wfcs
     Checking if some PAW data can be deallocated... 

     total cpu time spent up to now is        3.9 secs

     Self-consistent Calculation

     iteration #  1     ecut=    60.00 Ry     beta= 0.70
     Davidson diagonalization with overlap

---- Real-time Memory Report at c_bands before calling an iterative solver
           113 MiB given to the printing process from OS
             0 MiB allocation reported by mallinfo(arena+hblkhd)
           510 MiB available memory on the node where the printing process lives
------------------
     ethr =  1.00E-02,  avg # of iterations =  9.3

     negative rho (up, down):  6.908E-05 0.000E+00

     total cpu time spent up to now is       20.5 secs

     total energy              =      95.89517892 Ry
     estimated scf accuracy    <     207.97046932 Ry

     iteration #  2     ecut=    60.00 Ry     beta= 0.70
     Davidson diagonalization with overlap

---- Real-time Memory Report at c_bands before calling an iterative solver
           151 MiB given to the printing process from OS
             0 MiB allocation reported by mallinfo(arena+hblkhd)
           392 MiB available memory on the node where the printing process lives
------------------
     c_bands:  4 eigenvalues not converged
     c_bands:  1 eigenvalues not converged
     c_bands:  1 eigenvalues not converged
     c_bands:  2 eigenvalues not converged
     c_bands:  5 eigenvalues not converged
     c_bands:  5 eigenvalues not converged
     c_bands:  2 eigenvalues not converged
     c_bands:  1 eigenvalues not converged
     c_bands:  5 eigenvalues not converged
     c_bands:  4 eigenvalues not converged
     c_bands:  3 eigenvalues not converged
     ethr =  1.00E-02,  avg # of iterations = 23.3

     negative rho (up, down):  4.592E-04 0.000E+00

     total cpu time spent up to now is       76.5 secs

     total energy              =    -157.08564270 Ry
     estimated scf accuracy    <     737.65039820 Ry

     iteration #  3     ecut=    60.00 Ry     beta= 0.70
     Davidson diagonalization with overlap

---- Real-time Memory Report at c_bands before calling an iterative solver
           153 MiB given to the printing process from OS
             0 MiB allocation reported by mallinfo(arena+hblkhd)
           420 MiB available memory on the node where the printing process lives
------------------
     ethr =  1.00E-02,  avg # of iterations =  5.1

     negative rho (up, down):  7.704E-04 0.000E+00

     total cpu time spent up to now is       88.8 secs

     total energy              =    -116.72217094 Ry
     estimated scf accuracy    <     389.77793660 Ry

     iteration #  4     ecut=    60.00 Ry     beta= 0.70
     Davidson diagonalization with overlap

---- Real-time Memory Report at c_bands before calling an iterative solver
           155 MiB given to the printing process from OS
             0 MiB allocation reported by mallinfo(arena+hblkhd)
           416 MiB available memory on the node where the printing process lives
------------------
     ethr =  1.00E-02,  avg # of iterations =  2.3

     negative rho (up, down):  6.827E-04 0.000E+00

     total cpu time spent up to now is       94.7 secs

     total energy              =     -92.98683339 Ry
     estimated scf accuracy    <     334.48281738 Ry

     iteration #  5     ecut=    60.00 Ry     beta= 0.70
     Davidson diagonalization with overlap

---- Real-time Memory Report at c_bands before calling an iterative solver
           156 MiB given to the printing process from OS
             0 MiB allocation reported by mallinfo(arena+hblkhd)
           412 MiB available memory on the node where the printing process lives
------------------
     ethr =  1.00E-02,  avg # of iterations =  2.2

     negative rho (up, down):  1.418E-03 0.000E+00

     total cpu time spent up to now is      100.3 secs

     total energy              =     -91.06628039 Ry
     estimated scf accuracy    <     282.92668748 Ry

     iteration #  6     ecut=    60.00 Ry     beta= 0.70
     Davidson diagonalization with overlap

---- Real-time Memory Report at c_bands before calling an iterative solver
           158 MiB given to the printing process from OS
             0 MiB allocation reported by mallinfo(arena+hblkhd)
           411 MiB available memory on the node where the printing process lives
------------------
     ethr =  1.00E-02,  avg # of iterations =  1.3

     negative rho (up, down):  2.640E-03 0.000E+00

     total cpu time spent up to now is      106.8 secs

     total energy              =     -44.58292249 Ry
     estimated scf accuracy    <     270.22455423 Ry

     iteration #  7     ecut=    60.00 Ry     beta= 0.70
     Davidson diagonalization with overlap

---- Real-time Memory Report at c_bands before calling an iterative solver
           160 MiB given to the printing process from OS
             0 MiB allocation reported by mallinfo(arena+hblkhd)
           409 MiB available memory on the node where the printing process lives
------------------
     ethr =  1.00E-02,  avg # of iterations = 13.5

     negative rho (up, down):  1.451E-04 0.000E+00

     total cpu time spent up to now is      138.3 secs

     total energy              =     -68.60184295 Ry
     estimated scf accuracy    <     263.39392876 Ry

     iteration #  8     ecut=    60.00 Ry     beta= 0.70
     Davidson diagonalization with overlap

---- Real-time Memory Report at c_bands before calling an iterative solver
           161 MiB given to the printing process from OS
             0 MiB allocation reported by mallinfo(arena+hblkhd)
           400 MiB available memory on the node where the printing process lives
------------------
     ethr =  1.00E-02,  avg # of iterations =  8.2

     negative rho (up, down):  8.897E-05 0.000E+00

     total cpu time spent up to now is      151.1 secs

     total energy              =     -77.24387160 Ry
     estimated scf accuracy    <       1.36062025 Ry

     iteration #  9     ecut=    60.00 Ry     beta= 0.70
     Davidson diagonalization with overlap

---- Real-time Memory Report at c_bands before calling an iterative solver
           163 MiB given to the printing process from OS
             0 MiB allocation reported by mallinfo(arena+hblkhd)
           395 MiB available memory on the node where the printing process lives
------------------
     ethr =  8.50E-03,  avg # of iterations =  3.8

     negative rho (up, down):  8.290E-05 0.000E+00

     total cpu time spent up to now is      158.6 secs

     total energy              =     -77.54399571 Ry
     estimated scf accuracy    <       1.31227549 Ry

     iteration # 10     ecut=    60.00 Ry     beta= 0.70
     Davidson diagonalization with overlap

---- Real-time Memory Report at c_bands before calling an iterative solver
           164 MiB given to the printing process from OS
             0 MiB allocation reported by mallinfo(arena+hblkhd)
           403 MiB available memory on the node where the printing process lives
------------------
     ethr =  8.20E-03,  avg # of iterations =  1.4

     negative rho (up, down):  2.794E-02 0.000E+00

     total cpu time spent up to now is      164.0 secs

     total energy              =     -77.00523031 Ry
     estimated scf accuracy    <       0.85551524 Ry

     iteration # 11     ecut=    60.00 Ry     beta= 0.70
     Davidson diagonalization with overlap

---- Real-time Memory Report at c_bands before calling an iterative solver
           164 MiB given to the printing process from OS
             0 MiB allocation reported by mallinfo(arena+hblkhd)
           398 MiB available memory on the node where the printing process lives
------------------
     ethr =  5.35E-03,  avg # of iterations =  5.9

     negative rho (up, down):  1.945E-04 0.000E+00

     total cpu time spent up to now is      172.4 secs

     total energy              =     -77.93271217 Ry
     estimated scf accuracy    <      91.88861576 Ry

     iteration # 12     ecut=    60.00 Ry     beta= 0.70
     Davidson diagonalization with overlap

---- Real-time Memory Report at c_bands before calling an iterative solver
           164 MiB given to the printing process from OS
             0 MiB allocation reported by mallinfo(arena+hblkhd)
           405 MiB available memory on the node where the printing process lives
------------------
     ethr =  5.35E-03,  avg # of iterations =  2.7

     negative rho (up, down):  2.197E-04 0.000E+00

     total cpu time spent up to now is      177.7 secs

     total energy              =     -73.35127872 Ry
     estimated scf accuracy    <      42.40450584 Ry

     iteration # 13     ecut=    60.00 Ry     beta= 0.70
     Davidson diagonalization with overlap

---- Real-time Memory Report at c_bands before calling an iterative solver
           164 MiB given to the printing process from OS
             0 MiB allocation reported by mallinfo(arena+hblkhd)
           400 MiB available memory on the node where the printing process lives
------------------
     ethr =  5.35E-03,  avg # of iterations =  6.9

     negative rho (up, down):  7.898E-05 0.000E+00

     total cpu time spent up to now is      188.5 secs

     total energy              =     -77.30614374 Ry
     estimated scf accuracy    <       7.94163401 Ry

     iteration # 14     ecut=    60.00 Ry     beta= 0.70
     Davidson diagonalization with overlap

---- Real-time Memory Report at c_bands before calling an iterative solver
           164 MiB given to the printing process from OS
             0 MiB allocation reported by mallinfo(arena+hblkhd)
           414 MiB available memory on the node where the printing process lives
------------------
     ethr =  5.35E-03,  avg # of iterations =  1.3

     negative rho (up, down):  5.707E-04 0.000E+00

     total cpu time spent up to now is      194.9 secs

     total energy              =     -77.48206800 Ry
     estimated scf accuracy    <       1.04957683 Ry

     iteration # 15     ecut=    60.00 Ry     beta= 0.70
     Davidson diagonalization with overlap

---- Real-time Memory Report at c_bands before calling an iterative solver
           164 MiB given to the printing process from OS
             0 MiB allocation reported by mallinfo(arena+hblkhd)
           396 MiB available memory on the node where the printing process lives
------------------
     ethr =  5.35E-03,  avg # of iterations =  1.0

     negative rho (up, down):  5.659E-04 0.000E+00

     total cpu time spent up to now is      199.3 secs

     total energy              =     -77.39820426 Ry
     estimated scf accuracy    <       1.15190689 Ry

     iteration # 16     ecut=    60.00 Ry     beta= 0.70
     Davidson diagonalization with overlap

---- Real-time Memory Report at c_bands before calling an iterative solver
           164 MiB given to the printing process from OS
             0 MiB allocation reported by mallinfo(arena+hblkhd)
           394 MiB available memory on the node where the printing process lives
------------------
     ethr =  5.35E-03,  avg # of iterations =  1.2

     negative rho (up, down):  5.608E-04 0.000E+00

     total cpu time spent up to now is      205.1 secs

     total energy              =     -77.41062120 Ry
     estimated scf accuracy    <       0.24442412 Ry

     iteration # 17     ecut=    60.00 Ry     beta= 0.70
     Davidson diagonalization with overlap

---- Real-time Memory Report at c_bands before calling an iterative solver
           164 MiB given to the printing process from OS
             0 MiB allocation reported by mallinfo(arena+hblkhd)
           394 MiB available memory on the node where the printing process lives
------------------
     ethr =  1.53E-03,  avg # of iterations =  1.8

     negative rho (up, down):  3.833E-04 0.000E+00

     total cpu time spent up to now is      210.3 secs

     total energy              =     -77.40344754 Ry
     estimated scf accuracy    <       0.16714883 Ry

     iteration # 18     ecut=    60.00 Ry     beta= 0.70
     Davidson diagonalization with overlap

---- Real-time Memory Report at c_bands before calling an iterative solver
           164 MiB given to the printing process from OS
             0 MiB allocation reported by mallinfo(arena+hblkhd)
           409 MiB available memory on the node where the printing process lives
------------------
     ethr =  1.04E-03,  avg # of iterations =  2.1

     negative rho (up, down):  3.954E-04 0.000E+00

     total cpu time spent up to now is      215.6 secs

     total energy              =     -77.42423904 Ry
     estimated scf accuracy    <       0.11834275 Ry

     iteration # 19     ecut=    60.00 Ry     beta= 0.70
     Davidson diagonalization with overlap

---- Real-time Memory Report at c_bands before calling an iterative solver
           164 MiB given to the printing process from OS
             0 MiB allocation reported by mallinfo(arena+hblkhd)
           410 MiB available memory on the node where the printing process lives
------------------
     ethr =  7.40E-04,  avg # of iterations =  1.4

     negative rho (up, down):  4.349E-04 0.000E+00

     total cpu time spent up to now is      220.5 secs

     total energy              =     -77.43461439 Ry
     estimated scf accuracy    <       0.46398672 Ry

     iteration # 20     ecut=    60.00 Ry     beta= 0.70
     Davidson diagonalization with overlap

---- Real-time Memory Report at c_bands before calling an iterative solver
           164 MiB given to the printing process from OS
             0 MiB allocation reported by mallinfo(arena+hblkhd)
           411 MiB available memory on the node where the printing process lives
------------------
     ethr =  7.40E-04,  avg # of iterations =  1.0

     negative rho (up, down):  1.043E-04 0.000E+00

     total cpu time spent up to now is      225.2 secs

     total energy              =     -77.40423359 Ry
     estimated scf accuracy    <       0.52127641 Ry

     iteration # 21     ecut=    60.00 Ry     beta= 0.70
     Davidson diagonalization with overlap

---- Real-time Memory Report at c_bands before calling an iterative solver
           164 MiB given to the printing process from OS
             0 MiB allocation reported by mallinfo(arena+hblkhd)
           388 MiB available memory on the node where the printing process lives
------------------
     ethr =  7.40E-04,  avg # of iterations =  2.9

     negative rho (up, down):  1.235E-04 0.000E+00

     total cpu time spent up to now is      232.1 secs

     total energy              =     -77.38358860 Ry
     estimated scf accuracy    <       0.16947057 Ry

     iteration # 22     ecut=    60.00 Ry     beta= 0.70
     Davidson diagonalization with overlap

---- Real-time Memory Report at c_bands before calling an iterative solver
           164 MiB given to the printing process from OS
             0 MiB allocation reported by mallinfo(arena+hblkhd)
           419 MiB available memory on the node where the printing process lives
------------------
     ethr =  7.40E-04,  avg # of iterations =  4.3

     negative rho (up, down):  1.233E-04 0.000E+00

     total cpu time spent up to now is      238.3 secs

     total energy              =     -77.38955864 Ry
     estimated scf accuracy    <       0.01595130 Ry

     iteration # 23     ecut=    60.00 Ry     beta= 0.70
     Davidson diagonalization with overlap

---- Real-time Memory Report at c_bands before calling an iterative solver
           164 MiB given to the printing process from OS
             0 MiB allocation reported by mallinfo(arena+hblkhd)
           419 MiB available memory on the node where the printing process lives
------------------
     ethr =  9.97E-05,  avg # of iterations =  5.0

     negative rho (up, down):  1.253E-04 0.000E+00

     total cpu time spent up to now is      246.4 secs

     total energy              =     -77.38846620 Ry
     estimated scf accuracy    <       0.00854634 Ry

     iteration # 24     ecut=    60.00 Ry     beta= 0.70
     Davidson diagonalization with overlap

---- Real-time Memory Report at c_bands before calling an iterative solver
           164 MiB given to the printing process from OS
             0 MiB allocation reported by mallinfo(arena+hblkhd)
           405 MiB available memory on the node where the printing process lives
------------------
     ethr =  5.34E-05,  avg # of iterations =  2.5

     negative rho (up, down):  1.272E-04 0.000E+00

     total cpu time spent up to now is      252.4 secs

     total energy              =     -77.38943429 Ry
     estimated scf accuracy    <       0.00558675 Ry

     iteration # 25     ecut=    60.00 Ry     beta= 0.70
     Davidson diagonalization with overlap

---- Real-time Memory Report at c_bands before calling an iterative solver
           164 MiB given to the printing process from OS
             0 MiB allocation reported by mallinfo(arena+hblkhd)
           398 MiB available memory on the node where the printing process lives
------------------
     ethr =  3.49E-05,  avg # of iterations =  1.2

     negative rho (up, down):  1.216E-04 0.000E+00

     total cpu time spent up to now is      259.2 secs

     total energy              =     -77.38944285 Ry
     estimated scf accuracy    <       0.01084606 Ry

     iteration # 26     ecut=    60.00 Ry     beta= 0.70
     Davidson diagonalization with overlap

---- Real-time Memory Report at c_bands before calling an iterative solver
           164 MiB given to the printing process from OS
             0 MiB allocation reported by mallinfo(arena+hblkhd)
           399 MiB available memory on the node where the printing process lives
------------------
     ethr =  3.49E-05,  avg # of iterations =  1.0

     negative rho (up, down):  1.230E-04 0.000E+00

     total cpu time spent up to now is      264.9 secs

     total energy              =     -77.38975863 Ry
     estimated scf accuracy    <       0.01073044 Ry

     iteration # 27     ecut=    60.00 Ry     beta= 0.70
     Davidson diagonalization with overlap

---- Real-time Memory Report at c_bands before calling an iterative solver
           164 MiB given to the printing process from OS
             0 MiB allocation reported by mallinfo(arena+hblkhd)
           398 MiB available memory on the node where the printing process lives
------------------
     ethr =  3.49E-05,  avg # of iterations =  1.2

     negative rho (up, down):  1.246E-04 0.000E+00

     total cpu time spent up to now is      270.1 secs

     total energy              =     -77.38878127 Ry
     estimated scf accuracy    <       0.02385810 Ry

     iteration # 28     ecut=    60.00 Ry     beta= 0.70
     Davidson diagonalization with overlap

---- Real-time Memory Report at c_bands before calling an iterative solver
           164 MiB given to the printing process from OS
             0 MiB allocation reported by mallinfo(arena+hblkhd)
           398 MiB available memory on the node where the printing process lives
------------------
     ethr =  3.49E-05,  avg # of iterations =  1.0

     negative rho (up, down):  1.236E-04 0.000E+00

     total cpu time spent up to now is      276.1 secs

     total energy              =     -77.38910827 Ry
     estimated scf accuracy    <       0.00111217 Ry

     iteration # 29     ecut=    60.00 Ry     beta= 0.70
     Davidson diagonalization with overlap

---- Real-time Memory Report at c_bands before calling an iterative solver
           164 MiB given to the printing process from OS
             0 MiB allocation reported by mallinfo(arena+hblkhd)
           399 MiB available memory on the node where the printing process lives
------------------
     ethr =  6.95E-06,  avg # of iterations =  2.1

     negative rho (up, down):  1.231E-04 0.000E+00

     total cpu time spent up to now is      281.7 secs

     total energy              =     -77.38914038 Ry
     estimated scf accuracy    <       0.00000057 Ry

     iteration # 30     ecut=    60.00 Ry     beta= 0.70
     Davidson diagonalization with overlap

---- Real-time Memory Report at c_bands before calling an iterative solver
           164 MiB given to the printing process from OS
             0 MiB allocation reported by mallinfo(arena+hblkhd)
           400 MiB available memory on the node where the printing process lives
------------------
     ethr =  3.56E-09,  avg # of iterations =  4.1

     negative rho (up, down):  1.232E-04 0.000E+00

     total cpu time spent up to now is      289.4 secs

     total energy              =     -77.38914008 Ry
     estimated scf accuracy    <       0.00001963 Ry

     iteration # 31     ecut=    60.00 Ry     beta= 0.70
     Davidson diagonalization with overlap

---- Real-time Memory Report at c_bands before calling an iterative solver
           164 MiB given to the printing process from OS
             0 MiB allocation reported by mallinfo(arena+hblkhd)
           402 MiB available memory on the node where the printing process lives
------------------
     ethr =  3.56E-09,  avg # of iterations =  1.2

     negative rho (up, down):  1.232E-04 0.000E+00

     total cpu time spent up to now is      294.9 secs

     total energy              =     -77.38914064 Ry
     estimated scf accuracy    <       0.00000011 Ry

     iteration # 32     ecut=    60.00 Ry     beta= 0.70
     Davidson diagonalization with overlap

---- Real-time Memory Report at c_bands before calling an iterative solver
           164 MiB given to the printing process from OS
             0 MiB allocation reported by mallinfo(arena+hblkhd)
           402 MiB available memory on the node where the printing process lives
------------------
     ethr =  6.80E-10,  avg # of iterations =  1.0

     negative rho (up, down):  1.232E-04 0.000E+00

     total cpu time spent up to now is      299.6 secs

     total energy              =     -77.38914063 Ry
     estimated scf accuracy    <       0.00000016 Ry

     iteration # 33     ecut=    60.00 Ry     beta= 0.70
     Davidson diagonalization with overlap

---- Real-time Memory Report at c_bands before calling an iterative solver
           164 MiB given to the printing process from OS
             0 MiB allocation reported by mallinfo(arena+hblkhd)
           402 MiB available memory on the node where the printing process lives
------------------
     ethr =  6.80E-10,  avg # of iterations =  1.0

     negative rho (up, down):  1.232E-04 0.000E+00

     total cpu time spent up to now is      305.0 secs

     End of self-consistent calculation

          k = 0.0000 0.0000 0.0000 (  6469 PWs)   bands (ev):

   -21.8064 -17.2561 -10.2236  -7.2049  -5.2519  -5.2172  -3.0966  -0.2997
    -0.2669   1.8941   3.1391   3.7677   4.1577   5.3365

     occupation numbers 
     1.0000   1.0000   1.0000   1.0000   1.0000   1.0000   1.0000   0.0000
     0.0000   0.0000   0.0000   0.0000   0.0000   0.0000

          k = 0.0000 0.0770 0.0000 (  6464 PWs)   bands (ev):

   -21.7007 -17.1486 -10.0951  -7.0745  -5.6462  -5.4741  -2.9608  -0.7302
    -0.4984   2.0374   3.2853   3.9133   4.3018   5.4799

     occupation numbers 
     1.0000   1.0000   1.0000   1.0000   1.0000   1.0000   1.0000   0.0000
     0.0000   0.0000   0.0000   0.0000   0.0000   0.0000

          k = 0.0000 0.1540 0.0000 (  6496 PWs)   bands (ev):

   -21.3845 -16.8270  -9.7116  -6.7826  -6.6848  -6.0402  -2.5541  -1.9011
    -1.0552   2.4668   3.7238   4.3500   4.7338   5.9071

     occupation numbers 
     1.0000   1.0000   1.0000   1.0000   1.0000   1.0000   1.0000   1.0000
     0.0009   0.0000   0.0000   0.0000   0.0000   0.0000

          k = 0.0000 0.2309 0.0000 (  6474 PWs)   bands (ev):

   -20.8599 -16.2937  -9.0799  -8.3404  -6.7482  -6.0420  -3.4985  -1.8798
    -1.7532   3.1796   4.4534   5.0754   5.4478   6.0646

     occupation numbers 
     1.0000   1.0000   1.0000   1.0000   1.0000   1.0000   1.0000   1.0000
     1.0000   0.0000   0.0000   0.0000   0.0000   0.0000

          k = 0.0000 0.3079 0.0000 (  6492 PWs)   bands (ev):

   -20.1313 -15.5538 -10.0842  -8.2130  -7.4374  -5.2832  -5.1535  -2.4344
    -0.9466   4.1221   4.5848   5.4728   5.8167   6.0958

     occupation numbers 
     1.0000   1.0000   1.0000   1.0000   1.0000   1.0000   1.0000   1.0000
     0.0000   0.0000   0.0000   0.0000   0.0000   0.0000

          k = 0.0000 0.3849 0.0000 (  6484 PWs)   bands (ev):

   -19.2062 -14.6166 -11.8598  -8.0108  -7.1442  -7.0846  -4.0626  -3.0022
     0.2105   2.6295   5.4023   5.6129   5.8363   6.7984

     occupation numbers 
     1.0000   1.0000   1.0000   1.0000   1.0000   1.0000   1.0000   1.0000
     0.0000   0.0000   0.0000   0.0000   0.0000   0.0000

          k = 0.0000 0.4619 0.0000 (  6490 PWs)   bands (ev):

   -18.1006 -13.5687 -13.5033  -8.8132  -8.4154  -5.9549  -3.4033  -2.8340
     0.6182   1.7701   4.0246   5.3393   7.0359   7.8297

     occupation numbers 
     1.0000   1.0000   1.0000   1.0000   1.0000   1.0000   1.0000   1.0000
     0.0000   0.0000   0.0000   0.0000   0.0000   0.0000

          k = 0.0000 0.5389 0.0000 (  6524 PWs)   bands (ev):

   -16.8918 -15.0890 -12.3224 -10.3115  -8.6236  -4.9417  -3.6098  -1.7828
    -0.6019   2.0953   3.8429   5.2323   5.6943   8.8401

     occupation numbers 
     1.0000   1.0000   1.0000   1.0000   1.0000   1.0000   1.0000   1.0000
     0.0000   0.0000   0.0000   0.0000   0.0000   0.0000

          k = 0.0667 0.0385 0.0000 (  6464 PWs)   bands (ev):

   -21.7008 -17.1486 -10.0951  -7.0745  -5.6655  -5.4544  -2.9608  -0.7128
    -0.5161   2.0374   3.2853   3.9133   4.3018   5.4798

     occupation numbers 
     1.0000   1.0000   1.0000   1.0000   1.0000   1.0000   1.0000   0.0000
     0.0000   0.0000   0.0000   0.0000   0.0000   0.0000

          k = 0.0667 0.1155 0.0000 (  6499 PWs)   bands (ev):

   -21.4898 -16.9340  -9.8391  -6.8146  -6.3778  -5.9196  -2.6895  -1.4725
    -0.9525   2.3238   3.5777   4.2045   4.5901   5.7661

     occupation numbers 
     1.0000   1.0000   1.0000   1.0000   1.0000   1.0000   1.0000   0.8899
     0.0000   0.0000   0.0000   0.0000   0.0000   0.0000

          k = 0.0667 0.1925 0.0000 (  6491 PWs)   bands (ev):

   -21.0694 -16.5065  -9.3311  -7.6315  -6.6522  -6.2981  -2.7742  -2.1488
    -1.6657   2.8956   4.1620   4.7860   5.1655   6.3226

     occupation numbers 
     1.0000   1.0000   1.0000   1.0000   1.0000   1.0000   1.0000   1.0000
     0.9994   0.0000   0.0000   0.0000   0.0000   0.0000

          k = 0.0667 0.2694 0.0000 (  6480 PWs)   bands (ev):

   -20.4428 -15.8699  -9.2242  -8.5803  -7.4110  -5.5343  -4.4050  -2.4164
    -1.3437   3.7457   5.0321   5.3237   5.6615   6.0215

     occupation numbers 
     1.0000   1.0000   1.0000   1.0000   1.0000   1.0000   1.0000   1.0000
     0.4551   0.0000   0.0000   0.0000   0.0000   0.0000

          k = 0.0667 0.3464 0.0000 (  6491 PWs)   bands (ev):

   -19.6158 -15.0310 -10.9530  -8.0733  -7.6089  -6.1674  -4.5405  -3.0748
    -0.2894   3.4780   4.9050   6.1023   6.2422   6.6777

     occupation numbers 
     1.0000   1.0000   1.0000   1.0000   1.0000   1.0000   1.0000   1.0000
     0.0000   0.0000   0.0000   0.0000   0.0000   0.0000

          k = 0.0667 0.4234 0.0000 (  6487 PWs)   bands (ev):

   -18.5992 -14.0033 -12.6815  -8.5769  -7.9209  -6.4643  -3.5774  -3.3628
     0.8737   1.7649   4.8450   5.8768   6.3439   7.6711

     occupation numbers 
     1.0000   1.0000   1.0000   1.0000   1.0000   1.0000   1.0000   1.0000
     0.0000   0.0000   0.0000   0.0000   0.0000   0.0000

          k = 0.0667 0.5004 0.0000 (  6503 PWs)   bands (ev):

   -17.4230 -14.3082 -12.8284  -9.5545  -8.8897  -5.2956  -3.8884  -2.1496
    -0.0747   2.2817   3.5084   5.7367   6.7676   8.0014

     occupation numbers 
     1.0000   1.0000   1.0000   1.0000   1.0000   1.0000   1.0000   1.0000
     0.0000   0.0000   0.0000   0.0000   0.0000   0.0000

          k = 0.0667 0.5774 0.0000 (  6480 PWs)   bands (ev):

   -16.4580 -15.4269 -11.9320 -10.6075  -8.9955  -4.6651  -3.9937  -1.5178
    -0.7944   1.9575   4.5447   4.9506   5.6875   9.8072

     occupation numbers 
     1.0000   1.0000   1.0000   1.0000   1.0000   1.0000   1.0000   0.9551
     0.0000   0.0000   0.0000   0.0000   0.0000   0.0000

          k = 0.0667-0.5004 0.0000 (  6503 PWs)   bands (ev):

   -17.4230 -14.3083 -12.8285  -9.5549  -8.8895  -5.2953  -3.8878  -2.1489
    -0.0753   2.2810   3.5080   5.7371   6.7669   8.0014

     occupation numbers 
     1.0000   1.0000   1.0000   1.0000   1.0000   1.0000   1.0000   1.0000
     0.0000   0.0000   0.0000   0.0000   0.0000   0.0000

          k = 0.0667-0.4234 0.0000 (  6487 PWs)   bands (ev):

   -18.5992 -14.0034 -12.6818  -8.5765  -7.9220  -6.4640  -3.5760  -3.3620
     0.8737   1.7643   4.8428   5.8778   6.3439   7.6711

     occupation numbers 
     1.0000   1.0000   1.0000   1.0000   1.0000   1.0000   1.0000   1.0000
     0.0000   0.0000   0.0000   0.0000   0.0000   0.0000

          k = 0.0667-0.3464 0.0000 (  6491 PWs)   bands (ev):

   -19.6159 -15.0311 -10.9538  -8.0723  -7.6086  -6.1700  -4.5400  -3.0716
    -0.2892   3.4768   4.9052   6.1038   6.2425   6.6755

     occupation numbers 
     1.0000   1.0000   1.0000   1.0000   1.0000   1.0000   1.0000   1.0000
     0.0000   0.0000   0.0000   0.0000   0.0000   0.0000

          k = 0.0667-0.2694 0.0000 (  6480 PWs)   bands (ev):

   -20.4429 -15.8700  -9.2261  -8.5801  -7.4089  -5.5339  -4.4107  -2.4098
    -1.3436   3.7457   5.0321   5.3225   5.6616   6.0217

     occupation numbers 
     1.0000   1.0000   1.0000   1.0000   1.0000   1.0000   1.0000   1.0000
     0.4544   0.0000   0.0000   0.0000   0.0000   0.0000

          k = 0.0667-0.1925 0.0000 (  6491 PWs)   bands (ev):

   -21.0694 -16.5066  -9.3310  -7.6358  -6.6475  -6.2978  -2.7867  -2.1487
    -1.6520   2.8956   4.1621   4.7860   5.1656   6.3234

     occupation numbers 
     1.0000   1.0000   1.0000   1.0000   1.0000   1.0000   1.0000   1.0000
     0.9990   0.0000   0.0000   0.0000   0.0000   0.0000

          k = 0.0667-0.1155 0.0000 (  6499 PWs)   bands (ev):

   -21.4898 -16.9341  -9.8390  -6.8144  -6.3866  -5.9105  -2.6895  -1.4968
    -0.9269   2.3239   3.5777   4.2046   4.5901   5.7662

     occupation numbers 
     1.0000   1.0000   1.0000   1.0000   1.0000   1.0000   1.0000   0.9304
     0.0000   0.0000   0.0000   0.0000   0.0000   0.0000

          k = 0.0667-0.0385 0.0000 (  6464 PWs)   bands (ev):

   -21.7008 -17.1486 -10.0950  -7.0744  -5.6737  -5.4460  -2.9608  -0.7389
    -0.4894   2.0374   3.2853   3.9133   4.3018   5.4799

     occupation numbers 
     1.0000   1.0000   1.0000   1.0000   1.0000   1.0000   1.0000   0.0000
     0.0000   0.0000   0.0000   0.0000   0.0000   0.0000

          k = 0.1333 0.0770 0.0000 (  6496 PWs)   bands (ev):

   -21.3846 -16.8269  -9.7114  -6.7978  -6.6849  -6.0239  -2.5541  -1.8875
    -1.0700   2.4669   3.7238   4.3499   4.7337   5.9076

     occupation numbers 
     1.0000   1.0000   1.0000   1.0000   1.0000   1.0000   1.0000   1.0000
     0.0015   0.0000   0.0000   0.0000   0.0000   0.0000

          k = 0.1333 0.1540 0.0000 (  6491 PWs)   bands (ev):

   -21.0695 -16.5065  -9.3310  -7.6392  -6.6436  -6.2982  -2.7674  -2.1488
    -1.6732   2.8956   4.1621   4.7860   5.1655   6.3236

     occupation numbers 
     1.0000   1.0000   1.0000   1.0000   1.0000   1.0000   1.0000   1.0000
     0.9995   0.0000   0.0000   0.0000   0.0000   0.0000

          k = 0.1333 0.2309 0.0000 (  6457 PWs)   bands (ev):

   -20.5470 -15.9756  -8.7453  -8.6971  -7.6176  -5.6601  -3.9194  -2.6264
    -1.4765   3.6081   4.8919   5.5105   5.6225   5.8933

     occupation numbers 
     1.0000   1.0000   1.0000   1.0000   1.0000   1.0000   1.0000   1.0000
     0.8974   0.0000   0.0000   0.0000   0.0000   0.0000

          k = 0.1333 0.3079 0.0000 (  6480 PWs)   bands (ev):

   -19.8220 -15.2397 -10.1392  -8.5293  -7.8443  -5.3599  -4.7832  -3.5319
    -0.5447   4.0348   4.6120   5.9146   6.5238   6.8871

     occupation numbers 
     1.0000   1.0000   1.0000   1.0000   1.0000   1.0000   1.0000   1.0000
     0.0000   0.0000   0.0000   0.0000   0.0000   0.0000

          k = 0.1333 0.3849 0.0000 (  6474 PWs)   bands (ev):

   -18.9027 -14.3085 -11.7401  -9.2043  -6.9837  -6.7826  -4.2164  -3.6931
     0.6169   2.3488   5.5897   5.8728   7.1741   7.2931

     occupation numbers 
     1.0000   1.0000   1.0000   1.0000   1.0000   1.0000   1.0000   1.0000
     0.0000   0.0000   0.0000   0.0000   0.0000   0.0000

          k = 0.1333 0.4619 0.0000 (  6494 PWs)   bands (ev):

   -17.8066 -13.3619 -13.2048  -9.6494  -8.6192  -5.5954  -4.6670  -2.4676
     0.5828   2.0645   3.9173   7.0050   7.4131   7.9713

     occupation numbers 
     1.0000   1.0000   1.0000   1.0000   1.0000   1.0000   1.0000   1.0000
     0.0000   0.0000   0.0000   0.0000   0.0000   0.0000

          k = 0.1333 0.5389 0.0000 (  6490 PWs)   bands (ev):

   -16.6134 -14.8358 -12.0365 -10.0716  -9.8717  -4.8923  -4.5627  -1.4093
    -0.6488   2.2123   4.0218   5.8652   6.9387   9.1129

     occupation numbers 
     1.0000   1.0000   1.0000   1.0000   1.0000   1.0000   1.0000   0.7153
     0.0000   0.0000   0.0000   0.0000   0.0000   0.0000

          k = 0.1333 0.6158 0.0000 (  6490 PWs)   bands (ev):

   -16.6134 -14.8359 -12.0364 -10.0722  -9.8715  -4.8916  -4.5623  -1.4083
    -0.6494   2.2102   4.0229   5.8641   6.9390   9.1131

     occupation numbers 
     1.0000   1.0000   1.0000   1.0000   1.0000   1.0000   1.0000   0.7116
     0.0000   0.0000   0.0000   0.0000   0.0000   0.0000

          k = 0.1333-0.4619 0.0000 (  6494 PWs)   bands (ev):

   -17.8067 -13.3625 -13.2050  -9.6487  -8.6212  -5.5947  -4.6645  -2.4659
     0.5812   2.0645   3.9137   7.0069   7.4128   7.9701

     occupation numbers 
     1.0000   1.0000   1.0000   1.0000   1.0000   1.0000   1.0000   1.0000
     0.0000   0.0000   0.0000   0.0000   0.0000   0.0000

          k = 0.1333-0.3849 0.0000 (  6474 PWs)   bands (ev):

   -18.9028 -14.3088 -11.7416  -9.2025  -6.9885  -6.7820  -4.2107  -3.6915
     0.6173   2.3467   5.5840   5.8730   7.1758   7.2942

     occupation numbers 
     1.0000   1.0000   1.0000   1.0000   1.0000   1.0000   1.0000   1.0000
     0.0000   0.0000   0.0000   0.0000   0.0000   0.0000

          k = 0.1333-0.3079 0.0000 (  6480 PWs)   bands (ev):

   -19.8221 -15.2399 -10.1428  -8.5252  -7.8439  -5.3704  -4.7821  -3.5199
    -0.5443   4.0324   4.6122   5.9147   6.5239   6.8874

     occupation numbers 
     1.0000   1.0000   1.0000   1.0000   1.0000   1.0000   1.0000   1.0000
     0.0000   0.0000   0.0000   0.0000   0.0000   0.0000

          k = 0.1333-0.2309 0.0000 (  6457 PWs)   bands (ev):

   -20.5471 -15.9758  -8.7511  -8.6977  -7.6103  -5.6593  -3.9382  -2.6056
    -1.4762   3.6081   4.8918   5.5105   5.6202   5.8932

     occupation numbers 
     1.0000   1.0000   1.0000   1.0000   1.0000   1.0000   1.0000   1.0000
     0.8968   0.0000   0.0000   0.0000   0.0000   0.0000

          k = 0.1333-0.1540 0.0000 (  6491 PWs)   bands (ev):

   -21.0695 -16.5067  -9.3308  -7.6472  -6.6349  -6.2977  -2.7904  -2.1486
    -1.6479   2.8957   4.1621   4.7861   5.1656   6.3246

     occupation numbers 
     1.0000   1.0000   1.0000   1.0000   1.0000   1.0000   1.0000   1.0000
     0.9988   0.0000   0.0000   0.0000   0.0000   0.0000

          k = 0.1333-0.0770 0.0000 (  6496 PWs)   bands (ev):

   -21.3846 -16.8270  -9.7113  -6.8049  -6.6847  -6.0162  -2.5540  -1.9086
    -1.0470   2.4669   3.7239   4.3501   4.7337   5.9078

     occupation numbers 
     1.0000   1.0000   1.0000   1.0000   1.0000   1.0000   1.0000   1.0000
     0.0007   0.0000   0.0000   0.0000   0.0000   0.0000

          k = 0.1333 0.0000 0.0000 (  6499 PWs)   bands (ev):

   -21.4899 -16.9340  -9.8388  -6.8145  -6.4036  -5.8927  -2.6895  -1.4816
    -0.9430   2.3239   3.5777   4.2045   4.5900   5.7665

     occupation numbers 
     1.0000   1.0000   1.0000   1.0000   1.0000   1.0000   1.0000   0.9066
     0.0000   0.0000   0.0000   0.0000   0.0000   0.0000

          k = 0.2000 0.1155 0.0000 (  6474 PWs)   bands (ev):

   -20.8601 -16.2936  -9.0794  -8.3521  -6.7346  -6.0424  -3.4880  -1.8799
    -1.7656   3.1797   4.4534   5.0755   5.4481   6.0752

     occupation numbers 
     1.0000   1.0000   1.0000   1.0000   1.0000   1.0000   1.0000   1.0000
     1.0000   0.0000   0.0000   0.0000   0.0000   0.0000

          k = 0.2000 0.1925 0.0000 (  6480 PWs)   bands (ev):

   -20.4429 -15.8698  -9.2325  -8.5798  -7.4010  -5.5347  -4.3976  -2.4252
    -1.3438   3.7459   5.0322   5.3203   5.6613   6.0220

     occupation numbers 
     1.0000   1.0000   1.0000   1.0000   1.0000   1.0000   1.0000   1.0000
     0.4553   0.0000   0.0000   0.0000   0.0000   0.0000

          k = 0.2000 0.2694 0.0000 (  6480 PWs)   bands (ev):

   -19.8221 -15.2396 -10.1442  -8.5234  -7.8439  -5.3556  -4.7835  -3.5369
    -0.5447   4.0332   4.6116   5.9146   6.5236   6.8871

     occupation numbers 
     1.0000   1.0000   1.0000   1.0000   1.0000   1.0000   1.0000   1.0000
     0.0000   0.0000   0.0000   0.0000   0.0000   0.0000

          k = 0.2000 0.3464 0.0000 (  6482 PWs)   bands (ev):

   -19.0045 -14.4110 -11.1574  -9.7078  -6.8904  -6.4253  -4.7033  -3.8056
     0.5081   2.6178   5.7162   5.9191   7.0782   7.6723

     occupation numbers 
     1.0000   1.0000   1.0000   1.0000   1.0000   1.0000   1.0000   1.0000
     0.0000   0.0000   0.0000   0.0000   0.0000   0.0000

          k = 0.2000 0.4234 0.0000 (  6465 PWs)   bands (ev):

   -18.0033 -13.3997 -12.4473 -10.5318  -7.7384  -5.7614  -5.5334  -2.6446
     1.0939   1.8127   4.3796   7.0555   8.4571   8.6846

     occupation numbers 
     1.0000   1.0000   1.0000   1.0000   1.0000   1.0000   1.0000   1.0000
     0.0000   0.0000   0.0000   0.0000   0.0000   0.0000

          k = 0.2000 0.5004 0.0000 (  6474 PWs)   bands (ev):

   -16.8525 -13.8829 -12.2489 -10.9584  -9.1679  -5.9780  -4.5788  -1.4213
    -0.3214   2.6998   3.5141   6.9968   8.4134   8.7772

     occupation numbers 
     1.0000   1.0000   1.0000   1.0000   1.0000   1.0000   1.0000   0.7562
     0.0000   0.0000   0.0000   0.0000   0.0000   0.0000

          k = 0.2000 0.5774 0.0000 (  6484 PWs)   bands (ev):

   -15.9169 -14.9297 -11.3668 -11.0907 -10.1593  -6.1162  -3.8919  -1.1558
    -0.6211   1.9579   5.0220   5.2773   8.3945   9.3351

     occupation numbers 
     1.0000   1.0000   1.0000   1.0000   1.0000   1.0000   1.0000   0.0194
     0.0000   0.0000   0.0000   0.0000   0.0000   0.0000

          k = 0.2000 0.6543 0.0000 (  6474 PWs)   bands (ev):

   -16.8525 -13.8838 -12.2487 -10.9573  -9.1712  -5.9745  -4.5777  -1.4184
    -0.3234   2.6942   3.5151   6.9958   8.4145   8.7769

     occupation numbers 
     1.0000   1.0000   1.0000   1.0000   1.0000   1.0000   1.0000   0.7464
     0.0000   0.0000   0.0000   0.0000   0.0000   0.0000

          k = 0.2000-0.4234 0.0000 (  6465 PWs)   bands (ev):

   -18.0035 -13.3999 -12.4500 -10.5288  -7.7463  -5.7602  -5.5244  -2.6418
     1.0909   1.8135   4.3716   7.0561   8.4590   8.6872

     occupation numbers 
     1.0000   1.0000   1.0000   1.0000   1.0000   1.0000   1.0000   1.0000
     0.0000   0.0000   0.0000   0.0000   0.0000   0.0000

          k = 0.2000-0.3464 0.0000 (  6482 PWs)   bands (ev):

   -19.0047 -14.4114 -11.1626  -9.7020  -6.8895  -6.4397  -4.6872  -3.8033
     0.5089   2.6145   5.7163   5.9098   7.0783   7.6729

     occupation numbers 
     1.0000   1.0000   1.0000   1.0000   1.0000   1.0000   1.0000   1.0000
     0.0000   0.0000   0.0000   0.0000   0.0000   0.0000

          k = 0.2000-0.2694 0.0000 (  6480 PWs)   bands (ev):

   -19.8222 -15.2399 -10.1502  -8.5165  -7.8433  -5.3728  -4.7819  -3.5171
    -0.5440   4.0300   4.6116   5.9147   6.5237   6.8875

     occupation numbers 
     1.0000   1.0000   1.0000   1.0000   1.0000   1.0000   1.0000   1.0000
     0.0000   0.0000   0.0000   0.0000   0.0000   0.0000

          k = 0.2000-0.1925 0.0000 (  6480 PWs)   bands (ev):

   -20.4431 -15.8701  -9.2384  -8.5794  -7.3941  -5.5336  -4.4148  -2.4048
    -1.3433   3.7460   5.0322   5.3175   5.6613   6.0223

     occupation numbers 
     1.0000   1.0000   1.0000   1.0000   1.0000   1.0000   1.0000   1.0000
     0.4534   0.0000   0.0000   0.0000   0.0000   0.0000

          k = 0.2000-0.1155 0.0000 (  6474 PWs)   bands (ev):

   -20.8602 -16.2938  -9.0791  -8.3577  -6.7280  -6.0418  -3.5045  -1.8796
    -1.7462   3.1798   4.4535   5.0755   5.4482   6.0800

     occupation numbers 
     1.0000   1.0000   1.0000   1.0000   1.0000   1.0000   1.0000   1.0000
     1.0000   0.0000   0.0000   0.0000   0.0000   0.0000

          k = 0.2000-0.0385 0.0000 (  6491 PWs)   bands (ev):

   -21.0696 -16.5066  -9.3305  -7.6559  -6.6255  -6.2979  -2.7825  -2.1486
    -1.6565   2.8957   4.1621   4.7861   5.1657   6.3260

     occupation numbers 
     1.0000   1.0000   1.0000   1.0000   1.0000   1.0000   1.0000   1.0000
     0.9992   0.0000   0.0000   0.0000   0.0000   0.0000

          k = 0.2000 0.0385 0.0000 (  6491 PWs)   bands (ev):

   -21.0696 -16.5065  -9.3306  -7.6522  -6.6296  -6.2981  -2.7721  -2.1487
    -1.6682   2.8957   4.1621   4.7861   5.1657   6.3257

     occupation numbers 
     1.0000   1.0000   1.0000   1.0000   1.0000   1.0000   1.0000   1.0000
     0.9994   0.0000   0.0000   0.0000   0.0000   0.0000

          k = 0.2667 0.1540 0.0000 (  6492 PWs)   bands (ev):

   -20.1316 -15.5537 -10.0932  -8.2120  -7.4258  -5.2752  -5.1540  -2.4450
    -0.9467   4.1224   4.5787   5.4729   5.8236   6.0959

     occupation numbers 
     1.0000   1.0000   1.0000   1.0000   1.0000   1.0000   1.0000   1.0000
     0.0000   0.0000   0.0000   0.0000   0.0000   0.0000

          k = 0.2667 0.2309 0.0000 (  6491 PWs)   bands (ev):

   -19.6160 -15.0308 -10.9603  -8.0637  -7.6077  -6.1608  -4.5414  -3.0834
    -0.2895   3.4730   4.9046   6.1061   6.2434   6.6795

     occupation numbers 
     1.0000   1.0000   1.0000   1.0000   1.0000   1.0000   1.0000   1.0000
     0.0000   0.0000   0.0000   0.0000   0.0000   0.0000

          k = 0.2667 0.3079 0.0000 (  6474 PWs)   bands (ev):

   -18.9028 -14.3085 -11.7460  -9.1969  -6.9784  -6.7814  -4.2229  -3.6940
     0.6171   2.3441   5.5932   5.8727   7.1757   7.2954

     occupation numbers 
     1.0000   1.0000   1.0000   1.0000   1.0000   1.0000   1.0000   1.0000
     0.0000   0.0000   0.0000   0.0000   0.0000   0.0000

          k = 0.2667 0.3849 0.0000 (  6465 PWs)   bands (ev):

   -18.0034 -13.3997 -12.4515 -10.5270  -7.7349  -5.7603  -5.5374  -2.6454
     1.0922   1.8113   4.3822   7.0555   8.4575   8.6866

     occupation numbers 
     1.0000   1.0000   1.0000   1.0000   1.0000   1.0000   1.0000   1.0000
     0.0000   0.0000   0.0000   0.0000   0.0000   0.0000

          k = 0.2667 0.4619 0.0000 (  6452 PWs)   bands (ev):

   -16.9409 -13.2314 -12.3317 -11.6632  -8.5774  -6.6360  -4.5984  -1.4458
    -0.1447   3.0892   3.1756   7.5956   8.5519   8.9307

     occupation numbers 
     1.0000   1.0000   1.0000   1.0000   1.0000   1.0000   1.0000   0.8286
     0.0000   0.0000   0.0000   0.0000   0.0000   0.0000

          k = 0.2667 0.5389 0.0000 (  6444 PWs)   bands (ev):

   -15.7972 -14.2832 -12.2072 -11.2019  -9.6258  -7.1793  -3.4773  -1.3102
    -0.2671   1.8973   4.6907   6.3617   7.8958   9.8171

     occupation numbers 
     1.0000   1.0000   1.0000   1.0000   1.0000   1.0000   1.0000   0.3223
     0.0000   0.0000   0.0000   0.0000   0.0000   0.0000

          k = 0.2667 0.6158 0.0000 (  6444 PWs)   bands (ev):

   -15.7968 -14.2849 -12.2058 -11.2004  -9.6308  -7.1754  -3.4755  -1.3126
    -0.2623   1.8904   4.6927   6.3604   7.8958   9.8172

     occupation numbers 
     1.0000   1.0000   1.0000   1.0000   1.0000   1.0000   1.0000   0.3314
     0.0000   0.0000   0.0000   0.0000   0.0000   0.0000

          k = 0.2667 0.6928 0.0000 (  6452 PWs)   bands (ev):

   -16.9409 -13.2354 -12.3313 -11.6589  -8.5885  -6.6244  -4.5964  -1.4406
    -0.1486   3.0804   3.1751   7.5967   8.5517   8.9301

     occupation numbers 
     1.0000   1.0000   1.0000   1.0000   1.0000   1.0000   1.0000   0.8144
     0.0000   0.0000   0.0000   0.0000   0.0000   0.0000

          k = 0.2667-0.3849 0.0000 (  6465 PWs)   bands (ev):

   -18.0035 -13.3999 -12.4561 -10.5217  -7.7482  -5.7587  -5.5222  -2.6413
     1.0884   1.8124   4.3701   7.0560   8.4594   8.6902

     occupation numbers 
     1.0000   1.0000   1.0000   1.0000   1.0000   1.0000   1.0000   1.0000
     0.0000   0.0000   0.0000   0.0000   0.0000   0.0000

          k = 0.2667-0.3079 0.0000 (  6474 PWs)   bands (ev):

   -18.9030 -14.3088 -11.7504  -9.1914  -6.9915  -6.7802  -4.2070  -3.6909
     0.6184   2.3398   5.5820   5.8726   7.1782   7.2982

     occupation numbers 
     1.0000   1.0000   1.0000   1.0000   1.0000   1.0000   1.0000   1.0000
     0.0000   0.0000   0.0000   0.0000   0.0000   0.0000

          k = 0.2667-0.2309 0.0000 (  6491 PWs)   bands (ev):

   -19.6162 -15.0312 -10.9646  -8.0581  -7.6068  -6.1737  -4.5394  -3.0668
    -0.2885   3.4694   4.9045   6.1095   6.2443   6.6745

     occupation numbers 
     1.0000   1.0000   1.0000   1.0000   1.0000   1.0000   1.0000   1.0000
     0.0000   0.0000   0.0000   0.0000   0.0000   0.0000

          k = 0.2667-0.1540 0.0000 (  6492 PWs)   bands (ev):

   -20.1317 -15.5539 -10.0976  -8.2114  -7.4202  -5.2877  -5.1531  -2.4284
    -0.9461   4.1226   4.5757   5.4730   5.8271   6.0965

     occupation numbers 
     1.0000   1.0000   1.0000   1.0000   1.0000   1.0000   1.0000   1.0000
     0.0000   0.0000   0.0000   0.0000   0.0000   0.0000

          k = 0.2667-0.0770 0.0000 (  6480 PWs)   bands (ev):

   -20.4432 -15.8700  -9.2422  -8.5790  -7.3898  -5.5339  -4.4112  -2.4090
    -1.3433   3.7461   5.0322   5.3151   5.6613   6.0226

     occupation numbers 
     1.0000   1.0000   1.0000   1.0000   1.0000   1.0000   1.0000   1.0000
     0.4535   0.0000   0.0000   0.0000   0.0000   0.0000

          k = 0.2667 0.0000 0.0000 (  6457 PWs)   bands (ev):

   -20.5473 -15.9757  -8.7634  -8.6983  -7.5955  -5.6598  -3.9262  -2.6188
    -1.4762   3.6083   4.8919   5.5104   5.6155   5.8933

     occupation numbers 
     1.0000   1.0000   1.0000   1.0000   1.0000   1.0000   1.0000   1.0000
     0.8969   0.0000   0.0000   0.0000   0.0000   0.0000

          k = 0.2667 0.0770 0.0000 (  6480 PWs)   bands (ev):

   -20.4431 -15.8699  -9.2382  -8.5792  -7.3946  -5.5345  -4.3997  -2.4228
    -1.3436   3.7460   5.0322   5.3167   5.6613   6.0224

     occupation numbers 
     1.0000   1.0000   1.0000   1.0000   1.0000   1.0000   1.0000   1.0000
     0.4547   0.0000   0.0000   0.0000   0.0000   0.0000

          k = 0.3333 0.1925 0.0000 (  6484 PWs)   bands (ev):

   -19.2065 -14.6164 -11.8670  -8.0006  -7.1421  -7.0779  -4.0642  -3.0116
     0.2105   2.6217   5.4040   5.6163   5.8423   6.7983

     occupation numbers 
     1.0000   1.0000   1.0000   1.0000   1.0000   1.0000   1.0000   1.0000
     0.0000   0.0000   0.0000   0.0000   0.0000   0.0000

          k = 0.3333 0.2694 0.0000 (  6487 PWs)   bands (ev):

   -18.5994 -14.0032 -12.6878  -8.5679  -7.9150  -6.4617  -3.5855  -3.3647
     0.8739   1.7567   4.8514   5.8806   6.3441   7.6706

     occupation numbers 
     1.0000   1.0000   1.0000   1.0000   1.0000   1.0000   1.0000   1.0000
     0.0000   0.0000   0.0000   0.0000   0.0000   0.0000

          k = 0.3333 0.3464 0.0000 (  6494 PWs)   bands (ev):

   -17.8066 -13.3679 -13.2050  -9.6417  -8.6136  -5.5922  -4.6739  -2.4700
     0.5770   2.0619   3.9241   7.0081   7.4140   7.9717

     occupation numbers 
     1.0000   1.0000   1.0000   1.0000   1.0000   1.0000   1.0000   1.0000
     0.0000   0.0000   0.0000   0.0000   0.0000   0.0000

          k = 0.3333 0.4234 0.0000 (  6474 PWs)   bands (ev):

   -16.8519 -13.8889 -12.2496 -10.9519  -9.1624  -5.9836  -4.5751  -1.4242
    -0.3280   2.7017   3.5174   6.9974   8.4141   8.7804

     occupation numbers 
     1.0000   1.0000   1.0000   1.0000   1.0000   1.0000   1.0000   0.7654
     0.0000   0.0000   0.0000   0.0000   0.0000   0.0000

          k = 0.3333 0.5004 0.0000 (  6444 PWs)   bands (ev):

   -15.7955 -14.2893 -12.2024 -11.2036  -9.6206  -7.1832  -3.4729  -1.3161
    -0.2708   1.9021   4.6910   6.3622   7.8952   9.8194

     occupation numbers 
     1.0000   1.0000   1.0000   1.0000   1.0000   1.0000   1.0000   0.3448
     0.0000   0.0000   0.0000   0.0000   0.0000   0.0000

          k = 0.3333 0.5774 0.0000 (  6450 PWs)   bands (ev):

   -14.8403 -14.8289 -12.8264 -10.2493 -10.2390  -7.7332  -2.3741  -2.3504
     0.8477   0.8737   5.6868   6.1093   6.9245   9.7810

     occupation numbers 
     1.0000   1.0000   1.0000   1.0000   1.0000   1.0000   1.0000   1.0000
     0.0000   0.0000   0.0000   0.0000   0.0000   0.0000

          k = 0.3333 0.6543 0.0000 (  6444 PWs)   bands (ev):

   -15.7943 -14.2939 -12.1986 -11.1995  -9.6338  -7.1732  -3.4689  -1.3214
    -0.2604   1.8877   4.6925   6.3624   7.8944   9.8204

     occupation numbers 
     1.0000   1.0000   1.0000   1.0000   1.0000   1.0000   1.0000   0.3653
     0.0000   0.0000   0.0000   0.0000   0.0000   0.0000

          k = 0.3333 0.7313 0.0000 (  6474 PWs)   bands (ev):

   -16.8517 -13.8927 -12.2483 -10.9477  -9.1743  -5.9712  -4.5720  -1.4165
    -0.3333   2.6931   3.5126   6.9973   8.4156   8.7817

     occupation numbers 
     1.0000   1.0000   1.0000   1.0000   1.0000   1.0000   1.0000   0.7400
     0.0000   0.0000   0.0000   0.0000   0.0000   0.0000

          k = 0.3333-0.3464 0.0000 (  6494 PWs)   bands (ev):

   -17.8067 -13.3714 -13.2049  -9.6372  -8.6244  -5.5900  -4.6606  -2.4643
     0.5726   2.0632   3.9096   7.0115   7.4142   7.9705

     occupation numbers 
     1.0000   1.0000   1.0000   1.0000   1.0000   1.0000   1.0000   1.0000
     0.0000   0.0000   0.0000   0.0000   0.0000   0.0000

          k = 0.3333-0.2694 0.0000 (  6487 PWs)   bands (ev):

   -18.5996 -14.0034 -12.6912  -8.5631  -7.9254  -6.4601  -3.5714  -3.3607
     0.8753   1.7523   4.8390   5.8836   6.3440   7.6711

     occupation numbers 
     1.0000   1.0000   1.0000   1.0000   1.0000   1.0000   1.0000   1.0000
     0.0000   0.0000   0.0000   0.0000   0.0000   0.0000

          k = 0.3333-0.1925 0.0000 (  6484 PWs)   bands (ev):

   -19.2067 -14.6167 -11.8705  -7.9956  -7.1411  -7.0883  -4.0616  -2.9969
     0.2118   2.6179   5.4048   5.6177   5.8329   6.7983

     occupation numbers 
     1.0000   1.0000   1.0000   1.0000   1.0000   1.0000   1.0000   1.0000
     0.0000   0.0000   0.0000   0.0000   0.0000   0.0000

          k = 0.3333-0.1155 0.0000 (  6491 PWs)   bands (ev):

   -19.6164 -15.0311 -10.9663  -8.0561  -7.6063  -6.1721  -4.5397  -3.0688
    -0.2886   3.4671   4.9047   6.1124   6.2449   6.6759

     occupation numbers 
     1.0000   1.0000   1.0000   1.0000   1.0000   1.0000   1.0000   1.0000
     0.0000   0.0000   0.0000   0.0000   0.0000   0.0000

          k = 0.3333-0.0385 0.0000 (  6480 PWs)   bands (ev):

   -19.8225 -15.2398 -10.1575  -8.5083  -7.8424  -5.3661  -4.7825  -3.5248
    -0.5441   4.0251   4.6118   5.9148   6.5240   6.8882

     occupation numbers 
     1.0000   1.0000   1.0000   1.0000   1.0000   1.0000   1.0000   1.0000
     0.0000   0.0000   0.0000   0.0000   0.0000   0.0000

          k = 0.3333 0.0385 0.0000 (  6480 PWs)   bands (ev):

   -19.8225 -15.2397 -10.1551  -8.5111  -7.8425  -5.3595  -4.7831  -3.5325
    -0.5443   4.0259   4.6121   5.9148   6.5238   6.8884

     occupation numbers 
     1.0000   1.0000   1.0000   1.0000   1.0000   1.0000   1.0000   1.0000
     0.0000   0.0000   0.0000   0.0000   0.0000   0.0000

          k = 0.3333 0.1155 0.0000 (  6491 PWs)   bands (ev):

   -19.6162 -15.0309 -10.9627  -8.0608  -7.6069  -6.1618  -4.5412  -3.0822
    -0.2893   3.4696   4.9049   6.1106   6.2443   6.6787

     occupation numbers 
     1.0000   1.0000   1.0000   1.0000   1.0000   1.0000   1.0000   1.0000
     0.0000   0.0000   0.0000   0.0000   0.0000   0.0000

          k = 0.4000 0.2309 0.0000 (  6490 PWs)   bands (ev):

   -18.1008 -13.5750 -13.5034  -8.8072  -8.4060  -5.9508  -3.4119  -2.8372
     0.6114   1.7661   4.0329   5.3434   7.0357   7.8301

     occupation numbers 
     1.0000   1.0000   1.0000   1.0000   1.0000   1.0000   1.0000   1.0000
     0.0000   0.0000   0.0000   0.0000   0.0000   0.0000

          k = 0.4000 0.3079 0.0000 (  6503 PWs)   bands (ev):

   -17.4226 -14.3146 -12.8291  -9.5483  -8.8810  -5.2901  -3.8963  -2.1539
    -0.0844   2.2812   3.5159   5.7404   6.7684   8.0014

     occupation numbers 
     1.0000   1.0000   1.0000   1.0000   1.0000   1.0000   1.0000   1.0000
     0.0000   0.0000   0.0000   0.0000   0.0000   0.0000

          k = 0.4000 0.3849 0.0000 (  6490 PWs)   bands (ev):

   -16.6114 -14.8437 -12.0386 -10.0640  -9.8639  -4.8994  -4.5555  -1.4153
    -0.6603   2.2192   4.0237   5.8661   6.9429   9.1131

     occupation numbers 
     1.0000   1.0000   1.0000   1.0000   1.0000   1.0000   1.0000   0.7360
     0.0000   0.0000   0.0000   0.0000   0.0000   0.0000

          k = 0.4000 0.4619 0.0000 (  6484 PWs)   bands (ev):

   -15.9116 -14.9412 -11.3714 -11.0834 -10.1491  -6.1229  -3.8831  -1.1679
    -0.6293   1.9680   5.0217   5.2789   8.3976   9.3379

     occupation numbers 
     1.0000   1.0000   1.0000   1.0000   1.0000   1.0000   1.0000   0.0262
     0.0000   0.0000   0.0000   0.0000   0.0000   0.0000

          k = 0.4000 0.5389 0.0000 (  6444 PWs)   bands (ev):

   -15.7944 -14.2943 -12.1981 -11.2031  -9.6224  -7.1818  -3.4675  -1.3236
    -0.2690   1.8996   4.6929   6.3610   7.8953   9.8200

     occupation numbers 
     1.0000   1.0000   1.0000   1.0000   1.0000   1.0000   1.0000   0.3738
     0.0000   0.0000   0.0000   0.0000   0.0000   0.0000

          k = 0.4000 0.6158 0.0000 (  6444 PWs)   bands (ev):

   -15.7936 -14.2973 -12.1958 -11.2004  -9.6306  -7.1756  -3.4653  -1.3265
    -0.2634   1.8921   4.6924   6.3625   7.8945   9.8209

     occupation numbers 
     1.0000   1.0000   1.0000   1.0000   1.0000   1.0000   1.0000   0.3851
     0.0000   0.0000   0.0000   0.0000   0.0000   0.0000

          k = 0.4000 0.6928 0.0000 (  6484 PWs)   bands (ev):

   -15.9089 -14.9468 -11.3642 -11.0798 -10.1650  -6.1125  -3.8787  -1.1726
    -0.6191   1.9522   5.0217   5.2778   8.3993   9.3395

     occupation numbers 
     1.0000   1.0000   1.0000   1.0000   1.0000   1.0000   1.0000   0.0293
     0.0000   0.0000   0.0000   0.0000   0.0000   0.0000

          k = 0.4000 0.7698 0.0000 (  6490 PWs)   bands (ev):

   -16.6105 -14.8476 -12.0352 -10.0765  -9.8599  -4.8875  -4.5515  -1.4057
    -0.6657   2.2061   4.0206   5.8639   6.9453   9.1134

     occupation numbers 
     1.0000   1.0000   1.0000   1.0000   1.0000   1.0000   1.0000   0.7023
     0.0000   0.0000   0.0000   0.0000   0.0000   0.0000

          k = 0.4000-0.3079 0.0000 (  6503 PWs)   bands (ev):

   -17.4225 -14.3178 -12.8281  -9.5584  -8.8767  -5.2871  -3.8834  -2.1462
    -0.0896   2.2799   3.5026   5.7427   6.7663   8.0012

     occupation numbers 
     1.0000   1.0000   1.0000   1.0000   1.0000   1.0000   1.0000   1.0000
     0.0000   0.0000   0.0000   0.0000   0.0000   0.0000

          k = 0.4000-0.2309 0.0000 (  6490 PWs)   bands (ev):

   -18.1009 -13.5780 -13.5033  -8.8166  -8.4014  -5.9487  -3.3984  -2.8320
     0.6084   1.7663   4.0193   5.3455   7.0357   7.8286

     occupation numbers 
     1.0000   1.0000   1.0000   1.0000   1.0000   1.0000   1.0000   1.0000
     0.0000   0.0000   0.0000   0.0000   0.0000   0.0000

          k = 0.4000-0.1540 0.0000 (  6487 PWs)   bands (ev):

   -18.5997 -14.0034 -12.6919  -8.5622  -7.9246  -6.4595  -3.5722  -3.3613
     0.8749   1.7510   4.8404   5.8857   6.3439   7.6711

     occupation numbers 
     1.0000   1.0000   1.0000   1.0000   1.0000   1.0000   1.0000   1.0000
     0.0000   0.0000   0.0000   0.0000   0.0000   0.0000

          k = 0.4000-0.0770 0.0000 (  6474 PWs)   bands (ev):

   -18.9033 -14.3087 -11.7535  -9.1877  -6.9884  -6.7790  -4.2106  -3.6919
     0.6182   2.3357   5.5856   5.8731   7.1815   7.3010

     occupation numbers 
     1.0000   1.0000   1.0000   1.0000   1.0000   1.0000   1.0000   1.0000
     0.0000   0.0000   0.0000   0.0000   0.0000   0.0000

          k = 0.4000 0.0000 0.0000 (  6482 PWs)   bands (ev):

   -19.0051 -14.4112 -11.1731  -9.6901  -6.8877  -6.4305  -4.6975  -3.8047
     0.5087   2.6076   5.7168   5.9157   7.0784   7.6725

     occupation numbers 
     1.0000   1.0000   1.0000   1.0000   1.0000   1.0000   1.0000   1.0000
     0.0000   0.0000   0.0000   0.0000   0.0000   0.0000

          k = 0.4000 0.0770 0.0000 (  6474 PWs)   bands (ev):

   -18.9032 -14.3086 -11.7506  -9.1913  -6.9801  -6.7796  -4.2209  -3.6934
     0.6173   2.3380   5.5912   5.8734   7.1808   7.2996

     occupation numbers 
     1.0000   1.0000   1.0000   1.0000   1.0000   1.0000   1.0000   1.0000
     0.0000   0.0000   0.0000   0.0000   0.0000   0.0000

          k = 0.4000 0.1540 0.0000 (  6487 PWs)   bands (ev):

   -18.5996 -14.0033 -12.6888  -8.5666  -7.9154  -6.4608  -3.5850  -3.3644
     0.8734   1.7548   4.8506   5.8837   6.3439   7.6711

     occupation numbers 
     1.0000   1.0000   1.0000   1.0000   1.0000   1.0000   1.0000   1.0000
     0.0000   0.0000   0.0000   0.0000   0.0000   0.0000

          k = 0.4667 0.2694 0.0000 (  6524 PWs)   bands (ev):

   -16.8901 -15.0967 -12.3245 -10.3040  -8.6146  -4.9338  -3.6180  -1.7893
    -0.6146   2.1017   3.8452   5.2360   5.6958   8.8400

     occupation numbers 
     1.0000   1.0000   1.0000   1.0000   1.0000   1.0000   1.0000   1.0000
     0.0000   0.0000   0.0000   0.0000   0.0000   0.0000

          k = 0.4667 0.3464 0.0000 (  6480 PWs)   bands (ev):

   -16.4532 -15.4377 -11.9362 -10.5980  -8.9869  -4.6561  -4.0016  -1.5256
    -0.8079   1.9665   4.5429   4.9550   5.6914   9.8067

     occupation numbers 
     1.0000   1.0000   1.0000   1.0000   1.0000   1.0000   1.0000   0.9623
     0.0000   0.0000   0.0000   0.0000   0.0000   0.0000

          k = 0.4667 0.4234 0.0000 (  6490 PWs)   bands (ev):

   -16.6115 -14.8441 -12.0386 -10.0643  -9.8632  -4.8991  -4.5542  -1.4151
    -0.6624   2.2185   4.0246   5.8653   6.9438   9.1137

     occupation numbers 
     1.0000   1.0000   1.0000   1.0000   1.0000   1.0000   1.0000   0.7353
     0.0000   0.0000   0.0000   0.0000   0.0000   0.0000

          k = 0.4667 0.5004 0.0000 (  6474 PWs)   bands (ev):

   -16.8521 -13.8917 -12.2496 -10.9485  -9.1636  -5.9824  -4.5715  -1.4232
    -0.3344   2.6999   3.5184   6.9970   8.4174   8.7795

     occupation numbers 
     1.0000   1.0000   1.0000   1.0000   1.0000   1.0000   1.0000   0.7622
     0.0000   0.0000   0.0000   0.0000   0.0000   0.0000

          k = 0.4667 0.5774 0.0000 (  6452 PWs)   bands (ev):

   -16.9409 -13.2435 -12.3316 -11.6501  -8.5814  -6.6318  -4.5923  -1.4438
    -0.1566   3.0862   3.1762   7.5994   8.5503   8.9290

     occupation numbers 
     1.0000   1.0000   1.0000   1.0000   1.0000   1.0000   1.0000   0.8233
     0.0000   0.0000   0.0000   0.0000   0.0000   0.0000

          k = 0.4667 0.6543 0.0000 (  6474 PWs)   bands (ev):

   -16.8518 -13.8946 -12.2484 -10.9454  -9.1722  -5.9735  -4.5697  -1.4184
    -0.3377   2.6968   3.5126   6.9979   8.4178   8.7811

     occupation numbers 
     1.0000   1.0000   1.0000   1.0000   1.0000   1.0000   1.0000   0.7466
     0.0000   0.0000   0.0000   0.0000   0.0000   0.0000

          k = 0.4667 0.7313 0.0000 (  6490 PWs)   bands (ev):

   -16.6106 -14.8479 -12.0352 -10.0760  -9.8594  -4.8880  -4.5506  -1.4065
    -0.6672   2.2075   4.0203   5.8642   6.9459   9.1138

     occupation numbers 
     1.0000   1.0000   1.0000   1.0000   1.0000   1.0000   1.0000   0.7054
     0.0000   0.0000   0.0000   0.0000   0.0000   0.0000

          k = 0.4667 0.8083 0.0000 (  6480 PWs)   bands (ev):

   -16.4508 -15.4429 -11.9297 -10.6129  -8.9827  -4.6517  -3.9893  -1.5156
    -0.8127   1.9522   4.5436   4.9482   5.6933   9.8063

     occupation numbers 
     1.0000   1.0000   1.0000   1.0000   1.0000   1.0000   1.0000   0.9530
     0.0000   0.0000   0.0000   0.0000   0.0000   0.0000

          k = 0.4667-0.2694 0.0000 (  6524 PWs)   bands (ev):

   -16.8892 -15.1005 -12.3213 -10.3158  -8.6102  -4.9300  -3.6052  -1.7795
    -0.6202   2.0913   3.8397   5.2379   5.6927   8.8399

     occupation numbers 
     1.0000   1.0000   1.0000   1.0000   1.0000   1.0000   1.0000   1.0000
     0.0000   0.0000   0.0000   0.0000   0.0000   0.0000

          k = 0.4667-0.1925 0.0000 (  6503 PWs)   bands (ev):

   -17.4226 -14.3180 -12.8281  -9.5581  -8.8763  -5.2865  -3.8837  -2.1467
    -0.0908   2.2805   3.5029   5.7437   6.7662   8.0013

     occupation numbers 
     1.0000   1.0000   1.0000   1.0000   1.0000   1.0000   1.0000   1.0000
     0.0000   0.0000   0.0000   0.0000   0.0000   0.0000

          k = 0.4667-0.1155 0.0000 (  6494 PWs)   bands (ev):

   -17.8069 -13.3725 -13.2048  -9.6357  -8.6231  -5.5886  -4.6622  -2.4654
     0.5692   2.0637   3.9118   7.0153   7.4136   7.9700

     occupation numbers 
     1.0000   1.0000   1.0000   1.0000   1.0000   1.0000   1.0000   1.0000
     0.0000   0.0000   0.0000   0.0000   0.0000   0.0000

          k = 0.4667-0.0385 0.0000 (  6465 PWs)   bands (ev):

   -18.0039 -13.3997 -12.4614 -10.5155  -7.7432  -5.7565  -5.5279  -2.6431
     1.0821   1.8126   4.3752   7.0571   8.4629   8.6958

     occupation numbers 
     1.0000   1.0000   1.0000   1.0000   1.0000   1.0000   1.0000   1.0000
     0.0000   0.0000   0.0000   0.0000   0.0000   0.0000

          k = 0.4667 0.0385 0.0000 (  6465 PWs)   bands (ev):

   -18.0039 -13.3998 -12.4594 -10.5178  -7.7377  -5.7570  -5.5341  -2.6443
     1.0830   1.8124   4.3793   7.0571   8.4627   8.6948

     occupation numbers 
     1.0000   1.0000   1.0000   1.0000   1.0000   1.0000   1.0000   1.0000
     0.0000   0.0000   0.0000   0.0000   0.0000   0.0000

          k = 0.4667 0.1155 0.0000 (  6494 PWs)   bands (ev):

   -17.8069 -13.3696 -13.2051  -9.6394  -8.6144  -5.5902  -4.6730  -2.4693
     0.5720   2.0624   3.9228   7.0138   7.4130   7.9699

     occupation numbers 
     1.0000   1.0000   1.0000   1.0000   1.0000   1.0000   1.0000   1.0000
     0.0000   0.0000   0.0000   0.0000   0.0000   0.0000

          k = 0.4667 0.1925 0.0000 (  6503 PWs)   bands (ev):

   -17.4228 -14.3149 -12.8292  -9.5485  -8.8805  -5.2892  -3.8961  -2.1536
    -0.0862   2.2811   3.5158   5.7418   6.7676   8.0015

     occupation numbers 
     1.0000   1.0000   1.0000   1.0000   1.0000   1.0000   1.0000   1.0000
     0.0000   0.0000   0.0000   0.0000   0.0000   0.0000

     the Fermi energy is    -1.3546 ev

!    total energy              =     -77.38914063 Ry
     total all-electron energy =      -308.445530 Ry
     estimated scf accuracy    <          5.8E-10 Ry
     smearing contrib. (-TS)   =      -0.00135888 Ry
     internal energy E=F+TS    =     -77.38778176 Ry

     The total energy is F=E-TS. E is the sum of the following terms:
     one-electron contribution =    -582.81440965 Ry
     hartree contribution      =     295.24051938 Ry
     xc contribution           =     -18.03329813 Ry
     ewald contribution        =     255.48941422 Ry
     DFT-D3 Dispersion         =      -0.01310672 Ry
     electric field correction =      -2.59787744 Ry
     one-center paw contrib.   =     -24.65902342 Ry
      -> PAW hartree energy AE =       9.53159046 Ry
      -> PAW hartree energy PS =      -9.52289547 Ry
      -> PAW xc energy AE      =     -10.68423787 Ry
      -> PAW xc energy PS      =       4.50818136 Ry
      -> total E_H with PAW    =     295.24921437 Ry
      -> total E_XC with PAW   =     -24.20935464 Ry

     convergence has been achieved in  33 iterations

     negative rho (up, down):  1.232E-04 0.000E+00

     Forces acting on atoms (cartesian axes, Ry/au):

     atom    1 type  1   force =     0.00064153   -0.00190421   -1.11037375
     atom    2 type  1   force =    -0.00064066    0.00190750   -1.09587454
     atom    3 type  1   force =     0.00097611    0.00017058    1.10191797
     atom    4 type  1   force =    -0.00097698   -0.00017387    1.10433032
     The non-local contrib.  to forces
     atom    1 type  1   force =     0.00073899   -0.00216193   -0.03009291
     atom    2 type  1   force =    -0.00073747    0.00216033   -0.00191872
     atom    3 type  1   force =     0.00210386    0.00032706   -0.01170009
     atom    4 type  1   force =    -0.00210460   -0.00032756   -0.01106718
     The ionic contribution  to forces
     atom    1 type  1   force =     0.00262314   -0.00764278   13.28209291
     atom    2 type  1   force =    -0.00262298    0.00764268   12.95530298
     atom    3 type  1   force =     0.00771885    0.00120308  -13.12784667
     atom    4 type  1   force =    -0.00771901   -0.00120298  -13.10954922
     The local contribution  to forces
     atom    1 type  1   force =    -0.00269828    0.00783555  -13.65309322
     atom    2 type  1   force =     0.00269745   -0.00783075  -13.33972907
     atom    3 type  1   force =    -0.00877118   -0.00134792   14.94681104
     atom    4 type  1   force =     0.00877121    0.00134519   14.93029964
     The core correction contribution to forces
     atom    1 type  1   force =    -0.00002189    0.00006375    0.00030704
     atom    2 type  1   force =     0.00002194   -0.00006356    0.00006134
     atom    3 type  1   force =    -0.00007400   -0.00001141    0.00279519
     atom    4 type  1   force =     0.00007405    0.00001129    0.00278490
     The Hubbard contrib.    to forces
     atom    1 type  1   force =     0.00000000    0.00000000    0.00000000
     atom    2 type  1   force =     0.00000000    0.00000000    0.00000000
     atom    3 type  1   force =     0.00000000    0.00000000    0.00000000
     atom    4 type  1   force =     0.00000000    0.00000000    0.00000000
     The SCF correction term to forces
     atom    1 type  1   force =     0.00000001   -0.00000005    0.00001890
     atom    2 type  1   force =    -0.00000002    0.00000006    0.00001937
     atom    3 type  1   force =    -0.00000014   -0.00000002    0.00002254
     atom    4 type  1   force =     0.00000012   -0.00000001    0.00002255

     DFT-D3 dispersion contribution to forces:
     atom    1 type  1   force =    -0.00000042    0.00000125   -0.00072114
     atom    2 type  1   force =     0.00000043   -0.00000125   -0.00072510
     atom    3 type  1   force =    -0.00000126   -0.00000020    0.00072128
     atom    4 type  1   force =     0.00000126    0.00000020    0.00072496

     Total force =     2.206275     Total SCF correction =     0.000042

     DFT-D3 dispersion Force =     0.001446

     Writing all to output data dir /home/ubuntu/projects/Graphene-Band-Structure-Quantum-Espresso/outputs/field_0.05/coupled/data/coupled.save/ :
     XML data file, charge density, pseudopotentials, collected wavefunctions

     init_run     :      3.56s CPU      3.71s WALL (       1 calls)
     electrons    :    297.26s CPU    301.13s WALL (       1 calls)
     forces       :      1.43s CPU      1.49s WALL (       1 calls)
     force_dftd3  :      0.15s CPU      0.16s WALL (       1 calls)

     Called by init_run:
     wfcinit      :      1.97s CPU      2.00s WALL (       1 calls)
     wfcinit:atom :      0.02s CPU      0.02s WALL (      29 calls)
     wfcinit:wfcr :      1.77s CPU      1.80s WALL (      29 calls)
     potinit      :      0.48s CPU      0.53s WALL (       1 calls)
     hinit0       :      0.99s CPU      1.02s WALL (       1 calls)

     Called by electrons:
     c_bands      :    265.57s CPU    268.89s WALL (      33 calls)
     sum_band     :     23.55s CPU     23.92s WALL (      33 calls)
     v_of_rho     :      3.51s CPU      3.65s WALL (      34 calls)
     v_h          :      0.15s CPU      0.17s WALL (      34 calls)
     v_xc         :      3.44s CPU      3.59s WALL (      35 calls)
     newd         :      1.22s CPU      1.24s WALL (      34 calls)
     PAW_pot      :      2.70s CPU      2.73s WALL (      34 calls)
     mix_rho      :      0.48s CPU      0.49s WALL (      33 calls)
     energy_dftd3 :      0.05s CPU      0.05s WALL (       1 calls)

     Called by c_bands:
     init_us_2    :      2.81s CPU      2.87s WALL (    1972 calls)
     cegterg      :    210.35s CPU    213.11s WALL (     975 calls)

     Called by sum_band:
     sum_band:wei :      0.02s CPU      0.02s WALL (      33 calls)
     sum_band:loo :     19.73s CPU     19.98s WALL (      33 calls)
     sum_band:buf :      0.16s CPU      0.16s WALL (     957 calls)
     sum_band:ini :      1.27s CPU      1.30s WALL (     957 calls)
     sum_band:cal :      5.33s CPU      5.38s WALL (     957 calls)
     sum_band:bec :      0.02s CPU      0.02s WALL (     957 calls)
     addusdens    :      0.93s CPU      0.98s WALL (      33 calls)
     addusd:skk   :      0.02s CPU      0.02s WALL (      33 calls)

     Called by *egterg:
     cdiaghg      :      1.32s CPU      1.34s WALL (    4641 calls)
     cegterg:over :     19.67s CPU     19.90s WALL (    3666 calls)
     cegterg:upda :     11.79s CPU     11.94s WALL (    3666 calls)
     cegterg:last :     28.02s CPU     28.35s WALL (    2528 calls)
     h_psi        :    125.63s CPU    127.38s WALL (    4670 calls)
     s_psi        :     18.23s CPU     18.49s WALL (    4670 calls)
     g_psi        :      0.93s CPU      0.94s WALL (    3666 calls)

     Called by h_psi:
     h_psi:calbec :     17.88s CPU     18.10s WALL (    4670 calls)
     vloc_psi     :     88.88s CPU     90.17s WALL (    4670 calls)
     add_vuspsi   :     18.35s CPU     18.58s WALL (    4670 calls)

     General routines
     calbec       :     23.80s CPU     24.10s WALL (    5743 calls)
     fft          :      2.08s CPU      2.10s WALL (     451 calls)
     ffts         :      0.37s CPU      0.38s WALL (      67 calls)
     fftw         :     88.92s CPU     90.26s WALL (  101572 calls)
     interpolate  :      0.47s CPU      0.48s WALL (      34 calls)

     Parallel routines

     PAW routines
     PAW_pot      :      2.70s CPU      2.73s WALL (      34 calls)

     PWSCF        :   5m 2.40s CPU   5m 6.61s WALL


   This run was terminated on:  17: 4:27  19Sep2026            

=------------------------------------------------------------------------------=
   JOB DONE.
=------------------------------------------------------------------------------=
Note: The following floating-point exceptions are signalling: IEEE_DENORMAL
Note: The following floating-point exceptions are signalling: IEEE_DENORMAL
Note: The following floating-point exceptions are signalling: IEEE_DENORMAL
