
     Program PWSCF v.7.6 starts on  7Sep2026 at 11: 3:54 

     This program is part of the open-source Quantum ESPRESSO suite
     for quantum simulation of materials; please cite
         "P. Giannozzi et al., J. Phys.:Condens. Matter 21 395502 (2009);
         "P. Giannozzi et al., J. Phys.:Condens. Matter 29 465901 (2017);
         "P. Giannozzi et al., J. Chem. Phys. 152 154105 (2020);
          URL http://www.quantum-espresso.org", 
     in publications or presentations arising from this work. More details at
     http://www.quantum-espresso.org/quote

     Parallel version (MPI), running on     4 processors

     MPI processes distributed on     1 nodes
     3211 MiB available memory on the printing compute node when the environment starts

     Waiting for input...
     Reading input from standard input
Warning: card &CELL ignored
Warning: card &FCP ignored
Warning: card &RISM ignored

     Current dimensions of program PWSCF are:
     Max number of different atomic species (ntypx) = 10
     Max number of k-points (npk) =  40000
     Max angular momentum in pseudopotentials (lmaxx) =  4
     file C.pbe-n-kjpaw_psl.1.0.0.UPF: wavefunction(s)  2S 2P renormalized
     Message from routine setup:
     using ibrav=0 with symmetry is DISCOURAGED, use correct ibrav instead

     K-points division:     npool     =       4
     Subspace diagonalization in iterative solution of the eigenvalue problem:
     a serial algorithm will be used


     G-vector sticks info
     --------------------
     sticks:   dense  smooth     PW     G-vecs:    dense   smooth      PW
     Sum         595     361    109               111671    52021    9049

     Using Slab Decomposition



     bravais-lattice index     =            0
     lattice parameter (alat)  =       4.6487  a.u.
     unit-cell volume          =     825.8174 (a.u.)^3
     number of atoms/cell      =            2
     number of atomic types    =            1
     number of electrons       =         8.00
     number of Kohn-Sham states=           10
     kinetic-energy cutoff     =      60.0000  Ry
     charge density cutoff     =     400.0000  Ry
     scf convergence threshold =      1.0E-08
     mixing beta               =       0.7000
     number of iterations used =            8  plain     mixing
     Exchange-correlation= SLA  PW   PBX  PBC
                           (   1   4   3   4   0   0   0)

     celldm(1)=   4.648726  celldm(2)=   0.000000  celldm(3)=   0.000000
     celldm(4)=   0.000000  celldm(5)=   0.000000  celldm(6)=   0.000000

     crystal axes: (cart. coord. in units of alat)
               a(1) = (   1.000000   0.000000   0.000000 )  
               a(2) = (  -0.500000   0.866025   0.000000 )  
               a(3) = (   0.000000   0.000000   9.491870 )  

     reciprocal axes: (cart. coord. in units 2 pi/alat)
               b(1) = (  1.000000  0.577351 -0.000000 )  
               b(2) = (  0.000000  1.154701  0.000000 )  
               b(3) = (  0.000000 -0.000000  0.105353 )  


     PseudoPot. # 1 for C  read from file:
     /home/ubuntu/projects/Graphene-Band-Structure-Quantum-Espresso/pseudo/C.pbe-n-kjpaw_psl.1.0.0.UPF
     MD5 check sum: 5f16ad9a65e90284d1d834d4ab3b0f7d
     Pseudo is Projector augmented-wave + core cor, Zval =  4.0
     Generated using &quot;atomic&quot; code by A. Dal Corso  v.6.3
     Shape of augmentation charge: PSQ
     Using radial grid of 1073 points,  4 beta functions with: 
                l(1) =   0
                l(2) =   0
                l(3) =   1
                l(4) =   1
     Q(r) pseudized with 0 coefficients 


     atomic species   valence    mass     pseudopotential
     C                 4.00    12.01100     C ( 1.00)

      6 Sym. Ops. (no inversion) found


                                    s                        frac. trans.

      isym =  1     identity                                     

 cryst.   s( 1) = (     1          0          0      )
                  (     0          1          0      )
                  (     0          0          1      )

 cart.    s( 1) = (  1.0000000  0.0000000  0.0000000 )
                  (  0.0000000  1.0000000  0.0000000 )
                  (  0.0000000  0.0000000  1.0000000 )


      isym =  2     120 deg rotation - cryst. axis [0,0,1]       

 cryst.   s( 2) = (     0          1          0      )
                  (    -1         -1          0      )
                  (     0          0          1      )

 cart.    s( 2) = ( -0.5000000 -0.8660258  0.0000000 )
                  (  0.8660250 -0.5000000  0.0000000 )
                  (  0.0000000  0.0000000  1.0000000 )


      isym =  3     120 deg rotation - cryst. axis [0,0,-1]      

 cryst.   s( 3) = (    -1         -1          0      )
                  (     1          0          0      )
                  (     0          0          1      )

 cart.    s( 3) = ( -0.5000000  0.8660258  0.0000000 )
                  ( -0.8660250 -0.5000000  0.0000000 )
                  (  0.0000000  0.0000000  1.0000000 )


      isym =  4     inv. 180 deg rotation - cart. axis [1,0,0]   

 cryst.   s( 4) = (    -1          0          0      )
                  (     1          1          0      )
                  (     0          0          1      )

 cart.    s( 4) = ( -1.0000000  0.0000000  0.0000000 )
                  (  0.0000000  1.0000000  0.0000000 )
                  (  0.0000000  0.0000000  1.0000000 )


      isym =  5     inv. 180 deg rotation - cryst. axis [0,1,0]  

 cryst.   s( 5) = (     1          1          0      )
                  (     0         -1          0      )
                  (     0          0          1      )

 cart.    s( 5) = (  0.5000000  0.8660258  0.0000000 )
                  (  0.8660250 -0.5000000  0.0000000 )
                  (  0.0000000  0.0000000  1.0000000 )


      isym =  6     inv. 180 deg rotation - cryst. axis [1,1,0]  

 cryst.   s( 6) = (     0         -1          0      )
                  (    -1          0          0      )
                  (     0          0          1      )

 cart.    s( 6) = (  0.5000000 -0.8660258  0.0000000 )
                  ( -0.8660250 -0.5000000  0.0000000 )
                  (  0.0000000  0.0000000  1.0000000 )


   Cartesian axes

     site n.     atom                  positions (alat units)
         1        C      tau(   1) = (   0.5000000   0.2886752   5.5778168  )
         2        C      tau(   2) = (   0.0000000   0.5773503   5.5775755  )

   Crystallographic axes

     site n.     atom                  positions (cryst. coord.)
         1        C      tau(   1) = (  0.6666668  0.3333335  0.5876415  )
         2        C      tau(   2) = (  0.3333335  0.6666670  0.5876161  )

     number of k points=    19  Gaussian smearing, width (Ry)=  0.0100
                       cart. coord. in units 2pi/alat
        k(    1) = (   0.0000000   0.0000000   0.0000000), wk =   0.0138889
        k(    2) = (   0.0000000   0.0962251   0.0000000), wk =   0.0833333
        k(    3) = (   0.0000000   0.1924502   0.0000000), wk =   0.0833333
        k(    4) = (   0.0000000   0.2886753   0.0000000), wk =   0.0833333
        k(    5) = (   0.0000000   0.3849004   0.0000000), wk =   0.0833333
        k(    6) = (   0.0000000   0.4811254   0.0000000), wk =   0.0833333
        k(    7) = (   0.0000000  -0.5773505   0.0000000), wk =   0.0416667
        k(    8) = (   0.0833333   0.1443376   0.0000000), wk =   0.0833333
        k(    9) = (   0.0833333   0.2405627   0.0000000), wk =   0.1666667
        k(   10) = (   0.0833333   0.3367878   0.0000000), wk =   0.1666667
        k(   11) = (   0.0833333   0.4330129   0.0000000), wk =   0.1666667
        k(   12) = (   0.0833333   0.5292380   0.0000000), wk =   0.1666667
        k(   13) = (   0.1666667   0.2886753   0.0000000), wk =   0.0833333
        k(   14) = (   0.1666667   0.3849004   0.0000000), wk =   0.1666667
        k(   15) = (   0.1666667   0.4811254   0.0000000), wk =   0.1666667
        k(   16) = (   0.1666667   0.5773505   0.0000000), wk =   0.0833333
        k(   17) = (   0.2500000   0.4330129   0.0000000), wk =   0.0833333
        k(   18) = (   0.2500000   0.5292380   0.0000000), wk =   0.1666667
        k(   19) = (   0.3333333   0.5773505   0.0000000), wk =   0.0277778

                       cryst. coord.
        k(    1) = (   0.0000000   0.0000000   0.0000000), wk =   0.0138889
        k(    2) = (   0.0000000   0.0833333   0.0000000), wk =   0.0833333
        k(    3) = (   0.0000000   0.1666667   0.0000000), wk =   0.0833333
        k(    4) = (   0.0000000   0.2500000   0.0000000), wk =   0.0833333
        k(    5) = (   0.0000000   0.3333333   0.0000000), wk =   0.0833333
        k(    6) = (   0.0000000   0.4166667   0.0000000), wk =   0.0833333
        k(    7) = (   0.0000000  -0.5000000   0.0000000), wk =   0.0416667
        k(    8) = (   0.0833333   0.0833333   0.0000000), wk =   0.0833333
        k(    9) = (   0.0833333   0.1666667   0.0000000), wk =   0.1666667
        k(   10) = (   0.0833333   0.2500000   0.0000000), wk =   0.1666667
        k(   11) = (   0.0833333   0.3333333   0.0000000), wk =   0.1666667
        k(   12) = (   0.0833333   0.4166667   0.0000000), wk =   0.1666667
        k(   13) = (   0.1666667   0.1666667   0.0000000), wk =   0.0833333
        k(   14) = (   0.1666667   0.2500000   0.0000000), wk =   0.1666667
        k(   15) = (   0.1666667   0.3333333   0.0000000), wk =   0.1666667
        k(   16) = (   0.1666667   0.4166667   0.0000000), wk =   0.0833333
        k(   17) = (   0.2500000   0.2500000   0.0000000), wk =   0.0833333
        k(   18) = (   0.2500000   0.3333333   0.0000000), wk =   0.1666667
        k(   19) = (   0.3333333   0.3333333   0.0000000), wk =   0.0277778

     Dense  grid:   111671 G-vectors     FFT dimensions: (  30,  30, 288)

     Smooth grid:    52021 G-vectors     FFT dimensions: (  24,  24, 225)

     Dynamical RAM for                 wfc:       0.99 MB

     Dynamical RAM for     wfc (w. buffer):       5.93 MB

     Dynamical RAM for           str. fact:       1.70 MB

     Dynamical RAM for           local pot:       0.00 MB

     Dynamical RAM for          nlocal pot:       1.58 MB

     Dynamical RAM for                qrad:       0.46 MB

     Dynamical RAM for          rho,v,vnew:      11.04 MB

     Dynamical RAM for               rhoin:       3.68 MB

     Dynamical RAM for            rho*nmix:      27.26 MB

     Dynamical RAM for           G-vectors:       6.79 MB

     Dynamical RAM for          h,s,v(r/c):       0.02 MB

     Dynamical RAM for          <psi|beta>:       0.00 MB

     Dynamical RAM for                 psi:       1.98 MB

     Dynamical RAM for                hpsi:       1.98 MB

     Dynamical RAM for                spsi:       1.98 MB

     Dynamical RAM for      wfcinit/wfcrot:       1.98 MB

     Dynamical RAM for           addusdens:      20.45 MB

     Dynamical RAM for          addusforce:      20.87 MB

     Estimated static dynamical RAM per process >      44.49 MB

     Estimated max dynamical RAM per process >      92.62 MB

     Estimated total dynamical RAM >     288.71 MB
 ----2D----2D----2D----2D----2D----2D----2D----2D----2D----2D----2D----2D
  The code is running with the 2D cutoff
  Please refer to:
  Sohier, T., Calandra, M., & Mauri, F. (2017), 
  Density functional perturbation theory for gated two-dimensional heterostructures:
  Theoretical developments and application to flexural phonons in graphene.
  Physical Review B, 96(7), 75448. https://doi.org/10.1103/PhysRevB.96.075448
 ----2D----2D----2D----2D----2D----2D----2D----2D----2D----2D----2D----2D

     Check: negative core charge=   -0.000002

     Initial potential from superposition of free atoms

     starting charge       7.9999, renormalised to       8.0000

     negative rho (up, down):  1.246E-04 0.000E+00
     Starting wfcs are    8 randomized atomic wfcs +    2 random wfcs
     Checking if some PAW data can be deallocated... 

     total cpu time spent up to now is        2.3 secs

     Self-consistent Calculation

     iteration #  1     ecut=    60.00 Ry     beta= 0.70
     Davidson diagonalization with overlap

---- Real-time Memory Report at c_bands before calling an iterative solver
            97 MiB given to the printing process from OS
             0 MiB allocation reported by mallinfo(arena+hblkhd)
          3146 MiB available memory on the node where the printing process lives
------------------
     ethr =  1.00E-02,  avg # of iterations = 10.8

     negative rho (up, down):  1.320E-04 0.000E+00

     total cpu time spent up to now is        4.6 secs

     total energy              =     -36.85575313 Ry
     estimated scf accuracy    <       0.20290099 Ry

     iteration #  2     ecut=    60.00 Ry     beta= 0.70
     Davidson diagonalization with overlap

---- Real-time Memory Report at c_bands before calling an iterative solver
           115 MiB given to the printing process from OS
             0 MiB allocation reported by mallinfo(arena+hblkhd)
          3084 MiB available memory on the node where the printing process lives
------------------
     ethr =  2.54E-03,  avg # of iterations =  2.9

     negative rho (up, down):  1.354E-04 0.000E+00

     total cpu time spent up to now is        5.7 secs

     total energy              =     -36.88673431 Ry
     estimated scf accuracy    <       0.00227315 Ry

     iteration #  3     ecut=    60.00 Ry     beta= 0.70
     Davidson diagonalization with overlap

---- Real-time Memory Report at c_bands before calling an iterative solver
           117 MiB given to the printing process from OS
             0 MiB allocation reported by mallinfo(arena+hblkhd)
          3083 MiB available memory on the node where the printing process lives
------------------
     ethr =  2.84E-05,  avg # of iterations = 12.0

     negative rho (up, down):  1.437E-04 0.000E+00

     total cpu time spent up to now is        8.0 secs

     total energy              =     -36.88709564 Ry
     estimated scf accuracy    <       0.00016029 Ry

     iteration #  4     ecut=    60.00 Ry     beta= 0.70
     Davidson diagonalization with overlap

---- Real-time Memory Report at c_bands before calling an iterative solver
           118 MiB given to the printing process from OS
             0 MiB allocation reported by mallinfo(arena+hblkhd)
          3112 MiB available memory on the node where the printing process lives
------------------
     ethr =  2.00E-06,  avg # of iterations =  4.4

     negative rho (up, down):  1.439E-04 0.000E+00

     total cpu time spent up to now is        9.2 secs

     total energy              =     -36.88710869 Ry
     estimated scf accuracy    <       0.00000441 Ry

     iteration #  5     ecut=    60.00 Ry     beta= 0.70
     Davidson diagonalization with overlap

---- Real-time Memory Report at c_bands before calling an iterative solver
           120 MiB given to the printing process from OS
             0 MiB allocation reported by mallinfo(arena+hblkhd)
          3093 MiB available memory on the node where the printing process lives
------------------
     ethr =  5.51E-08,  avg # of iterations =  2.3

     negative rho (up, down):  1.441E-04 0.000E+00

     total cpu time spent up to now is        9.9 secs

     total energy              =     -36.88711037 Ry
     estimated scf accuracy    <       0.00000037 Ry

     iteration #  6     ecut=    60.00 Ry     beta= 0.70
     Davidson diagonalization with overlap

---- Real-time Memory Report at c_bands before calling an iterative solver
           122 MiB given to the printing process from OS
             0 MiB allocation reported by mallinfo(arena+hblkhd)
          3099 MiB available memory on the node where the printing process lives
------------------
     ethr =  4.58E-09,  avg # of iterations =  2.0

     negative rho (up, down):  1.441E-04 0.000E+00

     total cpu time spent up to now is       10.6 secs

     total energy              =     -36.88711047 Ry
     estimated scf accuracy    <       0.00000002 Ry

     iteration #  7     ecut=    60.00 Ry     beta= 0.70
     Davidson diagonalization with overlap

---- Real-time Memory Report at c_bands before calling an iterative solver
           123 MiB given to the printing process from OS
             0 MiB allocation reported by mallinfo(arena+hblkhd)
          3101 MiB available memory on the node where the printing process lives
------------------
     ethr =  2.08E-10,  avg # of iterations =  2.6

     negative rho (up, down):  1.441E-04 0.000E+00

     total cpu time spent up to now is       11.3 secs

     End of self-consistent calculation

          k = 0.0000 0.0000 0.0000 (  6469 PWs)   bands (ev):

   -23.8082 -11.8921  -7.2711  -7.2711  -1.0382  -0.4048   0.1205   0.4692
     1.5483   2.0851

     occupation numbers 
     1.0000   1.0000   1.0000   1.0000   0.0000   0.0000   0.0000   0.0000
     0.0000   0.0000

          k = 0.0000 0.0962 0.0000 (  6478 PWs)   bands (ev):

   -23.6436 -11.6950  -7.9240  -7.6123  -0.8139  -0.1768   0.3492   0.6967
     1.7753   2.3117

     occupation numbers 
     1.0000   1.0000   1.0000   1.0000   0.0000   0.0000   0.0000   0.0000
     0.0000   0.0000

          k = 0.0000 0.1925 0.0000 (  6486 PWs)   bands (ev):

   -23.1515 -11.1088  -9.5681  -8.4109  -0.1411   0.5062   1.0351   1.3785
     2.4561   2.9891

     occupation numbers 
     1.0000   1.0000   1.0000   1.0000   0.0000   0.0000   0.0000   0.0000
     0.0000   0.0000

          k = 0.0000 0.2887 0.0000 (  6494 PWs)   bands (ev):

   -22.3377 -11.6753 -10.1528  -9.2972   0.9782   1.6356   2.1778   2.4936
     3.0995   3.5741

     occupation numbers 
     1.0000   1.0000   1.0000   1.0000   0.0000   0.0000   0.0000   0.0000
     0.0000   0.0000

          k = 0.0000 0.3849 0.0000 (  6484 PWs)   bands (ev):

   -21.2142 -13.8883 -10.0359  -8.8774   0.7194   2.5336   3.2476   3.5580
     3.7980   4.1118

     occupation numbers 
     1.0000   1.0000   1.0000   1.0000   0.0000   0.0000   0.0000   0.0000
     0.0000   0.0000

          k = 0.0000 0.4811 0.0000 (  6486 PWs)   bands (ev):

   -19.8116 -15.9985 -10.5121  -7.4461  -1.4302   3.3155   4.5551   5.2751
     5.8379   6.1393

     occupation numbers 
     1.0000   1.0000   1.0000   1.0000   0.0000   0.0000   0.0000   0.0000
     0.0000   0.0000

          k = 0.0000-0.5774 0.0000 (  6508 PWs)   bands (ev):

   -18.5355 -17.5184 -10.6756  -6.5958  -2.5359   3.2378   6.8772   7.0221
     7.6439   7.7852

     occupation numbers 
     1.0000   1.0000   1.0000   1.0000   0.0000   0.0000   0.0000   0.0000
     0.0000   0.0000

          k = 0.0833 0.1443 0.0000 (  6487 PWs)   bands (ev):

   -23.3152 -11.3032  -8.9612  -8.2951  -0.3652   0.2787   0.8065   1.1515
     2.2296   2.7640

     occupation numbers 
     1.0000   1.0000   1.0000   1.0000   0.0000   0.0000   0.0000   0.0000
     0.0000   0.0000

          k = 0.0833 0.2406 0.0000 (  6474 PWs)   bands (ev):

   -22.6623 -10.6777 -10.5309  -9.3002   0.5317   1.1877   1.7213   2.0584
     3.1377   3.6561

     occupation numbers 
     1.0000   1.0000   1.0000   1.0000   0.0000   0.0000   0.0000   0.0000
     0.0000   0.0000

          k = 0.0833 0.3368 0.0000 (  6487 PWs)   bands (ev):

   -21.6935 -12.7599 -10.1922  -9.4088   1.7372   1.8727   2.5680   3.0921
     3.4272   4.3727

     occupation numbers 
     1.0000   1.0000   1.0000   1.0000   0.0000   0.0000   0.0000   0.0000
     0.0000   0.0000

          k = 0.0833 0.4330 0.0000 (  6482 PWs)   bands (ev):

   -20.4275 -14.8925 -10.8309  -8.0211  -0.4758   3.6349   4.1676   4.3638
     4.9272   5.2279

     occupation numbers 
     1.0000   1.0000   1.0000   1.0000   0.0000   0.0000   0.0000   0.0000
     0.0000   0.0000

          k = 0.0833 0.5292 0.0000 (  6501 PWs)   bands (ev):

   -18.9391 -16.8451 -11.1613  -6.7035  -2.2569   3.9782   5.8618   6.5820
     7.2043   7.4451

     occupation numbers 
     1.0000   1.0000   1.0000   1.0000   0.0000   0.0000   0.0000   0.0000
     0.0000   0.0000

          k = 0.1667 0.2887 0.0000 (  6494 PWs)   bands (ev):

   -21.8544 -12.0113 -10.6718  -9.5886   1.6511   2.2008   2.3198   2.8649
     3.1884   4.2744

     occupation numbers 
     1.0000   1.0000   1.0000   1.0000   0.0000   0.0000   0.0000   0.0000
     0.0000   0.0000

          k = 0.1667 0.3849 0.0000 (  6484 PWs)   bands (ev):

   -20.7417 -13.7464 -11.7336  -8.3284   0.2399   3.2097   3.8908   4.4639
     4.7561   5.8377

     occupation numbers 
     1.0000   1.0000   1.0000   1.0000   0.0000   0.0000   0.0000   0.0000
     0.0000   0.0000

          k = 0.1667 0.4811 0.0000 (  6474 PWs)   bands (ev):

   -19.3591 -15.6674 -12.3116  -6.8930  -1.6854   5.1827   5.8451   5.8946
     6.5226   6.7137

     occupation numbers 
     1.0000   1.0000   1.0000   1.0000   0.0000   0.0000   0.0000   0.0000
     0.0000   0.0000

          k = 0.1667 0.5774 0.0000 (  6478 PWs)   bands (ev):

   -18.1132 -17.1152 -12.4971  -5.9943  -2.7611   5.7926   7.3930   7.4472
     7.6362   8.4694

     occupation numbers 
     1.0000   1.0000   1.0000   1.0000   0.0000   0.0000   0.0000   0.0000
     0.0000   0.0000

          k = 0.2500 0.4330 0.0000 (  6442 PWs)   bands (ev):

   -19.5079 -14.7823 -13.2279  -6.9777  -1.3842   4.9703   5.5720   6.2882
     6.4496   7.6465

     occupation numbers 
     1.0000   1.0000   1.0000   1.0000   0.0000   0.0000   0.0000   0.0000
     0.0000   0.0000

          k = 0.2500 0.5292 0.0000 (  6455 PWs)   bands (ev):

   -18.0773 -16.2126 -13.9381  -5.5833  -2.9140   6.6631   7.0839   8.0596
     8.3151   8.5566

     occupation numbers 
     1.0000   1.0000   1.0000   1.0000   0.0000   0.0000   0.0000   0.0000
     0.0000   0.0000

          k = 0.3333 0.5774 0.0000 (  6450 PWs)   bands (ev):

   -16.8524 -16.8524 -14.8461  -4.2192  -4.2191   6.4072   8.7039   8.7039
     9.2817  10.8680

     occupation numbers 
     1.0000   1.0000   1.0000   0.5002   0.4998   0.0000   0.0000   0.0000
     0.0000   0.0000

     the Fermi energy is    -4.2192 ev

!    total energy              =     -36.88711048 Ry
     total all-electron energy =      -152.415305 Ry
     estimated scf accuracy    <          1.7E-09 Ry
     smearing contrib. (-TS)   =      -0.00015672 Ry
     internal energy E=F+TS    =     -36.88695376 Ry

     The total energy is F=E-TS. E is the sum of the following terms:
     one-electron contribution =    -427.10507582 Ry
     hartree contribution      =     214.43589673 Ry
     xc contribution           =      -9.28501914 Ry
     ewald contribution        =     197.40164413 Ry
     one-center paw contrib.   =     -12.33439965 Ry
      -> PAW hartree energy AE =       9.52740146 Ry
      -> PAW hartree energy PS =      -9.51872152 Ry
      -> PAW xc energy AE      =     -10.68312127 Ry
      -> PAW xc energy PS      =       4.50724229 Ry
      -> total E_H with PAW    =     214.44457667 Ry
      -> total E_XC with PAW   =     -15.46089813 Ry

     convergence has been achieved in   7 iterations

     negative rho (up, down):  1.441E-04 0.000E+00

     Forces acting on atoms (cartesian axes, Ry/au):

     atom    1 type  1   force =     0.00000000   -0.00000000   -0.00038773
     atom    2 type  1   force =     0.00000000    0.00000000    0.00038773
     The non-local contrib.  to forces
     atom    1 type  1   force =     0.00000000   -0.00000000   -0.00067124
     atom    2 type  1   force =     0.00000000    0.00000000    0.00075435
     The ionic contribution  to forces
     atom    1 type  1   force =    -0.00000053    0.00000661    0.00827296
     atom    2 type  1   force =     0.00000053   -0.00000661   -0.00827296
     The local contribution  to forces
     atom    1 type  1   force =    -0.00000038   -0.00000377   -0.00810083
     atom    2 type  1   force =    -0.00000000   -0.00000185    0.00780606
     The core correction contribution to forces
     atom    1 type  1   force =     0.00000004    0.00000020    0.00007223
     atom    2 type  1   force =    -0.00000000    0.00000041    0.00006087
     The Hubbard contrib.    to forces
     atom    1 type  1   force =     0.00000000    0.00000000    0.00000000
     atom    2 type  1   force =     0.00000000    0.00000000    0.00000000
     The SCF correction term to forces
     atom    1 type  1   force =    -0.00000000   -0.00000000    0.00009952
     atom    2 type  1   force =     0.00000000    0.00000000    0.00009978

     Total force =     0.000548     Total SCF correction =     0.000141
     SCF correction compared to forces is large: reduce conv_thr to get better values

     Writing all to output data dir /home/ubuntu/projects/Graphene-Band-Structure-Quantum-Espresso/outputs/bilayer/field_0Ry/top/data/top.save/ :
     XML data file, charge density, pseudopotentials, collected wavefunctions

     init_run     :      2.12s CPU      2.22s WALL (       1 calls)
     electrons    :      8.82s CPU      8.94s WALL (       1 calls)
     forces       :      0.20s CPU      0.31s WALL (       1 calls)

     Called by init_run:
     wfcinit      :      0.28s CPU      0.28s WALL (       1 calls)
     wfcinit:atom :      0.00s CPU      0.00s WALL (       5 calls)
     wfcinit:wfcr :      0.27s CPU      0.27s WALL (       5 calls)
     potinit      :      0.61s CPU      0.64s WALL (       1 calls)
     hinit0       :      0.93s CPU      0.95s WALL (       1 calls)

     Called by electrons:
     c_bands      :      6.33s CPU      6.39s WALL (       7 calls)
     sum_band     :      0.88s CPU      0.90s WALL (       7 calls)
     v_of_rho     :      0.69s CPU      0.74s WALL (       8 calls)
     v_h          :      0.03s CPU      0.04s WALL (       8 calls)
     v_xc         :      0.74s CPU      0.86s WALL (       9 calls)
     newd         :      0.37s CPU      0.38s WALL (       8 calls)
     PAW_pot      :      0.77s CPU      0.78s WALL (       8 calls)
     mix_rho      :      0.07s CPU      0.07s WALL (       7 calls)

     Called by c_bands:
     init_us_2    :      0.07s CPU      0.08s WALL (      80 calls)
     cegterg      :      3.68s CPU      3.70s WALL (      35 calls)

     Called by sum_band:
     sum_band:wei :      0.00s CPU      0.00s WALL (       7 calls)
     sum_band:loo :      0.38s CPU      0.38s WALL (       7 calls)
     sum_band:buf :      0.00s CPU      0.00s WALL (      35 calls)
     sum_band:ini :      0.03s CPU      0.03s WALL (      35 calls)
     sum_band:cal :      0.06s CPU      0.06s WALL (      35 calls)
     sum_band:bec :      0.00s CPU      0.00s WALL (      35 calls)
     addusdens    :      0.20s CPU      0.21s WALL (       7 calls)
     addusd:skk   :      0.00s CPU      0.00s WALL (       7 calls)

     Called by *egterg:
     cdiaghg      :      0.03s CPU      0.03s WALL (     216 calls)
     cegterg:over :      0.29s CPU      0.30s WALL (     181 calls)
     cegterg:upda :      0.20s CPU      0.20s WALL (     181 calls)
     cegterg:last :      0.50s CPU      0.51s WALL (      98 calls)
     h_psi        :      2.56s CPU      2.57s WALL (     221 calls)
     s_psi        :      0.21s CPU      0.21s WALL (     221 calls)
     g_psi        :      0.02s CPU      0.02s WALL (     181 calls)

     Called by h_psi:
     h_psi:calbec :      0.22s CPU      0.22s WALL (     221 calls)
     vloc_psi     :      2.12s CPU      2.13s WALL (     221 calls)
     add_vuspsi   :      0.21s CPU      0.21s WALL (     221 calls)

     General routines
     calbec       :      0.31s CPU      0.32s WALL (     276 calls)
     fft          :      0.93s CPU      0.94s WALL (     113 calls)
     ffts         :      0.27s CPU      0.27s WALL (      15 calls)
     fftw         :      2.09s CPU      2.10s WALL (    2654 calls)
     interpolate  :      0.29s CPU      0.29s WALL (       8 calls)

     Parallel routines

     PAW routines
     PAW_pot      :      0.77s CPU      0.78s WALL (       8 calls)
     PAW_symme    :      0.02s CPU      0.02s WALL (      15 calls)

     PWSCF        :     11.25s CPU     11.62s WALL


   This run was terminated on:  11: 4: 6   7Sep2026            

=------------------------------------------------------------------------------=
   JOB DONE.
=------------------------------------------------------------------------------=
Note: The following floating-point exceptions are signalling: IEEE_UNDERFLOW_FLAG IEEE_DENORMAL
