
     Program PWSCF v.7.6 starts on  4Oct2026 at  4:10:16 

     This program is part of the open-source Quantum ESPRESSO suite
     for quantum simulation of materials; please cite
         "P. Giannozzi et al., J. Phys.:Condens. Matter 21 395502 (2009);
         "P. Giannozzi et al., J. Phys.:Condens. Matter 29 465901 (2017);
         "P. Giannozzi et al., J. Chem. Phys. 152 154105 (2020);
          URL http://www.quantum-espresso.org", 
     in publications or presentations arising from this work. More details at
     http://www.quantum-espresso.org/quote

     Parallel version (MPI), running on    16 processors

     MPI processes distributed on     1 nodes
     27943 MiB available memory on the printing compute node when the environment starts

     Waiting for input...
     Reading input from standard input
Warning: card &CELL ignored
Warning: card &FCP ignored
Warning: card &RISM ignored

     Current dimensions of program PWSCF are:
     Max number of different atomic species (ntypx) = 10
     Max number of k-points (npk) =  40000
     Max angular momentum in pseudopotentials (lmaxx) =  4
     Message from routine setup:
     using ibrav=0 with symmetry is DISCOURAGED, use correct ibrav instead

     K-points division:     npool     =      16
     Subspace diagonalization in iterative solution of the eigenvalue problem:
     a serial algorithm will be used


     G-vector sticks info
     --------------------
     sticks:   dense  smooth     PW     G-vecs:    dense   smooth      PW
     Sum         535     535    163                94953    94953   15739

     Using Slab Decomposition



     bravais-lattice index     =            0
     lattice parameter (alat)  =       4.6487  a.u.
     unit-cell volume          =     825.8180 (a.u.)^3
     number of atoms/cell      =            4
     number of atomic types    =            1
     number of electrons       =        16.00
     number of Kohn-Sham states=           14
     kinetic-energy cutoff     =      90.0000  Ry
     charge density cutoff     =     360.0000  Ry
     scf convergence threshold =      1.0E-08
     mixing beta               =       0.7000
     number of iterations used =            8  plain     mixing
     energy convergence thresh.=      1.0E-04
     force convergence thresh. =      1.0E-03
     Exchange-correlation= PBE
                           (   1   4   3   4   0   0   0)
     nstep                     =           50


     celldm(1)=   4.648726  celldm(2)=   0.000000  celldm(3)=   0.000000
     celldm(4)=   0.000000  celldm(5)=   0.000000  celldm(6)=   0.000000

     crystal axes: (cart. coord. in units of alat)
               a(1) = (   1.000000   0.000000   0.000000 )  
               a(2) = (  -0.500000   0.866025   0.000000 )  
               a(3) = (   0.000000   0.000000   9.491870 )  

     reciprocal axes: (cart. coord. in units 2 pi/alat)
               b(1) = (  1.000000  0.577350 -0.000000 )  
               b(2) = (  0.000000  1.154701  0.000000 )  
               b(3) = (  0.000000 -0.000000  0.105353 )  


     PseudoPot. # 1 for C  read from file:
     /home/ubuntu/projects/Graphene-Band-Structure-Quantum-Espresso/pseudo/C.upf
     MD5 check sum: 34a24e64c0a39f27c6c36b90a16ac686
     Pseudo is Norm-conserving + core correction, Zval =  4.0
     Generated using ONCVPSP code by D. R. Hamann
     Using radial grid of 1248 points,  4 beta functions with: 
                l(1) =   0
                l(2) =   0
                l(3) =   1
                l(4) =   1

     atomic species   valence    mass     pseudopotential
     C                 4.00    12.01100     C ( 1.00)

     12 Sym. Ops., with inversion, found ( 6 have fractional translation)


                                    s                        frac. trans.

      isym =  1     identity                                     

 cryst.   s( 1) = (     1          0          0      )
                  (     0          1          0      )
                  (     0          0          1      )

 cart.    s( 1) = (  1.0000000  0.0000000  0.0000000 )
                  (  0.0000000  1.0000000  0.0000000 )
                  (  0.0000000  0.0000000  1.0000000 )


      isym =  2     180 deg rotation - cart. axis [1,0,0]        

 cryst.   s( 2) = (     1          0          0      )    f =( -0.3333333 )
                  (    -1         -1          0      )       (  0.3333333 )
                  (     0          0         -1      )       (  0.0000000 )

 cart.    s( 2) = (  1.0000000  0.0000000  0.0000000 )    f =( -0.5000000 )
                  (  0.0000000 -1.0000000  0.0000000 )       (  0.2886751 )
                  (  0.0000000  0.0000000 -1.0000000 )       (  0.0000000 )


      isym =  3     120 deg rotation - cryst. axis [0,0,1]       

 cryst.   s( 3) = (     0          1          0      )
                  (    -1         -1          0      )
                  (     0          0          1      )

 cart.    s( 3) = ( -0.5000000 -0.8660254  0.0000000 )
                  (  0.8660254 -0.5000000  0.0000000 )
                  (  0.0000000  0.0000000  1.0000000 )


      isym =  4     120 deg rotation - cryst. axis [0,0,-1]      

 cryst.   s( 4) = (    -1         -1          0      )
                  (     1          0          0      )
                  (     0          0          1      )

 cart.    s( 4) = ( -0.5000000  0.8660254  0.0000000 )
                  ( -0.8660254 -0.5000000  0.0000000 )
                  (  0.0000000  0.0000000  1.0000000 )


      isym =  5     180 deg rotation - cryst. axis [0,1,0]       

 cryst.   s( 5) = (    -1         -1          0      )    f =( -0.3333333 )
                  (     0          1          0      )       (  0.3333333 )
                  (     0          0         -1      )       (  0.0000000 )

 cart.    s( 5) = ( -0.5000000 -0.8660254  0.0000000 )    f =( -0.5000000 )
                  ( -0.8660254  0.5000000  0.0000000 )       (  0.2886751 )
                  (  0.0000000  0.0000000 -1.0000000 )       (  0.0000000 )


      isym =  6     180 deg rotation - cryst. axis [1,1,0]       

 cryst.   s( 6) = (     0          1          0      )    f =( -0.3333333 )
                  (     1          0          0      )       (  0.3333333 )
                  (     0          0         -1      )       (  0.0000000 )

 cart.    s( 6) = ( -0.5000000  0.8660254  0.0000000 )    f =( -0.5000000 )
                  (  0.8660254  0.5000000  0.0000000 )       (  0.2886751 )
                  (  0.0000000  0.0000000 -1.0000000 )       (  0.0000000 )


      isym =  7     inversion                                    

 cryst.   s( 7) = (    -1          0          0      )    f =( -0.3333333 )
                  (     0         -1          0      )       (  0.3333333 )
                  (     0          0         -1      )       (  0.0000000 )

 cart.    s( 7) = ( -1.0000000  0.0000000  0.0000000 )    f =( -0.5000000 )
                  (  0.0000000 -1.0000000  0.0000000 )       (  0.2886751 )
                  (  0.0000000  0.0000000 -1.0000000 )       (  0.0000000 )


      isym =  8     inv. 180 deg rotation - cart. axis [1,0,0]   

 cryst.   s( 8) = (    -1          0          0      )
                  (     1          1          0      )
                  (     0          0          1      )

 cart.    s( 8) = ( -1.0000000  0.0000000  0.0000000 )
                  (  0.0000000  1.0000000  0.0000000 )
                  (  0.0000000  0.0000000  1.0000000 )


      isym =  9     inv. 120 deg rotation - cryst. axis [0,0,1]  

 cryst.   s( 9) = (     0         -1          0      )    f =( -0.3333333 )
                  (     1          1          0      )       (  0.3333333 )
                  (     0          0         -1      )       (  0.0000000 )

 cart.    s( 9) = (  0.5000000  0.8660254  0.0000000 )    f =( -0.5000000 )
                  ( -0.8660254  0.5000000  0.0000000 )       (  0.2886751 )
                  (  0.0000000  0.0000000 -1.0000000 )       (  0.0000000 )


      isym = 10     inv. 120 deg rotation - cryst. axis [0,0,-1] 

 cryst.   s(10) = (     1          1          0      )    f =( -0.3333333 )
                  (    -1          0          0      )       (  0.3333333 )
                  (     0          0         -1      )       (  0.0000000 )

 cart.    s(10) = (  0.5000000 -0.8660254  0.0000000 )    f =( -0.5000000 )
                  (  0.8660254  0.5000000  0.0000000 )       (  0.2886751 )
                  (  0.0000000  0.0000000 -1.0000000 )       (  0.0000000 )


      isym = 11     inv. 180 deg rotation - cryst. axis [0,1,0]  

 cryst.   s(11) = (     1          1          0      )
                  (     0         -1          0      )
                  (     0          0          1      )

 cart.    s(11) = (  0.5000000  0.8660254  0.0000000 )
                  (  0.8660254 -0.5000000  0.0000000 )
                  (  0.0000000  0.0000000  1.0000000 )


      isym = 12     inv. 180 deg rotation - cryst. axis [1,1,0]  

 cryst.   s(12) = (     0         -1          0      )
                  (    -1          0          0      )
                  (     0          0          1      )

 cart.    s(12) = (  0.5000000 -0.8660254  0.0000000 )
                  ( -0.8660254 -0.5000000  0.0000000 )
                  (  0.0000000  0.0000000  1.0000000 )


   Cartesian axes

     site n.     atom                  positions (alat units)
         1        C      tau(   1) = (   0.0000000   0.0000000   4.0650407  )
         2        C      tau(   2) = (   0.5000000   0.2886751   4.0650407  )
         3        C      tau(   3) = (   0.5000000   0.2886751   5.4268293  )
         4        C      tau(   4) = (   0.0000000   0.5773503   5.4268293  )

     --------------------------------------------
     DFT-D3 Dispersion Correction (3-body terms):
     --------------------------------------------
       Reference C6 values for interpolation: 

         atom   Coordination number   C6
         C          0.000            98.23
         C          0.987            86.49
         C          1.998            58.72
         C          2.999            51.56
         C          3.984            36.41

       Values used:

         atom   Coordination number  R0_AB[au]  C6      C8
         C          3.322            2.750     48.11   1391.50
         C          3.323            2.750     48.11   1391.37
         C          3.323            2.750     48.11   1391.37
         C          3.322            2.750     48.11   1391.50

         Molecular C6 ( Ry / a.u.^6 ) =       769.77


   Crystallographic axes

     site n.     atom                  positions (cryst. coord.)
         1        C      tau(   1) = (  0.0000000  0.0000000  0.4282655  )
         2        C      tau(   2) = (  0.6666667  0.3333333  0.4282655  )
         3        C      tau(   3) = (  0.6666667  0.3333333  0.5717345  )
         4        C      tau(   4) = (  0.3333333  0.6666667  0.5717345  )

     number of k points=    27  Gaussian smearing, width (Ry)=  0.0100
                       cart. coord. in units 2pi/alat
        k(    1) = (   0.0000000   0.0000000   0.0000000), wk =   0.0088889
        k(    2) = (   0.0000000   0.0769800   0.0000000), wk =   0.0533333
        k(    3) = (   0.0000000   0.1539601   0.0000000), wk =   0.0533333
        k(    4) = (   0.0000000   0.2309401   0.0000000), wk =   0.0533333
        k(    5) = (   0.0000000   0.3079201   0.0000000), wk =   0.0533333
        k(    6) = (   0.0000000   0.3849002   0.0000000), wk =   0.0533333
        k(    7) = (   0.0000000   0.4618802   0.0000000), wk =   0.0533333
        k(    8) = (   0.0000000   0.5388603   0.0000000), wk =   0.0533333
        k(    9) = (   0.0666667   0.1154701   0.0000000), wk =   0.0533333
        k(   10) = (   0.0666667   0.1924501   0.0000000), wk =   0.1066667
        k(   11) = (   0.0666667   0.2694301   0.0000000), wk =   0.1066667
        k(   12) = (   0.0666667   0.3464102   0.0000000), wk =   0.1066667
        k(   13) = (   0.0666667   0.4233902   0.0000000), wk =   0.1066667
        k(   14) = (   0.0666667   0.5003702   0.0000000), wk =   0.1066667
        k(   15) = (   0.0666667   0.5773503   0.0000000), wk =   0.0533333
        k(   16) = (   0.1333333   0.2309401   0.0000000), wk =   0.0533333
        k(   17) = (   0.1333333   0.3079201   0.0000000), wk =   0.1066667
        k(   18) = (   0.1333333   0.3849002   0.0000000), wk =   0.1066667
        k(   19) = (   0.1333333   0.4618802   0.0000000), wk =   0.1066667
        k(   20) = (   0.1333333   0.5388603   0.0000000), wk =   0.1066667
        k(   21) = (   0.2000000   0.3464102   0.0000000), wk =   0.0533333
        k(   22) = (   0.2000000   0.4233902   0.0000000), wk =   0.1066667
        k(   23) = (   0.2000000   0.5003702   0.0000000), wk =   0.1066667
        k(   24) = (   0.2000000   0.5773503   0.0000000), wk =   0.0533333
        k(   25) = (   0.2666667   0.4618802   0.0000000), wk =   0.0533333
        k(   26) = (   0.2666667   0.5388603   0.0000000), wk =   0.1066667
        k(   27) = (   0.3333333   0.5773503   0.0000000), wk =   0.0177778

                       cryst. coord.
        k(    1) = (   0.0000000   0.0000000   0.0000000), wk =   0.0088889
        k(    2) = (   0.0000000   0.0666667   0.0000000), wk =   0.0533333
        k(    3) = (   0.0000000   0.1333333   0.0000000), wk =   0.0533333
        k(    4) = (   0.0000000   0.2000000   0.0000000), wk =   0.0533333
        k(    5) = (   0.0000000   0.2666667   0.0000000), wk =   0.0533333
        k(    6) = (   0.0000000   0.3333333   0.0000000), wk =   0.0533333
        k(    7) = (   0.0000000   0.4000000   0.0000000), wk =   0.0533333
        k(    8) = (   0.0000000   0.4666667   0.0000000), wk =   0.0533333
        k(    9) = (   0.0666667   0.0666667   0.0000000), wk =   0.0533333
        k(   10) = (   0.0666667   0.1333333   0.0000000), wk =   0.1066667
        k(   11) = (   0.0666667   0.2000000   0.0000000), wk =   0.1066667
        k(   12) = (   0.0666667   0.2666667   0.0000000), wk =   0.1066667
        k(   13) = (   0.0666667   0.3333333   0.0000000), wk =   0.1066667
        k(   14) = (   0.0666667   0.4000000   0.0000000), wk =   0.1066667
        k(   15) = (   0.0666667   0.4666667   0.0000000), wk =   0.0533333
        k(   16) = (   0.1333333   0.1333333   0.0000000), wk =   0.0533333
        k(   17) = (   0.1333333   0.2000000   0.0000000), wk =   0.1066667
        k(   18) = (   0.1333333   0.2666667   0.0000000), wk =   0.1066667
        k(   19) = (   0.1333333   0.3333333   0.0000000), wk =   0.1066667
        k(   20) = (   0.1333333   0.4000000   0.0000000), wk =   0.1066667
        k(   21) = (   0.2000000   0.2000000   0.0000000), wk =   0.0533333
        k(   22) = (   0.2000000   0.2666667   0.0000000), wk =   0.1066667
        k(   23) = (   0.2000000   0.3333333   0.0000000), wk =   0.1066667
        k(   24) = (   0.2000000   0.4000000   0.0000000), wk =   0.0533333
        k(   25) = (   0.2666667   0.2666667   0.0000000), wk =   0.0533333
        k(   26) = (   0.2666667   0.3333333   0.0000000), wk =   0.1066667
        k(   27) = (   0.3333333   0.3333333   0.0000000), wk =   0.0177778

     Dense  grid:    94953 G-vectors     FFT dimensions: (  30,  30, 270)

     Dynamical RAM for                 wfc:       2.54 MB

     Dynamical RAM for     wfc (w. buffer):       7.63 MB

     Dynamical RAM for           str. fact:       1.45 MB

     Dynamical RAM for           local pot:       0.00 MB

     Dynamical RAM for          nlocal pot:       5.81 MB

     Dynamical RAM for                qrad:       0.44 MB

     Dynamical RAM for          rho,v,vnew:       9.91 MB

     Dynamical RAM for               rhoin:       3.30 MB

     Dynamical RAM for            rho*nmix:      23.18 MB

     Dynamical RAM for           G-vectors:       6.16 MB

     Dynamical RAM for          h,s,v(r/c):       0.04 MB

     Dynamical RAM for          <psi|beta>:       0.01 MB

     Dynamical RAM for                 psi:       5.09 MB

     Dynamical RAM for                hpsi:       5.09 MB

     Dynamical RAM for      wfcinit/wfcrot:       5.09 MB

     Estimated static dynamical RAM per process >      46.87 MB

     Estimated max dynamical RAM per process >      80.26 MB

     Estimated total dynamical RAM >     936.50 MB

     Initial potential from superposition of free atoms

     starting charge      15.9998, renormalised to      16.0000

     negative rho (up, down):  7.039E-06 0.000E+00
     Starting wfcs are   16 randomized atomic wfcs

     total cpu time spent up to now is        2.0 secs

     Self-consistent Calculation

     iteration #  1     ecut=    90.00 Ry     beta= 0.70
     Davidson diagonalization with overlap

---- Real-time Memory Report at c_bands before calling an iterative solver
            96 MiB given to the printing process from OS
             0 MiB allocation reported by mallinfo(arena+hblkhd)
         26689 MiB available memory on the node where the printing process lives
------------------
     ethr =  1.00E-02,  avg # of iterations =  5.7

     total cpu time spent up to now is        3.8 secs

     total energy              =     -48.16136012 Ry
     estimated scf accuracy    <       0.36894532 Ry

     iteration #  2     ecut=    90.00 Ry     beta= 0.70
     Davidson diagonalization with overlap

---- Real-time Memory Report at c_bands before calling an iterative solver
           122 MiB given to the printing process from OS
             0 MiB allocation reported by mallinfo(arena+hblkhd)
         26428 MiB available memory on the node where the printing process lives
------------------
     ethr =  2.31E-03,  avg # of iterations =  6.2

     total cpu time spent up to now is        5.2 secs

     total energy              =     -48.20608142 Ry
     estimated scf accuracy    <       0.00438748 Ry

     iteration #  3     ecut=    90.00 Ry     beta= 0.70
     Davidson diagonalization with overlap

---- Real-time Memory Report at c_bands before calling an iterative solver
           125 MiB given to the printing process from OS
             0 MiB allocation reported by mallinfo(arena+hblkhd)
         26428 MiB available memory on the node where the printing process lives
------------------
     ethr =  2.74E-05,  avg # of iterations = 12.4

     total cpu time spent up to now is        7.5 secs

     total energy              =     -48.20691967 Ry
     estimated scf accuracy    <       0.00096540 Ry

     iteration #  4     ecut=    90.00 Ry     beta= 0.70
     Davidson diagonalization with overlap

---- Real-time Memory Report at c_bands before calling an iterative solver
           128 MiB given to the printing process from OS
             0 MiB allocation reported by mallinfo(arena+hblkhd)
         26428 MiB available memory on the node where the printing process lives
------------------
     ethr =  6.03E-06,  avg # of iterations =  6.7

     total cpu time spent up to now is        9.2 secs

     total energy              =     -48.20716102 Ry
     estimated scf accuracy    <       0.00053651 Ry

     iteration #  5     ecut=    90.00 Ry     beta= 0.70
     Davidson diagonalization with overlap

---- Real-time Memory Report at c_bands before calling an iterative solver
           131 MiB given to the printing process from OS
             0 MiB allocation reported by mallinfo(arena+hblkhd)
         26450 MiB available memory on the node where the printing process lives
------------------
     ethr =  3.35E-06,  avg # of iterations =  5.6

     total cpu time spent up to now is       10.6 secs

     total energy              =     -48.20726190 Ry
     estimated scf accuracy    <       0.00000435 Ry

     iteration #  6     ecut=    90.00 Ry     beta= 0.70
     Davidson diagonalization with overlap

---- Real-time Memory Report at c_bands before calling an iterative solver
           133 MiB given to the printing process from OS
             0 MiB allocation reported by mallinfo(arena+hblkhd)
         26454 MiB available memory on the node where the printing process lives
------------------
     ethr =  2.72E-08,  avg # of iterations =  2.7

     total cpu time spent up to now is       11.8 secs

     total energy              =     -48.20726354 Ry
     estimated scf accuracy    <       0.00000017 Ry

     iteration #  7     ecut=    90.00 Ry     beta= 0.70
     Davidson diagonalization with overlap

---- Real-time Memory Report at c_bands before calling an iterative solver
           136 MiB given to the printing process from OS
             0 MiB allocation reported by mallinfo(arena+hblkhd)
         26439 MiB available memory on the node where the printing process lives
------------------
     ethr =  1.04E-09,  avg # of iterations =  3.9

     total cpu time spent up to now is       13.0 secs

     End of self-consistent calculation

          k = 0.0000 0.0000 0.0000 ( 11659 PWs)   bands (ev):

   -20.6595 -20.5079  -9.1416  -8.1645  -4.0416  -4.0416  -4.0324  -4.0324
     2.4295   2.7927   3.4624   4.1858   4.6307   6.1064

     occupation numbers 
     1.0000   1.0000   1.0000   1.0000   1.0000   1.0000   1.0000   1.0000
     0.0000   0.0000   0.0000   0.0000   0.0000   0.0000

          k = 0.0000 0.0770 0.0000 ( 11791 PWs)   bands (ev):

   -20.5537 -20.4031  -9.0134  -8.0403  -4.4703  -4.4558  -4.2679  -4.2552
     2.5715   2.9366   3.6088   4.3314   4.7719   6.2400

     occupation numbers 
     1.0000   1.0000   1.0000   1.0000   1.0000   1.0000   1.0000   1.0000
     0.0000   0.0000   0.0000   0.0000   0.0000   0.0000

          k = 0.0000 0.1540 0.0000 ( 11788 PWs)   bands (ev):

   -20.2369 -20.0892  -8.6308  -7.6700  -5.6084  -5.5827  -4.8398  -4.8217
     2.9976   3.3675   4.0479   4.7676   5.1952   6.6317

     occupation numbers 
     1.0000   1.0000   1.0000   1.0000   1.0000   1.0000   1.0000   1.0000
     0.0000   0.0000   0.0000   0.0000   0.0000   0.0000

          k = 0.0000 0.2309 0.0000 ( 11848 PWs)   bands (ev):

   -19.7114 -19.5686  -8.0001  -7.1693  -7.1307  -7.0608  -5.5538  -5.5318
     3.7067   4.0832   4.7795   5.4931   5.8958   7.1903

     occupation numbers 
     1.0000   1.0000   1.0000   1.0000   1.0000   1.0000   1.0000   1.0000
     0.0000   0.0000   0.0000   0.0000   0.0000   0.0000

          k = 0.0000 0.3079 0.0000 ( 11876 PWs)   bands (ev):

   -18.9814 -18.8452  -8.9161  -8.8626  -7.1348  -6.2482  -6.2321  -6.2236
     4.6948   5.0498   5.6902   5.8020   5.9955   6.5176

     occupation numbers 
     1.0000   1.0000   1.0000   1.0000   1.0000   1.0000   1.0000   1.0000
     0.0000   0.0000   0.0000   0.0000   0.0000   0.0000

          k = 0.0000 0.3849 0.0000 ( 11914 PWs)   bands (ev):

   -18.0543 -17.9265 -10.6955 -10.6282  -6.8257  -6.7994  -6.0642  -5.2203
     3.7262   4.1856   5.9534   6.3774   6.7887   6.9339

     occupation numbers 
     1.0000   1.0000   1.0000   1.0000   1.0000   1.0000   1.0000   1.0000
     0.0000   0.0000   0.0000   0.0000   0.0000   0.0000

          k = 0.0000 0.4619 0.0000 ( 11910 PWs)   bands (ev):

   -16.9455 -16.8284 -12.4080 -12.3284  -7.2330  -7.2058  -4.8625  -4.1310
     1.9473   2.4577   6.5504   6.7334   7.5332   7.9542

     occupation numbers 
     1.0000   1.0000   1.0000   1.0000   1.0000   1.0000   1.0000   1.0000
     0.0000   0.0000   0.0000   0.0000   0.0000   0.0000

          k = 0.0000 0.5389 0.0000 ( 11924 PWs)   bands (ev):

   -15.7267 -15.6305 -13.9279 -13.8477  -7.4426  -7.4149  -3.7868  -3.3153
     0.7261   1.1412   6.4447   6.6449   9.3019   9.7608

     occupation numbers 
     1.0000   1.0000   1.0000   1.0000   1.0000   1.0000   1.0000   1.0000
     0.0000   0.0000   0.0000   0.0000   0.0000   0.0000

          k = 0.0667 0.1155 0.0000 ( 11813 PWs)   bands (ev):

   -20.3424 -20.1937  -8.7580  -7.7930  -5.1977  -5.1836  -4.7161  -4.7052
     2.8556   3.2240   3.9015   4.6223   5.0545   6.5032

     occupation numbers 
     1.0000   1.0000   1.0000   1.0000   1.0000   1.0000   1.0000   1.0000
     0.0000   0.0000   0.0000   0.0000   0.0000   0.0000

          k = 0.0667 0.1925 0.0000 ( 11832 PWs)   bands (ev):

   -19.9213 -19.7765  -8.2511  -7.3033  -6.4576  -6.4309  -5.4518  -5.4337
     3.4237   3.7978   4.4871   5.2037   5.6186   7.0251

     occupation numbers 
     1.0000   1.0000   1.0000   1.0000   1.0000   1.0000   1.0000   1.0000
     0.0000   0.0000   0.0000   0.0000   0.0000   0.0000

          k = 0.0667 0.2694 0.0000 ( 11880 PWs)   bands (ev):

   -19.2935 -19.1545  -8.0540  -8.0107  -7.5019  -6.5829  -6.2180  -6.1930
     4.2735   4.6523   5.3649   6.0668   6.4397   6.4893

     occupation numbers 
     1.0000   1.0000   1.0000   1.0000   1.0000   1.0000   1.0000   1.0000
     0.0000   0.0000   0.0000   0.0000   0.0000   0.0000

          k = 0.0667 0.3464 0.0000 ( 11910 PWs)   bands (ev):

   -18.4648 -18.3333  -9.7868  -9.7282  -6.8859  -6.8571  -6.5305  -5.6569
     4.6034   4.9922   5.4035   5.8222   6.5336   7.2176

     occupation numbers 
     1.0000   1.0000   1.0000   1.0000   1.0000   1.0000   1.0000   1.0000
     0.0000   0.0000   0.0000   0.0000   0.0000   0.0000

          k = 0.0667 0.4234 0.0000 ( 11938 PWs)   bands (ev):

   -17.4457 -17.3236 -11.5190 -11.4465  -7.3936  -7.3627  -5.3809  -4.5857
     2.7678   3.2386   6.7758   7.0845   7.2720   7.3324

     occupation numbers 
     1.0000   1.0000   1.0000   1.0000   1.0000   1.0000   1.0000   1.0000
     0.0000   0.0000   0.0000   0.0000   0.0000   0.0000

          k = 0.0667 0.5004 0.0000 ( 11920 PWs)   bands (ev):

   -16.2648 -16.1556 -13.1486 -13.0658  -7.7087  -7.6767  -4.1828  -3.5563
     1.2042   1.6723   6.9492   7.1503   8.4863   8.9153

     occupation numbers 
     1.0000   1.0000   1.0000   1.0000   1.0000   1.0000   1.0000   1.0000
     0.0000   0.0000   0.0000   0.0000   0.0000   0.0000

          k = 0.0667 0.5774 0.0000 ( 11913 PWs)   bands (ev):

   -15.2723 -15.2157 -14.2481 -14.2059  -7.8153  -7.7830  -3.4733  -3.1159
     0.5441   0.8694   6.8944   7.1034  10.3130  10.4006

     occupation numbers 
     1.0000   1.0000   1.0000   1.0000   1.0000   1.0000   1.0000   1.0000
     0.0000   0.0000   0.0000   0.0000   0.0000   0.0000

          k = 0.1333 0.2309 0.0000 ( 11879 PWs)   bands (ev):

   -19.3979 -19.2579  -7.6262  -7.5588  -7.5369  -6.7007  -6.4190  -6.4027
     4.1331   4.5131   5.2190   5.9297   6.3232   6.8012

     occupation numbers 
     1.0000   1.0000   1.0000   1.0000   1.0000   1.0000   1.0000   1.0000
     0.0000   0.0000   0.0000   0.0000   0.0000   0.0000

          k = 0.1333 0.3079 0.0000 ( 11929 PWs)   bands (ev):

   -18.6715 -18.5381  -8.9677  -8.9278  -7.3358  -7.3087  -6.7666  -5.8789
     5.1189   5.2041   5.4800   5.5248   6.2430   6.9448

     occupation numbers 
     1.0000   1.0000   1.0000   1.0000   1.0000   1.0000   1.0000   1.0000
     0.0000   0.0000   0.0000   0.0000   0.0000   0.0000

          k = 0.1333 0.3849 0.0000 ( 11925 PWs)   bands (ev):

   -17.7501 -17.6251 -10.5744 -10.5147  -8.0186  -7.9821  -5.7031  -4.8740
     3.4854   3.8459   6.3856   6.7839   7.5569   8.2309

     occupation numbers 
     1.0000   1.0000   1.0000   1.0000   1.0000   1.0000   1.0000   1.0000
     0.0000   0.0000   0.0000   0.0000   0.0000   0.0000

          k = 0.1333 0.4619 0.0000 ( 11927 PWs)   bands (ev):

   -16.6508 -16.5365 -12.2003 -12.1255  -8.4681  -8.4274  -4.5034  -3.7813
     1.8212   2.2451   7.8933   8.2052   8.3834   8.5021

     occupation numbers 
     1.0000   1.0000   1.0000   1.0000   1.0000   1.0000   1.0000   1.0000
     0.0000   0.0000   0.0000   0.0000   0.0000   0.0000

          k = 0.1333 0.5389 0.0000 ( 11935 PWs)   bands (ev):

   -15.4476 -15.3543 -13.6739 -13.5974  -8.6925  -8.6501  -3.4101  -2.9383
     0.6407   0.9669   8.1446   8.3839   9.6854  10.0213

     occupation numbers 
     1.0000   1.0000   1.0000   1.0000   1.0000   1.0000   1.0000   1.0000
     0.0000   0.0000   0.0000   0.0000   0.0000   0.0000

          k = 0.2000 0.3464 0.0000 ( 11953 PWs)   bands (ev):

   -17.8522 -17.7263  -9.9800  -9.9481  -8.5131  -8.4894  -5.8122  -4.9725
     3.8006   4.0714   6.2471   6.6307   7.4121   8.0954

     occupation numbers 
     1.0000   1.0000   1.0000   1.0000   1.0000   1.0000   1.0000   1.0000
     0.0000   0.0000   0.0000   0.0000   0.0000   0.0000

          k = 0.2000 0.4234 0.0000 ( 11949 PWs)   bands (ev):

   -16.8484 -16.7320 -11.2787 -11.2254  -9.3445  -9.3057  -4.6775  -3.9130
     2.2934   2.6117   7.6349   7.9926   8.8656   9.5059

     occupation numbers 
     1.0000   1.0000   1.0000   1.0000   1.0000   1.0000   1.0000   1.0000
     0.0000   0.0000   0.0000   0.0000   0.0000   0.0000

          k = 0.2000 0.5004 0.0000 ( 11953 PWs)   bands (ev):

   -15.6927 -15.5893 -12.7202 -12.6483  -9.7781  -9.7288  -3.4691  -2.8510
     0.8962   1.2299   9.2501   9.4336   9.9098  10.0770

     occupation numbers 
     1.0000   1.0000   1.0000   1.0000   1.0000   1.0000   1.0000   1.0000
     0.0000   0.0000   0.0000   0.0000   0.0000   0.0000

          k = 0.2000 0.5774 0.0000 ( 11949 PWs)   bands (ev):

   -14.7310 -14.6775 -13.7485 -13.7143  -9.9127  -9.8608  -2.7029  -2.3531
     0.2982   0.3851   9.7327  10.0505  10.3844  10.5833

     occupation numbers 
     1.0000   1.0000   1.0000   1.0000   1.0000   1.0000   1.0000   1.0000
     0.0000   0.0000   0.0000   0.0000   0.0000   0.0000

          k = 0.2667 0.4619 0.0000 ( 11961 PWs)   bands (ev):

   -15.7825 -15.6771 -12.0543 -12.0139 -10.4708 -10.4417  -3.5031  -2.8337
     1.0432   1.3560   9.1202   9.2554  10.0152  10.5194

     occupation numbers 
     1.0000   1.0000   1.0000   1.0000   1.0000   1.0000   1.0000   1.0000
     0.0000   0.0000   0.0000   0.0000   0.0000   0.0000

          k = 0.2667 0.5389 0.0000 ( 11948 PWs)   bands (ev):

   -14.6295 -14.5439 -13.1132 -13.0575 -11.0222 -10.9777  -2.3367  -1.8562
    -0.0647   0.2053   9.7767   9.9052  10.7373  11.4781

     occupation numbers 
     1.0000   1.0000   1.0000   1.0000   1.0000   1.0000   1.0000   1.0000
     0.0000   0.0000   0.0000   0.0000   0.0000   0.0000

          k = 0.3333 0.5774 0.0000 ( 11919 PWs)   bands (ev):

   -13.6774 -13.6272 -13.6272 -13.5817 -11.6234 -11.6234  -1.3284  -0.9995
    -0.9995  -0.6505   9.6444   9.6444  11.6772  12.0261

     occupation numbers 
     1.0000   1.0000   1.0000   1.0000   1.0000   1.0000   0.9997   0.5001
     0.5001   0.0001   0.0000   0.0000   0.0000   0.0000

     the Fermi energy is    -0.9994 ev

!    total energy              =     -48.20726362 Ry
     estimated scf accuracy    <          7.5E-09 Ry
     smearing contrib. (-TS)   =      -0.00010051 Ry
     internal energy E=F+TS    =     -48.20716310 Ry

     The total energy is F=E-TS. E is the sum of the following terms:
     one-electron contribution =    -708.46274331 Ry
     hartree contribution      =     357.65618291 Ry
     xc contribution           =     -17.18710404 Ry
     ewald contribution        =     319.80421578 Ry
     DFT-D3 Dispersion         =      -0.01771444 Ry

     convergence has been achieved in   7 iterations

     Forces acting on atoms (cartesian axes, Ry/au):

     atom    1 type  1   force =     0.00000000   -0.00000000   -0.00130425
     atom    2 type  1   force =     0.00000000    0.00000000   -0.00059158
     atom    3 type  1   force =     0.00000000    0.00000000    0.00059158
     atom    4 type  1   force =     0.00000000    0.00000000    0.00130425
     The non-local contrib.  to forces
     atom    1 type  1   force =     0.00000000   -0.00000000   -0.00227692
     atom    2 type  1   force =     0.00000000    0.00000000   -0.00107925
     atom    3 type  1   force =     0.00000000   -0.00000000    0.00107925
     atom    4 type  1   force =     0.00000000   -0.00000000    0.00227692
     The ionic contribution  to forces
     atom    1 type  1   force =     0.00000000   -0.00000000  -15.31775822
     atom    2 type  1   force =    -0.00000000    0.00000000  -15.32270756
     atom    3 type  1   force =    -0.00000000   -0.00000000   15.32270756
     atom    4 type  1   force =     0.00000000    0.00000000   15.31775822
     The local contribution  to forces
     atom    1 type  1   force =    -0.00000000   -0.00000000   15.31735104
     atom    2 type  1   force =    -0.00000000    0.00000000   15.32196779
     atom    3 type  1   force =    -0.00000000    0.00000000  -15.32196779
     atom    4 type  1   force =     0.00000000    0.00000000  -15.31735104
     The core correction contribution to forces
     atom    1 type  1   force =     0.00000000   -0.00000000    0.00011445
     atom    2 type  1   force =     0.00000000   -0.00000000    0.00006100
     atom    3 type  1   force =     0.00000000   -0.00000000   -0.00006100
     atom    4 type  1   force =     0.00000000   -0.00000000   -0.00011445
     The Hubbard contrib.    to forces
     atom    1 type  1   force =     0.00000000    0.00000000    0.00000000
     atom    2 type  1   force =     0.00000000    0.00000000    0.00000000
     atom    3 type  1   force =     0.00000000    0.00000000    0.00000000
     atom    4 type  1   force =     0.00000000    0.00000000    0.00000000
     The SCF correction term to forces
     atom    1 type  1   force =     0.00000000    0.00000000    0.00000654
     atom    2 type  1   force =     0.00000000    0.00000000    0.00000608
     atom    3 type  1   force =     0.00000000    0.00000000   -0.00000608
     atom    4 type  1   force =    -0.00000000   -0.00000000   -0.00000654

     DFT-D3 dispersion contribution to forces:
     atom    1 type  1   force =     0.00000000    0.00000000    0.00125887
     atom    2 type  1   force =    -0.00000000   -0.00000000    0.00116036
     atom    3 type  1   force =     0.00000000    0.00000000   -0.00116036
     atom    4 type  1   force =    -0.00000000   -0.00000000   -0.00125887

     Total force =     0.002025     Total SCF correction =     0.000013

     DFT-D3 dispersion Force =     0.002421

     BFGS Geometry Optimization
     Energy error            =      4.1E-06 Ry
     Gradient error          =      1.3E-03 Ry/Bohr

     number of scf cycles    =   1
     number of bfgs steps    =   0

     energy             new  =     -48.2072636182 Ry

     new trust radius        =       0.0013042457 bohr
     new conv_thr            =       0.0000000100 Ry


ATOMIC_POSITIONS (angstrom)
C                0.0000000000       -0.0000000000        9.9993098229
C                1.2300000000        0.7101408311        9.9996869502
C                1.2300000000        0.7101408311       13.3503130498
C                0.0000000000        1.4202816622       13.3506901771



     Writing config-only to output data dir /home/ubuntu/projects/Graphene-Band-Structure-Quantum-Espresso/outputs/field_0/data/field_0.save/ :
     XML data file
     NEW-OLD atomic charge density approx. for the potential

     negative rho (up, down):  8.917E-08 0.000E+00

     total cpu time spent up to now is       13.7 secs

     Self-consistent Calculation

     iteration #  1     ecut=    90.00 Ry     beta= 0.70
     Davidson diagonalization with overlap

---- Real-time Memory Report at c_bands before calling an iterative solver
           138 MiB given to the printing process from OS
             0 MiB allocation reported by mallinfo(arena+hblkhd)
         26424 MiB available memory on the node where the printing process lives
------------------
     ethr =  1.00E-06,  avg # of iterations =  2.0

     Threshold (ethr) on eigenvalues was too large:
     Diagonalizing with lowered threshold

     Davidson diagonalization with overlap

---- Real-time Memory Report at c_bands before calling an iterative solver
           138 MiB given to the printing process from OS
             0 MiB allocation reported by mallinfo(arena+hblkhd)
         26487 MiB available memory on the node where the printing process lives
------------------
     ethr =  2.96E-09,  avg # of iterations =  3.4

     negative rho (up, down):  2.252E-08 0.000E+00

     total cpu time spent up to now is       15.9 secs

     total energy              =     -48.20726725 Ry
     estimated scf accuracy    <       0.00000078 Ry

     iteration #  2     ecut=    90.00 Ry     beta= 0.70
     Davidson diagonalization with overlap

---- Real-time Memory Report at c_bands before calling an iterative solver
           138 MiB given to the printing process from OS
             0 MiB allocation reported by mallinfo(arena+hblkhd)
         26442 MiB available memory on the node where the printing process lives
------------------
     ethr =  4.87E-09,  avg # of iterations =  2.0

     negative rho (up, down):  1.309E-08 0.000E+00

     total cpu time spent up to now is       17.0 secs

     total energy              =     -48.20726737 Ry
     estimated scf accuracy    <       0.00000070 Ry

     iteration #  3     ecut=    90.00 Ry     beta= 0.70
     Davidson diagonalization with overlap

---- Real-time Memory Report at c_bands before calling an iterative solver
           138 MiB given to the printing process from OS
             0 MiB allocation reported by mallinfo(arena+hblkhd)
         26435 MiB available memory on the node where the printing process lives
------------------
     ethr =  4.36E-09,  avg # of iterations =  2.0

     total cpu time spent up to now is       18.1 secs

     total energy              =     -48.20726754 Ry
     estimated scf accuracy    <       0.00000001 Ry

     iteration #  4     ecut=    90.00 Ry     beta= 0.70
     Davidson diagonalization with overlap

---- Real-time Memory Report at c_bands before calling an iterative solver
           138 MiB given to the printing process from OS
             0 MiB allocation reported by mallinfo(arena+hblkhd)
         26452 MiB available memory on the node where the printing process lives
------------------
     ethr =  6.34E-11,  avg # of iterations =  1.9

     total cpu time spent up to now is       19.2 secs

     End of self-consistent calculation

          k = 0.0000 0.0000 0.0000 ( 11659 PWs)   bands (ev):

   -20.6587 -20.5074  -9.1404  -8.1647  -4.0408  -4.0408  -4.0316  -4.0316
     2.4292   2.7924   3.4615   4.1843   4.6298   6.1040

     occupation numbers 
     1.0000   1.0000   1.0000   1.0000   1.0000   1.0000   1.0000   1.0000
     0.0000   0.0000   0.0000   0.0000   0.0000   0.0000

          k = 0.0000 0.0770 0.0000 ( 11791 PWs)   bands (ev):

   -20.5529 -20.4026  -9.0122  -8.0405  -4.4695  -4.4551  -4.2672  -4.2544
     2.5712   2.9363   3.6079   4.3298   4.7710   6.2375

     occupation numbers 
     1.0000   1.0000   1.0000   1.0000   1.0000   1.0000   1.0000   1.0000
     0.0000   0.0000   0.0000   0.0000   0.0000   0.0000

          k = 0.0000 0.1540 0.0000 ( 11788 PWs)   bands (ev):

   -20.2361 -20.0887  -8.6296  -7.6702  -5.6077  -5.5820  -4.8391  -4.8210
     2.9973   3.3672   4.0470   4.7661   5.1943   6.6293

     occupation numbers 
     1.0000   1.0000   1.0000   1.0000   1.0000   1.0000   1.0000   1.0000
     0.0000   0.0000   0.0000   0.0000   0.0000   0.0000

          k = 0.0000 0.2309 0.0000 ( 11848 PWs)   bands (ev):

   -19.7106 -19.5681  -7.9989  -7.1686  -7.1301  -7.0609  -5.5531  -5.5311
     3.7064   4.0829   4.7786   5.4915   5.8948   7.1893

     occupation numbers 
     1.0000   1.0000   1.0000   1.0000   1.0000   1.0000   1.0000   1.0000
     0.0000   0.0000   0.0000   0.0000   0.0000   0.0000

          k = 0.0000 0.3079 0.0000 ( 11876 PWs)   bands (ev):

   -18.9806 -18.8447  -8.9153  -8.8620  -7.1336  -6.2474  -6.2322  -6.2229
     4.6945   5.0498   5.6911   5.8008   5.9954   6.5160

     occupation numbers 
     1.0000   1.0000   1.0000   1.0000   1.0000   1.0000   1.0000   1.0000
     0.0000   0.0000   0.0000   0.0000   0.0000   0.0000

          k = 0.0000 0.3849 0.0000 ( 11914 PWs)   bands (ev):

   -18.0534 -17.9260 -10.6947 -10.6276  -6.8249  -6.7987  -6.0631  -5.2204
     3.7274   4.1855   5.9532   6.3770   6.7893   6.9342

     occupation numbers 
     1.0000   1.0000   1.0000   1.0000   1.0000   1.0000   1.0000   1.0000
     0.0000   0.0000   0.0000   0.0000   0.0000   0.0000

          k = 0.0000 0.4619 0.0000 ( 11910 PWs)   bands (ev):

   -16.9447 -16.8279 -12.4072 -12.3278  -7.2322  -7.2051  -4.8615  -4.1310
     1.9484   2.4577   6.5512   6.7339   7.5329   7.9539

     occupation numbers 
     1.0000   1.0000   1.0000   1.0000   1.0000   1.0000   1.0000   1.0000
     0.0000   0.0000   0.0000   0.0000   0.0000   0.0000

          k = 0.0000 0.5389 0.0000 ( 11924 PWs)   bands (ev):

   -15.7259 -15.6300 -13.9271 -13.8472  -7.4418  -7.4143  -3.7859  -3.3150
     0.7272   1.1411   6.4455   6.6454   9.3017   9.7606

     occupation numbers 
     1.0000   1.0000   1.0000   1.0000   1.0000   1.0000   1.0000   1.0000
     0.0000   0.0000   0.0000   0.0000   0.0000   0.0000

          k = 0.0667 0.1155 0.0000 ( 11813 PWs)   bands (ev):

   -20.3416 -20.1932  -8.7568  -7.7932  -5.1970  -5.1828  -4.7154  -4.7045
     2.8554   3.2237   3.9006   4.6207   5.0535   6.5008

     occupation numbers 
     1.0000   1.0000   1.0000   1.0000   1.0000   1.0000   1.0000   1.0000
     0.0000   0.0000   0.0000   0.0000   0.0000   0.0000

          k = 0.0667 0.1925 0.0000 ( 11832 PWs)   bands (ev):

   -19.9205 -19.7760  -8.2499  -7.3036  -6.4569  -6.4302  -5.4511  -5.4330
     3.4234   3.7976   4.4861   5.2022   5.6177   7.0228

     occupation numbers 
     1.0000   1.0000   1.0000   1.0000   1.0000   1.0000   1.0000   1.0000
     0.0000   0.0000   0.0000   0.0000   0.0000   0.0000

          k = 0.0667 0.2694 0.0000 ( 11880 PWs)   bands (ev):

   -19.2927 -19.1540  -8.0532  -8.0100  -7.5008  -6.5830  -6.2172  -6.1924
     4.2732   4.6520   5.3640   6.0653   6.4397   6.4888

     occupation numbers 
     1.0000   1.0000   1.0000   1.0000   1.0000   1.0000   1.0000   1.0000
     0.0000   0.0000   0.0000   0.0000   0.0000   0.0000

          k = 0.0667 0.3464 0.0000 ( 11910 PWs)   bands (ev):

   -18.4640 -18.3328  -9.7860  -9.7276  -6.8852  -6.8565  -6.5294  -5.6570
     4.6044   4.9923   5.4033   5.8220   6.5325   7.2161

     occupation numbers 
     1.0000   1.0000   1.0000   1.0000   1.0000   1.0000   1.0000   1.0000
     0.0000   0.0000   0.0000   0.0000   0.0000   0.0000

          k = 0.0667 0.4234 0.0000 ( 11938 PWs)   bands (ev):

   -17.4449 -17.3231 -11.5182 -11.4459  -7.3928  -7.3620  -5.3798  -4.5858
     2.7689   3.2386   6.7756   7.0849   7.2721   7.3327

     occupation numbers 
     1.0000   1.0000   1.0000   1.0000   1.0000   1.0000   1.0000   1.0000
     0.0000   0.0000   0.0000   0.0000   0.0000   0.0000

          k = 0.0667 0.5004 0.0000 ( 11920 PWs)   bands (ev):

   -16.2640 -16.1551 -13.1478 -13.0653  -7.7079  -7.6760  -4.1818  -3.5562
     1.2053   1.6723   6.9500   7.1507   8.4860   8.9150

     occupation numbers 
     1.0000   1.0000   1.0000   1.0000   1.0000   1.0000   1.0000   1.0000
     0.0000   0.0000   0.0000   0.0000   0.0000   0.0000

          k = 0.0667 0.5774 0.0000 ( 11913 PWs)   bands (ev):

   -15.2715 -15.2151 -14.2474 -14.2053  -7.8145  -7.7823  -3.4725  -3.1155
     0.5451   0.8693   6.8953   7.1038  10.3128  10.4004

     occupation numbers 
     1.0000   1.0000   1.0000   1.0000   1.0000   1.0000   1.0000   1.0000
     0.0000   0.0000   0.0000   0.0000   0.0000   0.0000

          k = 0.1333 0.2309 0.0000 ( 11879 PWs)   bands (ev):

   -19.3971 -19.2574  -7.6249  -7.5582  -7.5362  -6.7008  -6.4183  -6.4020
     4.1328   4.5129   5.2181   5.9282   6.3222   6.8020

     occupation numbers 
     1.0000   1.0000   1.0000   1.0000   1.0000   1.0000   1.0000   1.0000
     0.0000   0.0000   0.0000   0.0000   0.0000   0.0000

          k = 0.1333 0.3079 0.0000 ( 11929 PWs)   bands (ev):

   -18.6706 -18.5376  -8.9669  -8.9271  -7.3351  -7.3080  -6.7655  -5.8791
     5.1179   5.2058   5.4808   5.5242   6.2421   6.9432

     occupation numbers 
     1.0000   1.0000   1.0000   1.0000   1.0000   1.0000   1.0000   1.0000
     0.0000   0.0000   0.0000   0.0000   0.0000   0.0000

          k = 0.1333 0.3849 0.0000 ( 11925 PWs)   bands (ev):

   -17.7493 -17.6246 -10.5737 -10.5140  -8.0178  -7.9815  -5.7020  -4.8741
     3.4863   3.8462   6.3853   6.7837   7.5558   8.2295

     occupation numbers 
     1.0000   1.0000   1.0000   1.0000   1.0000   1.0000   1.0000   1.0000
     0.0000   0.0000   0.0000   0.0000   0.0000   0.0000

          k = 0.1333 0.4619 0.0000 ( 11927 PWs)   bands (ev):

   -16.6500 -16.5360 -12.1995 -12.1249  -8.4674  -8.4268  -4.5024  -3.7813
     1.8222   2.2452   7.8930   8.2056   8.3836   8.5025

     occupation numbers 
     1.0000   1.0000   1.0000   1.0000   1.0000   1.0000   1.0000   1.0000
     0.0000   0.0000   0.0000   0.0000   0.0000   0.0000

          k = 0.1333 0.5389 0.0000 ( 11935 PWs)   bands (ev):

   -15.4468 -15.3537 -13.6731 -13.5968  -8.6918  -8.6495  -3.4093  -2.9380
     0.6416   0.9669   8.1455   8.3844   9.6851  10.0212

     occupation numbers 
     1.0000   1.0000   1.0000   1.0000   1.0000   1.0000   1.0000   1.0000
     0.0000   0.0000   0.0000   0.0000   0.0000   0.0000

          k = 0.2000 0.3464 0.0000 ( 11953 PWs)   bands (ev):

   -17.8514 -17.7258  -9.9793  -9.9474  -8.5124  -8.4887  -5.8111  -4.9726
     3.8013   4.0720   6.2469   6.6305   7.4111   8.0936

     occupation numbers 
     1.0000   1.0000   1.0000   1.0000   1.0000   1.0000   1.0000   1.0000
     0.0000   0.0000   0.0000   0.0000   0.0000   0.0000

          k = 0.2000 0.4234 0.0000 ( 11949 PWs)   bands (ev):

   -16.8476 -16.7315 -11.2779 -11.2248  -9.3437  -9.3050  -4.6765  -3.9130
     2.2942   2.6122   7.6347   7.9925   8.8645   9.5044

     occupation numbers 
     1.0000   1.0000   1.0000   1.0000   1.0000   1.0000   1.0000   1.0000
     0.0000   0.0000   0.0000   0.0000   0.0000   0.0000

          k = 0.2000 0.5004 0.0000 ( 11953 PWs)   bands (ev):

   -15.6919 -15.5888 -12.7195 -12.6477  -9.7773  -9.7282  -3.4681  -2.8509
     0.8970   1.2302   9.2498   9.4337   9.9104  10.0768

     occupation numbers 
     1.0000   1.0000   1.0000   1.0000   1.0000   1.0000   1.0000   1.0000
     0.0000   0.0000   0.0000   0.0000   0.0000   0.0000

          k = 0.2000 0.5774 0.0000 ( 11949 PWs)   bands (ev):

   -14.7303 -14.6769 -13.7478 -13.7136  -9.9119  -9.8602  -2.7021  -2.3527
     0.2990   0.3853   9.7337  10.0508  10.3851  10.5822

     occupation numbers 
     1.0000   1.0000   1.0000   1.0000   1.0000   1.0000   1.0000   1.0000
     0.0000   0.0000   0.0000   0.0000   0.0000   0.0000

          k = 0.2667 0.4619 0.0000 ( 11961 PWs)   bands (ev):

   -15.7817 -15.6766 -12.0536 -12.0132 -10.4701 -10.4410  -3.5021  -2.8336
     1.0439   1.3564   9.1200   9.2554  10.0142  10.5185

     occupation numbers 
     1.0000   1.0000   1.0000   1.0000   1.0000   1.0000   1.0000   1.0000
     0.0000   0.0000   0.0000   0.0000   0.0000   0.0000

          k = 0.2667 0.5389 0.0000 ( 11948 PWs)   bands (ev):

   -14.6287 -14.5434 -13.1124 -13.0569 -11.0215 -10.9770  -2.3358  -1.8559
    -0.0640   0.2058   9.7772   9.9047  10.7373  11.4785

     occupation numbers 
     1.0000   1.0000   1.0000   1.0000   1.0000   1.0000   1.0000   1.0000
     0.0000   0.0000   0.0000   0.0000   0.0000   0.0000

          k = 0.3333 0.5774 0.0000 ( 11919 PWs)   bands (ev):

   -13.6766 -13.6265 -13.6265 -13.5811 -11.6227 -11.6227  -1.3275  -0.9989
    -0.9989  -0.6502   9.6446   9.6446  11.6776  12.0263

     occupation numbers 
     1.0000   1.0000   1.0000   1.0000   1.0000   1.0000   0.9997   0.5001
     0.5001   0.0001   0.0000   0.0000   0.0000   0.0000

     the Fermi energy is    -0.9989 ev

!    total energy              =     -48.20726754 Ry
     estimated scf accuracy    <          2.0E-10 Ry
     smearing contrib. (-TS)   =      -0.00010052 Ry
     internal energy E=F+TS    =     -48.20716702 Ry

     The total energy is F=E-TS. E is the sum of the following terms:
     one-electron contribution =    -708.34628128 Ry
     hartree contribution      =     357.59773240 Ry
     xc contribution           =     -17.18703896 Ry
     ewald contribution        =     319.74613061 Ry
     DFT-D3 Dispersion         =      -0.01770979 Ry

     convergence has been achieved in   4 iterations

     Forces acting on atoms (cartesian axes, Ry/au):

     atom    1 type  1   force =     0.00000000    0.00000000   -0.00104880
     atom    2 type  1   force =     0.00000000    0.00000000   -0.00083260
     atom    3 type  1   force =     0.00000000    0.00000000    0.00083260
     atom    4 type  1   force =     0.00000000   -0.00000000    0.00104880
     The non-local contrib.  to forces
     atom    1 type  1   force =     0.00000000   -0.00000000   -0.00179473
     atom    2 type  1   force =     0.00000000   -0.00000000   -0.00155346
     atom    3 type  1   force =     0.00000000    0.00000000    0.00155346
     atom    4 type  1   force =    -0.00000000    0.00000000    0.00179473
     The ionic contribution  to forces
     atom    1 type  1   force =     0.00000000   -0.00000000  -15.32048470
     atom    2 type  1   force =    -0.00000000    0.00000000  -15.31629879
     atom    3 type  1   force =    -0.00000000   -0.00000000   15.31629879
     atom    4 type  1   force =     0.00000000    0.00000000   15.32048470
     The local contribution  to forces
     atom    1 type  1   force =    -0.00000000   -0.00000000   15.31984410
     atom    2 type  1   force =    -0.00000000    0.00000000   15.31577390
     atom    3 type  1   force =     0.00000000    0.00000000  -15.31577390
     atom    4 type  1   force =     0.00000000    0.00000000  -15.31984410
     The core correction contribution to forces
     atom    1 type  1   force =     0.00000000    0.00000000    0.00010888
     atom    2 type  1   force =     0.00000000   -0.00000000    0.00006564
     atom    3 type  1   force =     0.00000000   -0.00000000   -0.00006564
     atom    4 type  1   force =     0.00000000   -0.00000000   -0.00010888
     The Hubbard contrib.    to forces
     atom    1 type  1   force =     0.00000000    0.00000000    0.00000000
     atom    2 type  1   force =     0.00000000    0.00000000    0.00000000
     atom    3 type  1   force =     0.00000000    0.00000000    0.00000000
     atom    4 type  1   force =     0.00000000    0.00000000    0.00000000
     The SCF correction term to forces
     atom    1 type  1   force =     0.00000000    0.00000000    0.00001913
     atom    2 type  1   force =     0.00000000    0.00000000    0.00001951
     atom    3 type  1   force =     0.00000000    0.00000000   -0.00001951
     atom    4 type  1   force =    -0.00000000   -0.00000000   -0.00001913

     DFT-D3 dispersion contribution to forces:
     atom    1 type  1   force =    -0.00000000    0.00000000    0.00125853
     atom    2 type  1   force =     0.00000000   -0.00000000    0.00116060
     atom    3 type  1   force =     0.00000000    0.00000000   -0.00116060
     atom    4 type  1   force =    -0.00000000   -0.00000000   -0.00125853

     Total force =     0.001894     Total SCF correction =     0.000039

     DFT-D3 dispersion Force =     0.002421
     Energy error            =      3.9E-06 Ry
     Gradient error          =      1.0E-03 Ry/Bohr

     number of scf cycles    =   2
     number of bfgs steps    =   1

     energy             old  =     -48.2072636182 Ry
     energy             new  =     -48.2072675372 Ry

     CASE: energy            _new < energy            _old


     WARNING: bfgs curvature condition failed, Theta= 0.882
     new trust radius        =       0.0014346703 bohr
     new conv_thr            =            1.0E-10 Ry


ATOMIC_POSITIONS (angstrom)
C                0.0000000000       -0.0000000000        9.9985506281
C                1.2300000000        0.7101408311        9.9992065609
C                1.2300000000        0.7101408311       13.3507934391
C                0.0000000000        1.4202816622       13.3514493719



     Writing config-only to output data dir /home/ubuntu/projects/Graphene-Band-Structure-Quantum-Espresso/outputs/field_0/data/field_0.save/ :
     XML data file
     NEW-OLD atomic charge density approx. for the potential

     negative rho (up, down):  1.079E-07 0.000E+00

     total cpu time spent up to now is       19.9 secs

     Self-consistent Calculation

     iteration #  1     ecut=    90.00 Ry     beta= 0.70
     Davidson diagonalization with overlap

---- Real-time Memory Report at c_bands before calling an iterative solver
           138 MiB given to the printing process from OS
             0 MiB allocation reported by mallinfo(arena+hblkhd)
         26405 MiB available memory on the node where the printing process lives
------------------
     ethr =  1.00E-06,  avg # of iterations =  2.5

     Threshold (ethr) on eigenvalues was too large:
     Diagonalizing with lowered threshold

     Davidson diagonalization with overlap

---- Real-time Memory Report at c_bands before calling an iterative solver
           138 MiB given to the printing process from OS
             0 MiB allocation reported by mallinfo(arena+hblkhd)
         26468 MiB available memory on the node where the printing process lives
------------------
     ethr =  4.85E-09,  avg # of iterations =  2.9

     negative rho (up, down):  2.756E-08 0.000E+00

     total cpu time spent up to now is       22.2 secs

     total energy              =     -48.20727153 Ry
     estimated scf accuracy    <       0.00000114 Ry

     iteration #  2     ecut=    90.00 Ry     beta= 0.70
     Davidson diagonalization with overlap

---- Real-time Memory Report at c_bands before calling an iterative solver
           138 MiB given to the printing process from OS
             0 MiB allocation reported by mallinfo(arena+hblkhd)
         26460 MiB available memory on the node where the printing process lives
------------------
     ethr =  7.11E-09,  avg # of iterations =  2.0

     negative rho (up, down):  1.609E-08 0.000E+00

     total cpu time spent up to now is       23.4 secs

     total energy              =     -48.20727170 Ry
     estimated scf accuracy    <       0.00000099 Ry

     iteration #  3     ecut=    90.00 Ry     beta= 0.70
     Davidson diagonalization with overlap

---- Real-time Memory Report at c_bands before calling an iterative solver
           138 MiB given to the printing process from OS
             0 MiB allocation reported by mallinfo(arena+hblkhd)
         26434 MiB available memory on the node where the printing process lives
------------------
     ethr =  6.19E-09,  avg # of iterations =  2.0

     total cpu time spent up to now is       24.4 secs

     total energy              =     -48.20727194 Ry
     estimated scf accuracy    <       0.00000002 Ry

     iteration #  4     ecut=    90.00 Ry     beta= 0.70
     Davidson diagonalization with overlap

---- Real-time Memory Report at c_bands before calling an iterative solver
           138 MiB given to the printing process from OS
             0 MiB allocation reported by mallinfo(arena+hblkhd)
         26431 MiB available memory on the node where the printing process lives
------------------
     ethr =  1.02E-10,  avg # of iterations =  1.8

     total cpu time spent up to now is       25.5 secs

     total energy              =     -48.20727194 Ry
     estimated scf accuracy    <          2.0E-10 Ry

     iteration #  5     ecut=    90.00 Ry     beta= 0.70
     Davidson diagonalization with overlap

---- Real-time Memory Report at c_bands before calling an iterative solver
           138 MiB given to the printing process from OS
             0 MiB allocation reported by mallinfo(arena+hblkhd)
         26387 MiB available memory on the node where the printing process lives
------------------
     ethr =  1.24E-12,  avg # of iterations =  3.6

     total cpu time spent up to now is       26.9 secs

     End of self-consistent calculation

          k = 0.0000 0.0000 0.0000 ( 11659 PWs)   bands (ev):

   -20.6585 -20.5076  -9.1395  -8.1657  -4.0408  -4.0408  -4.0316  -4.0316
     2.4290   2.7924   3.4615   4.1845   4.6292   6.1020

     occupation numbers 
     1.0000   1.0000   1.0000   1.0000   1.0000   1.0000   1.0000   1.0000
     0.0000   0.0000   0.0000   0.0000   0.0000   0.0000

          k = 0.0000 0.0770 0.0000 ( 11791 PWs)   bands (ev):

   -20.5526 -20.4028  -9.0114  -8.0415  -4.4695  -4.4551  -4.2671  -4.2544
     2.5710   2.9362   3.6079   4.3300   4.7704   6.2351

     occupation numbers 
     1.0000   1.0000   1.0000   1.0000   1.0000   1.0000   1.0000   1.0000
     0.0000   0.0000   0.0000   0.0000   0.0000   0.0000

          k = 0.0000 0.1540 0.0000 ( 11788 PWs)   bands (ev):

   -20.2359 -20.0889  -8.6287  -7.6711  -5.6076  -5.5821  -4.8390  -4.8210
     2.9970   3.3672   4.0470   4.7663   5.1937   6.6273

     occupation numbers 
     1.0000   1.0000   1.0000   1.0000   1.0000   1.0000   1.0000   1.0000
     0.0000   0.0000   0.0000   0.0000   0.0000   0.0000

          k = 0.0000 0.2309 0.0000 ( 11848 PWs)   bands (ev):

   -19.7104 -19.5683  -7.9981  -7.1685  -7.1303  -7.0617  -5.5530  -5.5311
     3.7062   4.0828   4.7787   5.4917   5.8941   7.1885

     occupation numbers 
     1.0000   1.0000   1.0000   1.0000   1.0000   1.0000   1.0000   1.0000
     0.0000   0.0000   0.0000   0.0000   0.0000   0.0000

          k = 0.0000 0.3079 0.0000 ( 11876 PWs)   bands (ev):

   -18.9804 -18.8449  -8.9152  -8.8621  -7.1328  -6.2474  -6.2331  -6.2229
     4.6941   5.0498   5.6916   5.8007   5.9948   6.5160

     occupation numbers 
     1.0000   1.0000   1.0000   1.0000   1.0000   1.0000   1.0000   1.0000
     0.0000   0.0000   0.0000   0.0000   0.0000   0.0000

          k = 0.0000 0.3849 0.0000 ( 11914 PWs)   bands (ev):

   -18.0532 -17.9261 -10.6946 -10.6277  -6.8248  -6.7988  -6.0624  -5.2212
     3.7280   4.1849   5.9529   6.3769   6.7895   6.9341

     occupation numbers 
     1.0000   1.0000   1.0000   1.0000   1.0000   1.0000   1.0000   1.0000
     0.0000   0.0000   0.0000   0.0000   0.0000   0.0000

          k = 0.0000 0.4619 0.0000 ( 11910 PWs)   bands (ev):

   -16.9446 -16.8281 -12.4070 -12.3279  -7.2322  -7.2052  -4.8608  -4.1316
     1.9491   2.4570   6.5515   6.7336   7.5325   7.9538

     occupation numbers 
     1.0000   1.0000   1.0000   1.0000   1.0000   1.0000   1.0000   1.0000
     0.0000   0.0000   0.0000   0.0000   0.0000   0.0000

          k = 0.0000 0.5389 0.0000 ( 11924 PWs)   bands (ev):

   -15.7258 -15.6301 -13.9270 -13.8473  -7.4418  -7.4143  -3.7855  -3.3153
     0.7277   1.1404   6.4458   6.6451   9.3013   9.7606

     occupation numbers 
     1.0000   1.0000   1.0000   1.0000   1.0000   1.0000   1.0000   1.0000
     0.0000   0.0000   0.0000   0.0000   0.0000   0.0000

          k = 0.0667 0.1155 0.0000 ( 11813 PWs)   bands (ev):

   -20.3413 -20.1934  -8.7560  -7.7942  -5.1970  -5.1829  -4.7154  -4.7045
     2.8551   3.2236   3.9006   4.6209   5.0529   6.4987

     occupation numbers 
     1.0000   1.0000   1.0000   1.0000   1.0000   1.0000   1.0000   1.0000
     0.0000   0.0000   0.0000   0.0000   0.0000   0.0000

          k = 0.0667 0.1925 0.0000 ( 11832 PWs)   bands (ev):

   -19.9202 -19.7762  -8.2491  -7.3045  -6.4568  -6.4302  -5.4510  -5.4330
     3.4231   3.7975   4.4862   5.2024   5.6170   7.0211

     occupation numbers 
     1.0000   1.0000   1.0000   1.0000   1.0000   1.0000   1.0000   1.0000
     0.0000   0.0000   0.0000   0.0000   0.0000   0.0000

          k = 0.0667 0.2694 0.0000 ( 11880 PWs)   bands (ev):

   -19.2925 -19.1542  -8.0531  -8.0101  -7.5000  -6.5839  -6.2172  -6.1924
     4.2730   4.6520   5.3640   6.0656   6.4395   6.4884

     occupation numbers 
     1.0000   1.0000   1.0000   1.0000   1.0000   1.0000   1.0000   1.0000
     0.0000   0.0000   0.0000   0.0000   0.0000   0.0000

          k = 0.0667 0.3464 0.0000 ( 11910 PWs)   bands (ev):

   -18.4638 -18.3330  -9.7859  -9.7276  -6.8851  -6.8565  -6.5286  -5.6579
     4.6050   4.9919   5.4030   5.8219   6.5325   7.2161

     occupation numbers 
     1.0000   1.0000   1.0000   1.0000   1.0000   1.0000   1.0000   1.0000
     0.0000   0.0000   0.0000   0.0000   0.0000   0.0000

          k = 0.0667 0.4234 0.0000 ( 11938 PWs)   bands (ev):

   -17.4447 -17.3233 -11.5181 -11.4460  -7.3928  -7.3621  -5.3791  -4.5865
     2.7695   3.2380   6.7753   7.0851   7.2721   7.3324

     occupation numbers 
     1.0000   1.0000   1.0000   1.0000   1.0000   1.0000   1.0000   1.0000
     0.0000   0.0000   0.0000   0.0000   0.0000   0.0000

          k = 0.0667 0.5004 0.0000 ( 11920 PWs)   bands (ev):

   -16.2638 -16.1552 -13.1477 -13.0654  -7.7078  -7.6761  -4.1812  -3.5567
     1.2058   1.6717   6.9503   7.1505   8.4856   8.9150

     occupation numbers 
     1.0000   1.0000   1.0000   1.0000   1.0000   1.0000   1.0000   1.0000
     0.0000   0.0000   0.0000   0.0000   0.0000   0.0000

          k = 0.0667 0.5774 0.0000 ( 11913 PWs)   bands (ev):

   -15.2714 -15.2152 -14.2473 -14.2053  -7.8145  -7.7824  -3.4722  -3.1156
     0.5455   0.8687   6.8956   7.1036  10.3124  10.4000

     occupation numbers 
     1.0000   1.0000   1.0000   1.0000   1.0000   1.0000   1.0000   1.0000
     0.0000   0.0000   0.0000   0.0000   0.0000   0.0000

          k = 0.1333 0.2309 0.0000 ( 11879 PWs)   bands (ev):

   -19.3969 -19.2576  -7.6240  -7.5582  -7.5362  -6.7017  -6.4182  -6.4020
     4.1325   4.5128   5.2181   5.9285   6.3214   6.8023

     occupation numbers 
     1.0000   1.0000   1.0000   1.0000   1.0000   1.0000   1.0000   1.0000
     0.0000   0.0000   0.0000   0.0000   0.0000   0.0000

          k = 0.1333 0.3079 0.0000 ( 11929 PWs)   bands (ev):

   -18.6704 -18.5377  -8.9669  -8.9272  -7.3350  -7.3080  -6.7647  -5.8799
     5.1170   5.2068   5.4808   5.5238   6.2422   6.9434

     occupation numbers 
     1.0000   1.0000   1.0000   1.0000   1.0000   1.0000   1.0000   1.0000
     0.0000   0.0000   0.0000   0.0000   0.0000   0.0000

          k = 0.1333 0.3849 0.0000 ( 11925 PWs)   bands (ev):

   -17.7491 -17.6248 -10.5735 -10.5141  -8.0177  -7.9815  -5.7012  -4.8749
     3.4868   3.8458   6.3851   6.7836   7.5557   8.2297

     occupation numbers 
     1.0000   1.0000   1.0000   1.0000   1.0000   1.0000   1.0000   1.0000
     0.0000   0.0000   0.0000   0.0000   0.0000   0.0000

          k = 0.1333 0.4619 0.0000 ( 11927 PWs)   bands (ev):

   -16.6498 -16.5362 -12.1994 -12.1250  -8.4673  -8.4268  -4.5017  -3.7819
     1.8227   2.2448   7.8927   8.2058   8.3836   8.5023

     occupation numbers 
     1.0000   1.0000   1.0000   1.0000   1.0000   1.0000   1.0000   1.0000
     0.0000   0.0000   0.0000   0.0000   0.0000   0.0000

          k = 0.1333 0.5389 0.0000 ( 11935 PWs)   bands (ev):

   -15.4467 -15.3538 -13.6730 -13.5969  -8.6917  -8.6495  -3.4088  -2.9383
     0.6420   0.9664   8.1458   8.3841   9.6847  10.0213

     occupation numbers 
     1.0000   1.0000   1.0000   1.0000   1.0000   1.0000   1.0000   1.0000
     0.0000   0.0000   0.0000   0.0000   0.0000   0.0000

          k = 0.2000 0.3464 0.0000 ( 11953 PWs)   bands (ev):

   -17.8511 -17.7259  -9.9792  -9.9474  -8.5123  -8.4887  -5.8103  -4.9734
     3.8016   4.0719   6.2466   6.6304   7.4110   8.0937

     occupation numbers 
     1.0000   1.0000   1.0000   1.0000   1.0000   1.0000   1.0000   1.0000
     0.0000   0.0000   0.0000   0.0000   0.0000   0.0000

          k = 0.2000 0.4234 0.0000 ( 11949 PWs)   bands (ev):

   -16.8475 -16.7316 -11.2778 -11.2249  -9.3437  -9.3051  -4.6757  -3.9137
     2.2946   2.6120   7.6344   7.9924   8.8643   9.5045

     occupation numbers 
     1.0000   1.0000   1.0000   1.0000   1.0000   1.0000   1.0000   1.0000
     0.0000   0.0000   0.0000   0.0000   0.0000   0.0000

          k = 0.2000 0.5004 0.0000 ( 11953 PWs)   bands (ev):

   -15.6918 -15.5889 -12.7193 -12.6478  -9.7772  -9.7282  -3.4675  -2.8514
     0.8973   1.2299   9.2494   9.4339   9.9105  10.0763

     occupation numbers 
     1.0000   1.0000   1.0000   1.0000   1.0000   1.0000   1.0000   1.0000
     0.0000   0.0000   0.0000   0.0000   0.0000   0.0000

          k = 0.2000 0.5774 0.0000 ( 11949 PWs)   bands (ev):

   -14.7302 -14.6769 -13.7478 -13.7137  -9.9119  -9.8602  -2.7018  -2.3528
     0.2992   0.3850   9.7342  10.0505  10.3854  10.5807

     occupation numbers 
     1.0000   1.0000   1.0000   1.0000   1.0000   1.0000   1.0000   1.0000
     0.0000   0.0000   0.0000   0.0000   0.0000   0.0000

          k = 0.2667 0.4619 0.0000 ( 11961 PWs)   bands (ev):

   -15.7815 -15.6767 -12.0535 -12.0133 -10.4700 -10.4411  -3.5014  -2.8342
     1.0442   1.3563   9.1197   9.2555  10.0127  10.5185

     occupation numbers 
     1.0000   1.0000   1.0000   1.0000   1.0000   1.0000   1.0000   1.0000
     0.0000   0.0000   0.0000   0.0000   0.0000   0.0000

          k = 0.2667 0.5389 0.0000 ( 11948 PWs)   bands (ev):

   -14.6285 -14.5435 -13.1123 -13.0569 -11.0214 -10.9771  -2.3353  -1.8563
    -0.0638   0.2056   9.7775   9.9039  10.7370  11.4784

     occupation numbers 
     1.0000   1.0000   1.0000   1.0000   1.0000   1.0000   1.0000   1.0000
     0.0000   0.0000   0.0000   0.0000   0.0000   0.0000

          k = 0.3333 0.5774 0.0000 ( 11919 PWs)   bands (ev):

   -13.6764 -13.6265 -13.6265 -13.5812 -11.6227 -11.6227  -1.3270  -0.9988
    -0.9988  -0.6507   9.6443   9.6443  11.6776  12.0261

     occupation numbers 
     1.0000   1.0000   1.0000   1.0000   1.0000   1.0000   0.9997   0.5001
     0.5001   0.0001   0.0000   0.0000   0.0000   0.0000

     the Fermi energy is    -0.9988 ev

!    total energy              =     -48.20727194 Ry
     estimated scf accuracy    <          1.9E-11 Ry
     smearing contrib. (-TS)   =      -0.00010052 Ry
     internal energy E=F+TS    =     -48.20717142 Ry

     The total energy is F=E-TS. E is the sum of the following terms:
     one-electron contribution =    -708.20295722 Ry
     hartree contribution      =     357.52613636 Ry
     xc contribution           =     -17.18701256 Ry
     ewald contribution        =     319.67436607 Ry
     DFT-D3 Dispersion         =      -0.01770407 Ry

     convergence has been achieved in   5 iterations

     Forces acting on atoms (cartesian axes, Ry/au):

     atom    1 type  1   force =     0.00000000   -0.00000000   -0.00085562
     atom    2 type  1   force =     0.00000000    0.00000000   -0.00100491
     atom    3 type  1   force =     0.00000000   -0.00000000    0.00100491
     atom    4 type  1   force =     0.00000000   -0.00000000    0.00085562
     The non-local contrib.  to forces
     atom    1 type  1   force =     0.00000000   -0.00000000   -0.00143529
     atom    2 type  1   force =     0.00000000   -0.00000000   -0.00189769
     atom    3 type  1   force =     0.00000000    0.00000000    0.00189769
     atom    4 type  1   force =     0.00000000    0.00000000    0.00143529
     The ionic contribution  to forces
     atom    1 type  1   force =     0.00000000   -0.00000000  -15.32158878
     atom    2 type  1   force =    -0.00000000    0.00000000  -15.31064210
     atom    3 type  1   force =     0.00000000   -0.00000000   15.31064210
     atom    4 type  1   force =     0.00000000    0.00000000   15.32158878
     The local contribution  to forces
     atom    1 type  1   force =     0.00000000   -0.00000000   15.32081267
     atom    2 type  1   force =    -0.00000000    0.00000000   15.31031177
     atom    3 type  1   force =    -0.00000000    0.00000000  -15.31031177
     atom    4 type  1   force =    -0.00000000    0.00000000  -15.32081267
     The core correction contribution to forces
     atom    1 type  1   force =     0.00000000   -0.00000000    0.00010506
     atom    2 type  1   force =     0.00000000   -0.00000000    0.00006927
     atom    3 type  1   force =    -0.00000000   -0.00000000   -0.00006927
     atom    4 type  1   force =     0.00000000   -0.00000000   -0.00010506
     The Hubbard contrib.    to forces
     atom    1 type  1   force =     0.00000000    0.00000000    0.00000000
     atom    2 type  1   force =     0.00000000    0.00000000    0.00000000
     atom    3 type  1   force =     0.00000000    0.00000000    0.00000000
     atom    4 type  1   force =     0.00000000    0.00000000    0.00000000
     The SCF correction term to forces
     atom    1 type  1   force =    -0.00000000   -0.00000000   -0.00000738
     atom    2 type  1   force =     0.00000000    0.00000000   -0.00000720
     atom    3 type  1   force =     0.00000000    0.00000000    0.00000720
     atom    4 type  1   force =    -0.00000000   -0.00000000    0.00000738

     DFT-D3 dispersion contribution to forces:
     atom    1 type  1   force =     0.00000000    0.00000000    0.00125811
     atom    2 type  1   force =     0.00000000   -0.00000000    0.00116104
     atom    3 type  1   force =    -0.00000000    0.00000000   -0.00116104
     atom    4 type  1   force =    -0.00000000   -0.00000000   -0.00125811

     Total force =     0.001867     Total SCF correction =     0.000015

     DFT-D3 dispersion Force =     0.002421
     Energy error            =      4.4E-06 Ry
     Gradient error          =      1.0E-03 Ry/Bohr

     number of scf cycles    =   3
     number of bfgs steps    =   2

     energy             old  =     -48.2072675372 Ry
     energy             new  =     -48.2072719404 Ry

     CASE: energy            _new < energy            _old

     new trust radius        =       0.0021520054 bohr
     new conv_thr            =            1.0E-10 Ry


ATOMIC_POSITIONS (angstrom)
C                0.0000000000       -0.0000000000        9.9974118359
C                1.2300000000        0.7101408311        9.9983494677
C                1.2300000000        0.7101408311       13.3516505323
C                0.0000000000        1.4202816622       13.3525881641



     Writing config-only to output data dir /home/ubuntu/projects/Graphene-Band-Structure-Quantum-Espresso/outputs/field_0/data/field_0.save/ :
     XML data file
     NEW-OLD atomic charge density approx. for the potential

     negative rho (up, down):  1.792E-07 0.000E+00

     total cpu time spent up to now is       27.7 secs

     Self-consistent Calculation

     iteration #  1     ecut=    90.00 Ry     beta= 0.70
     Davidson diagonalization with overlap

---- Real-time Memory Report at c_bands before calling an iterative solver
           138 MiB given to the printing process from OS
             0 MiB allocation reported by mallinfo(arena+hblkhd)
         26447 MiB available memory on the node where the printing process lives
------------------
     ethr =  1.00E-06,  avg # of iterations =  3.0

     Threshold (ethr) on eigenvalues was too large:
     Diagonalizing with lowered threshold

     Davidson diagonalization with overlap

---- Real-time Memory Report at c_bands before calling an iterative solver
           138 MiB given to the printing process from OS
             0 MiB allocation reported by mallinfo(arena+hblkhd)
         26557 MiB available memory on the node where the printing process lives
------------------
     ethr =  1.55E-08,  avg # of iterations =  1.3

     negative rho (up, down):  4.672E-08 0.000E+00

     total cpu time spent up to now is       30.0 secs

     total energy              =     -48.20727768 Ry
     estimated scf accuracy    <       0.00000298 Ry

     iteration #  2     ecut=    90.00 Ry     beta= 0.70
     Davidson diagonalization with overlap

---- Real-time Memory Report at c_bands before calling an iterative solver
           138 MiB given to the printing process from OS
             0 MiB allocation reported by mallinfo(arena+hblkhd)
         26439 MiB available memory on the node where the printing process lives
------------------
     ethr =  1.86E-08,  avg # of iterations =  2.0

     negative rho (up, down):  2.770E-08 0.000E+00

     total cpu time spent up to now is       31.0 secs

     total energy              =     -48.20727811 Ry
     estimated scf accuracy    <       0.00000256 Ry

     iteration #  3     ecut=    90.00 Ry     beta= 0.70
     Davidson diagonalization with overlap

---- Real-time Memory Report at c_bands before calling an iterative solver
           138 MiB given to the printing process from OS
             0 MiB allocation reported by mallinfo(arena+hblkhd)
         26446 MiB available memory on the node where the printing process lives
------------------
     ethr =  1.60E-08,  avg # of iterations =  2.0

     total cpu time spent up to now is       32.0 secs

     total energy              =     -48.20727872 Ry
     estimated scf accuracy    <       0.00000004 Ry

     iteration #  4     ecut=    90.00 Ry     beta= 0.70
     Davidson diagonalization with overlap

---- Real-time Memory Report at c_bands before calling an iterative solver
           138 MiB given to the printing process from OS
             0 MiB allocation reported by mallinfo(arena+hblkhd)
         26451 MiB available memory on the node where the printing process lives
------------------
     ethr =  2.70E-10,  avg # of iterations =  1.8

     total cpu time spent up to now is       33.2 secs

     total energy              =     -48.20727873 Ry
     estimated scf accuracy    <          5.8E-10 Ry

     iteration #  5     ecut=    90.00 Ry     beta= 0.70
     Davidson diagonalization with overlap

---- Real-time Memory Report at c_bands before calling an iterative solver
           138 MiB given to the printing process from OS
             0 MiB allocation reported by mallinfo(arena+hblkhd)
         26424 MiB available memory on the node where the printing process lives
------------------
     ethr =  3.65E-12,  avg # of iterations =  3.6

     total cpu time spent up to now is       34.5 secs

     End of self-consistent calculation

          k = 0.0000 0.0000 0.0000 ( 11659 PWs)   bands (ev):

   -20.6580 -20.5079  -9.1381  -8.1671  -4.0407  -4.0407  -4.0316  -4.0316
     2.4285   2.7921   3.4614   4.1846   4.6282   6.0988

     occupation numbers 
     1.0000   1.0000   1.0000   1.0000   1.0000   1.0000   1.0000   1.0000
     0.0000   0.0000   0.0000   0.0000   0.0000   0.0000

          k = 0.0000 0.0770 0.0000 ( 11791 PWs)   bands (ev):

   -20.5522 -20.4030  -9.0099  -8.0429  -4.4694  -4.4551  -4.2670  -4.2544
     2.5705   2.9359   3.6078   4.3301   4.7694   6.2316

     occupation numbers 
     1.0000   1.0000   1.0000   1.0000   1.0000   1.0000   1.0000   1.0000
     0.0000   0.0000   0.0000   0.0000   0.0000   0.0000

          k = 0.0000 0.1540 0.0000 ( 11788 PWs)   bands (ev):

   -20.2354 -20.0892  -8.6273  -7.6726  -5.6075  -5.5821  -4.8389  -4.8210
     2.9965   3.3669   4.0469   4.7664   5.1926   6.6243

     occupation numbers 
     1.0000   1.0000   1.0000   1.0000   1.0000   1.0000   1.0000   1.0000
     0.0000   0.0000   0.0000   0.0000   0.0000   0.0000

          k = 0.0000 0.2309 0.0000 ( 11848 PWs)   bands (ev):

   -19.7100 -19.5685  -7.9966  -7.1684  -7.1304  -7.0630  -5.5529  -5.5311
     3.7056   4.0826   4.7785   5.4918   5.8929   7.1871

     occupation numbers 
     1.0000   1.0000   1.0000   1.0000   1.0000   1.0000   1.0000   1.0000
     0.0000   0.0000   0.0000   0.0000   0.0000   0.0000

          k = 0.0000 0.3079 0.0000 ( 11876 PWs)   bands (ev):

   -18.9800 -18.8451  -8.9150  -8.8621  -7.1314  -6.2472  -6.2344  -6.2229
     4.6935   5.0498   5.6924   5.8005   5.9941   6.5160

     occupation numbers 
     1.0000   1.0000   1.0000   1.0000   1.0000   1.0000   1.0000   1.0000
     0.0000   0.0000   0.0000   0.0000   0.0000   0.0000

          k = 0.0000 0.3849 0.0000 ( 11914 PWs)   bands (ev):

   -18.0529 -17.9264 -10.6944 -10.6278  -6.8247  -6.7988  -6.0610  -5.2224
     3.7290   4.1841   5.9524   6.3766   6.7899   6.9338

     occupation numbers 
     1.0000   1.0000   1.0000   1.0000   1.0000   1.0000   1.0000   1.0000
     0.0000   0.0000   0.0000   0.0000   0.0000   0.0000

          k = 0.0000 0.4619 0.0000 ( 11910 PWs)   bands (ev):

   -16.9442 -16.8282 -12.4068 -12.3280  -7.2320  -7.2052  -4.8596  -4.1326
     1.9501   2.4561   6.5520   6.7333   7.5320   7.9535

     occupation numbers 
     1.0000   1.0000   1.0000   1.0000   1.0000   1.0000   1.0000   1.0000
     0.0000   0.0000   0.0000   0.0000   0.0000   0.0000

          k = 0.0000 0.5389 0.0000 ( 11924 PWs)   bands (ev):

   -15.7254 -15.6302 -13.9267 -13.8474  -7.4416  -7.4143  -3.7846  -3.3157
     0.7284   1.1396   6.4463   6.6448   9.3007   9.7603

     occupation numbers 
     1.0000   1.0000   1.0000   1.0000   1.0000   1.0000   1.0000   1.0000
     0.0000   0.0000   0.0000   0.0000   0.0000   0.0000

          k = 0.0667 0.1155 0.0000 ( 11813 PWs)   bands (ev):

   -20.3409 -20.1937  -8.7545  -7.7956  -5.1969  -5.1828  -4.7153  -4.7045
     2.8546   3.2234   3.9005   4.6211   5.0519   6.4955

     occupation numbers 
     1.0000   1.0000   1.0000   1.0000   1.0000   1.0000   1.0000   1.0000
     0.0000   0.0000   0.0000   0.0000   0.0000   0.0000

          k = 0.0667 0.1925 0.0000 ( 11832 PWs)   bands (ev):

   -19.9198 -19.7764  -8.2476  -7.3059  -6.4567  -6.4302  -5.4509  -5.4330
     3.4226   3.7973   4.4860   5.2025   5.6159   7.0184

     occupation numbers 
     1.0000   1.0000   1.0000   1.0000   1.0000   1.0000   1.0000   1.0000
     0.0000   0.0000   0.0000   0.0000   0.0000   0.0000

          k = 0.0667 0.2694 0.0000 ( 11880 PWs)   bands (ev):

   -19.2921 -19.1544  -8.0529  -8.0101  -7.4986  -6.5852  -6.2171  -6.1924
     4.2724   4.6517   5.3639   6.0657   6.4387   6.4883

     occupation numbers 
     1.0000   1.0000   1.0000   1.0000   1.0000   1.0000   1.0000   1.0000
     0.0000   0.0000   0.0000   0.0000   0.0000   0.0000

          k = 0.0667 0.3464 0.0000 ( 11910 PWs)   bands (ev):

   -18.4634 -18.3332  -9.7857  -9.7277  -6.8849  -6.8565  -6.5272  -5.6591
     4.6058   4.9912   5.4025   5.8217   6.5324   7.2161

     occupation numbers 
     1.0000   1.0000   1.0000   1.0000   1.0000   1.0000   1.0000   1.0000
     0.0000   0.0000   0.0000   0.0000   0.0000   0.0000

          k = 0.0667 0.4234 0.0000 ( 11938 PWs)   bands (ev):

   -17.4444 -17.3235 -11.5178 -11.4461  -7.3926  -7.3621  -5.3778  -4.5876
     2.7705   3.2372   6.7748   7.0853   7.2720   7.3322

     occupation numbers 
     1.0000   1.0000   1.0000   1.0000   1.0000   1.0000   1.0000   1.0000
     0.0000   0.0000   0.0000   0.0000   0.0000   0.0000

          k = 0.0667 0.5004 0.0000 ( 11920 PWs)   bands (ev):

   -16.2635 -16.1554 -13.1474 -13.0655  -7.7077  -7.6761  -4.1802  -3.5575
     1.2067   1.6708   6.9508   7.1501   8.4850   8.9147

     occupation numbers 
     1.0000   1.0000   1.0000   1.0000   1.0000   1.0000   1.0000   1.0000
     0.0000   0.0000   0.0000   0.0000   0.0000   0.0000

          k = 0.0667 0.5774 0.0000 ( 11913 PWs)   bands (ev):

   -15.2712 -15.2152 -14.2471 -14.2053  -7.8143  -7.7824  -3.4714  -3.1158
     0.5461   0.8679   6.8961   7.1032  10.3118  10.3993

     occupation numbers 
     1.0000   1.0000   1.0000   1.0000   1.0000   1.0000   1.0000   1.0000
     0.0000   0.0000   0.0000   0.0000   0.0000   0.0000

          k = 0.1333 0.2309 0.0000 ( 11879 PWs)   bands (ev):

   -19.3965 -19.2578  -7.6226  -7.5582  -7.5362  -6.7031  -6.4181  -6.4020
     4.1320   4.5126   5.2180   5.9286   6.3202   6.8028

     occupation numbers 
     1.0000   1.0000   1.0000   1.0000   1.0000   1.0000   1.0000   1.0000
     0.0000   0.0000   0.0000   0.0000   0.0000   0.0000

          k = 0.1333 0.3079 0.0000 ( 11929 PWs)   bands (ev):

   -18.6700 -18.5380  -8.9667  -8.9272  -7.3349  -7.3080  -6.7633  -5.8812
     5.1159   5.2081   5.4807   5.5233   6.2420   6.9434

     occupation numbers 
     1.0000   1.0000   1.0000   1.0000   1.0000   1.0000   1.0000   1.0000
     0.0000   0.0000   0.0000   0.0000   0.0000   0.0000

          k = 0.1333 0.3849 0.0000 ( 11925 PWs)   bands (ev):

   -17.7487 -17.6250 -10.5733 -10.5142  -8.0176  -7.9815  -5.6999  -4.8761
     3.4875   3.8453   6.3845   6.7834   7.5555   8.2298

     occupation numbers 
     1.0000   1.0000   1.0000   1.0000   1.0000   1.0000   1.0000   1.0000
     0.0000   0.0000   0.0000   0.0000   0.0000   0.0000

          k = 0.1333 0.4619 0.0000 ( 11927 PWs)   bands (ev):

   -16.6495 -16.5363 -12.1991 -12.1251  -8.4671  -8.4269  -4.5005  -3.7829
     1.8236   2.2441   7.8922   8.2060   8.3836   8.5020

     occupation numbers 
     1.0000   1.0000   1.0000   1.0000   1.0000   1.0000   1.0000   1.0000
     0.0000   0.0000   0.0000   0.0000   0.0000   0.0000

          k = 0.1333 0.5389 0.0000 ( 11935 PWs)   bands (ev):

   -15.4464 -15.3540 -13.6727 -13.5970  -8.6915  -8.6496  -3.4079  -2.9388
     0.6426   0.9658   8.1463   8.3838   9.6841  10.0212

     occupation numbers 
     1.0000   1.0000   1.0000   1.0000   1.0000   1.0000   1.0000   1.0000
     0.0000   0.0000   0.0000   0.0000   0.0000   0.0000

          k = 0.2000 0.3464 0.0000 ( 11953 PWs)   bands (ev):

   -17.8508 -17.7261  -9.9790  -9.9474  -8.5122  -8.4887  -5.8090  -4.9746
     3.8021   4.0717   6.2461   6.6301   7.4109   8.0938

     occupation numbers 
     1.0000   1.0000   1.0000   1.0000   1.0000   1.0000   1.0000   1.0000
     0.0000   0.0000   0.0000   0.0000   0.0000   0.0000

          k = 0.2000 0.4234 0.0000 ( 11949 PWs)   bands (ev):

   -16.8471 -16.7318 -11.2776 -11.2249  -9.3435  -9.3051  -4.6745  -3.9148
     2.2952   2.6117   7.6339   7.9923   8.8641   9.5046

     occupation numbers 
     1.0000   1.0000   1.0000   1.0000   1.0000   1.0000   1.0000   1.0000
     0.0000   0.0000   0.0000   0.0000   0.0000   0.0000

          k = 0.2000 0.5004 0.0000 ( 11953 PWs)   bands (ev):

   -15.6914 -15.5891 -12.7191 -12.6479  -9.7770  -9.7283  -3.4665  -2.8522
     0.8980   1.2295   9.2487   9.4341   9.9109  10.0756

     occupation numbers 
     1.0000   1.0000   1.0000   1.0000   1.0000   1.0000   1.0000   1.0000
     0.0000   0.0000   0.0000   0.0000   0.0000   0.0000

          k = 0.2000 0.5774 0.0000 ( 11949 PWs)   bands (ev):

   -14.7300 -14.6770 -13.7476 -13.7137  -9.9116  -9.8603  -2.7010  -2.3530
     0.2994   0.3847   9.7350  10.0502  10.3858  10.5788

     occupation numbers 
     1.0000   1.0000   1.0000   1.0000   1.0000   1.0000   1.0000   1.0000
     0.0000   0.0000   0.0000   0.0000   0.0000   0.0000

          k = 0.2667 0.4619 0.0000 ( 11961 PWs)   bands (ev):

   -15.7812 -15.6769 -12.0533 -12.0133 -10.4699 -10.4411  -3.5003  -2.8351
     1.0448   1.3560   9.1191   9.2556  10.0106  10.5185

     occupation numbers 
     1.0000   1.0000   1.0000   1.0000   1.0000   1.0000   1.0000   1.0000
     0.0000   0.0000   0.0000   0.0000   0.0000   0.0000

          k = 0.2667 0.5389 0.0000 ( 11948 PWs)   bands (ev):

   -14.6282 -14.5436 -13.1121 -13.0570 -11.0212 -10.9771  -2.3344  -1.8568
    -0.0633   0.2053   9.7778   9.9029  10.7365  11.4786

     occupation numbers 
     1.0000   1.0000   1.0000   1.0000   1.0000   1.0000   1.0000   1.0000
     0.0000   0.0000   0.0000   0.0000   0.0000   0.0000

          k = 0.3333 0.5774 0.0000 ( 11919 PWs)   bands (ev):

   -13.6761 -13.6264 -13.6264 -13.5814 -11.6226 -11.6226  -1.3260  -0.9986
    -0.9986  -0.6515   9.6440   9.6440  11.6775  12.0258

     occupation numbers 
     1.0000   1.0000   1.0000   1.0000   1.0000   1.0000   0.9997   0.5001
     0.5001   0.0002   0.0000   0.0000   0.0000   0.0000

     the Fermi energy is    -0.9986 ev

!    total energy              =     -48.20727873 Ry
     estimated scf accuracy    <          6.1E-11 Ry
     smearing contrib. (-TS)   =      -0.00010053 Ry
     internal energy E=F+TS    =     -48.20717820 Ry

     The total energy is F=E-TS. E is the sum of the following terms:
     one-electron contribution =    -707.97209581 Ry
     hartree contribution      =     357.41074504 Ry
     xc contribution           =     -17.18696992 Ry
     ewald contribution        =     319.55883738 Ry
     DFT-D3 Dispersion         =      -0.01769489 Ry

     convergence has been achieved in   5 iterations

     Forces acting on atoms (cartesian axes, Ry/au):

     atom    1 type  1   force =     0.00000000   -0.00000000   -0.00065267
     atom    2 type  1   force =     0.00000000   -0.00000000   -0.00117367
     atom    3 type  1   force =     0.00000000   -0.00000000    0.00117367
     atom    4 type  1   force =     0.00000000   -0.00000000    0.00065267
     The non-local contrib.  to forces
     atom    1 type  1   force =     0.00000000   -0.00000000   -0.00106243
     atom    2 type  1   force =     0.00000000   -0.00000000   -0.00224217
     atom    3 type  1   force =     0.00000000    0.00000000    0.00224217
     atom    4 type  1   force =     0.00000000    0.00000000    0.00106243
     The ionic contribution  to forces
     atom    1 type  1   force =     0.00000000   -0.00000000  -15.32134319
     atom    2 type  1   force =     0.00000000    0.00000000  -15.30355490
     atom    3 type  1   force =    -0.00000000   -0.00000000   15.30355490
     atom    4 type  1   force =     0.00000000    0.00000000   15.32134319
     The local contribution  to forces
     atom    1 type  1   force =     0.00000000   -0.00000000   15.32041072
     atom    2 type  1   force =    -0.00000000    0.00000000   15.30340450
     atom    3 type  1   force =    -0.00000000    0.00000000  -15.30340450
     atom    4 type  1   force =    -0.00000000    0.00000000  -15.32041072
     The core correction contribution to forces
     atom    1 type  1   force =     0.00000000   -0.00000000    0.00010049
     atom    2 type  1   force =     0.00000000   -0.00000000    0.00007248
     atom    3 type  1   force =     0.00000000   -0.00000000   -0.00007248
     atom    4 type  1   force =     0.00000000   -0.00000000   -0.00010049
     The Hubbard contrib.    to forces
     atom    1 type  1   force =     0.00000000    0.00000000    0.00000000
     atom    2 type  1   force =     0.00000000    0.00000000    0.00000000
     atom    3 type  1   force =     0.00000000    0.00000000    0.00000000
     atom    4 type  1   force =     0.00000000    0.00000000    0.00000000
     The SCF correction term to forces
     atom    1 type  1   force =     0.00000000    0.00000000   -0.00001568
     atom    2 type  1   force =    -0.00000000   -0.00000000   -0.00001545
     atom    3 type  1   force =    -0.00000000   -0.00000000    0.00001545
     atom    4 type  1   force =    -0.00000000   -0.00000000    0.00001568

     DFT-D3 dispersion contribution to forces:
     atom    1 type  1   force =    -0.00000000    0.00000000    0.00125742
     atom    2 type  1   force =     0.00000000   -0.00000000    0.00116187
     atom    3 type  1   force =     0.00000000    0.00000000   -0.00116187
     atom    4 type  1   force =    -0.00000000   -0.00000000   -0.00125742

     Total force =     0.001899     Total SCF correction =     0.000031

     DFT-D3 dispersion Force =     0.002421
     Energy error            =      6.8E-06 Ry
     Gradient error          =      1.2E-03 Ry/Bohr

     number of scf cycles    =   4
     number of bfgs steps    =   3

     energy             old  =     -48.2072719404 Ry
     energy             new  =     -48.2072787324 Ry

     CASE: energy            _new < energy            _old

     new trust radius        =       0.0032280081 bohr
     new conv_thr            =            1.0E-10 Ry


ATOMIC_POSITIONS (angstrom)
C                0.0000000000       -0.0000000000        9.9957036476
C                1.2300000000        0.7101408311        9.9969410617
C                1.2300000000        0.7101408311       13.3530589383
C                0.0000000000        1.4202816622       13.3542963524



     Writing config-only to output data dir /home/ubuntu/projects/Graphene-Band-Structure-Quantum-Espresso/outputs/field_0/data/field_0.save/ :
     XML data file
     NEW-OLD atomic charge density approx. for the potential

     negative rho (up, down):  2.881E-07 0.000E+00

     total cpu time spent up to now is       35.2 secs

     Self-consistent Calculation

     iteration #  1     ecut=    90.00 Ry     beta= 0.70
     Davidson diagonalization with overlap

---- Real-time Memory Report at c_bands before calling an iterative solver
           138 MiB given to the printing process from OS
             0 MiB allocation reported by mallinfo(arena+hblkhd)
         26438 MiB available memory on the node where the printing process lives
------------------
     ethr =  1.00E-06,  avg # of iterations =  3.0

     Threshold (ethr) on eigenvalues was too large:
     Diagonalizing with lowered threshold

     Davidson diagonalization with overlap

---- Real-time Memory Report at c_bands before calling an iterative solver
           138 MiB given to the printing process from OS
             0 MiB allocation reported by mallinfo(arena+hblkhd)
         26515 MiB available memory on the node where the printing process lives
------------------
     ethr =  3.71E-08,  avg # of iterations =  1.4

     negative rho (up, down):  7.629E-08 0.000E+00

     total cpu time spent up to now is       37.4 secs

     total energy              =     -48.20728641 Ry
     estimated scf accuracy    <       0.00000725 Ry

     iteration #  2     ecut=    90.00 Ry     beta= 0.70
     Davidson diagonalization with overlap

---- Real-time Memory Report at c_bands before calling an iterative solver
           138 MiB given to the printing process from OS
             0 MiB allocation reported by mallinfo(arena+hblkhd)
         26439 MiB available memory on the node where the printing process lives
------------------
     ethr =  4.53E-08,  avg # of iterations =  2.0

     negative rho (up, down):  4.564E-08 0.000E+00

     total cpu time spent up to now is       38.6 secs

     total energy              =     -48.20728748 Ry
     estimated scf accuracy    <       0.00000622 Ry

     iteration #  3     ecut=    90.00 Ry     beta= 0.70
     Davidson diagonalization with overlap

---- Real-time Memory Report at c_bands before calling an iterative solver
           138 MiB given to the printing process from OS
             0 MiB allocation reported by mallinfo(arena+hblkhd)
         26453 MiB available memory on the node where the printing process lives
------------------
     ethr =  3.89E-08,  avg # of iterations =  2.0

     total cpu time spent up to now is       39.7 secs

     total energy              =     -48.20728896 Ry
     estimated scf accuracy    <       0.00000011 Ry

     iteration #  4     ecut=    90.00 Ry     beta= 0.70
     Davidson diagonalization with overlap

---- Real-time Memory Report at c_bands before calling an iterative solver
           138 MiB given to the printing process from OS
             0 MiB allocation reported by mallinfo(arena+hblkhd)
         26446 MiB available memory on the node where the printing process lives
------------------
     ethr =  6.65E-10,  avg # of iterations =  1.7

     total cpu time spent up to now is       40.8 secs

     total energy              =     -48.20728898 Ry
     estimated scf accuracy    <          1.3E-09 Ry

     iteration #  5     ecut=    90.00 Ry     beta= 0.70
     Davidson diagonalization with overlap

---- Real-time Memory Report at c_bands before calling an iterative solver
           138 MiB given to the printing process from OS
             0 MiB allocation reported by mallinfo(arena+hblkhd)
         26432 MiB available memory on the node where the printing process lives
------------------
     ethr =  8.30E-12,  avg # of iterations =  3.7

     total cpu time spent up to now is       42.2 secs

     total energy              =     -48.20728898 Ry
     estimated scf accuracy    <          1.4E-10 Ry

     iteration #  6     ecut=    90.00 Ry     beta= 0.70
     Davidson diagonalization with overlap

---- Real-time Memory Report at c_bands before calling an iterative solver
           138 MiB given to the printing process from OS
             0 MiB allocation reported by mallinfo(arena+hblkhd)
         26451 MiB available memory on the node where the printing process lives
------------------
     ethr =  8.92E-13,  avg # of iterations =  2.0

     total cpu time spent up to now is       43.2 secs

     End of self-consistent calculation

          k = 0.0000 0.0000 0.0000 ( 11659 PWs)   bands (ev):

   -20.6573 -20.5082  -9.1358  -8.1693  -4.0405  -4.0405  -4.0315  -4.0315
     2.4276   2.7916   3.4613   4.1848   4.6266   6.0939

     occupation numbers 
     1.0000   1.0000   1.0000   1.0000   1.0000   1.0000   1.0000   1.0000
     0.0000   0.0000   0.0000   0.0000   0.0000   0.0000

          k = 0.0000 0.0770 0.0000 ( 11791 PWs)   bands (ev):

   -20.5515 -20.4034  -9.0076  -8.0451  -4.4692  -4.4550  -4.2669  -4.2543
     2.5696   2.9354   3.6076   4.3303   4.7678   6.2266

     occupation numbers 
     1.0000   1.0000   1.0000   1.0000   1.0000   1.0000   1.0000   1.0000
     0.0000   0.0000   0.0000   0.0000   0.0000   0.0000

          k = 0.0000 0.1540 0.0000 ( 11788 PWs)   bands (ev):

   -20.2347 -20.0895  -8.6250  -7.6747  -5.6072  -5.5820  -4.8387  -4.8210
     2.9957   3.3664   4.0467   4.7666   5.1909   6.6198

     occupation numbers 
     1.0000   1.0000   1.0000   1.0000   1.0000   1.0000   1.0000   1.0000
     0.0000   0.0000   0.0000   0.0000   0.0000   0.0000

          k = 0.0000 0.2309 0.0000 ( 11848 PWs)   bands (ev):

   -19.7093 -19.5688  -7.9944  -7.1681  -7.1305  -7.0650  -5.5527  -5.5311
     3.7047   4.0821   4.7784   5.4920   5.8911   7.1850

     occupation numbers 
     1.0000   1.0000   1.0000   1.0000   1.0000   1.0000   1.0000   1.0000
     0.0000   0.0000   0.0000   0.0000   0.0000   0.0000

          k = 0.0000 0.3079 0.0000 ( 11876 PWs)   bands (ev):

   -18.9793 -18.8454  -8.9146  -8.8622  -7.1292  -6.2470  -6.2364  -6.2229
     4.6926   5.0495   5.6936   5.8002   5.9932   6.5161

     occupation numbers 
     1.0000   1.0000   1.0000   1.0000   1.0000   1.0000   1.0000   1.0000
     0.0000   0.0000   0.0000   0.0000   0.0000   0.0000

          k = 0.0000 0.3849 0.0000 ( 11914 PWs)   bands (ev):

   -18.0522 -17.9267 -10.6940 -10.6279  -6.8245  -6.7988  -6.0589  -5.2243
     3.7306   4.1829   5.9515   6.3762   6.7906   6.9334

     occupation numbers 
     1.0000   1.0000   1.0000   1.0000   1.0000   1.0000   1.0000   1.0000
     0.0000   0.0000   0.0000   0.0000   0.0000   0.0000

          k = 0.0000 0.4619 0.0000 ( 11910 PWs)   bands (ev):

   -16.9436 -16.8285 -12.4063 -12.3282  -7.2318  -7.2052  -4.8577  -4.1342
     1.9516   2.4549   6.5528   6.7328   7.5311   7.9530

     occupation numbers 
     1.0000   1.0000   1.0000   1.0000   1.0000   1.0000   1.0000   1.0000
     0.0000   0.0000   0.0000   0.0000   0.0000   0.0000

          k = 0.0000 0.5389 0.0000 ( 11924 PWs)   bands (ev):

   -15.7249 -15.6304 -13.9263 -13.8475  -7.4414  -7.4143  -3.7832  -3.3165
     0.7295   1.1384   6.4472   6.6443   9.2997   9.7599

     occupation numbers 
     1.0000   1.0000   1.0000   1.0000   1.0000   1.0000   1.0000   1.0000
     0.0000   0.0000   0.0000   0.0000   0.0000   0.0000

          k = 0.0667 0.1155 0.0000 ( 11813 PWs)   bands (ev):

   -20.3402 -20.1940  -8.7522  -7.7978  -5.1967  -5.1828  -4.7151  -4.7044
     2.8538   3.2229   3.9004   4.6212   5.0502   6.4909

     occupation numbers 
     1.0000   1.0000   1.0000   1.0000   1.0000   1.0000   1.0000   1.0000
     0.0000   0.0000   0.0000   0.0000   0.0000   0.0000

          k = 0.0667 0.1925 0.0000 ( 11832 PWs)   bands (ev):

   -19.9191 -19.7768  -8.2454  -7.3080  -6.4564  -6.4302  -5.4507  -5.4329
     3.4218   3.7968   4.4859   5.2027   5.6142   7.0142

     occupation numbers 
     1.0000   1.0000   1.0000   1.0000   1.0000   1.0000   1.0000   1.0000
     0.0000   0.0000   0.0000   0.0000   0.0000   0.0000

          k = 0.0667 0.2694 0.0000 ( 11880 PWs)   bands (ev):

   -19.2914 -19.1547  -8.0526  -8.0102  -7.4964  -6.5873  -6.2168  -6.1924
     4.2715   4.6513   5.3637   6.0660   6.4371   6.4887

     occupation numbers 
     1.0000   1.0000   1.0000   1.0000   1.0000   1.0000   1.0000   1.0000
     0.0000   0.0000   0.0000   0.0000   0.0000   0.0000

          k = 0.0667 0.3464 0.0000 ( 11910 PWs)   bands (ev):

   -18.4628 -18.3335  -9.7853  -9.7278  -6.8847  -6.8565  -6.5251  -5.6611
     4.6072   4.9903   5.4016   5.8212   6.5322   7.2161

     occupation numbers 
     1.0000   1.0000   1.0000   1.0000   1.0000   1.0000   1.0000   1.0000
     0.0000   0.0000   0.0000   0.0000   0.0000   0.0000

          k = 0.0667 0.4234 0.0000 ( 11938 PWs)   bands (ev):

   -17.4437 -17.3238 -11.5174 -11.4462  -7.3923  -7.3621  -5.3758  -4.5894
     2.7720   3.2361   6.7739   7.0857   7.2718   7.3318

     occupation numbers 
     1.0000   1.0000   1.0000   1.0000   1.0000   1.0000   1.0000   1.0000
     0.0000   0.0000   0.0000   0.0000   0.0000   0.0000

          k = 0.0667 0.5004 0.0000 ( 11920 PWs)   bands (ev):

   -16.2629 -16.1556 -13.1469 -13.0657  -7.7074  -7.6761  -4.1785  -3.5587
     1.2081   1.6697   6.9517   7.1497   8.4841   8.9143

     occupation numbers 
     1.0000   1.0000   1.0000   1.0000   1.0000   1.0000   1.0000   1.0000
     0.0000   0.0000   0.0000   0.0000   0.0000   0.0000

          k = 0.0667 0.5774 0.0000 ( 11913 PWs)   bands (ev):

   -15.2708 -15.2153 -14.2468 -14.2054  -7.8140  -7.7824  -3.4702  -3.1162
     0.5469   0.8669   6.8970   7.1027  10.3107  10.3982

     occupation numbers 
     1.0000   1.0000   1.0000   1.0000   1.0000   1.0000   1.0000   1.0000
     0.0000   0.0000   0.0000   0.0000   0.0000   0.0000

          k = 0.1333 0.2309 0.0000 ( 11879 PWs)   bands (ev):

   -19.3958 -19.2582  -7.6203  -7.5580  -7.5362  -6.7051  -6.4179  -6.4019
     4.1311   4.5121   5.2178   5.9288   6.3182   6.8037

     occupation numbers 
     1.0000   1.0000   1.0000   1.0000   1.0000   1.0000   1.0000   1.0000
     0.0000   0.0000   0.0000   0.0000   0.0000   0.0000

          k = 0.1333 0.3079 0.0000 ( 11929 PWs)   bands (ev):

   -18.6694 -18.5383  -8.9664  -8.9272  -7.3346  -7.3080  -6.7611  -5.8832
     5.1143   5.2098   5.4804   5.5227   6.2418   6.9436

     occupation numbers 
     1.0000   1.0000   1.0000   1.0000   1.0000   1.0000   1.0000   1.0000
     0.0000   0.0000   0.0000   0.0000   0.0000   0.0000

          k = 0.1333 0.3849 0.0000 ( 11925 PWs)   bands (ev):

   -17.7481 -17.6253 -10.5729 -10.5143  -8.0173  -7.9816  -5.6979  -4.8779
     3.4888   3.8446   6.3836   6.7829   7.5553   8.2300

     occupation numbers 
     1.0000   1.0000   1.0000   1.0000   1.0000   1.0000   1.0000   1.0000
     0.0000   0.0000   0.0000   0.0000   0.0000   0.0000

          k = 0.1333 0.4619 0.0000 ( 11927 PWs)   bands (ev):

   -16.6489 -16.5366 -12.1986 -12.1253  -8.4668  -8.4269  -4.4986  -3.7845
     1.8249   2.2432   7.8912   8.2064   8.3836   8.5016

     occupation numbers 
     1.0000   1.0000   1.0000   1.0000   1.0000   1.0000   1.0000   1.0000
     0.0000   0.0000   0.0000   0.0000   0.0000   0.0000

          k = 0.1333 0.5389 0.0000 ( 11935 PWs)   bands (ev):

   -15.4458 -15.3541 -13.6722 -13.5972  -8.6912  -8.6496  -3.4065  -2.9395
     0.6435   0.9649   8.1473   8.3833   9.6831  10.0210

     occupation numbers 
     1.0000   1.0000   1.0000   1.0000   1.0000   1.0000   1.0000   1.0000
     0.0000   0.0000   0.0000   0.0000   0.0000   0.0000

          k = 0.2000 0.3464 0.0000 ( 11953 PWs)   bands (ev):

   -17.8501 -17.7264  -9.9788  -9.9474  -8.5120  -8.4887  -5.8069  -4.9764
     3.8031   4.0713   6.2452   6.6297   7.4106   8.0940

     occupation numbers 
     1.0000   1.0000   1.0000   1.0000   1.0000   1.0000   1.0000   1.0000
     0.0000   0.0000   0.0000   0.0000   0.0000   0.0000

          k = 0.2000 0.4234 0.0000 ( 11949 PWs)   bands (ev):

   -16.8465 -16.7321 -11.2772 -11.2250  -9.3432  -9.3051  -4.6725  -3.9165
     2.2963   2.6111   7.6329   7.9919   8.8637   9.5048

     occupation numbers 
     1.0000   1.0000   1.0000   1.0000   1.0000   1.0000   1.0000   1.0000
     0.0000   0.0000   0.0000   0.0000   0.0000   0.0000

          k = 0.2000 0.5004 0.0000 ( 11953 PWs)   bands (ev):

   -15.6909 -15.5893 -12.7186 -12.6480  -9.7767  -9.7283  -3.4648  -2.8534
     0.8990   1.2288   9.2477   9.4344   9.9115  10.0748

     occupation numbers 
     1.0000   1.0000   1.0000   1.0000   1.0000   1.0000   1.0000   1.0000
     0.0000   0.0000   0.0000   0.0000   0.0000   0.0000

          k = 0.2000 0.5774 0.0000 ( 11949 PWs)   bands (ev):

   -14.7296 -14.6770 -13.7474 -13.7137  -9.9113  -9.8604  -2.6998  -2.3533
     0.2996   0.3844   9.7364  10.0498  10.3861  10.5761

     occupation numbers 
     1.0000   1.0000   1.0000   1.0000   1.0000   1.0000   1.0000   1.0000
     0.0000   0.0000   0.0000   0.0000   0.0000   0.0000

          k = 0.2667 0.4619 0.0000 ( 11961 PWs)   bands (ev):

   -15.7806 -15.6771 -12.0530 -12.0133 -10.4696 -10.4410  -3.4985  -2.8366
     1.0459   1.3555   9.1181   9.2557  10.0075  10.5185

     occupation numbers 
     1.0000   1.0000   1.0000   1.0000   1.0000   1.0000   1.0000   1.0000
     0.0000   0.0000   0.0000   0.0000   0.0000   0.0000

          k = 0.2667 0.5389 0.0000 ( 11948 PWs)   bands (ev):

   -14.6277 -14.5438 -13.1117 -13.0570 -11.0209 -10.9771  -2.3329  -1.8575
    -0.0625   0.2048   9.7784   9.9014  10.7357  11.4790

     occupation numbers 
     1.0000   1.0000   1.0000   1.0000   1.0000   1.0000   1.0000   1.0000
     0.0000   0.0000   0.0000   0.0000   0.0000   0.0000

          k = 0.3333 0.5774 0.0000 ( 11919 PWs)   bands (ev):

   -13.6756 -13.6263 -13.6263 -13.5816 -11.6225 -11.6225  -1.3242  -0.9983
    -0.9983  -0.6529   9.6437   9.6437  11.6773  12.0253

     occupation numbers 
     1.0000   1.0000   1.0000   1.0000   1.0000   1.0000   0.9996   0.5001
     0.5001   0.0002   0.0000   0.0000   0.0000   0.0000

     the Fermi energy is    -0.9983 ev

!    total energy              =     -48.20728898 Ry
     estimated scf accuracy    <          4.9E-12 Ry
     smearing contrib. (-TS)   =      -0.00010054 Ry
     internal energy E=F+TS    =     -48.20718844 Ry

     The total energy is F=E-TS. E is the sum of the following terms:
     one-electron contribution =    -707.61160128 Ry
     hartree contribution      =     357.23050343 Ry
     xc contribution           =     -17.18690331 Ry
     ewald contribution        =     319.37849332 Ry
     DFT-D3 Dispersion         =      -0.01768059 Ry

     convergence has been achieved in   6 iterations

     Forces acting on atoms (cartesian axes, Ry/au):

     atom    1 type  1   force =     0.00000000   -0.00000000   -0.00043111
     atom    2 type  1   force =     0.00000000   -0.00000000   -0.00134788
     atom    3 type  1   force =     0.00000000    0.00000000    0.00134788
     atom    4 type  1   force =     0.00000000    0.00000000    0.00043111
     The non-local contrib.  to forces
     atom    1 type  1   force =     0.00000000    0.00000000   -0.00066024
     atom    2 type  1   force =     0.00000000   -0.00000000   -0.00260648
     atom    3 type  1   force =     0.00000000    0.00000000    0.00260648
     atom    4 type  1   force =     0.00000000   -0.00000000    0.00066024
     The ionic contribution  to forces
     atom    1 type  1   force =     0.00000000   -0.00000000  -15.31926439
     atom    2 type  1   force =    -0.00000000    0.00000000  -15.29418127
     atom    3 type  1   force =    -0.00000000   -0.00000000   15.29418127
     atom    4 type  1   force =     0.00000000    0.00000000   15.31926439
     The local contribution  to forces
     atom    1 type  1   force =    -0.00000000   -0.00000000   15.31814424
     atom    2 type  1   force =    -0.00000000    0.00000000   15.29420325
     atom    3 type  1   force =    -0.00000000    0.00000000  -15.29420325
     atom    4 type  1   force =    -0.00000000    0.00000000  -15.31814424
     The core correction contribution to forces
     atom    1 type  1   force =     0.00000000    0.00000000    0.00009513
     atom    2 type  1   force =     0.00000000   -0.00000000    0.00007558
     atom    3 type  1   force =     0.00000000   -0.00000000   -0.00007558
     atom    4 type  1   force =    -0.00000000   -0.00000000   -0.00009513
     The Hubbard contrib.    to forces
     atom    1 type  1   force =     0.00000000    0.00000000    0.00000000
     atom    2 type  1   force =     0.00000000    0.00000000    0.00000000
     atom    3 type  1   force =     0.00000000    0.00000000    0.00000000
     atom    4 type  1   force =     0.00000000    0.00000000    0.00000000
     The SCF correction term to forces
     atom    1 type  1   force =    -0.00000000   -0.00000000   -0.00000218
     atom    2 type  1   force =    -0.00000000   -0.00000000   -0.00000220
     atom    3 type  1   force =    -0.00000000   -0.00000000    0.00000220
     atom    4 type  1   force =     0.00000000    0.00000000    0.00000218

     DFT-D3 dispersion contribution to forces:
     atom    1 type  1   force =    -0.00000000    0.00000000    0.00125633
     atom    2 type  1   force =     0.00000000   -0.00000000    0.00116324
     atom    3 type  1   force =     0.00000000    0.00000000   -0.00116324
     atom    4 type  1   force =    -0.00000000   -0.00000000   -0.00125633

     Total force =     0.002001     Total SCF correction =     0.000004

     DFT-D3 dispersion Force =     0.002421
     Energy error            =      1.0E-05 Ry
     Gradient error          =      1.3E-03 Ry/Bohr

     number of scf cycles    =   5
     number of bfgs steps    =   4

     energy             old  =     -48.2072787324 Ry
     energy             new  =     -48.2072889780 Ry

     CASE: energy            _new < energy            _old

     new trust radius        =       0.0048420121 bohr
     new conv_thr            =            1.0E-10 Ry


ATOMIC_POSITIONS (angstrom)
C                0.0000000000       -0.0000000000        9.9931413651
C                1.2300000000        0.7101408311        9.9947049872
C                1.2300000000        0.7101408311       13.3552950128
C                0.0000000000        1.4202816622       13.3568586349



     Writing config-only to output data dir /home/ubuntu/projects/Graphene-Band-Structure-Quantum-Espresso/outputs/field_0/data/field_0.save/ :
     XML data file
     NEW-OLD atomic charge density approx. for the potential

     negative rho (up, down):  4.535E-07 0.000E+00

     total cpu time spent up to now is       44.0 secs

     Self-consistent Calculation

     iteration #  1     ecut=    90.00 Ry     beta= 0.70
     Davidson diagonalization with overlap

---- Real-time Memory Report at c_bands before calling an iterative solver
           138 MiB given to the printing process from OS
             0 MiB allocation reported by mallinfo(arena+hblkhd)
         26403 MiB available memory on the node where the printing process lives
------------------
     ethr =  1.00E-06,  avg # of iterations =  4.0

     negative rho (up, down):  1.217E-07 0.000E+00

     total cpu time spent up to now is       45.7 secs

     total energy              =     -48.20729815 Ry
     estimated scf accuracy    <       0.00001674 Ry

     iteration #  2     ecut=    90.00 Ry     beta= 0.70
     Davidson diagonalization with overlap

---- Real-time Memory Report at c_bands before calling an iterative solver
           138 MiB given to the printing process from OS
             0 MiB allocation reported by mallinfo(arena+hblkhd)
         26454 MiB available memory on the node where the printing process lives
------------------
     ethr =  1.05E-07,  avg # of iterations =  2.0

     negative rho (up, down):  7.283E-08 0.000E+00

     total cpu time spent up to now is       47.0 secs

     total energy              =     -48.20730071 Ry
     estimated scf accuracy    <       0.00001391 Ry

     iteration #  3     ecut=    90.00 Ry     beta= 0.70
     Davidson diagonalization with overlap

---- Real-time Memory Report at c_bands before calling an iterative solver
           138 MiB given to the printing process from OS
             0 MiB allocation reported by mallinfo(arena+hblkhd)
         26442 MiB available memory on the node where the printing process lives
------------------
     ethr =  8.70E-08,  avg # of iterations =  2.0

     total cpu time spent up to now is       48.1 secs

     total energy              =     -48.20730405 Ry
     estimated scf accuracy    <       0.00000028 Ry

     iteration #  4     ecut=    90.00 Ry     beta= 0.70
     Davidson diagonalization with overlap

---- Real-time Memory Report at c_bands before calling an iterative solver
           138 MiB given to the printing process from OS
             0 MiB allocation reported by mallinfo(arena+hblkhd)
         26450 MiB available memory on the node where the printing process lives
------------------
     ethr =  1.78E-09,  avg # of iterations =  2.2

     total cpu time spent up to now is       49.3 secs

     total energy              =     -48.20730411 Ry
     estimated scf accuracy    <          1.9E-09 Ry

     iteration #  5     ecut=    90.00 Ry     beta= 0.70
     Davidson diagonalization with overlap

---- Real-time Memory Report at c_bands before calling an iterative solver
           138 MiB given to the printing process from OS
             0 MiB allocation reported by mallinfo(arena+hblkhd)
         26450 MiB available memory on the node where the printing process lives
------------------
     ethr =  1.20E-11,  avg # of iterations =  3.2

     total cpu time spent up to now is       50.6 secs

     total energy              =     -48.20730411 Ry
     estimated scf accuracy    <          1.1E-10 Ry

     iteration #  6     ecut=    90.00 Ry     beta= 0.70
     Davidson diagonalization with overlap

---- Real-time Memory Report at c_bands before calling an iterative solver
           138 MiB given to the printing process from OS
             0 MiB allocation reported by mallinfo(arena+hblkhd)
         26418 MiB available memory on the node where the printing process lives
------------------
     ethr =  6.76E-13,  avg # of iterations =  2.3

     total cpu time spent up to now is       51.8 secs

     End of self-consistent calculation

          k = 0.0000 0.0000 0.0000 ( 11659 PWs)   bands (ev):

   -20.6562 -20.5088  -9.1323  -8.1727  -4.0403  -4.0403  -4.0314  -4.0314
     2.4264   2.7909   3.4610   4.1851   4.6242   6.0868

     occupation numbers 
     1.0000   1.0000   1.0000   1.0000   1.0000   1.0000   1.0000   1.0000
     0.0000   0.0000   0.0000   0.0000   0.0000   0.0000

          k = 0.0000 0.0770 0.0000 ( 11791 PWs)   bands (ev):

   -20.5504 -20.4040  -9.0042  -8.0485  -4.4689  -4.4549  -4.2666  -4.2543
     2.5684   2.9347   3.6074   4.3306   4.7653   6.2194

     occupation numbers 
     1.0000   1.0000   1.0000   1.0000   1.0000   1.0000   1.0000   1.0000
     0.0000   0.0000   0.0000   0.0000   0.0000   0.0000

          k = 0.0000 0.1540 0.0000 ( 11788 PWs)   bands (ev):

   -20.2337 -20.0901  -8.6216  -7.6781  -5.6069  -5.5820  -4.8384  -4.8209
     2.9944   3.3657   4.0465   4.7669   5.1884   6.6132

     occupation numbers 
     1.0000   1.0000   1.0000   1.0000   1.0000   1.0000   1.0000   1.0000
     0.0000   0.0000   0.0000   0.0000   0.0000   0.0000

          k = 0.0000 0.2309 0.0000 ( 11848 PWs)   bands (ev):

   -19.7082 -19.5694  -7.9910  -7.1677  -7.1307  -7.0681  -5.5523  -5.5311
     3.7034   4.0814   4.7781   5.4923   5.8883   7.1817

     occupation numbers 
     1.0000   1.0000   1.0000   1.0000   1.0000   1.0000   1.0000   1.0000
     0.0000   0.0000   0.0000   0.0000   0.0000   0.0000

          k = 0.0000 0.3079 0.0000 ( 11876 PWs)   bands (ev):

   -18.9783 -18.8459  -8.9141  -8.8623  -7.1259  -6.2466  -6.2395  -6.2229
     4.6912   5.0491   5.6953   5.7998   5.9917   6.5164

     occupation numbers 
     1.0000   1.0000   1.0000   1.0000   1.0000   1.0000   1.0000   1.0000
     0.0000   0.0000   0.0000   0.0000   0.0000   0.0000

          k = 0.0000 0.3849 0.0000 ( 11914 PWs)   bands (ev):

   -18.0513 -17.9271 -10.6933 -10.6281  -6.8241  -6.7988  -6.0557  -5.2272
     3.7328   4.1812   5.9501   6.3756   6.7915   6.9329

     occupation numbers 
     1.0000   1.0000   1.0000   1.0000   1.0000   1.0000   1.0000   1.0000
     0.0000   0.0000   0.0000   0.0000   0.0000   0.0000

          k = 0.0000 0.4619 0.0000 ( 11910 PWs)   bands (ev):

   -16.9427 -16.8289 -12.4056 -12.3284  -7.2314  -7.2052  -4.8548  -4.1366
     1.9538   2.4529   6.5540   6.7321   7.5297   7.9524

     occupation numbers 
     1.0000   1.0000   1.0000   1.0000   1.0000   1.0000   1.0000   1.0000
     0.0000   0.0000   0.0000   0.0000   0.0000   0.0000

          k = 0.0000 0.5389 0.0000 ( 11924 PWs)   bands (ev):

   -15.7241 -15.6308 -13.9256 -13.8478  -7.4410  -7.4143  -3.7809  -3.3177
     0.7310   1.1367   6.4485   6.6435   9.2981   9.7593

     occupation numbers 
     1.0000   1.0000   1.0000   1.0000   1.0000   1.0000   1.0000   1.0000
     0.0000   0.0000   0.0000   0.0000   0.0000   0.0000

          k = 0.0667 0.1155 0.0000 ( 11813 PWs)   bands (ev):

   -20.3391 -20.1946  -8.7488  -7.8011  -5.1964  -5.1827  -4.7149  -4.7043
     2.8525   3.2222   3.9001   4.6216   5.0477   6.4841

     occupation numbers 
     1.0000   1.0000   1.0000   1.0000   1.0000   1.0000   1.0000   1.0000
     0.0000   0.0000   0.0000   0.0000   0.0000   0.0000

          k = 0.0667 0.1925 0.0000 ( 11832 PWs)   bands (ev):

   -19.9181 -19.7773  -8.2419  -7.3113  -6.4560  -6.4301  -5.4504  -5.4329
     3.4205   3.7961   4.4856   5.2030   5.6115   7.0079

     occupation numbers 
     1.0000   1.0000   1.0000   1.0000   1.0000   1.0000   1.0000   1.0000
     0.0000   0.0000   0.0000   0.0000   0.0000   0.0000

          k = 0.0667 0.2694 0.0000 ( 11880 PWs)   bands (ev):

   -19.2904 -19.1552  -8.0521  -8.0102  -7.4930  -6.5905  -6.2165  -6.1924
     4.2702   4.6506   5.3634   6.0664   6.4342   6.4896

     occupation numbers 
     1.0000   1.0000   1.0000   1.0000   1.0000   1.0000   1.0000   1.0000
     0.0000   0.0000   0.0000   0.0000   0.0000   0.0000

          k = 0.0667 0.3464 0.0000 ( 11910 PWs)   bands (ev):

   -18.4618 -18.3340  -9.7848  -9.7280  -6.8843  -6.8565  -6.5218  -5.6641
     4.6092   4.9888   5.4003   5.8206   6.5319   7.2163

     occupation numbers 
     1.0000   1.0000   1.0000   1.0000   1.0000   1.0000   1.0000   1.0000
     0.0000   0.0000   0.0000   0.0000   0.0000   0.0000

          k = 0.0667 0.4234 0.0000 ( 11938 PWs)   bands (ev):

   -17.4428 -17.3242 -11.5167 -11.4464  -7.3919  -7.3621  -5.3727  -4.5921
     2.7742   3.2344   6.7726   7.0863   7.2716   7.3311

     occupation numbers 
     1.0000   1.0000   1.0000   1.0000   1.0000   1.0000   1.0000   1.0000
     0.0000   0.0000   0.0000   0.0000   0.0000   0.0000

          k = 0.0667 0.5004 0.0000 ( 11920 PWs)   bands (ev):

   -16.2620 -16.1560 -13.1462 -13.0659  -7.7070  -7.6761  -4.1758  -3.5607
     1.2100   1.6679   6.9529   7.1489   8.4826   8.9137

     occupation numbers 
     1.0000   1.0000   1.0000   1.0000   1.0000   1.0000   1.0000   1.0000
     0.0000   0.0000   0.0000   0.0000   0.0000   0.0000

          k = 0.0667 0.5774 0.0000 ( 11913 PWs)   bands (ev):

   -15.2702 -15.2153 -14.2464 -14.2054  -7.8136  -7.7824  -3.4683  -3.1169
     0.5479   0.8655   6.8983   7.1020  10.3091  10.3967

     occupation numbers 
     1.0000   1.0000   1.0000   1.0000   1.0000   1.0000   1.0000   1.0000
     0.0000   0.0000   0.0000   0.0000   0.0000   0.0000

          k = 0.1333 0.2309 0.0000 ( 11879 PWs)   bands (ev):

   -19.3948 -19.2587  -7.6168  -7.5577  -7.5362  -6.7083  -6.4176  -6.4019
     4.1298   4.5114   5.2175   5.9291   6.3153   6.8051

     occupation numbers 
     1.0000   1.0000   1.0000   1.0000   1.0000   1.0000   1.0000   1.0000
     0.0000   0.0000   0.0000   0.0000   0.0000   0.0000

          k = 0.1333 0.3079 0.0000 ( 11929 PWs)   bands (ev):

   -18.6684 -18.5388  -8.9659  -8.9273  -7.3343  -7.3080  -6.7578  -5.8863
     5.1124   5.2120   5.4799   5.5218   6.2416   6.9439

     occupation numbers 
     1.0000   1.0000   1.0000   1.0000   1.0000   1.0000   1.0000   1.0000
     0.0000   0.0000   0.0000   0.0000   0.0000   0.0000

          k = 0.1333 0.3849 0.0000 ( 11925 PWs)   bands (ev):

   -17.7471 -17.6258 -10.5724 -10.5144  -8.0168  -7.9816  -5.6947  -4.8807
     3.4906   3.8435   6.3823   6.7823   7.5549   8.2303

     occupation numbers 
     1.0000   1.0000   1.0000   1.0000   1.0000   1.0000   1.0000   1.0000
     0.0000   0.0000   0.0000   0.0000   0.0000   0.0000

          k = 0.1333 0.4619 0.0000 ( 11927 PWs)   bands (ev):

   -16.6480 -16.5370 -12.1980 -12.1255  -8.4663  -8.4270  -4.4957  -3.7869
     1.8269   2.2418   7.8898   8.2070   8.3836   8.5009

     occupation numbers 
     1.0000   1.0000   1.0000   1.0000   1.0000   1.0000   1.0000   1.0000
     0.0000   0.0000   0.0000   0.0000   0.0000   0.0000

          k = 0.1333 0.5389 0.0000 ( 11935 PWs)   bands (ev):

   -15.4451 -15.3544 -13.6716 -13.5974  -8.6907  -8.6497  -3.4043  -2.9407
     0.6448   0.9637   8.1486   8.3825   9.6816  10.0207

     occupation numbers 
     1.0000   1.0000   1.0000   1.0000   1.0000   1.0000   1.0000   1.0000
     0.0000   0.0000   0.0000   0.0000   0.0000   0.0000

          k = 0.2000 0.3464 0.0000 ( 11953 PWs)   bands (ev):

   -17.8492 -17.7269  -9.9784  -9.9474  -8.5116  -8.4887  -5.8038  -4.9793
     3.8045   4.0707   6.2439   6.6290   7.4103   8.0943

     occupation numbers 
     1.0000   1.0000   1.0000   1.0000   1.0000   1.0000   1.0000   1.0000
     0.0000   0.0000   0.0000   0.0000   0.0000   0.0000

          k = 0.2000 0.4234 0.0000 ( 11949 PWs)   bands (ev):

   -16.8456 -16.7325 -11.2767 -11.2251  -9.3428  -9.3052  -4.6696  -3.9191
     2.2979   2.6103   7.6315   7.9914   8.8631   9.5052

     occupation numbers 
     1.0000   1.0000   1.0000   1.0000   1.0000   1.0000   1.0000   1.0000
     0.0000   0.0000   0.0000   0.0000   0.0000   0.0000

          k = 0.2000 0.5004 0.0000 ( 11953 PWs)   bands (ev):

   -15.6901 -15.5897 -12.7180 -12.6482  -9.7762  -9.7284  -3.4622  -2.8553
     0.9006   1.2278   9.2462   9.4349   9.9124  10.0735

     occupation numbers 
     1.0000   1.0000   1.0000   1.0000   1.0000   1.0000   1.0000   1.0000
     0.0000   0.0000   0.0000   0.0000   0.0000   0.0000

          k = 0.2000 0.5774 0.0000 ( 11949 PWs)   bands (ev):

   -14.7290 -14.6771 -13.7470 -13.7137  -9.9108  -9.8605  -2.6979  -2.3540
     0.2999   0.3841   9.7384  10.0493  10.3865  10.5722

     occupation numbers 
     1.0000   1.0000   1.0000   1.0000   1.0000   1.0000   1.0000   1.0000
     0.0000   0.0000   0.0000   0.0000   0.0000   0.0000

          k = 0.2667 0.4619 0.0000 ( 11961 PWs)   bands (ev):

   -15.7798 -15.6775 -12.0525 -12.0133 -10.4693 -10.4410  -3.4958  -2.8388
     1.0475   1.3547   9.1166   9.2560  10.0029  10.5185

     occupation numbers 
     1.0000   1.0000   1.0000   1.0000   1.0000   1.0000   1.0000   1.0000
     0.0000   0.0000   0.0000   0.0000   0.0000   0.0000

          k = 0.2667 0.5389 0.0000 ( 11948 PWs)   bands (ev):

   -14.6270 -14.5440 -13.1112 -13.0572 -11.0204 -10.9772  -2.3307  -1.8588
    -0.0613   0.2039   9.7793   9.8993  10.7345  11.4797

     occupation numbers 
     1.0000   1.0000   1.0000   1.0000   1.0000   1.0000   1.0000   1.0000
     0.0000   0.0000   0.0000   0.0000   0.0000   0.0000

          k = 0.3333 0.5774 0.0000 ( 11919 PWs)   bands (ev):

   -13.6748 -13.6260 -13.6260 -13.5819 -11.6223 -11.6223  -1.3213  -0.9978
    -0.9978  -0.6552   9.6432   9.6432  11.6768  12.0247

     occupation numbers 
     1.0000   1.0000   1.0000   1.0000   1.0000   1.0000   0.9996   0.5001
     0.5001   0.0002   0.0000   0.0000   0.0000   0.0000

     the Fermi energy is    -0.9978 ev

!    total energy              =     -48.20730411 Ry
     estimated scf accuracy    <          1.0E-11 Ry
     smearing contrib. (-TS)   =      -0.00010056 Ry
     internal energy E=F+TS    =     -48.20720354 Ry

     The total energy is F=E-TS. E is the sum of the following terms:
     one-electron contribution =    -707.05693845 Ry
     hartree contribution      =     356.95323044 Ry
     xc contribution           =     -17.18680241 Ry
     ewald contribution        =     319.10096548 Ry
     DFT-D3 Dispersion         =      -0.01765859 Ry

     convergence has been achieved in   6 iterations

     Forces acting on atoms (cartesian axes, Ry/au):

     atom    1 type  1   force =     0.00000000    0.00000000   -0.00017755
     atom    2 type  1   force =     0.00000000    0.00000000   -0.00152735
     atom    3 type  1   force =     0.00000000    0.00000000    0.00152735
     atom    4 type  1   force =     0.00000000    0.00000000    0.00017755
     The non-local contrib.  to forces
     atom    1 type  1   force =     0.00000000    0.00000000   -0.00021346
     atom    2 type  1   force =    -0.00000000    0.00000000   -0.00299837
     atom    3 type  1   force =    -0.00000000    0.00000000    0.00299837
     atom    4 type  1   force =     0.00000000    0.00000000    0.00021346
     The ionic contribution  to forces
     atom    1 type  1   force =     0.00000000   -0.00000000  -15.31442572
     atom    2 type  1   force =    -0.00000000    0.00000000  -15.28138528
     atom    3 type  1   force =    -0.00000000   -0.00000000   15.28138528
     atom    4 type  1   force =     0.00000000    0.00000000   15.31442572
     The local contribution  to forces
     atom    1 type  1   force =    -0.00000000   -0.00000000   15.31312217
     atom    2 type  1   force =    -0.00000000    0.00000000   15.28161617
     atom    3 type  1   force =    -0.00000000    0.00000000  -15.28161617
     atom    4 type  1   force =    -0.00000000    0.00000000  -15.31312217
     The core correction contribution to forces
     atom    1 type  1   force =     0.00000000    0.00000000    0.00008894
     atom    2 type  1   force =     0.00000000   -0.00000000    0.00007875
     atom    3 type  1   force =     0.00000000   -0.00000000   -0.00007875
     atom    4 type  1   force =     0.00000000   -0.00000000   -0.00008894
     The Hubbard contrib.    to forces
     atom    1 type  1   force =     0.00000000    0.00000000    0.00000000
     atom    2 type  1   force =     0.00000000    0.00000000    0.00000000
     atom    3 type  1   force =     0.00000000    0.00000000    0.00000000
     atom    4 type  1   force =     0.00000000    0.00000000    0.00000000
     The SCF correction term to forces
     atom    1 type  1   force =    -0.00000000   -0.00000000   -0.00000405
     atom    2 type  1   force =     0.00000000    0.00000000   -0.00000399
     atom    3 type  1   force =     0.00000000   -0.00000000    0.00000399
     atom    4 type  1   force =    -0.00000000    0.00000000    0.00000405

     DFT-D3 dispersion contribution to forces:
     atom    1 type  1   force =    -0.00000000    0.00000000    0.00125458
     atom    2 type  1   force =     0.00000000   -0.00000000    0.00116537
     atom    3 type  1   force =     0.00000000    0.00000000   -0.00116537
     atom    4 type  1   force =    -0.00000000   -0.00000000   -0.00125458

     Total force =     0.002175     Total SCF correction =     0.000008

     DFT-D3 dispersion Force =     0.002422
     Energy error            =      1.5E-05 Ry
     Gradient error          =      1.5E-03 Ry/Bohr

     number of scf cycles    =   6
     number of bfgs steps    =   5

     energy             old  =     -48.2072889780 Ry
     energy             new  =     -48.2073041088 Ry

     CASE: energy            _new < energy            _old

     new trust radius        =       0.0072630182 bohr
     new conv_thr            =            1.0E-10 Ry


ATOMIC_POSITIONS (angstrom)
C                0.0000000000       -0.0000000000        9.9892979414
C                1.2300000000        0.7101408311        9.9912132876
C                1.2300000000        0.7101408311       13.3587867124
C                0.0000000000        1.4202816622       13.3607020586



     Writing config-only to output data dir /home/ubuntu/projects/Graphene-Band-Structure-Quantum-Espresso/outputs/field_0/data/field_0.save/ :
     XML data file
     NEW-OLD atomic charge density approx. for the potential

     negative rho (up, down):  7.017E-07 0.000E+00

     total cpu time spent up to now is       52.5 secs

     Self-consistent Calculation

     iteration #  1     ecut=    90.00 Ry     beta= 0.70
     Davidson diagonalization with overlap

---- Real-time Memory Report at c_bands before calling an iterative solver
           138 MiB given to the printing process from OS
             0 MiB allocation reported by mallinfo(arena+hblkhd)
         26429 MiB available memory on the node where the printing process lives
------------------
     ethr =  1.00E-06,  avg # of iterations =  4.0

     negative rho (up, down):  1.901E-07 0.000E+00

     total cpu time spent up to now is       54.2 secs

     total energy              =     -48.20731140 Ry
     estimated scf accuracy    <       0.00004026 Ry

     iteration #  2     ecut=    90.00 Ry     beta= 0.70
     Davidson diagonalization with overlap

---- Real-time Memory Report at c_bands before calling an iterative solver
           138 MiB given to the printing process from OS
             0 MiB allocation reported by mallinfo(arena+hblkhd)
         26446 MiB available memory on the node where the printing process lives
------------------
     ethr =  2.52E-07,  avg # of iterations =  2.0

     negative rho (up, down):  1.155E-07 0.000E+00

     total cpu time spent up to now is       55.4 secs

     total energy              =     -48.20731756 Ry
     estimated scf accuracy    <       0.00003520 Ry

     iteration #  3     ecut=    90.00 Ry     beta= 0.70
     Davidson diagonalization with overlap

---- Real-time Memory Report at c_bands before calling an iterative solver
           138 MiB given to the printing process from OS
             0 MiB allocation reported by mallinfo(arena+hblkhd)
         26430 MiB available memory on the node where the printing process lives
------------------
     ethr =  2.20E-07,  avg # of iterations =  2.0

     negative rho (up, down):  1.473E-08 0.000E+00

     total cpu time spent up to now is       56.5 secs

     total energy              =     -48.20732585 Ry
     estimated scf accuracy    <       0.00000058 Ry

     iteration #  4     ecut=    90.00 Ry     beta= 0.70
     Davidson diagonalization with overlap

---- Real-time Memory Report at c_bands before calling an iterative solver
           138 MiB given to the printing process from OS
             0 MiB allocation reported by mallinfo(arena+hblkhd)
         26454 MiB available memory on the node where the printing process lives
------------------
     ethr =  3.65E-09,  avg # of iterations =  1.9

     total cpu time spent up to now is       57.7 secs

     total energy              =     -48.20732595 Ry
     estimated scf accuracy    <          5.6E-09 Ry

     iteration #  5     ecut=    90.00 Ry     beta= 0.70
     Davidson diagonalization with overlap

---- Real-time Memory Report at c_bands before calling an iterative solver
           138 MiB given to the printing process from OS
             0 MiB allocation reported by mallinfo(arena+hblkhd)
         26397 MiB available memory on the node where the printing process lives
------------------
     ethr =  3.48E-11,  avg # of iterations =  3.1

     total cpu time spent up to now is       59.1 secs

     total energy              =     -48.20732595 Ry
     estimated scf accuracy    <          3.4E-10 Ry

     iteration #  6     ecut=    90.00 Ry     beta= 0.70
     Davidson diagonalization with overlap

---- Real-time Memory Report at c_bands before calling an iterative solver
           138 MiB given to the printing process from OS
             0 MiB allocation reported by mallinfo(arena+hblkhd)
         26382 MiB available memory on the node where the printing process lives
------------------
     ethr =  2.14E-12,  avg # of iterations =  2.4

     total cpu time spent up to now is       60.3 secs

     End of self-consistent calculation

          k = 0.0000 0.0000 0.0000 ( 11659 PWs)   bands (ev):

   -20.6546 -20.5097  -9.1270  -8.1779  -4.0399  -4.0399  -4.0312  -4.0312
     2.4247   2.7901   3.4607   4.1856   4.6205   6.0761

     occupation numbers 
     1.0000   1.0000   1.0000   1.0000   1.0000   1.0000   1.0000   1.0000
     0.0000   0.0000   0.0000   0.0000   0.0000   0.0000

          k = 0.0000 0.0770 0.0000 ( 11791 PWs)   bands (ev):

   -20.5488 -20.4048  -8.9989  -8.0536  -4.4685  -4.4548  -4.2662  -4.2541
     2.5667   2.9339   3.6070   4.3311   4.7615   6.2088

     occupation numbers 
     1.0000   1.0000   1.0000   1.0000   1.0000   1.0000   1.0000   1.0000
     0.0000   0.0000   0.0000   0.0000   0.0000   0.0000

          k = 0.0000 0.1540 0.0000 ( 11788 PWs)   bands (ev):

   -20.2321 -20.0909  -8.6163  -7.6831  -5.6063  -5.5820  -4.8379  -4.8208
     2.9926   3.3649   4.0461   4.7674   5.1844   6.6033

     occupation numbers 
     1.0000   1.0000   1.0000   1.0000   1.0000   1.0000   1.0000   1.0000
     0.0000   0.0000   0.0000   0.0000   0.0000   0.0000

          k = 0.0000 0.2309 0.0000 ( 11848 PWs)   bands (ev):

   -19.7067 -19.5702  -7.9858  -7.1670  -7.1309  -7.0729  -5.5518  -5.5310
     3.7016   4.0806   4.7777   5.4928   5.8840   7.1767

     occupation numbers 
     1.0000   1.0000   1.0000   1.0000   1.0000   1.0000   1.0000   1.0000
     0.0000   0.0000   0.0000   0.0000   0.0000   0.0000

          k = 0.0000 0.3079 0.0000 ( 11876 PWs)   bands (ev):

   -18.9768 -18.8467  -8.9133  -8.8625  -7.1208  -6.2461  -6.2443  -6.2228
     4.6892   5.0487   5.6978   5.7992   5.9896   6.5168

     occupation numbers 
     1.0000   1.0000   1.0000   1.0000   1.0000   1.0000   1.0000   1.0000
     0.0000   0.0000   0.0000   0.0000   0.0000   0.0000

          k = 0.0000 0.3849 0.0000 ( 11914 PWs)   bands (ev):

   -18.0498 -17.9278 -10.6924 -10.6284  -6.8235  -6.7988  -6.0509  -5.2316
     3.7362   4.1786   5.9481   6.3748   6.7930   6.9320

     occupation numbers 
     1.0000   1.0000   1.0000   1.0000   1.0000   1.0000   1.0000   1.0000
     0.0000   0.0000   0.0000   0.0000   0.0000   0.0000

          k = 0.0000 0.4619 0.0000 ( 11910 PWs)   bands (ev):

   -16.9413 -16.8296 -12.4046 -12.3288  -7.2309  -7.2052  -4.8504  -4.1403
     1.9572   2.4502   6.5558   6.7309   7.5277   7.9516

     occupation numbers 
     1.0000   1.0000   1.0000   1.0000   1.0000   1.0000   1.0000   1.0000
     0.0000   0.0000   0.0000   0.0000   0.0000   0.0000

          k = 0.0000 0.5389 0.0000 ( 11924 PWs)   bands (ev):

   -15.7229 -15.6312 -13.9246 -13.8481  -7.4404  -7.4143  -3.7776  -3.3196
     0.7332   1.1343   6.4504   6.6424   9.2959   9.7586

     occupation numbers 
     1.0000   1.0000   1.0000   1.0000   1.0000   1.0000   1.0000   1.0000
     0.0000   0.0000   0.0000   0.0000   0.0000   0.0000

          k = 0.0667 0.1155 0.0000 ( 11813 PWs)   bands (ev):

   -20.3375 -20.1954  -8.7435  -7.8062  -5.1960  -5.1825  -4.7145  -4.7041
     2.8507   3.2214   3.8997   4.6220   5.0438   6.4739

     occupation numbers 
     1.0000   1.0000   1.0000   1.0000   1.0000   1.0000   1.0000   1.0000
     0.0000   0.0000   0.0000   0.0000   0.0000   0.0000

          k = 0.0667 0.1925 0.0000 ( 11832 PWs)   bands (ev):

   -19.9165 -19.7781  -8.2367  -7.3163  -6.4555  -6.4301  -5.4500  -5.4328
     3.4187   3.7952   4.4852   5.2034   5.6074   6.9984

     occupation numbers 
     1.0000   1.0000   1.0000   1.0000   1.0000   1.0000   1.0000   1.0000
     0.0000   0.0000   0.0000   0.0000   0.0000   0.0000

          k = 0.0667 0.2694 0.0000 ( 11880 PWs)   bands (ev):

   -19.2889 -19.1560  -8.0514  -8.0104  -7.4879  -6.5953  -6.2159  -6.1923
     4.2683   4.6498   5.3629   6.0670   6.4296   6.4916

     occupation numbers 
     1.0000   1.0000   1.0000   1.0000   1.0000   1.0000   1.0000   1.0000
     0.0000   0.0000   0.0000   0.0000   0.0000   0.0000

          k = 0.0667 0.3464 0.0000 ( 11910 PWs)   bands (ev):

   -18.4603 -18.3348  -9.7839  -9.7282  -6.8837  -6.8565  -6.5169  -5.6687
     4.6121   4.9867   5.3984   5.8198   6.5314   7.2168

     occupation numbers 
     1.0000   1.0000   1.0000   1.0000   1.0000   1.0000   1.0000   1.0000
     0.0000   0.0000   0.0000   0.0000   0.0000   0.0000

          k = 0.0667 0.4234 0.0000 ( 11938 PWs)   bands (ev):

   -17.4414 -17.3249 -11.5158 -11.4467  -7.3913  -7.3621  -5.3680  -4.5962
     2.7775   3.2318   6.7707   7.0873   7.2713   7.3303

     occupation numbers 
     1.0000   1.0000   1.0000   1.0000   1.0000   1.0000   1.0000   1.0000
     0.0000   0.0000   0.0000   0.0000   0.0000   0.0000

          k = 0.0667 0.5004 0.0000 ( 11920 PWs)   bands (ev):

   -16.2608 -16.1566 -13.1451 -13.0663  -7.7064  -7.6762  -4.1718  -3.5636
     1.2129   1.6653   6.9548   7.1477   8.4805   8.9130

     occupation numbers 
     1.0000   1.0000   1.0000   1.0000   1.0000   1.0000   1.0000   1.0000
     0.0000   0.0000   0.0000   0.0000   0.0000   0.0000

          k = 0.0667 0.5774 0.0000 ( 11913 PWs)   bands (ev):

   -15.2693 -15.2154 -14.2458 -14.2055  -7.8130  -7.7825  -3.4654  -3.1180
     0.5494   0.8636   6.9003   7.1008  10.3067  10.3943

     occupation numbers 
     1.0000   1.0000   1.0000   1.0000   1.0000   1.0000   1.0000   1.0000
     0.0000   0.0000   0.0000   0.0000   0.0000   0.0000

          k = 0.1333 0.2309 0.0000 ( 11879 PWs)   bands (ev):

   -19.3932 -19.2595  -7.6116  -7.5573  -7.5361  -6.7132  -6.4172  -6.4017
     4.1279   4.5106   5.2171   5.9296   6.3107   6.8073

     occupation numbers 
     1.0000   1.0000   1.0000   1.0000   1.0000   1.0000   1.0000   1.0000
     0.0000   0.0000   0.0000   0.0000   0.0000   0.0000

          k = 0.1333 0.3079 0.0000 ( 11929 PWs)   bands (ev):

   -18.6669 -18.5395  -8.9652  -8.9273  -7.3337  -7.3080  -6.7528  -5.8909
     5.1099   5.2149   5.4788   5.5209   6.2411   6.9444

     occupation numbers 
     1.0000   1.0000   1.0000   1.0000   1.0000   1.0000   1.0000   1.0000
     0.0000   0.0000   0.0000   0.0000   0.0000   0.0000

          k = 0.1333 0.3849 0.0000 ( 11925 PWs)   bands (ev):

   -17.7457 -17.6264 -10.5715 -10.5147  -8.0162  -7.9816  -5.6899  -4.8851
     3.4934   3.8418   6.3803   6.7815   7.5544   8.2309

     occupation numbers 
     1.0000   1.0000   1.0000   1.0000   1.0000   1.0000   1.0000   1.0000
     0.0000   0.0000   0.0000   0.0000   0.0000   0.0000

          k = 0.1333 0.4619 0.0000 ( 11927 PWs)   bands (ev):

   -16.6467 -16.5376 -12.1970 -12.1258  -8.4657  -8.4270  -4.4914  -3.7905
     1.8298   2.2396   7.8878   8.2080   8.3837   8.4999

     occupation numbers 
     1.0000   1.0000   1.0000   1.0000   1.0000   1.0000   1.0000   1.0000
     0.0000   0.0000   0.0000   0.0000   0.0000   0.0000

          k = 0.1333 0.5389 0.0000 ( 11935 PWs)   bands (ev):

   -15.4439 -15.3549 -13.6706 -13.5977  -8.6900  -8.6498  -3.4009  -2.9426
     0.6466   0.9619   8.1507   8.3814   9.6793  10.0204

     occupation numbers 
     1.0000   1.0000   1.0000   1.0000   1.0000   1.0000   1.0000   1.0000
     0.0000   0.0000   0.0000   0.0000   0.0000   0.0000

          k = 0.2000 0.3464 0.0000 ( 11953 PWs)   bands (ev):

   -17.8478 -17.7276  -9.9777  -9.9474  -8.5111  -8.4886  -5.7989  -4.9837
     3.8068   4.0697   6.2420   6.6283   7.4097   8.0948

     occupation numbers 
     1.0000   1.0000   1.0000   1.0000   1.0000   1.0000   1.0000   1.0000
     0.0000   0.0000   0.0000   0.0000   0.0000   0.0000

          k = 0.2000 0.4234 0.0000 ( 11949 PWs)   bands (ev):

   -16.8443 -16.7332 -11.2759 -11.2253  -9.3421  -9.3052  -4.6650  -3.9230
     2.3005   2.6090   7.6295   7.9909   8.8622   9.5059

     occupation numbers 
     1.0000   1.0000   1.0000   1.0000   1.0000   1.0000   1.0000   1.0000
     0.0000   0.0000   0.0000   0.0000   0.0000   0.0000

          k = 0.2000 0.5004 0.0000 ( 11953 PWs)   bands (ev):

   -15.6888 -15.5902 -12.7170 -12.6485  -9.7754  -9.7286  -3.4582  -2.8583
     0.9030   1.2263   9.2440   9.4357   9.9138  10.0717

     occupation numbers 
     1.0000   1.0000   1.0000   1.0000   1.0000   1.0000   1.0000   1.0000
     0.0000   0.0000   0.0000   0.0000   0.0000   0.0000

          k = 0.2000 0.5774 0.0000 ( 11949 PWs)   bands (ev):

   -14.7281 -14.6771 -13.7464 -13.7137  -9.9100  -9.8606  -2.6949  -2.3550
     0.3002   0.3837   9.7414  10.0484  10.3868  10.5667

     occupation numbers 
     1.0000   1.0000   1.0000   1.0000   1.0000   1.0000   1.0000   1.0000
     0.0000   0.0000   0.0000   0.0000   0.0000   0.0000

          k = 0.2667 0.4619 0.0000 ( 11961 PWs)   bands (ev):

   -15.7786 -15.6780 -12.0518 -12.0134 -10.4687 -10.4410  -3.4916  -2.8421
     1.0499   1.3534   9.1144   9.2564   9.9960  10.5185

     occupation numbers 
     1.0000   1.0000   1.0000   1.0000   1.0000   1.0000   1.0000   1.0000
     0.0000   0.0000   0.0000   0.0000   0.0000   0.0000

          k = 0.2667 0.5389 0.0000 ( 11948 PWs)   bands (ev):

   -14.6259 -14.5444 -13.1104 -13.0573 -11.0197 -10.9773  -2.3272  -1.8608
    -0.0594   0.2026   9.7807   9.8964  10.7327  11.4808

     occupation numbers 
     1.0000   1.0000   1.0000   1.0000   1.0000   1.0000   1.0000   1.0000
     0.0000   0.0000   0.0000   0.0000   0.0000   0.0000

          k = 0.3333 0.5774 0.0000 ( 11919 PWs)   bands (ev):

   -13.6736 -13.6257 -13.6257 -13.5824 -11.6220 -11.6220  -1.3169  -0.9972
    -0.9972  -0.6588   9.6426   9.6426  11.6760  12.0237

     occupation numbers 
     1.0000   1.0000   1.0000   1.0000   1.0000   1.0000   0.9996   0.5001
     0.5001   0.0002   0.0000   0.0000   0.0000   0.0000

     the Fermi energy is    -0.9971 ev

!    total energy              =     -48.20732595 Ry
     estimated scf accuracy    <          3.6E-11 Ry
     smearing contrib. (-TS)   =      -0.00010060 Ry
     internal energy E=F+TS    =     -48.20722535 Ry

     The total energy is F=E-TS. E is the sum of the following terms:
     one-electron contribution =    -706.20966424 Ry
     hartree contribution      =     356.52968725 Ry
     xc contribution           =     -17.18665089 Ry
     ewald contribution        =     318.67702753 Ry
     DFT-D3 Dispersion         =      -0.01762499 Ry

     convergence has been achieved in   6 iterations

     Forces acting on atoms (cartesian axes, Ry/au):

     atom    1 type  1   force =     0.00000000   -0.00000000    0.00011297
     atom    2 type  1   force =     0.00000000    0.00000000   -0.00170604
     atom    3 type  1   force =     0.00000000   -0.00000000    0.00170604
     atom    4 type  1   force =     0.00000000    0.00000000   -0.00011297
     The non-local contrib.  to forces
     atom    1 type  1   force =     0.00000000    0.00000000    0.00028205
     atom    2 type  1   force =     0.00000000   -0.00000000   -0.00341443
     atom    3 type  1   force =     0.00000000    0.00000000    0.00341443
     atom    4 type  1   force =     0.00000000   -0.00000000   -0.00028205
     The ionic contribution  to forces
     atom    1 type  1   force =     0.00000000   -0.00000000  -15.30524978
     atom    2 type  1   force =    -0.00000000    0.00000000  -15.26360071
     atom    3 type  1   force =    -0.00000000   -0.00000000   15.26360071
     atom    4 type  1   force =     0.00000000    0.00000000   15.30524978
     The local contribution  to forces
     atom    1 type  1   force =    -0.00000000   -0.00000000   15.30375594
     atom    2 type  1   force =    -0.00000000    0.00000000   15.26406722
     atom    3 type  1   force =    -0.00000000    0.00000000  -15.26406722
     atom    4 type  1   force =     0.00000000    0.00000000  -15.30375594
     The core correction contribution to forces
     atom    1 type  1   force =     0.00000000   -0.00000000    0.00008154
     atom    2 type  1   force =     0.00000000   -0.00000000    0.00008178
     atom    3 type  1   force =     0.00000000   -0.00000000   -0.00008178
     atom    4 type  1   force =     0.00000000   -0.00000000   -0.00008154
     The Hubbard contrib.    to forces
     atom    1 type  1   force =     0.00000000    0.00000000    0.00000000
     atom    2 type  1   force =     0.00000000    0.00000000    0.00000000
     atom    3 type  1   force =     0.00000000    0.00000000    0.00000000
     atom    4 type  1   force =     0.00000000    0.00000000    0.00000000
     The SCF correction term to forces
     atom    1 type  1   force =    -0.00000000   -0.00000000   -0.00000850
     atom    2 type  1   force =     0.00000000    0.00000000   -0.00000844
     atom    3 type  1   force =     0.00000000    0.00000000    0.00000844
     atom    4 type  1   force =    -0.00000000   -0.00000000    0.00000850

     DFT-D3 dispersion contribution to forces:
     atom    1 type  1   force =    -0.00000000    0.00000000    0.00125173
     atom    2 type  1   force =     0.00000000   -0.00000000    0.00116853
     atom    3 type  1   force =     0.00000000    0.00000000   -0.00116853
     atom    4 type  1   force =    -0.00000000   -0.00000000   -0.00125173

     Total force =     0.002418     Total SCF correction =     0.000017

     DFT-D3 dispersion Force =     0.002422
     Energy error            =      2.2E-05 Ry
     Gradient error          =      1.7E-03 Ry/Bohr

     number of scf cycles    =   7
     number of bfgs steps    =   6

     energy             old  =     -48.2073041088 Ry
     energy             new  =     -48.2073259521 Ry

     CASE: energy            _new < energy            _old

     new trust radius        =       0.0108945273 bohr
     new conv_thr            =            1.0E-10 Ry


ATOMIC_POSITIONS (angstrom)
C                0.0000000000       -0.0000000000        9.9835328058
C                1.2300000000        0.7101408311        9.9858124576
C                1.2300000000        0.7101408311       13.3641875424
C                0.0000000000        1.4202816622       13.3664671942



     Writing config-only to output data dir /home/ubuntu/projects/Graphene-Band-Structure-Quantum-Espresso/outputs/field_0/data/field_0.save/ :
     XML data file
     NEW-OLD atomic charge density approx. for the potential

     negative rho (up, down):  1.065E-06 0.000E+00

     total cpu time spent up to now is       61.0 secs

     Self-consistent Calculation

     iteration #  1     ecut=    90.00 Ry     beta= 0.70
     Davidson diagonalization with overlap

---- Real-time Memory Report at c_bands before calling an iterative solver
           138 MiB given to the printing process from OS
             0 MiB allocation reported by mallinfo(arena+hblkhd)
         26390 MiB available memory on the node where the printing process lives
------------------
     ethr =  1.00E-06,  avg # of iterations =  4.8

     negative rho (up, down):  2.912E-07 0.000E+00

     total cpu time spent up to now is       62.6 secs

     total energy              =     -48.20732273 Ry
     estimated scf accuracy    <       0.00009344 Ry

     iteration #  2     ecut=    90.00 Ry     beta= 0.70
     Davidson diagonalization with overlap

---- Real-time Memory Report at c_bands before calling an iterative solver
           138 MiB given to the printing process from OS
             0 MiB allocation reported by mallinfo(arena+hblkhd)
         26457 MiB available memory on the node where the printing process lives
------------------
     ethr =  5.84E-07,  avg # of iterations =  2.2

     negative rho (up, down):  1.780E-07 0.000E+00

     total cpu time spent up to now is       63.8 secs

     total energy              =     -48.20733700 Ry
     estimated scf accuracy    <       0.00008210 Ry

     iteration #  3     ecut=    90.00 Ry     beta= 0.70
     Davidson diagonalization with overlap

---- Real-time Memory Report at c_bands before calling an iterative solver
           138 MiB given to the printing process from OS
             0 MiB allocation reported by mallinfo(arena+hblkhd)
         26429 MiB available memory on the node where the printing process lives
------------------
     ethr =  5.13E-07,  avg # of iterations =  2.0

     negative rho (up, down):  2.331E-08 0.000E+00

     total cpu time spent up to now is       65.0 secs

     total energy              =     -48.20735624 Ry
     estimated scf accuracy    <       0.00000131 Ry

     iteration #  4     ecut=    90.00 Ry     beta= 0.70
     Davidson diagonalization with overlap

---- Real-time Memory Report at c_bands before calling an iterative solver
           138 MiB given to the printing process from OS
             0 MiB allocation reported by mallinfo(arena+hblkhd)
         26411 MiB available memory on the node where the printing process lives
------------------
     ethr =  8.16E-09,  avg # of iterations =  1.9

     total cpu time spent up to now is       66.2 secs

     total energy              =     -48.20735646 Ry
     estimated scf accuracy    <       0.00000001 Ry

     iteration #  5     ecut=    90.00 Ry     beta= 0.70
     Davidson diagonalization with overlap

---- Real-time Memory Report at c_bands before calling an iterative solver
           138 MiB given to the printing process from OS
             0 MiB allocation reported by mallinfo(arena+hblkhd)
         26438 MiB available memory on the node where the printing process lives
------------------
     ethr =  8.84E-11,  avg # of iterations =  3.6

     total cpu time spent up to now is       67.6 secs

     total energy              =     -48.20735647 Ry
     estimated scf accuracy    <          9.6E-10 Ry

     iteration #  6     ecut=    90.00 Ry     beta= 0.70
     Davidson diagonalization with overlap

---- Real-time Memory Report at c_bands before calling an iterative solver
           138 MiB given to the printing process from OS
             0 MiB allocation reported by mallinfo(arena+hblkhd)
         26437 MiB available memory on the node where the printing process lives
------------------
     ethr =  6.03E-12,  avg # of iterations =  2.2

     total cpu time spent up to now is       68.8 secs

     End of self-consistent calculation

          k = 0.0000 0.0000 0.0000 ( 11659 PWs)   bands (ev):

   -20.6522 -20.5110  -9.1190  -8.1856  -4.0394  -4.0394  -4.0310  -4.0310
     2.4222   2.7890   3.4601   4.1863   4.6148   6.0603

     occupation numbers 
     1.0000   1.0000   1.0000   1.0000   1.0000   1.0000   1.0000   1.0000
     0.0000   0.0000   0.0000   0.0000   0.0000   0.0000

          k = 0.0000 0.0770 0.0000 ( 11791 PWs)   bands (ev):

   -20.5464 -20.4061  -8.9909  -8.0613  -4.4678  -4.4546  -4.2656  -4.2539
     2.5642   2.9328   3.6064   4.3318   4.7558   6.1931

     occupation numbers 
     1.0000   1.0000   1.0000   1.0000   1.0000   1.0000   1.0000   1.0000
     0.0000   0.0000   0.0000   0.0000   0.0000   0.0000

          k = 0.0000 0.1540 0.0000 ( 11788 PWs)   bands (ev):

   -20.2297 -20.0922  -8.6084  -7.6907  -5.6055  -5.5819  -4.8372  -4.8207
     2.9901   3.3638   4.0455   4.7681   5.1784   6.5885

     occupation numbers 
     1.0000   1.0000   1.0000   1.0000   1.0000   1.0000   1.0000   1.0000
     0.0000   0.0000   0.0000   0.0000   0.0000   0.0000

          k = 0.0000 0.2309 0.0000 ( 11848 PWs)   bands (ev):

   -19.7044 -19.5714  -7.9780  -7.1661  -7.1313  -7.0800  -5.5511  -5.5309
     3.6990   4.0796   4.7770   5.4935   5.8775   7.1689

     occupation numbers 
     1.0000   1.0000   1.0000   1.0000   1.0000   1.0000   1.0000   1.0000
     0.0000   0.0000   0.0000   0.0000   0.0000   0.0000

          k = 0.0000 0.3079 0.0000 ( 11876 PWs)   bands (ev):

   -18.9746 -18.8478  -8.9121  -8.8628  -7.1132  -6.2514  -6.2453  -6.2228
     4.6865   5.0481   5.7016   5.7983   5.9866   6.5175

     occupation numbers 
     1.0000   1.0000   1.0000   1.0000   1.0000   1.0000   1.0000   1.0000
     0.0000   0.0000   0.0000   0.0000   0.0000   0.0000

          k = 0.0000 0.3849 0.0000 ( 11914 PWs)   bands (ev):

   -18.0477 -17.9289 -10.6910 -10.6288  -6.8227  -6.7987  -6.0436  -5.2382
     3.7412   4.1749   5.9453   6.3739   6.7952   6.9306

     occupation numbers 
     1.0000   1.0000   1.0000   1.0000   1.0000   1.0000   1.0000   1.0000
     0.0000   0.0000   0.0000   0.0000   0.0000   0.0000

          k = 0.0000 0.4619 0.0000 ( 11910 PWs)   bands (ev):

   -16.9393 -16.8305 -12.4030 -12.3293  -7.2300  -7.2052  -4.8437  -4.1459
     1.9622   2.4461   6.5585   6.7292   7.5248   7.9505

     occupation numbers 
     1.0000   1.0000   1.0000   1.0000   1.0000   1.0000   1.0000   1.0000
     0.0000   0.0000   0.0000   0.0000   0.0000   0.0000

          k = 0.0000 0.5389 0.0000 ( 11924 PWs)   bands (ev):

   -15.7212 -15.6319 -13.9230 -13.8487  -7.4396  -7.4143  -3.7724  -3.3225
     0.7364   1.1309   6.4533   6.6406   9.2926   9.7576

     occupation numbers 
     1.0000   1.0000   1.0000   1.0000   1.0000   1.0000   1.0000   1.0000
     0.0000   0.0000   0.0000   0.0000   0.0000   0.0000

          k = 0.0667 0.1155 0.0000 ( 11813 PWs)   bands (ev):

   -20.3351 -20.1967  -8.7356  -7.8138  -5.1953  -5.1823  -4.7139  -4.7039
     2.8482   3.2203   3.8991   4.6227   5.0379   6.4587

     occupation numbers 
     1.0000   1.0000   1.0000   1.0000   1.0000   1.0000   1.0000   1.0000
     0.0000   0.0000   0.0000   0.0000   0.0000   0.0000

          k = 0.0667 0.1925 0.0000 ( 11832 PWs)   bands (ev):

   -19.9141 -19.7793  -8.2289  -7.3238  -6.4547  -6.4301  -5.4493  -5.4326
     3.4161   3.7942   4.4846   5.2041   5.6011   6.9842

     occupation numbers 
     1.0000   1.0000   1.0000   1.0000   1.0000   1.0000   1.0000   1.0000
     0.0000   0.0000   0.0000   0.0000   0.0000   0.0000

          k = 0.0667 0.2694 0.0000 ( 11880 PWs)   bands (ev):

   -19.2866 -19.1572  -8.0503  -8.0105  -7.4802  -6.6026  -6.2151  -6.1923
     4.2656   4.6488   5.3622   6.0678   6.4224   6.4948

     occupation numbers 
     1.0000   1.0000   1.0000   1.0000   1.0000   1.0000   1.0000   1.0000
     0.0000   0.0000   0.0000   0.0000   0.0000   0.0000

          k = 0.0667 0.3464 0.0000 ( 11910 PWs)   bands (ev):

   -18.4581 -18.3358  -9.7826  -9.7285  -6.8829  -6.8565  -6.5094  -5.6755
     4.6166   4.9836   5.3956   5.8188   6.5307   7.2175

     occupation numbers 
     1.0000   1.0000   1.0000   1.0000   1.0000   1.0000   1.0000   1.0000
     0.0000   0.0000   0.0000   0.0000   0.0000   0.0000

          k = 0.0667 0.4234 0.0000 ( 11938 PWs)   bands (ev):

   -17.4393 -17.3259 -11.5143 -11.4472  -7.3905  -7.3622  -5.3610  -4.6023
     2.7824   3.2281   6.7679   7.0889   7.2710   7.3290

     occupation numbers 
     1.0000   1.0000   1.0000   1.0000   1.0000   1.0000   1.0000   1.0000
     0.0000   0.0000   0.0000   0.0000   0.0000   0.0000

          k = 0.0667 0.5004 0.0000 ( 11920 PWs)   bands (ev):

   -16.2588 -16.1575 -13.1436 -13.0669  -7.7055  -7.6762  -4.1657  -3.5681
     1.2171   1.6616   6.9577   7.1460   8.4774   8.9120

     occupation numbers 
     1.0000   1.0000   1.0000   1.0000   1.0000   1.0000   1.0000   1.0000
     0.0000   0.0000   0.0000   0.0000   0.0000   0.0000

          k = 0.0667 0.5774 0.0000 ( 11913 PWs)   bands (ev):

   -15.2679 -15.2155 -14.2448 -14.2056  -7.8121  -7.7825  -3.4609  -3.1197
     0.5515   0.8608   6.9032   7.0991  10.3030  10.3909

     occupation numbers 
     1.0000   1.0000   1.0000   1.0000   1.0000   1.0000   1.0000   1.0000
     0.0000   0.0000   0.0000   0.0000   0.0000   0.0000

          k = 0.1333 0.2309 0.0000 ( 11879 PWs)   bands (ev):

   -19.3909 -19.2606  -7.6038  -7.5566  -7.5360  -6.7205  -6.4165  -6.4016
     4.1253   4.5095   5.2164   5.9303   6.3039   6.8105

     occupation numbers 
     1.0000   1.0000   1.0000   1.0000   1.0000   1.0000   1.0000   1.0000
     0.0000   0.0000   0.0000   0.0000   0.0000   0.0000

          k = 0.1333 0.3079 0.0000 ( 11929 PWs)   bands (ev):

   -18.6647 -18.5406  -8.9642  -8.9274  -7.3329  -7.3079  -6.7453  -5.8979
     5.1067   5.2189   5.4771   5.5199   6.2404   6.9451

     occupation numbers 
     1.0000   1.0000   1.0000   1.0000   1.0000   1.0000   1.0000   1.0000
     0.0000   0.0000   0.0000   0.0000   0.0000   0.0000

          k = 0.1333 0.3849 0.0000 ( 11925 PWs)   bands (ev):

   -17.7436 -17.6275 -10.5702 -10.5150  -8.0152  -7.9817  -5.6827  -4.8915
     3.4976   3.8392   6.3774   6.7806   7.5535   8.2317

     occupation numbers 
     1.0000   1.0000   1.0000   1.0000   1.0000   1.0000   1.0000   1.0000
     0.0000   0.0000   0.0000   0.0000   0.0000   0.0000

          k = 0.1333 0.4619 0.0000 ( 11927 PWs)   bands (ev):

   -16.6447 -16.5385 -12.1955 -12.1263  -8.4646  -8.4272  -4.4847  -3.7960
     1.8342   2.2365   7.8849   8.2096   8.3840   8.4985

     occupation numbers 
     1.0000   1.0000   1.0000   1.0000   1.0000   1.0000   1.0000   1.0000
     0.0000   0.0000   0.0000   0.0000   0.0000   0.0000

          k = 0.1333 0.5389 0.0000 ( 11935 PWs)   bands (ev):

   -15.4422 -15.3556 -13.6691 -13.5982  -8.6890  -8.6500  -3.3957  -2.9455
     0.6493   0.9593   8.1538   8.3796   9.6760  10.0201

     occupation numbers 
     1.0000   1.0000   1.0000   1.0000   1.0000   1.0000   1.0000   1.0000
     0.0000   0.0000   0.0000   0.0000   0.0000   0.0000

          k = 0.2000 0.3464 0.0000 ( 11953 PWs)   bands (ev):

   -17.8456 -17.7286  -9.9768  -9.9474  -8.5104  -8.4885  -5.7916  -4.9903
     3.8103   4.0681   6.2392   6.6273   7.4088   8.0956

     occupation numbers 
     1.0000   1.0000   1.0000   1.0000   1.0000   1.0000   1.0000   1.0000
     0.0000   0.0000   0.0000   0.0000   0.0000   0.0000

          k = 0.2000 0.4234 0.0000 ( 11949 PWs)   bands (ev):

   -16.8422 -16.7341 -11.2747 -11.2255  -9.3411  -9.3053  -4.6581  -3.9290
     2.3043   2.6069   7.6265   7.9903   8.8607   9.5069

     occupation numbers 
     1.0000   1.0000   1.0000   1.0000   1.0000   1.0000   1.0000   1.0000
     0.0000   0.0000   0.0000   0.0000   0.0000   0.0000

          k = 0.2000 0.5004 0.0000 ( 11953 PWs)   bands (ev):

   -15.6870 -15.5910 -12.7156 -12.6490  -9.7743  -9.7288  -3.4522  -2.8628
     0.9065   1.2239   9.2407   9.4369   9.9161  10.0689

     occupation numbers 
     1.0000   1.0000   1.0000   1.0000   1.0000   1.0000   1.0000   1.0000
     0.0000   0.0000   0.0000   0.0000   0.0000   0.0000

          k = 0.2000 0.5774 0.0000 ( 11949 PWs)   bands (ev):

   -14.7268 -14.6772 -13.7456 -13.7137  -9.9088  -9.8609  -2.6904  -2.3565
     0.3005   0.3832   9.7459  10.0473  10.3871  10.5588

     occupation numbers 
     1.0000   1.0000   1.0000   1.0000   1.0000   1.0000   1.0000   1.0000
     0.0000   0.0000   0.0000   0.0000   0.0000   0.0000

          k = 0.2667 0.4619 0.0000 ( 11961 PWs)   bands (ev):

   -15.7767 -15.6789 -12.0508 -12.0134 -10.4679 -10.4409  -3.4853  -2.8472
     1.0537   1.3514   9.1111   9.2573   9.9859  10.5184

     occupation numbers 
     1.0000   1.0000   1.0000   1.0000   1.0000   1.0000   1.0000   1.0000
     0.0000   0.0000   0.0000   0.0000   0.0000   0.0000

          k = 0.2667 0.5389 0.0000 ( 11948 PWs)   bands (ev):

   -14.6243 -14.5450 -13.1091 -13.0575 -11.0186 -10.9774  -2.3219  -1.8637
    -0.0566   0.2006   9.7827   9.8921  10.7300  11.4825

     occupation numbers 
     1.0000   1.0000   1.0000   1.0000   1.0000   1.0000   1.0000   1.0000
     0.0000   0.0000   0.0000   0.0000   0.0000   0.0000

          k = 0.3333 0.5774 0.0000 ( 11919 PWs)   bands (ev):

   -13.6717 -13.6252 -13.6252 -13.5831 -11.6215 -11.6215  -1.3102  -0.9962
    -0.9962  -0.6643   9.6419   9.6419  11.6748  12.0223

     occupation numbers 
     1.0000   1.0000   1.0000   1.0000   1.0000   1.0000   0.9995   0.5001
     0.5001   0.0003   0.0000   0.0000   0.0000   0.0000

     the Fermi energy is    -0.9961 ev

!    total energy              =     -48.20735647 Ry
     estimated scf accuracy    <          8.1E-11 Ry
     smearing contrib. (-TS)   =      -0.00010067 Ry
     internal energy E=F+TS    =     -48.20725579 Ry

     The total energy is F=E-TS. E is the sum of the following terms:
     one-electron contribution =    -704.92129652 Ry
     hartree contribution      =     355.88563401 Ry
     xc contribution           =     -17.18642662 Ry
     ewald contribution        =     318.03240720 Ry
     DFT-D3 Dispersion         =      -0.01757387 Ry

     convergence has been achieved in   6 iterations

     Forces acting on atoms (cartesian axes, Ry/au):

     atom    1 type  1   force =     0.00000000    0.00000000    0.00043958
     atom    2 type  1   force =     0.00000000   -0.00000000   -0.00186866
     atom    3 type  1   force =     0.00000000    0.00000000    0.00186866
     atom    4 type  1   force =     0.00000000   -0.00000000   -0.00043958
     The non-local contrib.  to forces
     atom    1 type  1   force =     0.00000000    0.00000000    0.00081632
     atom    2 type  1   force =     0.00000000    0.00000000   -0.00383499
     atom    3 type  1   force =     0.00000000    0.00000000    0.00383499
     atom    4 type  1   force =     0.00000000   -0.00000000   -0.00081632
     The ionic contribution  to forces
     atom    1 type  1   force =     0.00000000   -0.00000000  -15.28920843
     atom    2 type  1   force =    -0.00000000    0.00000000  -15.23859711
     atom    3 type  1   force =    -0.00000000   -0.00000000   15.23859711
     atom    4 type  1   force =     0.00000000    0.00000000   15.28920843
     The local contribution  to forces
     atom    1 type  1   force =    -0.00000000   -0.00000000   15.28752167
     atom    2 type  1   force =    -0.00000000    0.00000000   15.23931585
     atom    3 type  1   force =    -0.00000000    0.00000000  -15.23931585
     atom    4 type  1   force =     0.00000000    0.00000000  -15.28752167
     The core correction contribution to forces
     atom    1 type  1   force =     0.00000000   -0.00000000    0.00007271
     atom    2 type  1   force =     0.00000000   -0.00000000    0.00008423
     atom    3 type  1   force =     0.00000000   -0.00000000   -0.00008423
     atom    4 type  1   force =     0.00000000   -0.00000000   -0.00007271
     The Hubbard contrib.    to forces
     atom    1 type  1   force =     0.00000000    0.00000000    0.00000000
     atom    2 type  1   force =     0.00000000    0.00000000    0.00000000
     atom    3 type  1   force =     0.00000000    0.00000000    0.00000000
     atom    4 type  1   force =     0.00000000    0.00000000    0.00000000
     The SCF correction term to forces
     atom    1 type  1   force =     0.00000000   -0.00000000   -0.00000972
     atom    2 type  1   force =     0.00000000    0.00000000   -0.00000966
     atom    3 type  1   force =     0.00000000    0.00000000    0.00000966
     atom    4 type  1   force =    -0.00000000   -0.00000000    0.00000972

     DFT-D3 dispersion contribution to forces:
     atom    1 type  1   force =    -0.00000000    0.00000000    0.00124703
     atom    2 type  1   force =     0.00000000   -0.00000000    0.00117301
     atom    3 type  1   force =     0.00000000    0.00000000   -0.00117301
     atom    4 type  1   force =    -0.00000000   -0.00000000   -0.00124703

     Total force =     0.002715     Total SCF correction =     0.000019

     DFT-D3 dispersion Force =     0.002421
     Energy error            =      3.1E-05 Ry
     Gradient error          =      1.9E-03 Ry/Bohr

     number of scf cycles    =   8
     number of bfgs steps    =   7

     energy             old  =     -48.2073259521 Ry
     energy             new  =     -48.2073564682 Ry

     CASE: energy            _new < energy            _old

     new trust radius        =       0.0163417909 bohr
     new conv_thr            =            1.0E-10 Ry


ATOMIC_POSITIONS (angstrom)
C                0.0000000000       -0.0000000000        9.9748851025
C                1.2300000000        0.7101408311        9.9775062088
C                1.2300000000        0.7101408311       13.3724937912
C                0.0000000000        1.4202816622       13.3751148975



     Writing config-only to output data dir /home/ubuntu/projects/Graphene-Band-Structure-Quantum-Espresso/outputs/field_0/data/field_0.save/ :
     XML data file
     NEW-OLD atomic charge density approx. for the potential

     negative rho (up, down):  1.577E-06 0.000E+00

     total cpu time spent up to now is       69.6 secs

     Self-consistent Calculation

     iteration #  1     ecut=    90.00 Ry     beta= 0.70
     Davidson diagonalization with overlap

---- Real-time Memory Report at c_bands before calling an iterative solver
           138 MiB given to the printing process from OS
             0 MiB allocation reported by mallinfo(arena+hblkhd)
         26433 MiB available memory on the node where the printing process lives
------------------
     ethr =  1.00E-06,  avg # of iterations =  5.0

     negative rho (up, down):  4.332E-07 0.000E+00

     total cpu time spent up to now is       71.6 secs

     total energy              =     -48.20731836 Ry
     estimated scf accuracy    <       0.00021650 Ry

     iteration #  2     ecut=    90.00 Ry     beta= 0.70
     Davidson diagonalization with overlap

---- Real-time Memory Report at c_bands before calling an iterative solver
           138 MiB given to the printing process from OS
             0 MiB allocation reported by mallinfo(arena+hblkhd)
         26445 MiB available memory on the node where the printing process lives
------------------
     ethr =  1.35E-06,  avg # of iterations =  3.0

     negative rho (up, down):  2.657E-07 0.000E+00

     total cpu time spent up to now is       72.8 secs

     total energy              =     -48.20735129 Ry
     estimated scf accuracy    <       0.00019269 Ry

     iteration #  3     ecut=    90.00 Ry     beta= 0.70
     Davidson diagonalization with overlap

---- Real-time Memory Report at c_bands before calling an iterative solver
           138 MiB given to the printing process from OS
             0 MiB allocation reported by mallinfo(arena+hblkhd)
         26433 MiB available memory on the node where the printing process lives
------------------
     ethr =  1.20E-06,  avg # of iterations =  2.4

     negative rho (up, down):  3.621E-08 0.000E+00

     total cpu time spent up to now is       74.1 secs

     total energy              =     -48.20739641 Ry
     estimated scf accuracy    <       0.00000300 Ry

     iteration #  4     ecut=    90.00 Ry     beta= 0.70
     Davidson diagonalization with overlap

---- Real-time Memory Report at c_bands before calling an iterative solver
           138 MiB given to the printing process from OS
             0 MiB allocation reported by mallinfo(arena+hblkhd)
         26411 MiB available memory on the node where the printing process lives
------------------
     ethr =  1.87E-08,  avg # of iterations =  1.9

     total cpu time spent up to now is       75.3 secs

     total energy              =     -48.20739691 Ry
     estimated scf accuracy    <       0.00000003 Ry

     iteration #  5     ecut=    90.00 Ry     beta= 0.70
     Davidson diagonalization with overlap

---- Real-time Memory Report at c_bands before calling an iterative solver
           138 MiB given to the printing process from OS
             0 MiB allocation reported by mallinfo(arena+hblkhd)
         26427 MiB available memory on the node where the printing process lives
------------------
     ethr =  2.01E-10,  avg # of iterations =  3.4

     total cpu time spent up to now is       76.5 secs

     total energy              =     -48.20739693 Ry
     estimated scf accuracy    <          2.1E-09 Ry

     iteration #  6     ecut=    90.00 Ry     beta= 0.70
     Davidson diagonalization with overlap

---- Real-time Memory Report at c_bands before calling an iterative solver
           138 MiB given to the printing process from OS
             0 MiB allocation reported by mallinfo(arena+hblkhd)
         26427 MiB available memory on the node where the printing process lives
------------------
     ethr =  1.31E-11,  avg # of iterations =  2.3

     total cpu time spent up to now is       77.7 secs

     total energy              =     -48.20739693 Ry
     estimated scf accuracy    <          2.0E-10 Ry

     iteration #  7     ecut=    90.00 Ry     beta= 0.70
     Davidson diagonalization with overlap

---- Real-time Memory Report at c_bands before calling an iterative solver
           139 MiB given to the printing process from OS
             0 MiB allocation reported by mallinfo(arena+hblkhd)
         26437 MiB available memory on the node where the printing process lives
------------------
     ethr =  1.26E-12,  avg # of iterations =  2.1

     total cpu time spent up to now is       78.7 secs

     End of self-consistent calculation

          k = 0.0000 0.0000 0.0000 ( 11659 PWs)   bands (ev):

   -20.6486 -20.5128  -9.1071  -8.1971  -4.0386  -4.0386  -4.0306  -4.0306
     2.4185   2.7875   3.4592   4.1874   4.6059   6.0366

     occupation numbers 
     1.0000   1.0000   1.0000   1.0000   1.0000   1.0000   1.0000   1.0000
     0.0000   0.0000   0.0000   0.0000   0.0000   0.0000

          k = 0.0000 0.0770 0.0000 ( 11791 PWs)   bands (ev):

   -20.5428 -20.4080  -8.9790  -8.0727  -4.4669  -4.4543  -4.2647  -4.2536
     2.5604   2.9313   3.6055   4.3329   4.7468   6.1698

     occupation numbers 
     1.0000   1.0000   1.0000   1.0000   1.0000   1.0000   1.0000   1.0000
     0.0000   0.0000   0.0000   0.0000   0.0000   0.0000

          k = 0.0000 0.1540 0.0000 ( 11788 PWs)   bands (ev):

   -20.2262 -20.0940  -8.5966  -7.7020  -5.6044  -5.5819  -4.8362  -4.8205
     2.9863   3.3623   4.0445   4.7691   5.1691   6.5664

     occupation numbers 
     1.0000   1.0000   1.0000   1.0000   1.0000   1.0000   1.0000   1.0000
     0.0000   0.0000   0.0000   0.0000   0.0000   0.0000

          k = 0.0000 0.2309 0.0000 ( 11848 PWs)   bands (ev):

   -19.7010 -19.5732  -7.9663  -7.1646  -7.1319  -7.0905  -5.5500  -5.5308
     3.6951   4.0780   4.7760   5.4946   5.8674   7.1550

     occupation numbers 
     1.0000   1.0000   1.0000   1.0000   1.0000   1.0000   1.0000   1.0000
     0.0000   0.0000   0.0000   0.0000   0.0000   0.0000

          k = 0.0000 0.3079 0.0000 ( 11876 PWs)   bands (ev):

   -18.9713 -18.8495  -8.9104  -8.8632  -7.1018  -6.2620  -6.2441  -6.2227
     4.6824   5.0473   5.7071   5.7969   5.9822   6.5186

     occupation numbers 
     1.0000   1.0000   1.0000   1.0000   1.0000   1.0000   1.0000   1.0000
     0.0000   0.0000   0.0000   0.0000   0.0000   0.0000

          k = 0.0000 0.3849 0.0000 ( 11914 PWs)   bands (ev):

   -18.0445 -17.9305 -10.6890 -10.6295  -6.8215  -6.7987  -6.0327  -5.2481
     3.7485   4.1694   5.9410   6.3726   6.7984   6.9286

     occupation numbers 
     1.0000   1.0000   1.0000   1.0000   1.0000   1.0000   1.0000   1.0000
     0.0000   0.0000   0.0000   0.0000   0.0000   0.0000

          k = 0.0000 0.4619 0.0000 ( 11910 PWs)   bands (ev):

   -16.9364 -16.8319 -12.4008 -12.3302  -7.2288  -7.2051  -4.8337  -4.1541
     1.9694   2.4401   6.5625   6.7267   7.5205   7.9490

     occupation numbers 
     1.0000   1.0000   1.0000   1.0000   1.0000   1.0000   1.0000   1.0000
     0.0000   0.0000   0.0000   0.0000   0.0000   0.0000

          k = 0.0000 0.5389 0.0000 ( 11924 PWs)   bands (ev):

   -15.7186 -15.6330 -13.9208 -13.8495  -7.4383  -7.4143  -3.7647  -3.3268
     0.7410   1.1259   6.4576   6.6381   9.2876   9.7562

     occupation numbers 
     1.0000   1.0000   1.0000   1.0000   1.0000   1.0000   1.0000   1.0000
     0.0000   0.0000   0.0000   0.0000   0.0000   0.0000

          k = 0.0667 0.1155 0.0000 ( 11813 PWs)   bands (ev):

   -20.3316 -20.1985  -8.7237  -7.8252  -5.1944  -5.1820  -4.7130  -4.7036
     2.8444   3.2187   3.8982   4.6238   5.0287   6.4361

     occupation numbers 
     1.0000   1.0000   1.0000   1.0000   1.0000   1.0000   1.0000   1.0000
     0.0000   0.0000   0.0000   0.0000   0.0000   0.0000

          k = 0.0667 0.1925 0.0000 ( 11832 PWs)   bands (ev):

   -19.9107 -19.7811  -8.2172  -7.3349  -6.4535  -6.4300  -5.4483  -5.4324
     3.4122   3.7926   4.4836   5.2052   5.5913   6.9631

     occupation numbers 
     1.0000   1.0000   1.0000   1.0000   1.0000   1.0000   1.0000   1.0000
     0.0000   0.0000   0.0000   0.0000   0.0000   0.0000

          k = 0.0667 0.2694 0.0000 ( 11880 PWs)   bands (ev):

   -19.2832 -19.1589  -8.0488  -8.0107  -7.4687  -6.6133  -6.2140  -6.1922
     4.2616   4.6473   5.3612   6.0691   6.4112   6.4998

     occupation numbers 
     1.0000   1.0000   1.0000   1.0000   1.0000   1.0000   1.0000   1.0000
     0.0000   0.0000   0.0000   0.0000   0.0000   0.0000

          k = 0.0667 0.3464 0.0000 ( 11910 PWs)   bands (ev):

   -18.4549 -18.3374  -9.7808  -9.7290  -6.8816  -6.8565  -6.4982  -5.6858
     4.6231   4.9791   5.3913   5.8174   6.5295   7.2187

     occupation numbers 
     1.0000   1.0000   1.0000   1.0000   1.0000   1.0000   1.0000   1.0000
     0.0000   0.0000   0.0000   0.0000   0.0000   0.0000

          k = 0.0667 0.4234 0.0000 ( 11938 PWs)   bands (ev):

   -17.4363 -17.3274 -11.5122 -11.4479  -7.3892  -7.3622  -5.3505  -4.6115
     2.7897   3.2227   6.7637   7.0912   7.2705   7.3272

     occupation numbers 
     1.0000   1.0000   1.0000   1.0000   1.0000   1.0000   1.0000   1.0000
     0.0000   0.0000   0.0000   0.0000   0.0000   0.0000

          k = 0.0667 0.5004 0.0000 ( 11920 PWs)   bands (ev):

   -16.2560 -16.1587 -13.1412 -13.0678  -7.7042  -7.6763  -4.1567  -3.5748
     1.2234   1.6561   6.9619   7.1435   8.4727   8.9107

     occupation numbers 
     1.0000   1.0000   1.0000   1.0000   1.0000   1.0000   1.0000   1.0000
     0.0000   0.0000   0.0000   0.0000   0.0000   0.0000

          k = 0.0667 0.5774 0.0000 ( 11913 PWs)   bands (ev):

   -15.2660 -15.2157 -14.2434 -14.2058  -7.8108  -7.7826  -3.4542  -3.1224
     0.5545   0.8570   6.9076   7.0965  10.2975  10.3856

     occupation numbers 
     1.0000   1.0000   1.0000   1.0000   1.0000   1.0000   1.0000   1.0000
     0.0000   0.0000   0.0000   0.0000   0.0000   0.0000

          k = 0.1333 0.2309 0.0000 ( 11879 PWs)   bands (ev):

   -19.3876 -19.2624  -7.5922  -7.5555  -7.5358  -6.7313  -6.4155  -6.4013
     4.1212   4.5080   5.2153   5.9314   6.2933   6.8153

     occupation numbers 
     1.0000   1.0000   1.0000   1.0000   1.0000   1.0000   1.0000   1.0000
     0.0000   0.0000   0.0000   0.0000   0.0000   0.0000

          k = 0.1333 0.3079 0.0000 ( 11929 PWs)   bands (ev):

   -18.6614 -18.5423  -8.9627  -8.9275  -7.3317  -7.3079  -6.7340  -5.9083
     5.1025   5.2241   5.4744   5.5186   6.2393   6.9462

     occupation numbers 
     1.0000   1.0000   1.0000   1.0000   1.0000   1.0000   1.0000   1.0000
     0.0000   0.0000   0.0000   0.0000   0.0000   0.0000

          k = 0.1333 0.3849 0.0000 ( 11925 PWs)   bands (ev):

   -17.7405 -17.6290 -10.5683 -10.5155  -8.0138  -7.9818  -5.6719  -4.9012
     3.5039   3.8354   6.3731   6.7792   7.5521   8.2330

     occupation numbers 
     1.0000   1.0000   1.0000   1.0000   1.0000   1.0000   1.0000   1.0000
     0.0000   0.0000   0.0000   0.0000   0.0000   0.0000

          k = 0.1333 0.4619 0.0000 ( 11927 PWs)   bands (ev):

   -16.6418 -16.5399 -12.1934 -12.1271  -8.4631  -8.4274  -4.4748  -3.8042
     1.8407   2.2318   7.8804   8.2119   8.3845   8.4964

     occupation numbers 
     1.0000   1.0000   1.0000   1.0000   1.0000   1.0000   1.0000   1.0000
     0.0000   0.0000   0.0000   0.0000   0.0000   0.0000

          k = 0.1333 0.5389 0.0000 ( 11935 PWs)   bands (ev):

   -15.4396 -15.3565 -13.6669 -13.5990  -8.6874  -8.6502  -3.3880  -2.9499
     0.6531   0.9556   8.1584   8.3770   9.6709  10.0197

     occupation numbers 
     1.0000   1.0000   1.0000   1.0000   1.0000   1.0000   1.0000   1.0000
     0.0000   0.0000   0.0000   0.0000   0.0000   0.0000

          k = 0.2000 0.3464 0.0000 ( 11953 PWs)   bands (ev):

   -17.8425 -17.7302  -9.9755  -9.9473  -8.5092  -8.4883  -5.7807  -5.0001
     3.8156   4.0657   6.2349   6.6260   7.4075   8.0968

     occupation numbers 
     1.0000   1.0000   1.0000   1.0000   1.0000   1.0000   1.0000   1.0000
     0.0000   0.0000   0.0000   0.0000   0.0000   0.0000

          k = 0.2000 0.4234 0.0000 ( 11949 PWs)   bands (ev):

   -16.8393 -16.7355 -11.2729 -11.2258  -9.3397  -9.3054  -4.6479  -3.9378
     2.3100   2.6038   7.6219   7.9894   8.8585   9.5084

     occupation numbers 
     1.0000   1.0000   1.0000   1.0000   1.0000   1.0000   1.0000   1.0000
     0.0000   0.0000   0.0000   0.0000   0.0000   0.0000

          k = 0.2000 0.5004 0.0000 ( 11953 PWs)   bands (ev):

   -15.6843 -15.5922 -12.7135 -12.6496  -9.7726  -9.7291  -3.4432  -2.8695
     0.9118   1.2204   9.2358   9.4388   9.9194  10.0648

     occupation numbers 
     1.0000   1.0000   1.0000   1.0000   1.0000   1.0000   1.0000   1.0000
     0.0000   0.0000   0.0000   0.0000   0.0000   0.0000

          k = 0.2000 0.5774 0.0000 ( 11949 PWs)   bands (ev):

   -14.7250 -14.6774 -13.7443 -13.7137  -9.9071  -9.8612  -2.6836  -2.3590
     0.3009   0.3825   9.7526  10.0457  10.3872  10.5474

     occupation numbers 
     1.0000   1.0000   1.0000   1.0000   1.0000   1.0000   1.0000   1.0000
     0.0000   0.0000   0.0000   0.0000   0.0000   0.0000

          k = 0.2667 0.4619 0.0000 ( 11961 PWs)   bands (ev):

   -15.7739 -15.6801 -12.0492 -12.0135 -10.4666 -10.4408  -3.4759  -2.8547
     1.0593   1.3484   9.1061   9.2585   9.9710  10.5184

     occupation numbers 
     1.0000   1.0000   1.0000   1.0000   1.0000   1.0000   1.0000   1.0000
     0.0000   0.0000   0.0000   0.0000   0.0000   0.0000

          k = 0.2667 0.5389 0.0000 ( 11948 PWs)   bands (ev):

   -14.6219 -14.5459 -13.1073 -13.0579 -11.0171 -10.9776  -2.3140  -1.8682
    -0.0523   0.1974   9.7859   9.8860  10.7259  11.4850

     occupation numbers 
     1.0000   1.0000   1.0000   1.0000   1.0000   1.0000   1.0000   1.0000
     0.0000   0.0000   0.0000   0.0000   0.0000   0.0000

          k = 0.3333 0.5774 0.0000 ( 11919 PWs)   bands (ev):

   -13.6691 -13.6246 -13.6246 -13.5842 -11.6208 -11.6208  -1.3000  -0.9947
    -0.9947  -0.6725   9.6409   9.6409  11.6729  12.0201

     occupation numbers 
     1.0000   1.0000   1.0000   1.0000   1.0000   1.0000   0.9992   0.5002
     0.5002   0.0004   0.0000   0.0000   0.0000   0.0000

     the Fermi energy is    -0.9947 ev

!    total energy              =     -48.20739693 Ry
     estimated scf accuracy    <          3.0E-12 Ry
     smearing contrib. (-TS)   =      -0.00010081 Ry
     internal energy E=F+TS    =     -48.20729612 Ry

     The total energy is F=E-TS. E is the sum of the following terms:
     one-electron contribution =    -702.96833468 Ry
     hartree contribution      =     354.90932544 Ry
     xc contribution           =     -17.18610099 Ry
     ewald contribution        =     317.05531043 Ry
     DFT-D3 Dispersion         =      -0.01749632 Ry

     convergence has been achieved in   7 iterations

     Forces acting on atoms (cartesian axes, Ry/au):

     atom    1 type  1   force =     0.00000000   -0.00000000    0.00078882
     atom    2 type  1   force =     0.00000000    0.00000000   -0.00198507
     atom    3 type  1   force =     0.00000000   -0.00000000    0.00198507
     atom    4 type  1   force =     0.00000000   -0.00000000   -0.00078882
     The non-local contrib.  to forces
     atom    1 type  1   force =     0.00000000    0.00000000    0.00135428
     atom    2 type  1   force =     0.00000000    0.00000000   -0.00421193
     atom    3 type  1   force =     0.00000000    0.00000000    0.00421193
     atom    4 type  1   force =     0.00000000    0.00000000   -0.00135428
     The ionic contribution  to forces
     atom    1 type  1   force =     0.00000000   -0.00000000  -15.26228430
     atom    2 type  1   force =    -0.00000000    0.00000000  -15.20319395
     atom    3 type  1   force =    -0.00000000   -0.00000000   15.20319395
     atom    4 type  1   force =     0.00000000    0.00000000   15.26228430
     The local contribution  to forces
     atom    1 type  1   force =    -0.00000000   -0.00000000   15.26041780
     atom    2 type  1   force =    -0.00000000    0.00000000   15.20415705
     atom    3 type  1   force =    -0.00000000    0.00000000  -15.20415705
     atom    4 type  1   force =     0.00000000    0.00000000  -15.26041780
     The core correction contribution to forces
     atom    1 type  1   force =     0.00000000    0.00000000    0.00006235
     atom    2 type  1   force =     0.00000000   -0.00000000    0.00008532
     atom    3 type  1   force =     0.00000000   -0.00000000   -0.00008532
     atom    4 type  1   force =     0.00000000   -0.00000000   -0.00006235
     The Hubbard contrib.    to forces
     atom    1 type  1   force =     0.00000000    0.00000000    0.00000000
     atom    2 type  1   force =     0.00000000    0.00000000    0.00000000
     atom    3 type  1   force =     0.00000000    0.00000000    0.00000000
     atom    4 type  1   force =     0.00000000    0.00000000    0.00000000
     The SCF correction term to forces
     atom    1 type  1   force =    -0.00000000   -0.00000000   -0.00000048
     atom    2 type  1   force =     0.00000000    0.00000000   -0.00000045
     atom    3 type  1   force =     0.00000000    0.00000000    0.00000045
     atom    4 type  1   force =    -0.00000000   -0.00000000    0.00000048

     DFT-D3 dispersion contribution to forces:
     atom    1 type  1   force =    -0.00000000    0.00000000    0.00123916
     atom    2 type  1   force =     0.00000000   -0.00000000    0.00117891
     atom    3 type  1   force =     0.00000000    0.00000000   -0.00117891
     atom    4 type  1   force =    -0.00000000   -0.00000000   -0.00123916

     Total force =     0.003021     Total SCF correction =     0.000001

     DFT-D3 dispersion Force =     0.002419
     Energy error            =      4.0E-05 Ry
     Gradient error          =      2.0E-03 Ry/Bohr

     number of scf cycles    =   9
     number of bfgs steps    =   8

     energy             old  =     -48.2073564682 Ry
     energy             new  =     -48.2073969275 Ry

     CASE: energy            _new < energy            _old

     new trust radius        =       0.0245126864 bohr
     new conv_thr            =            1.0E-10 Ry


ATOMIC_POSITIONS (angstrom)
C                0.0000000000       -0.0000000000        9.9619135474
C                1.2300000000        0.7101408311        9.9647722812
C                1.2300000000        0.7101408311       13.3852277188
C                0.0000000000        1.4202816622       13.3880864526



     Writing config-only to output data dir /home/ubuntu/projects/Graphene-Band-Structure-Quantum-Espresso/outputs/field_0/data/field_0.save/ :
     XML data file
     NEW-OLD atomic charge density approx. for the potential

     negative rho (up, down):  2.269E-06 0.000E+00

     total cpu time spent up to now is       79.4 secs

     Self-consistent Calculation

     iteration #  1     ecut=    90.00 Ry     beta= 0.70
     Davidson diagonalization with overlap

---- Real-time Memory Report at c_bands before calling an iterative solver
           139 MiB given to the printing process from OS
             0 MiB allocation reported by mallinfo(arena+hblkhd)
         26470 MiB available memory on the node where the printing process lives
------------------
     ethr =  1.00E-06,  avg # of iterations =  5.7

     negative rho (up, down):  6.329E-07 0.000E+00

     total cpu time spent up to now is       81.8 secs

     total energy              =     -48.20725837 Ry
     estimated scf accuracy    <       0.00050706 Ry

     iteration #  2     ecut=    90.00 Ry     beta= 0.70
     Davidson diagonalization with overlap

---- Real-time Memory Report at c_bands before calling an iterative solver
           139 MiB given to the printing process from OS
             0 MiB allocation reported by mallinfo(arena+hblkhd)
         26421 MiB available memory on the node where the printing process lives
------------------
     ethr =  3.17E-06,  avg # of iterations =  3.6

     negative rho (up, down):  3.889E-07 0.000E+00

     total cpu time spent up to now is       83.1 secs

     total energy              =     -48.20733712 Ry
     estimated scf accuracy    <       0.00046341 Ry

     iteration #  3     ecut=    90.00 Ry     beta= 0.70
     Davidson diagonalization with overlap

---- Real-time Memory Report at c_bands before calling an iterative solver
           139 MiB given to the printing process from OS
             0 MiB allocation reported by mallinfo(arena+hblkhd)
         26443 MiB available memory on the node where the printing process lives
------------------
     ethr =  2.90E-06,  avg # of iterations =  2.8

     negative rho (up, down):  5.537E-08 0.000E+00

     total cpu time spent up to now is       84.4 secs

     total energy              =     -48.20744452 Ry
     estimated scf accuracy    <       0.00000633 Ry

     iteration #  4     ecut=    90.00 Ry     beta= 0.70
     Davidson diagonalization with overlap

---- Real-time Memory Report at c_bands before calling an iterative solver
           139 MiB given to the printing process from OS
             0 MiB allocation reported by mallinfo(arena+hblkhd)
         26457 MiB available memory on the node where the printing process lives
------------------
     ethr =  3.96E-08,  avg # of iterations =  1.9

     total cpu time spent up to now is       85.5 secs

     total energy              =     -48.20744556 Ry
     estimated scf accuracy    <       0.00000008 Ry

     iteration #  5     ecut=    90.00 Ry     beta= 0.70
     Davidson diagonalization with overlap

---- Real-time Memory Report at c_bands before calling an iterative solver
           139 MiB given to the printing process from OS
             0 MiB allocation reported by mallinfo(arena+hblkhd)
         26453 MiB available memory on the node where the printing process lives
------------------
     ethr =  5.22E-10,  avg # of iterations =  3.1

     total cpu time spent up to now is       86.8 secs

     total energy              =     -48.20744560 Ry
     estimated scf accuracy    <          5.7E-09 Ry

     iteration #  6     ecut=    90.00 Ry     beta= 0.70
     Davidson diagonalization with overlap

---- Real-time Memory Report at c_bands before calling an iterative solver
           139 MiB given to the printing process from OS
             0 MiB allocation reported by mallinfo(arena+hblkhd)
         26402 MiB available memory on the node where the printing process lives
------------------
     ethr =  3.53E-11,  avg # of iterations =  2.3

     total cpu time spent up to now is       87.9 secs

     total energy              =     -48.20744560 Ry
     estimated scf accuracy    <          5.3E-10 Ry

     iteration #  7     ecut=    90.00 Ry     beta= 0.70
     Davidson diagonalization with overlap

---- Real-time Memory Report at c_bands before calling an iterative solver
           139 MiB given to the printing process from OS
             0 MiB allocation reported by mallinfo(arena+hblkhd)
         26384 MiB available memory on the node where the printing process lives
------------------
     ethr =  3.30E-12,  avg # of iterations =  2.3

     total cpu time spent up to now is       88.7 secs

     End of self-consistent calculation

          k = 0.0000 0.0000 0.0000 ( 11659 PWs)   bands (ev):

   -20.6435 -20.5156  -9.0896  -8.2140  -4.0374  -4.0374  -4.0301  -4.0301
     2.4129   2.7853   3.4578   4.1890   4.5920   6.0019

     occupation numbers 
     1.0000   1.0000   1.0000   1.0000   1.0000   1.0000   1.0000   1.0000
     0.0000   0.0000   0.0000   0.0000   0.0000   0.0000

          k = 0.0000 0.0770 0.0000 ( 11791 PWs)   bands (ev):

   -20.5377 -20.4107  -8.9615  -8.0896  -4.4656  -4.4539  -4.2634  -4.2532
     2.5548   2.9291   3.6042   4.3345   4.7327   6.1356

     occupation numbers 
     1.0000   1.0000   1.0000   1.0000   1.0000   1.0000   1.0000   1.0000
     0.0000   0.0000   0.0000   0.0000   0.0000   0.0000

          k = 0.0000 0.1540 0.0000 ( 11788 PWs)   bands (ev):

   -20.2212 -20.0967  -8.5793  -7.7186  -5.6027  -5.5818  -4.8348  -4.8202
     2.9806   3.3601   4.0431   4.7708   5.1544   6.5340

     occupation numbers 
     1.0000   1.0000   1.0000   1.0000   1.0000   1.0000   1.0000   1.0000
     0.0000   0.0000   0.0000   0.0000   0.0000   0.0000

          k = 0.0000 0.2309 0.0000 ( 11848 PWs)   bands (ev):

   -19.6961 -19.5757  -7.9492  -7.1626  -7.1333  -7.1056  -5.5484  -5.5307
     3.6892   4.0758   4.7745   5.4963   5.8516   7.1345

     occupation numbers 
     1.0000   1.0000   1.0000   1.0000   1.0000   1.0000   1.0000   1.0000
     0.0000   0.0000   0.0000   0.0000   0.0000   0.0000

          k = 0.0000 0.3079 0.0000 ( 11876 PWs)   bands (ev):

   -18.9665 -18.8520  -8.9079  -8.8638  -7.0851  -6.2776  -6.2425  -6.2226
     4.6763   5.0460   5.7149   5.7947   5.9759   6.5202

     occupation numbers 
     1.0000   1.0000   1.0000   1.0000   1.0000   1.0000   1.0000   1.0000
     0.0000   0.0000   0.0000   0.0000   0.0000   0.0000

          k = 0.0000 0.3849 0.0000 ( 11914 PWs)   bands (ev):

   -18.0400 -17.9327 -10.6861 -10.6304  -6.8198  -6.7986  -6.0166  -5.2625
     3.7591   4.1615   5.9344   6.3706   6.8031   6.9256

     occupation numbers 
     1.0000   1.0000   1.0000   1.0000   1.0000   1.0000   1.0000   1.0000
     0.0000   0.0000   0.0000   0.0000   0.0000   0.0000

          k = 0.0000 0.4619 0.0000 ( 11910 PWs)   bands (ev):

   -16.9321 -16.8340 -12.3976 -12.3314  -7.2271  -7.2051  -4.8191  -4.1664
     1.9800   2.4314   6.5683   6.7230   7.5139   7.9468

     occupation numbers 
     1.0000   1.0000   1.0000   1.0000   1.0000   1.0000   1.0000   1.0000
     0.0000   0.0000   0.0000   0.0000   0.0000   0.0000

          k = 0.0000 0.5389 0.0000 ( 11924 PWs)   bands (ev):

   -15.7149 -15.6345 -13.9176 -13.8507  -7.4366  -7.4143  -3.7534  -3.3334
     0.7476   1.1188   6.4638   6.6343   9.2801   9.7542

     occupation numbers 
     1.0000   1.0000   1.0000   1.0000   1.0000   1.0000   1.0000   1.0000
     0.0000   0.0000   0.0000   0.0000   0.0000   0.0000

          k = 0.0667 0.1155 0.0000 ( 11813 PWs)   bands (ev):

   -20.3266 -20.2012  -8.7063  -7.8419  -5.1931  -5.1816  -4.7119  -4.7031
     2.8387   3.2165   3.8968   4.6254   5.0142   6.4029

     occupation numbers 
     1.0000   1.0000   1.0000   1.0000   1.0000   1.0000   1.0000   1.0000
     0.0000   0.0000   0.0000   0.0000   0.0000   0.0000

          k = 0.0667 0.1925 0.0000 ( 11832 PWs)   bands (ev):

   -19.9057 -19.7838  -8.1999  -7.3513  -6.4518  -6.4299  -5.4468  -5.4321
     3.4064   3.7904   4.4821   5.2069   5.5761   6.9321

     occupation numbers 
     1.0000   1.0000   1.0000   1.0000   1.0000   1.0000   1.0000   1.0000
     0.0000   0.0000   0.0000   0.0000   0.0000   0.0000

          k = 0.0667 0.2694 0.0000 ( 11880 PWs)   bands (ev):

   -19.2784 -19.1614  -8.0466  -8.0111  -7.4518  -6.6292  -6.2123  -6.1921
     4.2555   4.6452   5.3595   6.0709   6.3937   6.5073

     occupation numbers 
     1.0000   1.0000   1.0000   1.0000   1.0000   1.0000   1.0000   1.0000
     0.0000   0.0000   0.0000   0.0000   0.0000   0.0000

          k = 0.0667 0.3464 0.0000 ( 11910 PWs)   bands (ev):

   -18.4503 -18.3398  -9.7781  -9.7297  -6.8799  -6.8565  -6.4818  -5.7008
     4.6327   4.9726   5.3849   5.8153   6.5277   7.2206

     occupation numbers 
     1.0000   1.0000   1.0000   1.0000   1.0000   1.0000   1.0000   1.0000
     0.0000   0.0000   0.0000   0.0000   0.0000   0.0000

          k = 0.0667 0.4234 0.0000 ( 11938 PWs)   bands (ev):

   -17.4319 -17.3295 -11.5092 -11.4490  -7.3873  -7.3623  -5.3350  -4.6251
     2.8002   3.2148   6.7573   7.0945   7.2698   7.3246

     occupation numbers 
     1.0000   1.0000   1.0000   1.0000   1.0000   1.0000   1.0000   1.0000
     0.0000   0.0000   0.0000   0.0000   0.0000   0.0000

          k = 0.0667 0.5004 0.0000 ( 11920 PWs)   bands (ev):

   -16.2520 -16.1606 -13.1379 -13.0690  -7.7023  -7.6763  -4.1434  -3.5848
     1.2324   1.6482   6.9680   7.1398   8.4656   8.9087

     occupation numbers 
     1.0000   1.0000   1.0000   1.0000   1.0000   1.0000   1.0000   1.0000
     0.0000   0.0000   0.0000   0.0000   0.0000   0.0000

          k = 0.0667 0.5774 0.0000 ( 11913 PWs)   bands (ev):

   -15.2632 -15.2161 -14.2414 -14.2060  -7.8089  -7.7827  -3.4443  -3.1266
     0.5586   0.8515   6.9138   7.0927  10.2892  10.3777

     occupation numbers 
     1.0000   1.0000   1.0000   1.0000   1.0000   1.0000   1.0000   1.0000
     0.0000   0.0000   0.0000   0.0000   0.0000   0.0000

          k = 0.1333 0.2309 0.0000 ( 11879 PWs)   bands (ev):

   -19.3827 -19.2649  -7.5753  -7.5538  -7.5356  -6.7473  -6.4142  -6.4009
     4.1153   4.5059   5.2138   5.9331   6.2769   6.8222

     occupation numbers 
     1.0000   1.0000   1.0000   1.0000   1.0000   1.0000   1.0000   1.0000
     0.0000   0.0000   0.0000   0.0000   0.0000   0.0000

          k = 0.1333 0.3079 0.0000 ( 11929 PWs)   bands (ev):

   -18.6568 -18.5447  -8.9606  -8.9278  -7.3300  -7.3078  -6.7175  -5.9236
     5.0969   5.2311   5.4702   5.5170   6.2375   6.9479

     occupation numbers 
     1.0000   1.0000   1.0000   1.0000   1.0000   1.0000   1.0000   1.0000
     0.0000   0.0000   0.0000   0.0000   0.0000   0.0000

          k = 0.1333 0.3849 0.0000 ( 11925 PWs)   bands (ev):

   -17.7361 -17.6312 -10.5657 -10.5162  -8.0118  -7.9820  -5.6560  -4.9155
     3.5129   3.8298   6.3665   6.7772   7.5499   8.2350

     occupation numbers 
     1.0000   1.0000   1.0000   1.0000   1.0000   1.0000   1.0000   1.0000
     0.0000   0.0000   0.0000   0.0000   0.0000   0.0000

          k = 0.1333 0.4619 0.0000 ( 11927 PWs)   bands (ev):

   -16.6376 -16.5419 -12.1903 -12.1282  -8.4610  -8.4277  -4.4603  -3.8163
     1.8502   2.2250   7.8736   8.2150   8.3853   8.4934

     occupation numbers 
     1.0000   1.0000   1.0000   1.0000   1.0000   1.0000   1.0000   1.0000
     0.0000   0.0000   0.0000   0.0000   0.0000   0.0000

          k = 0.1333 0.5389 0.0000 ( 11935 PWs)   bands (ev):

   -15.4360 -15.3580 -13.6638 -13.6001  -8.6853  -8.6505  -3.3766  -2.9564
     0.6587   0.9502   8.1650   8.3732   9.6632  10.0191

     occupation numbers 
     1.0000   1.0000   1.0000   1.0000   1.0000   1.0000   1.0000   1.0000
     0.0000   0.0000   0.0000   0.0000   0.0000   0.0000

          k = 0.2000 0.3464 0.0000 ( 11953 PWs)   bands (ev):

   -17.8381 -17.7324  -9.9735  -9.9473  -8.5077  -8.4881  -5.7647  -5.0146
     3.8233   4.0619   6.2285   6.6241   7.4053   8.0986

     occupation numbers 
     1.0000   1.0000   1.0000   1.0000   1.0000   1.0000   1.0000   1.0000
     0.0000   0.0000   0.0000   0.0000   0.0000   0.0000

          k = 0.2000 0.4234 0.0000 ( 11949 PWs)   bands (ev):

   -16.8351 -16.7375 -11.2704 -11.2264  -9.3376  -9.3056  -4.6328  -3.9508
     2.3184   2.5992   7.6151   7.9882   8.8549   9.5107

     occupation numbers 
     1.0000   1.0000   1.0000   1.0000   1.0000   1.0000   1.0000   1.0000
     0.0000   0.0000   0.0000   0.0000   0.0000   0.0000

          k = 0.2000 0.5004 0.0000 ( 11953 PWs)   bands (ev):

   -15.6804 -15.5939 -12.7105 -12.6506  -9.7703  -9.7296  -3.4300  -2.8794
     0.9196   1.2153   9.2282   9.4416   9.9245  10.0585

     occupation numbers 
     1.0000   1.0000   1.0000   1.0000   1.0000   1.0000   1.0000   1.0000
     0.0000   0.0000   0.0000   0.0000   0.0000   0.0000

          k = 0.2000 0.5774 0.0000 ( 11949 PWs)   bands (ev):

   -14.7223 -14.6777 -13.7425 -13.7138  -9.9046  -9.8618  -2.6737  -2.3628
     0.3014   0.3818   9.7624  10.0434  10.3870  10.5312

     occupation numbers 
     1.0000   1.0000   1.0000   1.0000   1.0000   1.0000   1.0000   1.0000
     0.0000   0.0000   0.0000   0.0000   0.0000   0.0000

          k = 0.2667 0.4619 0.0000 ( 11961 PWs)   bands (ev):

   -15.7700 -15.6819 -12.0470 -12.0136 -10.4649 -10.4407  -3.4621  -2.8659
     1.0676   1.3437   9.0986   9.2605   9.9495  10.5185

     occupation numbers 
     1.0000   1.0000   1.0000   1.0000   1.0000   1.0000   1.0000   1.0000
     0.0000   0.0000   0.0000   0.0000   0.0000   0.0000

          k = 0.2667 0.5389 0.0000 ( 11948 PWs)   bands (ev):

   -14.6185 -14.5472 -13.1048 -13.0584 -11.0149 -10.9779  -2.3024  -1.8750
    -0.0459   0.1928   9.7906   9.8775  10.7199  11.4887

     occupation numbers 
     1.0000   1.0000   1.0000   1.0000   1.0000   1.0000   1.0000   1.0000
     0.0000   0.0000   0.0000   0.0000   0.0000   0.0000

          k = 0.3333 0.5774 0.0000 ( 11919 PWs)   bands (ev):

   -13.6653 -13.6236 -13.6236 -13.5857 -11.6199 -11.6199  -1.2849  -0.9926
    -0.9926  -0.6849   9.6398   9.6398  11.6699  12.0169

     occupation numbers 
     1.0000   1.0000   1.0000   1.0000   1.0000   1.0000   0.9988   0.5002
     0.5002   0.0007   0.0000   0.0000   0.0000   0.0000

     the Fermi energy is    -0.9926 ev

!    total energy              =     -48.20744560 Ry
     estimated scf accuracy    <          7.2E-12 Ry
     smearing contrib. (-TS)   =      -0.00010110 Ry
     internal energy E=F+TS    =     -48.20734450 Ry

     The total energy is F=E-TS. E is the sum of the following terms:
     one-electron contribution =    -700.01486484 Ry
     hartree contribution      =     353.43286018 Ry
     xc contribution           =     -17.18563813 Ry
     ewald contribution        =     315.57767712 Ry
     DFT-D3 Dispersion         =      -0.01737883 Ry

     convergence has been achieved in   7 iterations

     Forces acting on atoms (cartesian axes, Ry/au):

     atom    1 type  1   force =     0.00000000    0.00000000    0.00112095
     atom    2 type  1   force =     0.00000000    0.00000000   -0.00198979
     atom    3 type  1   force =     0.00000000   -0.00000000    0.00198979
     atom    4 type  1   force =     0.00000000   -0.00000000   -0.00112095
     The non-local contrib.  to forces
     atom    1 type  1   force =    -0.00000000   -0.00000000    0.00180325
     atom    2 type  1   force =     0.00000000    0.00000000   -0.00443804
     atom    3 type  1   force =     0.00000000    0.00000000    0.00443804
     atom    4 type  1   force =     0.00000000    0.00000000   -0.00180325
     The ionic contribution  to forces
     atom    1 type  1   force =     0.00000000   -0.00000000  -15.21805978
     atom    2 type  1   force =    -0.00000000    0.00000000  -15.15290757
     atom    3 type  1   force =    -0.00000000   -0.00000000   15.15290757
     atom    4 type  1   force =     0.00000000    0.00000000   15.21805978
     The local contribution  to forces
     atom    1 type  1   force =    -0.00000000   -0.00000000   15.21610055
     atom    2 type  1   force =    -0.00000000    0.00000000   15.15408650
     atom    3 type  1   force =    -0.00000000    0.00000000  -15.15408650
     atom    4 type  1   force =    -0.00000000    0.00000000  -15.21610055
     The core correction contribution to forces
     atom    1 type  1   force =    -0.00000000   -0.00000000    0.00005115
     atom    2 type  1   force =     0.00000000   -0.00000000    0.00008379
     atom    3 type  1   force =     0.00000000   -0.00000000   -0.00008379
     atom    4 type  1   force =     0.00000000   -0.00000000   -0.00005115
     The Hubbard contrib.    to forces
     atom    1 type  1   force =     0.00000000    0.00000000    0.00000000
     atom    2 type  1   force =     0.00000000    0.00000000    0.00000000
     atom    3 type  1   force =     0.00000000    0.00000000    0.00000000
     atom    4 type  1   force =     0.00000000    0.00000000    0.00000000
     The SCF correction term to forces
     atom    1 type  1   force =    -0.00000000    0.00000000   -0.00000017
     atom    2 type  1   force =     0.00000000    0.00000000   -0.00000015
     atom    3 type  1   force =     0.00000000    0.00000000    0.00000015
     atom    4 type  1   force =     0.00000000   -0.00000000    0.00000017

     DFT-D3 dispersion contribution to forces:
     atom    1 type  1   force =    -0.00000000    0.00000000    0.00122595
     atom    2 type  1   force =     0.00000000   -0.00000000    0.00118568
     atom    3 type  1   force =     0.00000000    0.00000000   -0.00118568
     atom    4 type  1   force =    -0.00000000   -0.00000000   -0.00122595

     Total force =     0.003230     Total SCF correction =     0.000000

     DFT-D3 dispersion Force =     0.002412
     Energy error            =      4.9E-05 Ry
     Gradient error          =      2.0E-03 Ry/Bohr

     number of scf cycles    =  10
     number of bfgs steps    =   9

     energy             old  =     -48.2073969275 Ry
     energy             new  =     -48.2074455984 Ry

     CASE: energy            _new < energy            _old

     new trust radius        =       0.0367690296 bohr
     new conv_thr            =            1.0E-10 Ry


ATOMIC_POSITIONS (angstrom)
C                0.0000000000       -0.0000000000        9.9425164519
C                1.2300000000        0.7101408311        9.9453149487
C                1.2300000000        0.7101408311       13.4046850513
C                0.0000000000        1.4202816622       13.4074835481



     Writing config-only to output data dir /home/ubuntu/projects/Graphene-Band-Structure-Quantum-Espresso/outputs/field_0/data/field_0.save/ :
     XML data file
     NEW-OLD atomic charge density approx. for the potential

     negative rho (up, down):  3.267E-06 0.000E+00

     total cpu time spent up to now is       89.2 secs

     Self-consistent Calculation

     iteration #  1     ecut=    90.00 Ry     beta= 0.70
     Davidson diagonalization with overlap

---- Real-time Memory Report at c_bands before calling an iterative solver
           139 MiB given to the printing process from OS
             0 MiB allocation reported by mallinfo(arena+hblkhd)
         26509 MiB available memory on the node where the printing process lives
------------------
     ethr =  1.00E-06,  avg # of iterations =  6.4

     negative rho (up, down):  9.240E-07 0.000E+00

     total cpu time spent up to now is       91.0 secs

     total energy              =     -48.20706251 Ry
     estimated scf accuracy    <       0.00116312 Ry

     iteration #  2     ecut=    90.00 Ry     beta= 0.70
     Davidson diagonalization with overlap

---- Real-time Memory Report at c_bands before calling an iterative solver
           139 MiB given to the printing process from OS
             0 MiB allocation reported by mallinfo(arena+hblkhd)
         26451 MiB available memory on the node where the printing process lives
------------------
     ethr =  7.27E-06,  avg # of iterations =  3.4

     negative rho (up, down):  5.706E-07 0.000E+00

     total cpu time spent up to now is       92.3 secs

     total energy              =     -48.20724392 Ry
     estimated scf accuracy    <       0.00107192 Ry

     iteration #  3     ecut=    90.00 Ry     beta= 0.70
     Davidson diagonalization with overlap

---- Real-time Memory Report at c_bands before calling an iterative solver
           139 MiB given to the printing process from OS
             0 MiB allocation reported by mallinfo(arena+hblkhd)
         26451 MiB available memory on the node where the printing process lives
------------------
     ethr =  6.70E-06,  avg # of iterations =  3.0

     negative rho (up, down):  8.187E-08 0.000E+00

     total cpu time spent up to now is       93.6 secs

     total energy              =     -48.20749121 Ry
     estimated scf accuracy    <       0.00001398 Ry

     iteration #  4     ecut=    90.00 Ry     beta= 0.70
     Davidson diagonalization with overlap

---- Real-time Memory Report at c_bands before calling an iterative solver
           139 MiB given to the printing process from OS
             0 MiB allocation reported by mallinfo(arena+hblkhd)
         26455 MiB available memory on the node where the printing process lives
------------------
     ethr =  8.74E-08,  avg # of iterations =  1.9

     total cpu time spent up to now is       94.5 secs

     total energy              =     -48.20749349 Ry
     estimated scf accuracy    <       0.00000020 Ry

     iteration #  5     ecut=    90.00 Ry     beta= 0.70
     Davidson diagonalization with overlap

---- Real-time Memory Report at c_bands before calling an iterative solver
           139 MiB given to the printing process from OS
             0 MiB allocation reported by mallinfo(arena+hblkhd)
         26459 MiB available memory on the node where the printing process lives
------------------
     ethr =  1.23E-09,  avg # of iterations =  3.4

     total cpu time spent up to now is       95.7 secs

     total energy              =     -48.20749358 Ry
     estimated scf accuracy    <       0.00000001 Ry

     iteration #  6     ecut=    90.00 Ry     beta= 0.70
     Davidson diagonalization with overlap

---- Real-time Memory Report at c_bands before calling an iterative solver
           139 MiB given to the printing process from OS
             0 MiB allocation reported by mallinfo(arena+hblkhd)
         26429 MiB available memory on the node where the printing process lives
------------------
     ethr =  6.91E-11,  avg # of iterations =  2.4

     total cpu time spent up to now is       97.0 secs

     total energy              =     -48.20749358 Ry
     estimated scf accuracy    <          1.1E-09 Ry

     iteration #  7     ecut=    90.00 Ry     beta= 0.70
     Davidson diagonalization with overlap

---- Real-time Memory Report at c_bands before calling an iterative solver
           139 MiB given to the printing process from OS
             0 MiB allocation reported by mallinfo(arena+hblkhd)
         26416 MiB available memory on the node where the printing process lives
------------------
     ethr =  7.06E-12,  avg # of iterations =  2.2

     total cpu time spent up to now is       98.2 secs

     End of self-consistent calculation

          k = 0.0000 0.0000 0.0000 ( 11659 PWs)   bands (ev):

   -20.6363 -20.5195  -9.0643  -8.2384  -4.0359  -4.0359  -4.0293  -4.0293
     2.4046   2.7822   3.4558   4.1917   4.5697   5.9521

     occupation numbers 
     1.0000   1.0000   1.0000   1.0000   1.0000   1.0000   1.0000   1.0000
     0.0000   0.0000   0.0000   0.0000   0.0000   0.0000

          k = 0.0000 0.0770 0.0000 ( 11791 PWs)   bands (ev):

   -20.5306 -20.4146  -8.9363  -8.1139  -4.4638  -4.4534  -4.2617  -4.2526
     2.5465   2.9260   3.6021   4.3372   4.7102   6.0865

     occupation numbers 
     1.0000   1.0000   1.0000   1.0000   1.0000   1.0000   1.0000   1.0000
     0.0000   0.0000   0.0000   0.0000   0.0000   0.0000

          k = 0.0000 0.1540 0.0000 ( 11788 PWs)   bands (ev):

   -20.2142 -20.1005  -8.5542  -7.7426  -5.6004  -5.5817  -4.8329  -4.8199
     2.9721   3.3570   4.0409   4.7735   5.1311   6.4874

     occupation numbers 
     1.0000   1.0000   1.0000   1.0000   1.0000   1.0000   1.0000   1.0000
     0.0000   0.0000   0.0000   0.0000   0.0000   0.0000

          k = 0.0000 0.2309 0.0000 ( 11848 PWs)   bands (ev):

   -19.6892 -19.5794  -7.9244  -7.1599  -7.1395  -7.1231  -5.5463  -5.5305
     3.6804   4.0728   4.7721   5.4989   5.8268   7.1022

     occupation numbers 
     1.0000   1.0000   1.0000   1.0000   1.0000   1.0000   1.0000   1.0000
     0.0000   0.0000   0.0000   0.0000   0.0000   0.0000

          k = 0.0000 0.3079 0.0000 ( 11876 PWs)   bands (ev):

   -18.9599 -18.8554  -8.9044  -8.8647  -7.0609  -6.3001  -6.2403  -6.2225
     4.6674   5.0440   5.7257   5.7913   5.9670   6.5228

     occupation numbers 
     1.0000   1.0000   1.0000   1.0000   1.0000   1.0000   1.0000   1.0000
     0.0000   0.0000   0.0000   0.0000   0.0000   0.0000

          k = 0.0000 0.3849 0.0000 ( 11914 PWs)   bands (ev):

   -18.0337 -17.9359 -10.6821 -10.6317  -6.8175  -6.7986  -5.9935  -5.2835
     3.7741   4.1503   5.9246   6.3678   6.8097   6.9217

     occupation numbers 
     1.0000   1.0000   1.0000   1.0000   1.0000   1.0000   1.0000   1.0000
     0.0000   0.0000   0.0000   0.0000   0.0000   0.0000

          k = 0.0000 0.4619 0.0000 ( 11910 PWs)   bands (ev):

   -16.9262 -16.8369 -12.3931 -12.3331  -7.2247  -7.2051  -4.7980  -4.1841
     1.9950   2.4191   6.5764   6.7176   7.5041   7.9438

     occupation numbers 
     1.0000   1.0000   1.0000   1.0000   1.0000   1.0000   1.0000   1.0000
     0.0000   0.0000   0.0000   0.0000   0.0000   0.0000

          k = 0.0000 0.5389 0.0000 ( 11924 PWs)   bands (ev):

   -15.7097 -15.6366 -13.9131 -13.8524  -7.4342  -7.4143  -3.7371  -3.3430
     0.7570   1.1088   6.4724   6.6290   9.2690   9.7514

     occupation numbers 
     1.0000   1.0000   1.0000   1.0000   1.0000   1.0000   1.0000   1.0000
     0.0000   0.0000   0.0000   0.0000   0.0000   0.0000

          k = 0.0667 0.1155 0.0000 ( 11813 PWs)   bands (ev):

   -20.3195 -20.2051  -8.6812  -7.8660  -5.1913  -5.1810  -4.7102  -4.7024
     2.8303   3.2134   3.8947   4.6281   4.9912   6.3553

     occupation numbers 
     1.0000   1.0000   1.0000   1.0000   1.0000   1.0000   1.0000   1.0000
     0.0000   0.0000   0.0000   0.0000   0.0000   0.0000

          k = 0.0667 0.1925 0.0000 ( 11832 PWs)   bands (ev):

   -19.8988 -19.7875  -8.1750  -7.3750  -6.4494  -6.4298  -5.4449  -5.4318
     3.3977   3.7873   4.4799   5.2095   5.5520   6.8876

     occupation numbers 
     1.0000   1.0000   1.0000   1.0000   1.0000   1.0000   1.0000   1.0000
     0.0000   0.0000   0.0000   0.0000   0.0000   0.0000

          k = 0.0667 0.2694 0.0000 ( 11880 PWs)   bands (ev):

   -19.2717 -19.1650  -8.0436  -8.0116  -7.4274  -6.6522  -6.2101  -6.1920
     4.2466   4.6423   5.3570   6.0738   6.3665   6.5182

     occupation numbers 
     1.0000   1.0000   1.0000   1.0000   1.0000   1.0000   1.0000   1.0000
     0.0000   0.0000   0.0000   0.0000   0.0000   0.0000

          k = 0.0667 0.3464 0.0000 ( 11910 PWs)   bands (ev):

   -18.4439 -18.3431  -9.7745  -9.7308  -6.8775  -6.8566  -6.4582  -5.7226
     4.6462   4.9634   5.3752   5.8123   6.5249   7.2236

     occupation numbers 
     1.0000   1.0000   1.0000   1.0000   1.0000   1.0000   1.0000   1.0000
     0.0000   0.0000   0.0000   0.0000   0.0000   0.0000

          k = 0.0667 0.4234 0.0000 ( 11938 PWs)   bands (ev):

   -17.4259 -17.3326 -11.5050 -11.4505  -7.3848  -7.3624  -5.3128  -4.6447
     2.8151   3.2036   6.7476   7.0988   7.2690   7.3210

     occupation numbers 
     1.0000   1.0000   1.0000   1.0000   1.0000   1.0000   1.0000   1.0000
     0.0000   0.0000   0.0000   0.0000   0.0000   0.0000

          k = 0.0667 0.5004 0.0000 ( 11920 PWs)   bands (ev):

   -16.2464 -16.1632 -13.1334 -13.0708  -7.6998  -7.6765  -4.1242  -3.5993
     1.2453   1.6371   6.9766   7.1344   8.4550   8.9060

     occupation numbers 
     1.0000   1.0000   1.0000   1.0000   1.0000   1.0000   1.0000   1.0000
     0.0000   0.0000   0.0000   0.0000   0.0000   0.0000

          k = 0.0667 0.5774 0.0000 ( 11913 PWs)   bands (ev):

   -15.2594 -15.2166 -14.2386 -14.2064  -7.8063  -7.7828  -3.4302  -3.1329
     0.5646   0.8440   6.9226   7.0873  10.2766  10.3659

     occupation numbers 
     1.0000   1.0000   1.0000   1.0000   1.0000   1.0000   1.0000   1.0000
     0.0000   0.0000   0.0000   0.0000   0.0000   0.0000

          k = 0.1333 0.2309 0.0000 ( 11879 PWs)   bands (ev):

   -19.3760 -19.2685  -7.5537  -7.5486  -7.5353  -6.7704  -6.4123  -6.4004
     4.1064   4.5028   5.2113   5.9357   6.2512   6.8318

     occupation numbers 
     1.0000   1.0000   1.0000   1.0000   1.0000   1.0000   1.0000   1.0000
     0.0000   0.0000   0.0000   0.0000   0.0000   0.0000

          k = 0.1333 0.3079 0.0000 ( 11929 PWs)   bands (ev):

   -18.6503 -18.5480  -8.9577  -8.9281  -7.3277  -7.3077  -6.6935  -5.9458
     5.0891   5.2402   5.4642   5.5147   6.2348   6.9506

     occupation numbers 
     1.0000   1.0000   1.0000   1.0000   1.0000   1.0000   1.0000   1.0000
     0.0000   0.0000   0.0000   0.0000   0.0000   0.0000

          k = 0.1333 0.3849 0.0000 ( 11925 PWs)   bands (ev):

   -17.7299 -17.6343 -10.5620 -10.5173  -8.0091  -7.9823  -5.6331  -4.9360
     3.5259   3.8217   6.3567   6.7745   7.5465   8.2380

     occupation numbers 
     1.0000   1.0000   1.0000   1.0000   1.0000   1.0000   1.0000   1.0000
     0.0000   0.0000   0.0000   0.0000   0.0000   0.0000

          k = 0.1333 0.4619 0.0000 ( 11927 PWs)   bands (ev):

   -16.6318 -16.5447 -12.1860 -12.1297  -8.4581  -8.4281  -4.4394  -3.8338
     1.8637   2.2153   7.8634   8.2192   8.3867   8.4890

     occupation numbers 
     1.0000   1.0000   1.0000   1.0000   1.0000   1.0000   1.0000   1.0000
     0.0000   0.0000   0.0000   0.0000   0.0000   0.0000

          k = 0.1333 0.5389 0.0000 ( 11935 PWs)   bands (ev):

   -15.4310 -15.3601 -13.6595 -13.6016  -8.6823  -8.6510  -3.3603  -2.9661
     0.6667   0.9428   8.1743   8.3677   9.6518  10.0182

     occupation numbers 
     1.0000   1.0000   1.0000   1.0000   1.0000   1.0000   1.0000   1.0000
     0.0000   0.0000   0.0000   0.0000   0.0000   0.0000

          k = 0.2000 0.3464 0.0000 ( 11953 PWs)   bands (ev):

   -17.8319 -17.7356  -9.9709  -9.9472  -8.5055  -8.4878  -5.7416  -5.0354
     3.8345   4.0564   6.2188   6.6215   7.4019   8.1015

     occupation numbers 
     1.0000   1.0000   1.0000   1.0000   1.0000   1.0000   1.0000   1.0000
     0.0000   0.0000   0.0000   0.0000   0.0000   0.0000

          k = 0.2000 0.4234 0.0000 ( 11949 PWs)   bands (ev):

   -16.8292 -16.7404 -11.2670 -11.2271  -9.3348  -9.3059  -4.6111  -3.9697
     2.3304   2.5924   7.6048   7.9866   8.8490   9.5143

     occupation numbers 
     1.0000   1.0000   1.0000   1.0000   1.0000   1.0000   1.0000   1.0000
     0.0000   0.0000   0.0000   0.0000   0.0000   0.0000

          k = 0.2000 0.5004 0.0000 ( 11953 PWs)   bands (ev):

   -15.6750 -15.5964 -12.7063 -12.6521  -9.7670  -9.7303  -3.4110  -2.8939
     0.9307   1.2078   9.2168   9.4455   9.9318  10.0489

     occupation numbers 
     1.0000   1.0000   1.0000   1.0000   1.0000   1.0000   1.0000   1.0000
     0.0000   0.0000   0.0000   0.0000   0.0000   0.0000

          k = 0.2000 0.5774 0.0000 ( 11949 PWs)   bands (ev):

   -14.7186 -14.6781 -13.7400 -13.7138  -9.9013  -9.8626  -2.6594  -2.3686
     0.3019   0.3809   9.7765  10.0404  10.3860  10.5087

     occupation numbers 
     1.0000   1.0000   1.0000   1.0000   1.0000   1.0000   1.0000   1.0000
     0.0000   0.0000   0.0000   0.0000   0.0000   0.0000

          k = 0.2667 0.4619 0.0000 ( 11961 PWs)   bands (ev):

   -15.7646 -15.6844 -12.0440 -12.0138 -10.4625 -10.4406  -3.4421  -2.8821
     1.0795   1.3369   9.0871   9.2636   9.9187  10.5186

     occupation numbers 
     1.0000   1.0000   1.0000   1.0000   1.0000   1.0000   1.0000   1.0000
     0.0000   0.0000   0.0000   0.0000   0.0000   0.0000

          k = 0.2667 0.5389 0.0000 ( 11948 PWs)   bands (ev):

   -14.6138 -14.5490 -13.1012 -13.0592 -11.0118 -10.9784  -2.2857  -1.8849
    -0.0366   0.1859   9.7976   9.8657  10.7112  11.4941

     occupation numbers 
     1.0000   1.0000   1.0000   1.0000   1.0000   1.0000   1.0000   1.0000
     0.0000   0.0000   0.0000   0.0000   0.0000   0.0000

          k = 0.3333 0.5774 0.0000 ( 11919 PWs)   bands (ev):

   -13.6600 -13.6222 -13.6222 -13.5879 -11.6186 -11.6186  -1.2631  -0.9898
    -0.9898  -0.7029   9.6387   9.6387  11.6655  12.0122

     occupation numbers 
     1.0000   1.0000   1.0000   1.0000   1.0000   1.0000   0.9978   0.5004
     0.5004   0.0014   0.0000   0.0000   0.0000   0.0000

     the Fermi energy is    -0.9897 ev

!    total energy              =     -48.20749358 Ry
     estimated scf accuracy    <          1.6E-11 Ry
     smearing contrib. (-TS)   =      -0.00010177 Ry
     internal energy E=F+TS    =     -48.20739181 Ry

     The total energy is F=E-TS. E is the sum of the following terms:
     one-electron contribution =    -695.56788927 Ry
     hartree contribution      =     351.20973949 Ry
     xc contribution           =     -17.18500448 Ry
     ewald contribution        =     313.35296477 Ry
     DFT-D3 Dispersion         =      -0.01720232 Ry

     convergence has been achieved in   7 iterations

     Forces acting on atoms (cartesian axes, Ry/au):

     atom    1 type  1   force =     0.00000000   -0.00000000    0.00131705
     atom    2 type  1   force =     0.00000000    0.00000000   -0.00175016
     atom    3 type  1   force =     0.00000000   -0.00000000    0.00175016
     atom    4 type  1   force =     0.00000000   -0.00000000   -0.00131705
     The non-local contrib.  to forces
     atom    1 type  1   force =     0.00000000   -0.00000000    0.00192759
     atom    2 type  1   force =     0.00000000    0.00000000   -0.00426447
     atom    3 type  1   force =     0.00000000   -0.00000000    0.00426447
     atom    4 type  1   force =    -0.00000000    0.00000000   -0.00192759
     The ionic contribution  to forces
     atom    1 type  1   force =     0.00000000   -0.00000000  -15.14611063
     atom    2 type  1   force =    -0.00000000    0.00000000  -15.08198236
     atom    3 type  1   force =    -0.00000000   -0.00000000   15.08198236
     atom    4 type  1   force =     0.00000000    0.00000000   15.14611063
     The local contribution  to forces
     atom    1 type  1   force =    -0.00000000   -0.00000000   15.14425486
     atom    2 type  1   force =    -0.00000000    0.00000000   15.08322867
     atom    3 type  1   force =    -0.00000000    0.00000000  -15.08322867
     atom    4 type  1   force =     0.00000000    0.00000000  -15.14425486
     The core correction contribution to forces
     atom    1 type  1   force =     0.00000000    0.00000000    0.00004111
     atom    2 type  1   force =     0.00000000   -0.00000000    0.00007674
     atom    3 type  1   force =     0.00000000   -0.00000000   -0.00007674
     atom    4 type  1   force =     0.00000000   -0.00000000   -0.00004111
     The Hubbard contrib.    to forces
     atom    1 type  1   force =     0.00000000    0.00000000    0.00000000
     atom    2 type  1   force =     0.00000000    0.00000000    0.00000000
     atom    3 type  1   force =     0.00000000    0.00000000    0.00000000
     atom    4 type  1   force =     0.00000000    0.00000000    0.00000000
     The SCF correction term to forces
     atom    1 type  1   force =     0.00000000    0.00000000   -0.00000000
     atom    2 type  1   force =    -0.00000000   -0.00000000    0.00000010
     atom    3 type  1   force =    -0.00000000   -0.00000000   -0.00000010
     atom    4 type  1   force =     0.00000000   -0.00000000    0.00000000

     DFT-D3 dispersion contribution to forces:
     atom    1 type  1   force =    -0.00000000    0.00000000    0.00120413
     atom    2 type  1   force =     0.00000000   -0.00000000    0.00119116
     atom    3 type  1   force =     0.00000000    0.00000000   -0.00119116
     atom    4 type  1   force =    -0.00000000   -0.00000000   -0.00120413

     Total force =     0.003098     Total SCF correction =     0.000000

     DFT-D3 dispersion Force =     0.002395
     Energy error            =      4.8E-05 Ry
     Gradient error          =      1.8E-03 Ry/Bohr

     number of scf cycles    =  11
     number of bfgs steps    =  10

     energy             old  =     -48.2074455984 Ry
     energy             new  =     -48.2074935810 Ry

     CASE: energy            _new < energy            _old

     new trust radius        =       0.0374177933 bohr
     new conv_thr            =            1.0E-10 Ry


ATOMIC_POSITIONS (angstrom)
C                0.0000000000       -0.0000000000        9.9233352745
C                1.2300000000        0.7101408311        9.9255143052
C                1.2300000000        0.7101408311       13.4244856948
C                0.0000000000        1.4202816622       13.4266647255



     Writing config-only to output data dir /home/ubuntu/projects/Graphene-Band-Structure-Quantum-Espresso/outputs/field_0/data/field_0.save/ :
     XML data file
     NEW-OLD atomic charge density approx. for the potential

     negative rho (up, down):  3.485E-06 0.000E+00

     total cpu time spent up to now is       99.0 secs

     Self-consistent Calculation

     iteration #  1     ecut=    90.00 Ry     beta= 0.70
     Davidson diagonalization with overlap

---- Real-time Memory Report at c_bands before calling an iterative solver
           139 MiB given to the printing process from OS
             0 MiB allocation reported by mallinfo(arena+hblkhd)
         26434 MiB available memory on the node where the printing process lives
------------------
     ethr =  1.00E-06,  avg # of iterations =  6.2

     negative rho (up, down):  9.856E-07 0.000E+00

     total cpu time spent up to now is      101.3 secs

     total energy              =     -48.20708065 Ry
     estimated scf accuracy    <       0.00117126 Ry

     iteration #  2     ecut=    90.00 Ry     beta= 0.70
     Davidson diagonalization with overlap

---- Real-time Memory Report at c_bands before calling an iterative solver
           139 MiB given to the printing process from OS
             0 MiB allocation reported by mallinfo(arena+hblkhd)
         26441 MiB available memory on the node where the printing process lives
------------------
     ethr =  7.32E-06,  avg # of iterations =  3.5

     negative rho (up, down):  6.106E-07 0.000E+00

     total cpu time spent up to now is      102.4 secs

     total energy              =     -48.20726266 Ry
     estimated scf accuracy    <       0.00108262 Ry

     iteration #  3     ecut=    90.00 Ry     beta= 0.70
     Davidson diagonalization with overlap

---- Real-time Memory Report at c_bands before calling an iterative solver
           139 MiB given to the printing process from OS
             0 MiB allocation reported by mallinfo(arena+hblkhd)
         26458 MiB available memory on the node where the printing process lives
------------------
     ethr =  6.77E-06,  avg # of iterations =  3.3

     negative rho (up, down):  8.866E-08 0.000E+00

     total cpu time spent up to now is      103.6 secs

     total energy              =     -48.20751235 Ry
     estimated scf accuracy    <       0.00001420 Ry

     iteration #  4     ecut=    90.00 Ry     beta= 0.70
     Davidson diagonalization with overlap

---- Real-time Memory Report at c_bands before calling an iterative solver
           139 MiB given to the printing process from OS
             0 MiB allocation reported by mallinfo(arena+hblkhd)
         26442 MiB available memory on the node where the printing process lives
------------------
     ethr =  8.87E-08,  avg # of iterations =  2.0

     total cpu time spent up to now is      104.9 secs

     total energy              =     -48.20751474 Ry
     estimated scf accuracy    <       0.00000020 Ry

     iteration #  5     ecut=    90.00 Ry     beta= 0.70
     Davidson diagonalization with overlap

---- Real-time Memory Report at c_bands before calling an iterative solver
           139 MiB given to the printing process from OS
             0 MiB allocation reported by mallinfo(arena+hblkhd)
         26448 MiB available memory on the node where the printing process lives
------------------
     ethr =  1.23E-09,  avg # of iterations =  3.3

     total cpu time spent up to now is      106.0 secs

     total energy              =     -48.20751483 Ry
     estimated scf accuracy    <       0.00000001 Ry

     iteration #  6     ecut=    90.00 Ry     beta= 0.70
     Davidson diagonalization with overlap

---- Real-time Memory Report at c_bands before calling an iterative solver
           139 MiB given to the printing process from OS
             0 MiB allocation reported by mallinfo(arena+hblkhd)
         26428 MiB available memory on the node where the printing process lives
------------------
     ethr =  7.39E-11,  avg # of iterations =  2.5

     total cpu time spent up to now is      107.1 secs

     total energy              =     -48.20751483 Ry
     estimated scf accuracy    <          1.1E-09 Ry

     iteration #  7     ecut=    90.00 Ry     beta= 0.70
     Davidson diagonalization with overlap

---- Real-time Memory Report at c_bands before calling an iterative solver
           139 MiB given to the printing process from OS
             0 MiB allocation reported by mallinfo(arena+hblkhd)
         26452 MiB available memory on the node where the printing process lives
------------------
     ethr =  6.70E-12,  avg # of iterations =  2.2

     total cpu time spent up to now is      108.0 secs

     End of self-consistent calculation

          k = 0.0000 0.0000 0.0000 ( 11659 PWs)   bands (ev):

   -20.6299 -20.5232  -9.0402  -8.2616  -4.0345  -4.0345  -4.0287  -4.0287
     2.3963   2.7792   3.4536   4.1944   4.5460   5.9052

     occupation numbers 
     1.0000   1.0000   1.0000   1.0000   1.0000   1.0000   1.0000   1.0000
     0.0000   0.0000   0.0000   0.0000   0.0000   0.0000

          k = 0.0000 0.0770 0.0000 ( 11791 PWs)   bands (ev):

   -20.5242 -20.4182  -8.9123  -8.1370  -4.4623  -4.4530  -4.2602  -4.2521
     2.5381   2.9230   3.5998   4.3399   4.6862   6.0403

     occupation numbers 
     1.0000   1.0000   1.0000   1.0000   1.0000   1.0000   1.0000   1.0000
     0.0000   0.0000   0.0000   0.0000   0.0000   0.0000

          k = 0.0000 0.1540 0.0000 ( 11788 PWs)   bands (ev):

   -20.2078 -20.1040  -8.5303  -7.7654  -5.5984  -5.5817  -4.8312  -4.8196
     2.9636   3.3540   4.0386   4.7761   5.1064   6.4436

     occupation numbers 
     1.0000   1.0000   1.0000   1.0000   1.0000   1.0000   1.0000   1.0000
     0.0000   0.0000   0.0000   0.0000   0.0000   0.0000

          k = 0.0000 0.2309 0.0000 ( 11848 PWs)   bands (ev):

   -19.6830 -19.5828  -7.9010  -7.1593  -7.1543  -7.1290  -5.5444  -5.5303
     3.6717   4.0698   4.7697   5.5016   5.8007   7.0708

     occupation numbers 
     1.0000   1.0000   1.0000   1.0000   1.0000   1.0000   1.0000   1.0000
     0.0000   0.0000   0.0000   0.0000   0.0000   0.0000

          k = 0.0000 0.3079 0.0000 ( 11876 PWs)   bands (ev):

   -18.9540 -18.8587  -8.9014  -8.8655  -7.0380  -6.3215  -6.2383  -6.2225
     4.6585   5.0419   5.7349   5.7883   5.9589   6.5255

     occupation numbers 
     1.0000   1.0000   1.0000   1.0000   1.0000   1.0000   1.0000   1.0000
     0.0000   0.0000   0.0000   0.0000   0.0000   0.0000

          k = 0.0000 0.3849 0.0000 ( 11914 PWs)   bands (ev):

   -18.0280 -17.9389 -10.6786 -10.6330  -6.8155  -6.7986  -5.9715  -5.3034
     3.7879   4.1401   5.9147   6.3651   6.8158   6.9174

     occupation numbers 
     1.0000   1.0000   1.0000   1.0000   1.0000   1.0000   1.0000   1.0000
     0.0000   0.0000   0.0000   0.0000   0.0000   0.0000

          k = 0.0000 0.4619 0.0000 ( 11910 PWs)   bands (ev):

   -16.9209 -16.8396 -12.3891 -12.3347  -7.2227  -7.2052  -4.7780  -4.2010
     2.0090   2.4077   6.5838   6.7126   7.4943   7.9408

     occupation numbers 
     1.0000   1.0000   1.0000   1.0000   1.0000   1.0000   1.0000   1.0000
     0.0000   0.0000   0.0000   0.0000   0.0000   0.0000

          k = 0.0000 0.5389 0.0000 ( 11924 PWs)   bands (ev):

   -15.7051 -15.6386 -13.9091 -13.8540  -7.4321  -7.4144  -3.7217  -3.3525
     0.7658   1.0998   6.4803   6.6240   9.2578   9.7486

     occupation numbers 
     1.0000   1.0000   1.0000   1.0000   1.0000   1.0000   1.0000   1.0000
     0.0000   0.0000   0.0000   0.0000   0.0000   0.0000

          k = 0.0667 0.1155 0.0000 ( 11813 PWs)   bands (ev):

   -20.3131 -20.2087  -8.6573  -7.8888  -5.1897  -5.1805  -4.7088  -4.7019
     2.8218   3.2104   3.8924   4.6308   4.9667   6.3104

     occupation numbers 
     1.0000   1.0000   1.0000   1.0000   1.0000   1.0000   1.0000   1.0000
     0.0000   0.0000   0.0000   0.0000   0.0000   0.0000

          k = 0.0667 0.1925 0.0000 ( 11832 PWs)   bands (ev):

   -19.8926 -19.7910  -8.1514  -7.3974  -6.4474  -6.4298  -5.4432  -5.4315
     3.3891   3.7843   4.4774   5.2122   5.5264   6.8459

     occupation numbers 
     1.0000   1.0000   1.0000   1.0000   1.0000   1.0000   1.0000   1.0000
     0.0000   0.0000   0.0000   0.0000   0.0000   0.0000

          k = 0.0667 0.2694 0.0000 ( 11880 PWs)   bands (ev):

   -19.2657 -19.1683  -8.0409  -8.0121  -7.4042  -6.6740  -6.2081  -6.1919
     4.2377   4.6394   5.3544   6.0767   6.3383   6.5288

     occupation numbers 
     1.0000   1.0000   1.0000   1.0000   1.0000   1.0000   1.0000   1.0000
     0.0000   0.0000   0.0000   0.0000   0.0000   0.0000

          k = 0.0667 0.3464 0.0000 ( 11910 PWs)   bands (ev):

   -18.4381 -18.3462  -9.7712  -9.7317  -6.8753  -6.8566  -6.4357  -5.7432
     4.6588   4.9549   5.3653   5.8093   6.5220   7.2265

     occupation numbers 
     1.0000   1.0000   1.0000   1.0000   1.0000   1.0000   1.0000   1.0000
     0.0000   0.0000   0.0000   0.0000   0.0000   0.0000

          k = 0.0667 0.4234 0.0000 ( 11938 PWs)   bands (ev):

   -17.4204 -17.3354 -11.5012 -11.4519  -7.3826  -7.3625  -5.2917  -4.6633
     2.8289   3.1932   6.7379   7.1026   7.2681   7.3177

     occupation numbers 
     1.0000   1.0000   1.0000   1.0000   1.0000   1.0000   1.0000   1.0000
     0.0000   0.0000   0.0000   0.0000   0.0000   0.0000

          k = 0.0667 0.5004 0.0000 ( 11920 PWs)   bands (ev):

   -16.2413 -16.1657 -13.1292 -13.0725  -7.6975  -7.6767  -4.1061  -3.6133
     1.2573   1.6268   6.9844   7.1294   8.4445   8.9033

     occupation numbers 
     1.0000   1.0000   1.0000   1.0000   1.0000   1.0000   1.0000   1.0000
     0.0000   0.0000   0.0000   0.0000   0.0000   0.0000

          k = 0.0667 0.5774 0.0000 ( 11913 PWs)   bands (ev):

   -15.2559 -15.2171 -14.2361 -14.2068  -7.8041  -7.7830  -3.4168  -3.1391
     0.5700   0.8373   6.9307   7.0823  10.2640  10.3544

     occupation numbers 
     1.0000   1.0000   1.0000   1.0000   1.0000   1.0000   1.0000   1.0000
     0.0000   0.0000   0.0000   0.0000   0.0000   0.0000

          k = 0.1333 0.2309 0.0000 ( 11879 PWs)   bands (ev):

   -19.3699 -19.2718  -7.5503  -7.5350  -7.5267  -6.7923  -6.4107  -6.4000
     4.0975   4.4998   5.2087   5.9384   6.2243   6.8407

     occupation numbers 
     1.0000   1.0000   1.0000   1.0000   1.0000   1.0000   1.0000   1.0000
     0.0000   0.0000   0.0000   0.0000   0.0000   0.0000

          k = 0.1333 0.3079 0.0000 ( 11929 PWs)   bands (ev):

   -18.6444 -18.5512  -8.9551  -8.9284  -7.3256  -7.3077  -6.6708  -5.9668
     5.0820   5.2478   5.4587   5.5123   6.2318   6.9533

     occupation numbers 
     1.0000   1.0000   1.0000   1.0000   1.0000   1.0000   1.0000   1.0000
     0.0000   0.0000   0.0000   0.0000   0.0000   0.0000

          k = 0.1333 0.3849 0.0000 ( 11925 PWs)   bands (ev):

   -17.7243 -17.6373 -10.5587 -10.5183  -8.0067  -7.9826  -5.6114  -4.9556
     3.5380   3.8141   6.3468   6.7719   7.5429   8.2411

     occupation numbers 
     1.0000   1.0000   1.0000   1.0000   1.0000   1.0000   1.0000   1.0000
     0.0000   0.0000   0.0000   0.0000   0.0000   0.0000

          k = 0.1333 0.4619 0.0000 ( 11927 PWs)   bands (ev):

   -16.6266 -16.5473 -12.1821 -12.1312  -8.4555  -8.4285  -4.4196  -3.8505
     1.8763   2.2061   7.8531   8.2228   8.3883   8.4849

     occupation numbers 
     1.0000   1.0000   1.0000   1.0000   1.0000   1.0000   1.0000   1.0000
     0.0000   0.0000   0.0000   0.0000   0.0000   0.0000

          k = 0.1333 0.5389 0.0000 ( 11935 PWs)   bands (ev):

   -15.4264 -15.3620 -13.6556 -13.6031  -8.6796  -8.6515  -3.3449  -2.9755
     0.6740   0.9359   8.1830   8.3625   9.6402  10.0173

     occupation numbers 
     1.0000   1.0000   1.0000   1.0000   1.0000   1.0000   1.0000   1.0000
     0.0000   0.0000   0.0000   0.0000   0.0000   0.0000

          k = 0.2000 0.3464 0.0000 ( 11953 PWs)   bands (ev):

   -17.8262 -17.7385  -9.9686  -9.9472  -8.5036  -8.4876  -5.7198  -5.0553
     3.8450   4.0509   6.2090   6.6189   7.3983   8.1044

     occupation numbers 
     1.0000   1.0000   1.0000   1.0000   1.0000   1.0000   1.0000   1.0000
     0.0000   0.0000   0.0000   0.0000   0.0000   0.0000

          k = 0.2000 0.4234 0.0000 ( 11949 PWs)   bands (ev):

   -16.8239 -16.7431 -11.2639 -11.2278  -9.3323  -9.3062  -4.5905  -3.9876
     2.3418   2.5858   7.5944   7.9850   8.8425   9.5178

     occupation numbers 
     1.0000   1.0000   1.0000   1.0000   1.0000   1.0000   1.0000   1.0000
     0.0000   0.0000   0.0000   0.0000   0.0000   0.0000

          k = 0.2000 0.5004 0.0000 ( 11953 PWs)   bands (ev):

   -15.6701 -15.5987 -12.7025 -12.6534  -9.7641  -9.7310  -3.3930  -2.9078
     0.9411   1.2007   9.2053   9.4491   9.9388  10.0393

     occupation numbers 
     1.0000   1.0000   1.0000   1.0000   1.0000   1.0000   1.0000   1.0000
     0.0000   0.0000   0.0000   0.0000   0.0000   0.0000

          k = 0.2000 0.5774 0.0000 ( 11949 PWs)   bands (ev):

   -14.7153 -14.6786 -13.7378 -13.7139  -9.8983  -9.8633  -2.6459  -2.3744
     0.3022   0.3804   9.7898  10.0377  10.3841  10.4883

     occupation numbers 
     1.0000   1.0000   1.0000   1.0000   1.0000   1.0000   1.0000   1.0000
     0.0000   0.0000   0.0000   0.0000   0.0000   0.0000

          k = 0.2667 0.4619 0.0000 ( 11961 PWs)   bands (ev):

   -15.7596 -15.6868 -12.0413 -12.0140 -10.4603 -10.4405  -3.4233  -2.8976
     1.0907   1.3302   9.0755   9.2665   9.8900  10.5188

     occupation numbers 
     1.0000   1.0000   1.0000   1.0000   1.0000   1.0000   1.0000   1.0000
     0.0000   0.0000   0.0000   0.0000   0.0000   0.0000

          k = 0.2667 0.5389 0.0000 ( 11948 PWs)   bands (ev):

   -14.6095 -14.5507 -13.0980 -13.0600 -11.0091 -10.9788  -2.2700  -1.8946
    -0.0279   0.1793   9.8045   9.8552  10.7027  11.4993

     occupation numbers 
     1.0000   1.0000   1.0000   1.0000   1.0000   1.0000   1.0000   1.0000
     0.0000   0.0000   0.0000   0.0000   0.0000   0.0000

          k = 0.3333 0.5774 0.0000 ( 11919 PWs)   bands (ev):

   -13.6552 -13.6211 -13.6211 -13.5900 -11.6175 -11.6175  -1.2423  -0.9872
    -0.9872  -0.7202   9.6382   9.6382  11.6611  12.0076

     occupation numbers 
     1.0000   1.0000   1.0000   1.0000   1.0000   1.0000   0.9960   0.5006
     0.5006   0.0028   0.0000   0.0000   0.0000   0.0000

     the Fermi energy is    -0.9871 ev

!    total energy              =     -48.20751483 Ry
     estimated scf accuracy    <          1.2E-11 Ry
     smearing contrib. (-TS)   =      -0.00010286 Ry
     internal energy E=F+TS    =     -48.20741197 Ry

     The total energy is F=E-TS. E is the sum of the following terms:
     one-electron contribution =    -691.12724495 Ry
     hartree contribution      =     348.98974200 Ry
     xc contribution           =     -17.18444259 Ry
     ewald contribution        =     311.13156022 Ry
     DFT-D3 Dispersion         =      -0.01702665 Ry

     convergence has been achieved in   7 iterations

     Forces acting on atoms (cartesian axes, Ry/au):

     atom    1 type  1   force =     0.00000000   -0.00000000    0.00111383
     atom    2 type  1   force =     0.00000000   -0.00000000   -0.00117385
     atom    3 type  1   force =     0.00000000    0.00000000    0.00117385
     atom    4 type  1   force =     0.00000000    0.00000000   -0.00111383
     The non-local contrib.  to forces
     atom    1 type  1   force =     0.00000000    0.00000000    0.00131902
     atom    2 type  1   force =     0.00000000   -0.00000000   -0.00339849
     atom    3 type  1   force =     0.00000000   -0.00000000    0.00339849
     atom    4 type  1   force =     0.00000000   -0.00000000   -0.00131902
     The ionic contribution  to forces
     atom    1 type  1   force =     0.00000000   -0.00000000  -15.06713160
     atom    2 type  1   force =    -0.00000000    0.00000000  -15.01759844
     atom    3 type  1   force =    -0.00000000   -0.00000000   15.01759844
     atom    4 type  1   force =     0.00000000    0.00000000   15.06713160
     The local contribution  to forces
     atom    1 type  1   force =     0.00000000   -0.00000000   15.06570477
     atom    2 type  1   force =    -0.00000000    0.00000000   15.01856829
     atom    3 type  1   force =    -0.00000000    0.00000000  -15.01856829
     atom    4 type  1   force =    -0.00000000    0.00000000  -15.06570477
     The core correction contribution to forces
     atom    1 type  1   force =     0.00000000   -0.00000000    0.00003995
     atom    2 type  1   force =     0.00000000   -0.00000000    0.00006309
     atom    3 type  1   force =     0.00000000   -0.00000000   -0.00006309
     atom    4 type  1   force =     0.00000000   -0.00000000   -0.00003995
     The Hubbard contrib.    to forces
     atom    1 type  1   force =     0.00000000    0.00000000    0.00000000
     atom    2 type  1   force =     0.00000000    0.00000000    0.00000000
     atom    3 type  1   force =     0.00000000    0.00000000    0.00000000
     atom    4 type  1   force =     0.00000000    0.00000000    0.00000000
     The SCF correction term to forces
     atom    1 type  1   force =    -0.00000000   -0.00000000    0.00000009
     atom    2 type  1   force =     0.00000000   -0.00000000    0.00000017
     atom    3 type  1   force =     0.00000000   -0.00000000   -0.00000017
     atom    4 type  1   force =     0.00000000    0.00000000   -0.00000009

     DFT-D3 dispersion contribution to forces:
     atom    1 type  1   force =    -0.00000000    0.00000000    0.00118160
     atom    2 type  1   force =     0.00000000   -0.00000000    0.00119153
     atom    3 type  1   force =     0.00000000    0.00000000   -0.00119153
     atom    4 type  1   force =    -0.00000000   -0.00000000   -0.00118160

     Total force =     0.002288     Total SCF correction =     0.000000

     DFT-D3 dispersion Force =     0.002373
     Energy error            =      2.1E-05 Ry
     Gradient error          =      1.2E-03 Ry/Bohr

     number of scf cycles    =  12
     number of bfgs steps    =  11

     energy             old  =     -48.2074935810 Ry
     energy             new  =     -48.2075148306 Ry

     CASE: energy            _new < energy            _old

     new trust radius        =       0.0089305606 bohr
     new conv_thr            =            1.0E-10 Ry


ATOMIC_POSITIONS (angstrom)
C                0.0000000000       -0.0000000000        9.9191770323
C                1.2300000000        0.7101408311        9.9207884560
C                1.2300000000        0.7101408311       13.4292115440
C                0.0000000000        1.4202816622       13.4308229677



     Writing config-only to output data dir /home/ubuntu/projects/Graphene-Band-Structure-Quantum-Espresso/outputs/field_0/data/field_0.save/ :
     XML data file
     NEW-OLD atomic charge density approx. for the potential

     negative rho (up, down):  7.951E-07 0.000E+00

     total cpu time spent up to now is      108.8 secs

     Self-consistent Calculation

     iteration #  1     ecut=    90.00 Ry     beta= 0.70
     Davidson diagonalization with overlap

---- Real-time Memory Report at c_bands before calling an iterative solver
           139 MiB given to the printing process from OS
             0 MiB allocation reported by mallinfo(arena+hblkhd)
         26400 MiB available memory on the node where the printing process lives
------------------
     ethr =  1.00E-06,  avg # of iterations =  4.2

     negative rho (up, down):  2.164E-07 0.000E+00

     total cpu time spent up to now is      110.1 secs

     total energy              =     -48.20749588 Ry
     estimated scf accuracy    <       0.00005921 Ry

     iteration #  2     ecut=    90.00 Ry     beta= 0.70
     Davidson diagonalization with overlap

---- Real-time Memory Report at c_bands before calling an iterative solver
           139 MiB given to the printing process from OS
             0 MiB allocation reported by mallinfo(arena+hblkhd)
         26438 MiB available memory on the node where the printing process lives
------------------
     ethr =  3.70E-07,  avg # of iterations =  2.1

     negative rho (up, down):  1.321E-07 0.000E+00

     total cpu time spent up to now is      111.4 secs

     total energy              =     -48.20750482 Ry
     estimated scf accuracy    <       0.00005252 Ry

     iteration #  3     ecut=    90.00 Ry     beta= 0.70
     Davidson diagonalization with overlap

---- Real-time Memory Report at c_bands before calling an iterative solver
           139 MiB given to the printing process from OS
             0 MiB allocation reported by mallinfo(arena+hblkhd)
         26462 MiB available memory on the node where the printing process lives
------------------
     ethr =  3.28E-07,  avg # of iterations =  2.0

     negative rho (up, down):  1.695E-08 0.000E+00

     total cpu time spent up to now is      112.5 secs

     total energy              =     -48.20751717 Ry
     estimated scf accuracy    <       0.00000086 Ry

     iteration #  4     ecut=    90.00 Ry     beta= 0.70
     Davidson diagonalization with overlap

---- Real-time Memory Report at c_bands before calling an iterative solver
           139 MiB given to the printing process from OS
             0 MiB allocation reported by mallinfo(arena+hblkhd)
         26460 MiB available memory on the node where the printing process lives
------------------
     ethr =  5.35E-09,  avg # of iterations =  1.9

     total cpu time spent up to now is      113.6 secs

     total energy              =     -48.20751731 Ry
     estimated scf accuracy    <          8.4E-09 Ry

     iteration #  5     ecut=    90.00 Ry     beta= 0.70
     Davidson diagonalization with overlap

---- Real-time Memory Report at c_bands before calling an iterative solver
           139 MiB given to the printing process from OS
             0 MiB allocation reported by mallinfo(arena+hblkhd)
         26430 MiB available memory on the node where the printing process lives
------------------
     ethr =  5.23E-11,  avg # of iterations =  3.1

     total cpu time spent up to now is      114.9 secs

     total energy              =     -48.20751732 Ry
     estimated scf accuracy    <          5.6E-10 Ry

     iteration #  6     ecut=    90.00 Ry     beta= 0.70
     Davidson diagonalization with overlap

---- Real-time Memory Report at c_bands before calling an iterative solver
           139 MiB given to the printing process from OS
             0 MiB allocation reported by mallinfo(arena+hblkhd)
         26431 MiB available memory on the node where the printing process lives
------------------
     ethr =  3.48E-12,  avg # of iterations =  2.3

     total cpu time spent up to now is      116.0 secs

     End of self-consistent calculation

          k = 0.0000 0.0000 0.0000 ( 11659 PWs)   bands (ev):

   -20.6285 -20.5240  -9.0349  -8.2667  -4.0342  -4.0342  -4.0286  -4.0286
     2.3944   2.7785   3.4531   4.1950   4.5404   5.8949

     occupation numbers 
     1.0000   1.0000   1.0000   1.0000   1.0000   1.0000   1.0000   1.0000
     0.0000   0.0000   0.0000   0.0000   0.0000   0.0000

          k = 0.0000 0.0770 0.0000 ( 11791 PWs)   bands (ev):

   -20.5228 -20.4190  -8.9070  -8.1421  -4.4619  -4.4530  -4.2599  -4.2521
     2.5362   2.9223   3.5993   4.3405   4.6806   6.0302

     occupation numbers 
     1.0000   1.0000   1.0000   1.0000   1.0000   1.0000   1.0000   1.0000
     0.0000   0.0000   0.0000   0.0000   0.0000   0.0000

          k = 0.0000 0.1540 0.0000 ( 11788 PWs)   bands (ev):

   -20.2065 -20.1048  -8.5251  -7.7704  -5.5980  -5.5817  -4.8308  -4.8196
     2.9617   3.3533   4.0381   4.7768   5.1006   6.4340

     occupation numbers 
     1.0000   1.0000   1.0000   1.0000   1.0000   1.0000   1.0000   1.0000
     0.0000   0.0000   0.0000   0.0000   0.0000   0.0000

          k = 0.0000 0.2309 0.0000 ( 11848 PWs)   bands (ev):

   -19.6817 -19.5836  -7.8958  -7.1618  -7.1556  -7.1297  -5.5441  -5.5303
     3.6697   4.0692   4.7691   5.5022   5.7946   7.0636

     occupation numbers 
     1.0000   1.0000   1.0000   1.0000   1.0000   1.0000   1.0000   1.0000
     0.0000   0.0000   0.0000   0.0000   0.0000   0.0000

          k = 0.0000 0.3079 0.0000 ( 11876 PWs)   bands (ev):

   -18.9527 -18.8594  -8.9007  -8.8657  -7.0330  -6.3262  -6.2379  -6.2225
     4.6566   5.0414   5.7363   5.7881   5.9574   6.5260

     occupation numbers 
     1.0000   1.0000   1.0000   1.0000   1.0000   1.0000   1.0000   1.0000
     0.0000   0.0000   0.0000   0.0000   0.0000   0.0000

          k = 0.0000 0.3849 0.0000 ( 11914 PWs)   bands (ev):

   -18.0268 -17.9396 -10.6778 -10.6333  -6.8151  -6.7986  -5.9667  -5.3078
     3.7907   4.1381   5.9124   6.3645   6.8171   6.9164

     occupation numbers 
     1.0000   1.0000   1.0000   1.0000   1.0000   1.0000   1.0000   1.0000
     0.0000   0.0000   0.0000   0.0000   0.0000   0.0000

          k = 0.0000 0.4619 0.0000 ( 11910 PWs)   bands (ev):

   -16.9198 -16.8402 -12.3882 -12.3351  -7.2222  -7.2052  -4.7736  -4.2048
     2.0118   2.4055   6.5854   6.7115   7.4921   7.9401

     occupation numbers 
     1.0000   1.0000   1.0000   1.0000   1.0000   1.0000   1.0000   1.0000
     0.0000   0.0000   0.0000   0.0000   0.0000   0.0000

          k = 0.0000 0.5389 0.0000 ( 11924 PWs)   bands (ev):

   -15.7041 -15.6391 -13.9083 -13.8543  -7.4317  -7.4144  -3.7183  -3.3547
     0.7675   1.0981   6.4820   6.6229   9.2553   9.7479

     occupation numbers 
     1.0000   1.0000   1.0000   1.0000   1.0000   1.0000   1.0000   1.0000
     0.0000   0.0000   0.0000   0.0000   0.0000   0.0000

          k = 0.0667 0.1155 0.0000 ( 11813 PWs)   bands (ev):

   -20.3118 -20.2094  -8.6520  -7.8939  -5.1894  -5.1805  -4.7085  -4.7018
     2.8199   3.2098   3.8918   4.6314   4.9610   6.3006

     occupation numbers 
     1.0000   1.0000   1.0000   1.0000   1.0000   1.0000   1.0000   1.0000
     0.0000   0.0000   0.0000   0.0000   0.0000   0.0000

          k = 0.0667 0.1925 0.0000 ( 11832 PWs)   bands (ev):

   -19.8912 -19.7917  -8.1462  -7.4024  -6.4470  -6.4298  -5.4428  -5.4314
     3.3872   3.7837   4.4769   5.2128   5.5205   6.8367

     occupation numbers 
     1.0000   1.0000   1.0000   1.0000   1.0000   1.0000   1.0000   1.0000
     0.0000   0.0000   0.0000   0.0000   0.0000   0.0000

          k = 0.0667 0.2694 0.0000 ( 11880 PWs)   bands (ev):

   -19.2644 -19.1690  -8.0403  -8.0122  -7.3991  -6.6788  -6.2077  -6.1920
     4.2358   4.6387   5.3538   6.0773   6.3317   6.5315

     occupation numbers 
     1.0000   1.0000   1.0000   1.0000   1.0000   1.0000   1.0000   1.0000
     0.0000   0.0000   0.0000   0.0000   0.0000   0.0000

          k = 0.0667 0.3464 0.0000 ( 11910 PWs)   bands (ev):

   -18.4368 -18.3469  -9.7706  -9.7320  -6.8749  -6.8567  -6.4308  -5.7478
     4.6615   4.9534   5.3629   5.8087   6.5213   7.2272

     occupation numbers 
     1.0000   1.0000   1.0000   1.0000   1.0000   1.0000   1.0000   1.0000
     0.0000   0.0000   0.0000   0.0000   0.0000   0.0000

          k = 0.0667 0.4234 0.0000 ( 11938 PWs)   bands (ev):

   -17.4192 -17.3360 -11.5004 -11.4522  -7.3822  -7.3626  -5.2870  -4.6675
     2.8318   3.1911   6.7356   7.1034   7.2679   7.3171

     occupation numbers 
     1.0000   1.0000   1.0000   1.0000   1.0000   1.0000   1.0000   1.0000
     0.0000   0.0000   0.0000   0.0000   0.0000   0.0000

          k = 0.0667 0.5004 0.0000 ( 11920 PWs)   bands (ev):

   -16.2402 -16.1662 -13.1284 -13.0729  -7.6970  -7.6767  -4.1021  -3.6164
     1.2598   1.6247   6.9861   7.1283   8.4421   8.9027

     occupation numbers 
     1.0000   1.0000   1.0000   1.0000   1.0000   1.0000   1.0000   1.0000
     0.0000   0.0000   0.0000   0.0000   0.0000   0.0000

          k = 0.0667 0.5774 0.0000 ( 11913 PWs)   bands (ev):

   -15.2552 -15.2172 -14.2356 -14.2069  -7.8036  -7.7831  -3.4137  -3.1407
     0.5709   0.8362   6.9324   7.0812  10.2609  10.3519

     occupation numbers 
     1.0000   1.0000   1.0000   1.0000   1.0000   1.0000   1.0000   1.0000
     0.0000   0.0000   0.0000   0.0000   0.0000   0.0000

          k = 0.1333 0.2309 0.0000 ( 11879 PWs)   bands (ev):

   -19.3686 -19.2726  -7.5500  -7.5349  -7.5215  -6.7972  -6.4104  -6.4000
     4.0956   4.4992   5.2081   5.9390   6.2181   6.8426

     occupation numbers 
     1.0000   1.0000   1.0000   1.0000   1.0000   1.0000   1.0000   1.0000
     0.0000   0.0000   0.0000   0.0000   0.0000   0.0000

          k = 0.1333 0.3079 0.0000 ( 11929 PWs)   bands (ev):

   -18.6432 -18.5519  -8.9546  -8.9285  -7.3252  -7.3077  -6.6658  -5.9715
     5.0809   5.2488   5.4577   5.5117   6.2311   6.9539

     occupation numbers 
     1.0000   1.0000   1.0000   1.0000   1.0000   1.0000   1.0000   1.0000
     0.0000   0.0000   0.0000   0.0000   0.0000   0.0000

          k = 0.1333 0.3849 0.0000 ( 11925 PWs)   bands (ev):

   -17.7231 -17.6379 -10.5580 -10.5185  -8.0062  -7.9827  -5.6066  -4.9599
     3.5406   3.8125   6.3445   6.7713   7.5420   8.2417

     occupation numbers 
     1.0000   1.0000   1.0000   1.0000   1.0000   1.0000   1.0000   1.0000
     0.0000   0.0000   0.0000   0.0000   0.0000   0.0000

          k = 0.1333 0.4619 0.0000 ( 11927 PWs)   bands (ev):

   -16.6255 -16.5479 -12.1813 -12.1315  -8.4550  -8.4286  -4.4152  -3.8543
     1.8789   2.2042   7.8507   8.2235   8.3886   8.4840

     occupation numbers 
     1.0000   1.0000   1.0000   1.0000   1.0000   1.0000   1.0000   1.0000
     0.0000   0.0000   0.0000   0.0000   0.0000   0.0000

          k = 0.1333 0.5389 0.0000 ( 11935 PWs)   bands (ev):

   -15.4255 -15.3624 -13.6548 -13.6034  -8.6791  -8.6516  -3.3414  -2.9777
     0.6755   0.9346   8.1848   8.3613   9.6376  10.0171

     occupation numbers 
     1.0000   1.0000   1.0000   1.0000   1.0000   1.0000   1.0000   1.0000
     0.0000   0.0000   0.0000   0.0000   0.0000   0.0000

          k = 0.2000 0.3464 0.0000 ( 11953 PWs)   bands (ev):

   -17.8250 -17.7392  -9.9681  -9.9472  -8.5032  -8.4876  -5.7149  -5.0597
     3.8474   4.0495   6.2067   6.6184   7.3974   8.1050

     occupation numbers 
     1.0000   1.0000   1.0000   1.0000   1.0000   1.0000   1.0000   1.0000
     0.0000   0.0000   0.0000   0.0000   0.0000   0.0000

          k = 0.2000 0.4234 0.0000 ( 11949 PWs)   bands (ev):

   -16.8228 -16.7437 -11.2632 -11.2280  -9.3318  -9.3063  -4.5860  -3.9916
     2.3443   2.5843   7.5920   7.9847   8.8410   9.5185

     occupation numbers 
     1.0000   1.0000   1.0000   1.0000   1.0000   1.0000   1.0000   1.0000
     0.0000   0.0000   0.0000   0.0000   0.0000   0.0000

          k = 0.2000 0.5004 0.0000 ( 11953 PWs)   bands (ev):

   -15.6691 -15.5992 -12.7018 -12.6537  -9.7635  -9.7311  -3.3890  -2.9109
     0.9434   1.1992   9.2027   9.4499   9.9404  10.0372

     occupation numbers 
     1.0000   1.0000   1.0000   1.0000   1.0000   1.0000   1.0000   1.0000
     0.0000   0.0000   0.0000   0.0000   0.0000   0.0000

          k = 0.2000 0.5774 0.0000 ( 11949 PWs)   bands (ev):

   -14.7146 -14.6787 -13.7373 -13.7140  -9.8976  -9.8635  -2.6429  -2.3758
     0.3021   0.3805   9.7927  10.0372  10.3830  10.4847

     occupation numbers 
     1.0000   1.0000   1.0000   1.0000   1.0000   1.0000   1.0000   1.0000
     0.0000   0.0000   0.0000   0.0000   0.0000   0.0000

          k = 0.2667 0.4619 0.0000 ( 11961 PWs)   bands (ev):

   -15.7586 -15.6873 -12.0408 -12.0141 -10.4599 -10.4405  -3.4191  -2.9010
     1.0933   1.3286   9.0728   9.2672   9.8840  10.5189

     occupation numbers 
     1.0000   1.0000   1.0000   1.0000   1.0000   1.0000   1.0000   1.0000
     0.0000   0.0000   0.0000   0.0000   0.0000   0.0000

          k = 0.2667 0.5389 0.0000 ( 11948 PWs)   bands (ev):

   -14.6086 -14.5511 -13.0974 -13.0601 -11.0085 -10.9789  -2.2665  -1.8968
    -0.0258   0.1778   9.8060   9.8532  10.7007  11.5004

     occupation numbers 
     1.0000   1.0000   1.0000   1.0000   1.0000   1.0000   1.0000   1.0000
     0.0000   0.0000   0.0000   0.0000   0.0000   0.0000

          k = 0.3333 0.5774 0.0000 ( 11919 PWs)   bands (ev):

   -13.6542 -13.6208 -13.6208 -13.5904 -11.6173 -11.6173  -1.2375  -0.9867
    -0.9867  -0.7243   9.6383   9.6383  11.6599  12.0065

     occupation numbers 
     1.0000   1.0000   1.0000   1.0000   1.0000   1.0000   0.9955   0.5007
     0.5007   0.0032   0.0000   0.0000   0.0000   0.0000

     the Fermi energy is    -0.9865 ev

!    total energy              =     -48.20751732 Ry
     estimated scf accuracy    <          4.2E-11 Ry
     smearing contrib. (-TS)   =      -0.00010319 Ry
     internal energy E=F+TS    =     -48.20741413 Ry

     The total energy is F=E-TS. E is the sum of the following terms:
     one-electron contribution =    -690.11822815 Ry
     hartree contribution      =     348.48532390 Ry
     xc contribution           =     -17.18432590 Ry
     ewald contribution        =     310.62680286 Ry
     DFT-D3 Dispersion         =      -0.01698684 Ry

     convergence has been achieved in   6 iterations

     Forces acting on atoms (cartesian axes, Ry/au):

     atom    1 type  1   force =     0.00000000    0.00000000    0.00078313
     atom    2 type  1   force =     0.00000000   -0.00000000   -0.00076754
     atom    3 type  1   force =     0.00000000   -0.00000000    0.00076754
     atom    4 type  1   force =     0.00000000   -0.00000000   -0.00078313
     The non-local contrib.  to forces
     atom    1 type  1   force =     0.00000000    0.00000000    0.00063541
     atom    2 type  1   force =     0.00000000    0.00000000   -0.00266718
     atom    3 type  1   force =     0.00000000   -0.00000000    0.00266718
     atom    4 type  1   force =    -0.00000000    0.00000000   -0.00063541
     The ionic contribution  to forces
     atom    1 type  1   force =     0.00000000   -0.00000000  -15.04396930
     atom    2 type  1   force =    -0.00000000    0.00000000  -15.00808219
     atom    3 type  1   force =    -0.00000000   -0.00000000   15.00808219
     atom    4 type  1   force =     0.00000000    0.00000000   15.04396930
     The local contribution  to forces
     atom    1 type  1   force =    -0.00000000   -0.00000000   15.04290501
     atom    2 type  1   force =    -0.00000000    0.00000000   15.00874650
     atom    3 type  1   force =    -0.00000000    0.00000000  -15.00874650
     atom    4 type  1   force =    -0.00000000    0.00000000  -15.04290501
     The core correction contribution to forces
     atom    1 type  1   force =     0.00000000   -0.00000000    0.00004575
     atom    2 type  1   force =     0.00000000   -0.00000000    0.00005458
     atom    3 type  1   force =     0.00000000   -0.00000000   -0.00005458
     atom    4 type  1   force =     0.00000000   -0.00000000   -0.00004575
     The Hubbard contrib.    to forces
     atom    1 type  1   force =     0.00000000    0.00000000    0.00000000
     atom    2 type  1   force =     0.00000000    0.00000000    0.00000000
     atom    3 type  1   force =     0.00000000    0.00000000    0.00000000
     atom    4 type  1   force =     0.00000000    0.00000000    0.00000000
     The SCF correction term to forces
     atom    1 type  1   force =    -0.00000000   -0.00000000   -0.00001033
     atom    2 type  1   force =    -0.00000000   -0.00000000   -0.00001034
     atom    3 type  1   force =    -0.00000000   -0.00000000    0.00001034
     atom    4 type  1   force =     0.00000000    0.00000000    0.00001033

     DFT-D3 dispersion contribution to forces:
     atom    1 type  1   force =    -0.00000000    0.00000000    0.00117659
     atom    2 type  1   force =     0.00000000   -0.00000000    0.00119108
     atom    3 type  1   force =     0.00000000    0.00000000   -0.00119108
     atom    4 type  1   force =    -0.00000000   -0.00000000   -0.00117659

     Total force =     0.001551     Total SCF correction =     0.000021

     DFT-D3 dispersion Force =     0.002368
     Energy error            =      2.5E-06 Ry
     Gradient error          =      7.8E-04 Ry/Bohr

     bfgs converged in  13 scf cycles and  12 bfgs steps
     (criteria: energy <  1.0E-04 Ry, force <  1.0E-03 Ry/Bohr)

     End of BFGS Geometry Optimization

     Final energy             =     -48.2075173184 Ry

     File /home/ubuntu/projects/Graphene-Band-Structure-Quantum-Espresso/outputs/field_0/data/field_0.bfgs deleted, as requested
Begin final coordinates

ATOMIC_POSITIONS (angstrom)
C                0.0000000000       -0.0000000000        9.9191770323
C                1.2300000000        0.7101408311        9.9207884560
C                1.2300000000        0.7101408311       13.4292115440
C                0.0000000000        1.4202816622       13.4308229677
End final coordinates



     Writing all to output data dir /home/ubuntu/projects/Graphene-Band-Structure-Quantum-Espresso/outputs/field_0/data/field_0.save/ :
     XML data file, charge density, pseudopotentials, collected wavefunctions

     init_run     :      1.46s CPU      1.57s WALL (       1 calls)
     electrons    :    105.36s CPU    106.81s WALL (      13 calls)
     update_pot   :      1.01s CPU      1.37s WALL (      12 calls)
     forces       :      5.69s CPU      6.13s WALL (      13 calls)
     force_dftd3  :      2.12s CPU      2.14s WALL (      13 calls)

     Called by init_run:
     wfcinit      :      0.36s CPU      0.39s WALL (       1 calls)
     wfcinit:atom :      0.00s CPU      0.01s WALL (       2 calls)
     wfcinit:wfcr :      0.33s CPU      0.34s WALL (       2 calls)
     potinit      :      0.43s CPU      0.47s WALL (       1 calls)
     hinit0       :      0.59s CPU      0.61s WALL (       1 calls)

     Called by electrons:
     c_bands      :     80.16s CPU     80.63s WALL (      83 calls)
     sum_band     :      9.35s CPU      9.60s WALL (      83 calls)
     v_of_rho     :      6.73s CPU      7.37s WALL (      92 calls)
     v_h          :      0.40s CPU      0.49s WALL (      92 calls)
     v_xc         :      7.15s CPU      8.04s WALL (     105 calls)
     mix_rho      :      0.73s CPU      0.89s WALL (      83 calls)
     energy_dftd3 :      1.58s CPU      1.58s WALL (      13 calls)

     Called by c_bands:
     init_us_2    :      1.06s CPU      1.14s WALL (     360 calls)
     cegterg      :     44.61s CPU     44.98s WALL (     166 calls)

     Called by sum_band:
     sum_band:wei :      0.05s CPU      0.05s WALL (      83 calls)
     sum_band:loo :      4.54s CPU      4.63s WALL (      83 calls)
     sum_band:buf :      0.10s CPU      0.11s WALL (     166 calls)
     sum_band:ini :      0.49s CPU      0.51s WALL (     166 calls)

     Called by *egterg:
     cdiaghg      :      0.15s CPU      0.15s WALL (     593 calls)
     cegterg:over :      4.43s CPU      4.44s WALL (     459 calls)
     cegterg:upda :      2.75s CPU      2.78s WALL (     459 calls)
     cegterg:last :      4.64s CPU      4.65s WALL (     340 calls)
     h_psi        :     30.96s CPU     31.22s WALL (     627 calls)
     g_psi        :      0.21s CPU      0.21s WALL (     459 calls)

     Called by h_psi:
     h_psi:calbec :      4.59s CPU      4.60s WALL (     627 calls)
     vloc_psi     :     21.45s CPU     21.61s WALL (     627 calls)
     add_vuspsi   :      4.78s CPU      4.78s WALL (     627 calls)

     General routines
     calbec       :      5.52s CPU      5.53s WALL (     731 calls)
     fft          :      3.36s CPU      3.37s WALL (    1066 calls)
     ffts         :      0.25s CPU      0.25s WALL (      83 calls)
     fftw         :     21.72s CPU     21.78s WALL (   14586 calls)

     Parallel routines

     PWSCF        :   1m54.23s CPU   1m56.67s WALL


   This run was terminated on:   4:12:13   4Oct2026            

=------------------------------------------------------------------------------=
   JOB DONE.
=------------------------------------------------------------------------------=
