
     Program PWSCF v.7.6 starts on 19Sep2026 at 19:51: 1 

     This program is part of the open-source Quantum ESPRESSO suite
     for quantum simulation of materials; please cite
         "P. Giannozzi et al., J. Phys.:Condens. Matter 21 395502 (2009);
         "P. Giannozzi et al., J. Phys.:Condens. Matter 29 465901 (2017);
         "P. Giannozzi et al., J. Chem. Phys. 152 154105 (2020);
          URL http://www.quantum-espresso.org", 
     in publications or presentations arising from this work. More details at
     http://www.quantum-espresso.org/quote

     Parallel version (MPI), running on     4 processors

     MPI processes distributed on     1 nodes
     613 MiB available memory on the printing compute node when the environment starts

     Waiting for input...
     Reading input from standard input
Warning: card &CELL ignored
Warning: card &FCP ignored
Warning: card &RISM ignored

     Current dimensions of program PWSCF are:
     Max number of different atomic species (ntypx) = 10
     Max number of k-points (npk) =  40000
     Max angular momentum in pseudopotentials (lmaxx) =  4
     Presently no symmetry can be used with electric field


     File /home/ubuntu/projects/Graphene-Band-Structure-Quantum-Espresso/outputs/field_0.1/coupled/data/coupled.update deleted, as requested

     File /home/ubuntu/projects/Graphene-Band-Structure-Quantum-Espresso/outputs/field_0.1/coupled/data/coupled.bfgs deleted, as requested
     file C.pbe-n-kjpaw_psl.1.0.0.UPF: wavefunction(s)  2S 2P renormalized

     K-points division:     npool     =       4
     Subspace diagonalization in iterative solution of the eigenvalue problem:
     a serial algorithm will be used


     G-vector sticks info
     --------------------
     sticks:   dense  smooth     PW     G-vecs:    dense   smooth      PW
     Sum         595     361    121               111671    52021   10303

     Using Slab Decomposition



     bravais-lattice index     =            0
     lattice parameter (alat)  =       4.6487  a.u.
     unit-cell volume          =     825.8174 (a.u.)^3
     number of atoms/cell      =            4
     number of atomic types    =            1
     number of electrons       =        16.00
     number of Kohn-Sham states=           14
     kinetic-energy cutoff     =      60.0000  Ry
     charge density cutoff     =     400.0000  Ry
     scf convergence threshold =      1.0E-08
     mixing beta               =       0.7000
     number of iterations used =            8  plain     mixing
     Exchange-correlation= SLA  PW   PBX  PBC
                           (   1   4   3   4   0   0   0)

     celldm(1)=   4.648726  celldm(2)=   0.000000  celldm(3)=   0.000000
     celldm(4)=   0.000000  celldm(5)=   0.000000  celldm(6)=   0.000000

     crystal axes: (cart. coord. in units of alat)
               a(1) = (   1.000000   0.000000   0.000000 )  
               a(2) = (  -0.500000   0.866025   0.000000 )  
               a(3) = (   0.000000   0.000000   9.491870 )  

     reciprocal axes: (cart. coord. in units 2 pi/alat)
               b(1) = (  1.000000  0.577351 -0.000000 )  
               b(2) = (  0.000000  1.154701  0.000000 )  
               b(3) = (  0.000000 -0.000000  0.105353 )  


     PseudoPot. # 1 for C  read from file:
     /home/ubuntu/projects/Graphene-Band-Structure-Quantum-Espresso/pseudo/C.pbe-n-kjpaw_psl.1.0.0.UPF
     MD5 check sum: 5f16ad9a65e90284d1d834d4ab3b0f7d
     Pseudo is Projector augmented-wave + core cor, Zval =  4.0
     Generated using &quot;atomic&quot; code by A. Dal Corso  v.6.3
     Shape of augmentation charge: PSQ
     Using radial grid of 1073 points,  4 beta functions with: 
                l(1) =   0
                l(2) =   0
                l(3) =   1
                l(4) =   1
     Q(r) pseudized with 0 coefficients 


     atomic species   valence    mass     pseudopotential
     C                 4.00    12.01100     C ( 1.00)

     No symmetry found


                                    s                        frac. trans.

      isym =  1     identity                                     

 cryst.   s( 1) = (     1          0          0      )
                  (     0          1          0      )
                  (     0          0          1      )

 cart.    s( 1) = (  1.0000000  0.0000000  0.0000000 )
                  (  0.0000000  1.0000000  0.0000000 )
                  (  0.0000000  0.0000000  1.0000000 )


   Cartesian axes

     site n.     atom                  positions (alat units)
         1        C      tau(   1) = (   0.0168883   0.0367911   0.6743766  )
         2        C      tau(   2) = (   0.4831012   0.2518876   1.1287623  )
         3        C      tau(   3) = (   0.4889866   0.2879179   8.6128408  )
         4        C      tau(   4) = (   0.0110239   0.5781039   8.5677612  )

     --------------------------------------------
     DFT-D3 Dispersion Correction (3-body terms):
     --------------------------------------------
       Reference C6 values for interpolation: 

         atom   Coordination number   C6
         C          0.000            98.23
         C          0.987            86.49
         C          1.998            58.72
         C          2.999            51.56
         C          3.984            36.41

       Values used:

         atom   Coordination number  R0_AB[au]  C6      C8
         C          2.703            2.750     52.66   1523.07
         C          2.701            2.750     52.68   1523.54
         C          3.317            2.750     48.23   1394.93
         C          3.316            2.750     48.24   1395.08

         Molecular C6 ( Ry / a.u.^6 ) =       806.75


   Crystallographic axes

     site n.     atom                  positions (cryst. coord.)
         1        C      tau(   1) = (  0.0381297  0.0424828  0.0710478  )
         2        C      tau(   2) = (  0.6285287  0.2908549  0.1189189  )
         3        C      tau(   3) = (  0.6552161  0.3324591  0.9073914  )
         4        C      tau(   4) = (  0.3447925  0.6675372  0.9026421  )

     number of k points=   113  Gaussian smearing, width (Ry)=  0.0100
                       cart. coord. in units 2pi/alat
        k(    1) = (   0.0000000   0.0000000   0.0000000), wk =   0.0088889
        k(    2) = (   0.0000000   0.0769801   0.0000000), wk =   0.0177778
        k(    3) = (   0.0000000   0.1539601   0.0000000), wk =   0.0177778
        k(    4) = (   0.0000000   0.2309402   0.0000000), wk =   0.0177778
        k(    5) = (   0.0000000   0.3079203   0.0000000), wk =   0.0177778
        k(    6) = (   0.0000000   0.3849004   0.0000000), wk =   0.0177778
        k(    7) = (   0.0000000   0.4618804   0.0000000), wk =   0.0177778
        k(    8) = (   0.0000000   0.5388605   0.0000000), wk =   0.0177778
        k(    9) = (   0.0666667   0.0384900   0.0000000), wk =   0.0177778
        k(   10) = (   0.0666667   0.1154701   0.0000000), wk =   0.0177778
        k(   11) = (   0.0666667   0.1924502   0.0000000), wk =   0.0177778
        k(   12) = (   0.0666667   0.2694303   0.0000000), wk =   0.0177778
        k(   13) = (   0.0666667   0.3464103   0.0000000), wk =   0.0177778
        k(   14) = (   0.0666667   0.4233904   0.0000000), wk =   0.0177778
        k(   15) = (   0.0666667   0.5003705   0.0000000), wk =   0.0177778
        k(   16) = (   0.0666667   0.5773505   0.0000000), wk =   0.0177778
        k(   17) = (   0.0666667  -0.5003705   0.0000000), wk =   0.0177778
        k(   18) = (   0.0666667  -0.4233904   0.0000000), wk =   0.0177778
        k(   19) = (   0.0666667  -0.3464103   0.0000000), wk =   0.0177778
        k(   20) = (   0.0666667  -0.2694303   0.0000000), wk =   0.0177778
        k(   21) = (   0.0666667  -0.1924502   0.0000000), wk =   0.0177778
        k(   22) = (   0.0666667  -0.1154701   0.0000000), wk =   0.0177778
        k(   23) = (   0.0666667  -0.0384900   0.0000000), wk =   0.0177778
        k(   24) = (   0.1333333   0.0769801   0.0000000), wk =   0.0177778
        k(   25) = (   0.1333333   0.1539601   0.0000000), wk =   0.0177778
        k(   26) = (   0.1333333   0.2309402   0.0000000), wk =   0.0177778
        k(   27) = (   0.1333333   0.3079203   0.0000000), wk =   0.0177778
        k(   28) = (   0.1333333   0.3849004   0.0000000), wk =   0.0177778
        k(   29) = (   0.1333333   0.4618804   0.0000000), wk =   0.0177778
        k(   30) = (   0.1333333   0.5388605   0.0000000), wk =   0.0177778
        k(   31) = (   0.1333333   0.6158406   0.0000000), wk =   0.0177778
        k(   32) = (   0.1333333  -0.4618804   0.0000000), wk =   0.0177778
        k(   33) = (   0.1333333  -0.3849004   0.0000000), wk =   0.0177778
        k(   34) = (   0.1333333  -0.3079203   0.0000000), wk =   0.0177778
        k(   35) = (   0.1333333  -0.2309402   0.0000000), wk =   0.0177778
        k(   36) = (   0.1333333  -0.1539601   0.0000000), wk =   0.0177778
        k(   37) = (   0.1333333  -0.0769801   0.0000000), wk =   0.0177778
        k(   38) = (   0.1333333   0.0000000   0.0000000), wk =   0.0177778
        k(   39) = (   0.2000000   0.1154701   0.0000000), wk =   0.0177778
        k(   40) = (   0.2000000   0.1924502   0.0000000), wk =   0.0177778
        k(   41) = (   0.2000000   0.2694303   0.0000000), wk =   0.0177778
        k(   42) = (   0.2000000   0.3464103   0.0000000), wk =   0.0177778
        k(   43) = (   0.2000000   0.4233904   0.0000000), wk =   0.0177778
        k(   44) = (   0.2000000   0.5003705   0.0000000), wk =   0.0177778
        k(   45) = (   0.2000000   0.5773505   0.0000000), wk =   0.0177778
        k(   46) = (   0.2000000   0.6543306   0.0000000), wk =   0.0177778
        k(   47) = (   0.2000000  -0.4233904   0.0000000), wk =   0.0177778
        k(   48) = (   0.2000000  -0.3464103   0.0000000), wk =   0.0177778
        k(   49) = (   0.2000000  -0.2694303   0.0000000), wk =   0.0177778
        k(   50) = (   0.2000000  -0.1924502   0.0000000), wk =   0.0177778
        k(   51) = (   0.2000000  -0.1154701   0.0000000), wk =   0.0177778
        k(   52) = (   0.2000000  -0.0384900   0.0000000), wk =   0.0177778
        k(   53) = (   0.2000000   0.0384900   0.0000000), wk =   0.0177778
        k(   54) = (   0.2666667   0.1539601   0.0000000), wk =   0.0177778
        k(   55) = (   0.2666667   0.2309402   0.0000000), wk =   0.0177778
        k(   56) = (   0.2666667   0.3079203   0.0000000), wk =   0.0177778
        k(   57) = (   0.2666667   0.3849004   0.0000000), wk =   0.0177778
        k(   58) = (   0.2666667   0.4618804   0.0000000), wk =   0.0177778
        k(   59) = (   0.2666667   0.5388605   0.0000000), wk =   0.0177778
        k(   60) = (   0.2666667   0.6158406   0.0000000), wk =   0.0177778
        k(   61) = (   0.2666667   0.6928206   0.0000000), wk =   0.0177778
        k(   62) = (   0.2666667  -0.3849004   0.0000000), wk =   0.0177778
        k(   63) = (   0.2666667  -0.3079203   0.0000000), wk =   0.0177778
        k(   64) = (   0.2666667  -0.2309402   0.0000000), wk =   0.0177778
        k(   65) = (   0.2666667  -0.1539601   0.0000000), wk =   0.0177778
        k(   66) = (   0.2666667  -0.0769801   0.0000000), wk =   0.0177778
        k(   67) = (   0.2666667   0.0000000   0.0000000), wk =   0.0177778
        k(   68) = (   0.2666667   0.0769801   0.0000000), wk =   0.0177778
        k(   69) = (   0.3333333   0.1924502   0.0000000), wk =   0.0177778
        k(   70) = (   0.3333333   0.2694303   0.0000000), wk =   0.0177778
        k(   71) = (   0.3333333   0.3464103   0.0000000), wk =   0.0177778
        k(   72) = (   0.3333333   0.4233904   0.0000000), wk =   0.0177778
        k(   73) = (   0.3333333   0.5003705   0.0000000), wk =   0.0177778
        k(   74) = (   0.3333333   0.5773505   0.0000000), wk =   0.0177778
        k(   75) = (   0.3333333   0.6543306   0.0000000), wk =   0.0177778
        k(   76) = (   0.3333333   0.7313107   0.0000000), wk =   0.0177778
        k(   77) = (   0.3333333  -0.3464103   0.0000000), wk =   0.0177778
        k(   78) = (   0.3333333  -0.2694303   0.0000000), wk =   0.0177778
        k(   79) = (   0.3333333  -0.1924502   0.0000000), wk =   0.0177778
        k(   80) = (   0.3333333  -0.1154701   0.0000000), wk =   0.0177778
        k(   81) = (   0.3333333  -0.0384900   0.0000000), wk =   0.0177778
        k(   82) = (   0.3333333   0.0384900   0.0000000), wk =   0.0177778
        k(   83) = (   0.3333333   0.1154701   0.0000000), wk =   0.0177778
        k(   84) = (   0.4000000   0.2309402   0.0000000), wk =   0.0177778
        k(   85) = (   0.4000000   0.3079203   0.0000000), wk =   0.0177778
        k(   86) = (   0.4000000   0.3849004   0.0000000), wk =   0.0177778
        k(   87) = (   0.4000000   0.4618804   0.0000000), wk =   0.0177778
        k(   88) = (   0.4000000   0.5388605   0.0000000), wk =   0.0177778
        k(   89) = (   0.4000000   0.6158406   0.0000000), wk =   0.0177778
        k(   90) = (   0.4000000   0.6928206   0.0000000), wk =   0.0177778
        k(   91) = (   0.4000000   0.7698007   0.0000000), wk =   0.0177778
        k(   92) = (   0.4000000  -0.3079203   0.0000000), wk =   0.0177778
        k(   93) = (   0.4000000  -0.2309402   0.0000000), wk =   0.0177778
        k(   94) = (   0.4000000  -0.1539601   0.0000000), wk =   0.0177778
        k(   95) = (   0.4000000  -0.0769801   0.0000000), wk =   0.0177778
        k(   96) = (   0.4000000   0.0000000   0.0000000), wk =   0.0177778
        k(   97) = (   0.4000000   0.0769801   0.0000000), wk =   0.0177778
        k(   98) = (   0.4000000   0.1539601   0.0000000), wk =   0.0177778
        k(   99) = (   0.4666667   0.2694303   0.0000000), wk =   0.0177778
        k(  100) = (   0.4666667   0.3464103   0.0000000), wk =   0.0177778
        k(  101) = (   0.4666667   0.4233904   0.0000000), wk =   0.0177778
        k(  102) = (   0.4666667   0.5003705   0.0000000), wk =   0.0177778
        k(  103) = (   0.4666667   0.5773505   0.0000000), wk =   0.0177778
        k(  104) = (   0.4666667   0.6543306   0.0000000), wk =   0.0177778
        k(  105) = (   0.4666667   0.7313107   0.0000000), wk =   0.0177778
        k(  106) = (   0.4666667   0.8082908   0.0000000), wk =   0.0177778
        k(  107) = (   0.4666667  -0.2694303   0.0000000), wk =   0.0177778
        k(  108) = (   0.4666667  -0.1924502   0.0000000), wk =   0.0177778
        k(  109) = (   0.4666667  -0.1154701   0.0000000), wk =   0.0177778
        k(  110) = (   0.4666667  -0.0384900   0.0000000), wk =   0.0177778
        k(  111) = (   0.4666667   0.0384900   0.0000000), wk =   0.0177778
        k(  112) = (   0.4666667   0.1154701   0.0000000), wk =   0.0177778
        k(  113) = (   0.4666667   0.1924502   0.0000000), wk =   0.0177778

                       cryst. coord.
        k(    1) = (   0.0000000   0.0000000   0.0000000), wk =   0.0088889
        k(    2) = (   0.0000000   0.0666667   0.0000000), wk =   0.0177778
        k(    3) = (   0.0000000   0.1333333   0.0000000), wk =   0.0177778
        k(    4) = (   0.0000000   0.2000000   0.0000000), wk =   0.0177778
        k(    5) = (   0.0000000   0.2666667   0.0000000), wk =   0.0177778
        k(    6) = (   0.0000000   0.3333333   0.0000000), wk =   0.0177778
        k(    7) = (   0.0000000   0.4000000   0.0000000), wk =   0.0177778
        k(    8) = (   0.0000000   0.4666667   0.0000000), wk =   0.0177778
        k(    9) = (   0.0666667   0.0000000   0.0000000), wk =   0.0177778
        k(   10) = (   0.0666667   0.0666667   0.0000000), wk =   0.0177778
        k(   11) = (   0.0666667   0.1333333   0.0000000), wk =   0.0177778
        k(   12) = (   0.0666667   0.2000000   0.0000000), wk =   0.0177778
        k(   13) = (   0.0666667   0.2666667   0.0000000), wk =   0.0177778
        k(   14) = (   0.0666667   0.3333333   0.0000000), wk =   0.0177778
        k(   15) = (   0.0666667   0.4000000   0.0000000), wk =   0.0177778
        k(   16) = (   0.0666667   0.4666667   0.0000000), wk =   0.0177778
        k(   17) = (   0.0666667  -0.4666667   0.0000000), wk =   0.0177778
        k(   18) = (   0.0666667  -0.4000000   0.0000000), wk =   0.0177778
        k(   19) = (   0.0666667  -0.3333333   0.0000000), wk =   0.0177778
        k(   20) = (   0.0666667  -0.2666667   0.0000000), wk =   0.0177778
        k(   21) = (   0.0666667  -0.2000000   0.0000000), wk =   0.0177778
        k(   22) = (   0.0666667  -0.1333333   0.0000000), wk =   0.0177778
        k(   23) = (   0.0666667  -0.0666667   0.0000000), wk =   0.0177778
        k(   24) = (   0.1333333   0.0000000   0.0000000), wk =   0.0177778
        k(   25) = (   0.1333333   0.0666667   0.0000000), wk =   0.0177778
        k(   26) = (   0.1333333   0.1333333   0.0000000), wk =   0.0177778
        k(   27) = (   0.1333333   0.2000000   0.0000000), wk =   0.0177778
        k(   28) = (   0.1333333   0.2666667   0.0000000), wk =   0.0177778
        k(   29) = (   0.1333333   0.3333333   0.0000000), wk =   0.0177778
        k(   30) = (   0.1333333   0.4000000   0.0000000), wk =   0.0177778
        k(   31) = (   0.1333333   0.4666667   0.0000000), wk =   0.0177778
        k(   32) = (   0.1333333  -0.4666667   0.0000000), wk =   0.0177778
        k(   33) = (   0.1333333  -0.4000000   0.0000000), wk =   0.0177778
        k(   34) = (   0.1333333  -0.3333333   0.0000000), wk =   0.0177778
        k(   35) = (   0.1333333  -0.2666667   0.0000000), wk =   0.0177778
        k(   36) = (   0.1333333  -0.2000000   0.0000000), wk =   0.0177778
        k(   37) = (   0.1333333  -0.1333333   0.0000000), wk =   0.0177778
        k(   38) = (   0.1333333  -0.0666667   0.0000000), wk =   0.0177778
        k(   39) = (   0.2000000   0.0000000   0.0000000), wk =   0.0177778
        k(   40) = (   0.2000000   0.0666667   0.0000000), wk =   0.0177778
        k(   41) = (   0.2000000   0.1333333   0.0000000), wk =   0.0177778
        k(   42) = (   0.2000000   0.2000000   0.0000000), wk =   0.0177778
        k(   43) = (   0.2000000   0.2666667   0.0000000), wk =   0.0177778
        k(   44) = (   0.2000000   0.3333333   0.0000000), wk =   0.0177778
        k(   45) = (   0.2000000   0.4000000   0.0000000), wk =   0.0177778
        k(   46) = (   0.2000000   0.4666667   0.0000000), wk =   0.0177778
        k(   47) = (   0.2000000  -0.4666667   0.0000000), wk =   0.0177778
        k(   48) = (   0.2000000  -0.4000000   0.0000000), wk =   0.0177778
        k(   49) = (   0.2000000  -0.3333333   0.0000000), wk =   0.0177778
        k(   50) = (   0.2000000  -0.2666667   0.0000000), wk =   0.0177778
        k(   51) = (   0.2000000  -0.2000000   0.0000000), wk =   0.0177778
        k(   52) = (   0.2000000  -0.1333333   0.0000000), wk =   0.0177778
        k(   53) = (   0.2000000  -0.0666667   0.0000000), wk =   0.0177778
        k(   54) = (   0.2666667   0.0000000   0.0000000), wk =   0.0177778
        k(   55) = (   0.2666667   0.0666667   0.0000000), wk =   0.0177778
        k(   56) = (   0.2666667   0.1333333   0.0000000), wk =   0.0177778
        k(   57) = (   0.2666667   0.2000000   0.0000000), wk =   0.0177778
        k(   58) = (   0.2666667   0.2666667   0.0000000), wk =   0.0177778
        k(   59) = (   0.2666667   0.3333333   0.0000000), wk =   0.0177778
        k(   60) = (   0.2666667   0.4000000   0.0000000), wk =   0.0177778
        k(   61) = (   0.2666667   0.4666667   0.0000000), wk =   0.0177778
        k(   62) = (   0.2666667  -0.4666667   0.0000000), wk =   0.0177778
        k(   63) = (   0.2666667  -0.4000000   0.0000000), wk =   0.0177778
        k(   64) = (   0.2666667  -0.3333333   0.0000000), wk =   0.0177778
        k(   65) = (   0.2666667  -0.2666667   0.0000000), wk =   0.0177778
        k(   66) = (   0.2666667  -0.2000000   0.0000000), wk =   0.0177778
        k(   67) = (   0.2666667  -0.1333333   0.0000000), wk =   0.0177778
        k(   68) = (   0.2666667  -0.0666667   0.0000000), wk =   0.0177778
        k(   69) = (   0.3333333   0.0000000   0.0000000), wk =   0.0177778
        k(   70) = (   0.3333333   0.0666667   0.0000000), wk =   0.0177778
        k(   71) = (   0.3333333   0.1333333   0.0000000), wk =   0.0177778
        k(   72) = (   0.3333333   0.2000000   0.0000000), wk =   0.0177778
        k(   73) = (   0.3333333   0.2666667   0.0000000), wk =   0.0177778
        k(   74) = (   0.3333333   0.3333333   0.0000000), wk =   0.0177778
        k(   75) = (   0.3333333   0.4000000   0.0000000), wk =   0.0177778
        k(   76) = (   0.3333333   0.4666667   0.0000000), wk =   0.0177778
        k(   77) = (   0.3333333  -0.4666667   0.0000000), wk =   0.0177778
        k(   78) = (   0.3333333  -0.4000000   0.0000000), wk =   0.0177778
        k(   79) = (   0.3333333  -0.3333333   0.0000000), wk =   0.0177778
        k(   80) = (   0.3333333  -0.2666667   0.0000000), wk =   0.0177778
        k(   81) = (   0.3333333  -0.2000000   0.0000000), wk =   0.0177778
        k(   82) = (   0.3333333  -0.1333333   0.0000000), wk =   0.0177778
        k(   83) = (   0.3333333  -0.0666667   0.0000000), wk =   0.0177778
        k(   84) = (   0.4000000   0.0000000   0.0000000), wk =   0.0177778
        k(   85) = (   0.4000000   0.0666667   0.0000000), wk =   0.0177778
        k(   86) = (   0.4000000   0.1333333   0.0000000), wk =   0.0177778
        k(   87) = (   0.4000000   0.2000000   0.0000000), wk =   0.0177778
        k(   88) = (   0.4000000   0.2666667   0.0000000), wk =   0.0177778
        k(   89) = (   0.4000000   0.3333333   0.0000000), wk =   0.0177778
        k(   90) = (   0.4000000   0.4000000   0.0000000), wk =   0.0177778
        k(   91) = (   0.4000000   0.4666667   0.0000000), wk =   0.0177778
        k(   92) = (   0.4000000  -0.4666667   0.0000000), wk =   0.0177778
        k(   93) = (   0.4000000  -0.4000000   0.0000000), wk =   0.0177778
        k(   94) = (   0.4000000  -0.3333333   0.0000000), wk =   0.0177778
        k(   95) = (   0.4000000  -0.2666667   0.0000000), wk =   0.0177778
        k(   96) = (   0.4000000  -0.2000000   0.0000000), wk =   0.0177778
        k(   97) = (   0.4000000  -0.1333333   0.0000000), wk =   0.0177778
        k(   98) = (   0.4000000  -0.0666667   0.0000000), wk =   0.0177778
        k(   99) = (   0.4666667   0.0000000   0.0000000), wk =   0.0177778
        k(  100) = (   0.4666667   0.0666667   0.0000000), wk =   0.0177778
        k(  101) = (   0.4666667   0.1333333   0.0000000), wk =   0.0177778
        k(  102) = (   0.4666667   0.2000000   0.0000000), wk =   0.0177778
        k(  103) = (   0.4666667   0.2666667   0.0000000), wk =   0.0177778
        k(  104) = (   0.4666667   0.3333333   0.0000000), wk =   0.0177778
        k(  105) = (   0.4666667   0.4000000   0.0000000), wk =   0.0177778
        k(  106) = (   0.4666667   0.4666667   0.0000000), wk =   0.0177778
        k(  107) = (   0.4666667  -0.4666667   0.0000000), wk =   0.0177778
        k(  108) = (   0.4666667  -0.4000000   0.0000000), wk =   0.0177778
        k(  109) = (   0.4666667  -0.3333333   0.0000000), wk =   0.0177778
        k(  110) = (   0.4666667  -0.2666667   0.0000000), wk =   0.0177778
        k(  111) = (   0.4666667  -0.2000000   0.0000000), wk =   0.0177778
        k(  112) = (   0.4666667  -0.1333333   0.0000000), wk =   0.0177778
        k(  113) = (   0.4666667  -0.0666667   0.0000000), wk =   0.0177778

     Dense  grid:   111671 G-vectors     FFT dimensions: (  30,  30, 288)

     Smooth grid:    52021 G-vectors     FFT dimensions: (  24,  24, 225)

     Dynamical RAM for                 wfc:       1.38 MB

     Dynamical RAM for     wfc (w. buffer):      41.53 MB

     Dynamical RAM for           str. fact:       1.70 MB

     Dynamical RAM for           local pot:       0.00 MB

     Dynamical RAM for          nlocal pot:       3.16 MB

     Dynamical RAM for                qrad:       0.46 MB

     Dynamical RAM for          rho,v,vnew:      11.04 MB

     Dynamical RAM for               rhoin:       3.68 MB

     Dynamical RAM for            rho*nmix:      27.26 MB

     Dynamical RAM for           G-vectors:       6.79 MB

     Dynamical RAM for          h,s,v(r/c):       0.04 MB

     Dynamical RAM for          <psi|beta>:       0.01 MB

     Dynamical RAM for                 psi:       2.77 MB

     Dynamical RAM for                hpsi:       2.77 MB

     Dynamical RAM for                spsi:       2.77 MB

     Dynamical RAM for      wfcinit/wfcrot:       2.77 MB

     Dynamical RAM for           addusdens:      21.30 MB

     Dynamical RAM for          addusforce:      23.43 MB

     Estimated static dynamical RAM per process >      81.67 MB

     Estimated max dynamical RAM per process >     132.37 MB

     Estimated total dynamical RAM >     447.67 MB

     Adding external electric field
        E field amplitude [Ha a.u.]:  1.0000E-01
        Potential amp.        7.9425 Ry
        Total length         39.7126 bohr


     Check: negative core charge=   -0.000003

     Initial potential from superposition of free atoms

     starting charge      15.9998, renormalised to      16.0000

     negative rho (up, down):  1.130E-04 0.000E+00
     Starting wfcs are   16 randomized atomic wfcs
     Checking if some PAW data can be deallocated... 

     total cpu time spent up to now is        4.8 secs

     Self-consistent Calculation

     iteration #  1     ecut=    60.00 Ry     beta= 0.70
     Davidson diagonalization with overlap

---- Real-time Memory Report at c_bands before calling an iterative solver
           113 MiB given to the printing process from OS
             0 MiB allocation reported by mallinfo(arena+hblkhd)
           395 MiB available memory on the node where the printing process lives
------------------
     ethr =  1.00E-02,  avg # of iterations = 13.0

     negative rho (up, down):  1.034E-04 0.000E+00

     total cpu time spent up to now is       24.3 secs

     total energy              =      60.66844142 Ry
     estimated scf accuracy    <     199.14647067 Ry

     iteration #  2     ecut=    60.00 Ry     beta= 0.70
     Davidson diagonalization with overlap

---- Real-time Memory Report at c_bands before calling an iterative solver
           152 MiB given to the printing process from OS
             0 MiB allocation reported by mallinfo(arena+hblkhd)
           410 MiB available memory on the node where the printing process lives
------------------
     c_bands:  4 eigenvalues not converged
     c_bands:  4 eigenvalues not converged
     ethr =  1.00E-02,  avg # of iterations = 24.1

     negative rho (up, down):  6.168E-04 0.000E+00

     total cpu time spent up to now is       86.3 secs

     total energy              =    -129.08438813 Ry
     estimated scf accuracy    <     690.99791322 Ry

     iteration #  3     ecut=    60.00 Ry     beta= 0.70
     Davidson diagonalization with overlap

---- Real-time Memory Report at c_bands before calling an iterative solver
           154 MiB given to the printing process from OS
             0 MiB allocation reported by mallinfo(arena+hblkhd)
           416 MiB available memory on the node where the printing process lives
------------------
     ethr =  1.00E-02,  avg # of iterations =  6.5

     negative rho (up, down):  8.316E-04 0.000E+00

     total cpu time spent up to now is      101.8 secs

     total energy              =    -111.38143767 Ry
     estimated scf accuracy    <     320.28032056 Ry

     iteration #  4     ecut=    60.00 Ry     beta= 0.70
     Davidson diagonalization with overlap

---- Real-time Memory Report at c_bands before calling an iterative solver
           155 MiB given to the printing process from OS
             0 MiB allocation reported by mallinfo(arena+hblkhd)
           414 MiB available memory on the node where the printing process lives
------------------
     ethr =  1.00E-02,  avg # of iterations =  2.4

     negative rho (up, down):  2.519E-02 0.000E+00

     total cpu time spent up to now is      107.9 secs

     total energy              =    -125.92857406 Ry
     estimated scf accuracy    <     267.33313320 Ry

     iteration #  5     ecut=    60.00 Ry     beta= 0.70
     Davidson diagonalization with overlap

---- Real-time Memory Report at c_bands before calling an iterative solver
           157 MiB given to the printing process from OS
             0 MiB allocation reported by mallinfo(arena+hblkhd)
           413 MiB available memory on the node where the printing process lives
------------------
     ethr =  1.00E-02,  avg # of iterations =  1.0

     negative rho (up, down):  6.180E-01 0.000E+00

     total cpu time spent up to now is      113.3 secs

     total energy              =    -179.56244146 Ry
     estimated scf accuracy    <     286.57715894 Ry

     iteration #  6     ecut=    60.00 Ry     beta= 0.70
     Davidson diagonalization with overlap

---- Real-time Memory Report at c_bands before calling an iterative solver
           159 MiB given to the printing process from OS
             0 MiB allocation reported by mallinfo(arena+hblkhd)
           414 MiB available memory on the node where the printing process lives
------------------
     ethr =  1.00E-02,  avg # of iterations =  2.2

     negative rho (up, down):  3.005E-03 0.000E+00

     total cpu time spent up to now is      119.8 secs

     total energy              =      91.00059965 Ry
     estimated scf accuracy    <     354.14145416 Ry

     iteration #  7     ecut=    60.00 Ry     beta= 0.70
     Davidson diagonalization with overlap

---- Real-time Memory Report at c_bands before calling an iterative solver
           160 MiB given to the printing process from OS
             0 MiB allocation reported by mallinfo(arena+hblkhd)
           404 MiB available memory on the node where the printing process lives
------------------
     c_bands:  1 eigenvalues not converged
     c_bands:  2 eigenvalues not converged
     c_bands:  2 eigenvalues not converged
     c_bands:  2 eigenvalues not converged
     c_bands:  3 eigenvalues not converged
     c_bands:  2 eigenvalues not converged
     c_bands:  1 eigenvalues not converged
     c_bands:  1 eigenvalues not converged
     c_bands:  1 eigenvalues not converged
     c_bands:  1 eigenvalues not converged
     c_bands:  1 eigenvalues not converged
     c_bands:  1 eigenvalues not converged
     ethr =  1.00E-02,  avg # of iterations = 19.7

     negative rho (up, down):  6.995E-04 0.000E+00

     total cpu time spent up to now is      173.1 secs

     total energy              =    -257.06541929 Ry
     estimated scf accuracy    <     661.55643446 Ry

     iteration #  8     ecut=    60.00 Ry     beta= 0.70
     Davidson diagonalization with overlap

---- Real-time Memory Report at c_bands before calling an iterative solver
           162 MiB given to the printing process from OS
             0 MiB allocation reported by mallinfo(arena+hblkhd)
           406 MiB available memory on the node where the printing process lives
------------------
     ethr =  1.00E-02,  avg # of iterations =  3.1

     negative rho (up, down):  8.978E-04 0.000E+00

     total cpu time spent up to now is      183.2 secs

     total energy              =    -208.99711444 Ry
     estimated scf accuracy    <     512.21093927 Ry

     iteration #  9     ecut=    60.00 Ry     beta= 0.70
     Davidson diagonalization with overlap

---- Real-time Memory Report at c_bands before calling an iterative solver
           163 MiB given to the printing process from OS
             0 MiB allocation reported by mallinfo(arena+hblkhd)
           390 MiB available memory on the node where the printing process lives
------------------
     ethr =  1.00E-02,  avg # of iterations =  2.4

     negative rho (up, down):  9.130E-04 0.000E+00

     total cpu time spent up to now is      191.2 secs

     total energy              =    -209.63547031 Ry
     estimated scf accuracy    <     452.24772765 Ry

     iteration # 10     ecut=    60.00 Ry     beta= 0.70
     Davidson diagonalization with overlap

---- Real-time Memory Report at c_bands before calling an iterative solver
           165 MiB given to the printing process from OS
             0 MiB allocation reported by mallinfo(arena+hblkhd)
           408 MiB available memory on the node where the printing process lives
------------------
     ethr =  1.00E-02,  avg # of iterations =  1.0

     negative rho (up, down):  2.504E-01 0.000E+00

     total cpu time spent up to now is      197.9 secs

     total energy              =    -511.85192817 Ry
     estimated scf accuracy    <     451.69257263 Ry

     iteration # 11     ecut=    60.00 Ry     beta= 0.70
     Davidson diagonalization with overlap

---- Real-time Memory Report at c_bands before calling an iterative solver
           165 MiB given to the printing process from OS
             0 MiB allocation reported by mallinfo(arena+hblkhd)
           396 MiB available memory on the node where the printing process lives
------------------
     ethr =  1.00E-02,  avg # of iterations =  6.3

     negative rho (up, down):  6.149E-01 0.000E+00

     total cpu time spent up to now is      210.2 secs

     total energy              =    -272.78538345 Ry
     estimated scf accuracy    <     806.19555393 Ry

     iteration # 12     ecut=    60.00 Ry     beta= 0.70
     Davidson diagonalization with overlap

---- Real-time Memory Report at c_bands before calling an iterative solver
           165 MiB given to the printing process from OS
             0 MiB allocation reported by mallinfo(arena+hblkhd)
           407 MiB available memory on the node where the printing process lives
------------------
     ethr =  1.00E-02,  avg # of iterations =  2.0

     negative rho (up, down):  4.688E-01 0.000E+00

     total cpu time spent up to now is      217.4 secs

     total energy              =    -237.43892007 Ry
     estimated scf accuracy    <     542.21191659 Ry

     iteration # 13     ecut=    60.00 Ry     beta= 0.70
     Davidson diagonalization with overlap

---- Real-time Memory Report at c_bands before calling an iterative solver
           165 MiB given to the printing process from OS
             0 MiB allocation reported by mallinfo(arena+hblkhd)
           408 MiB available memory on the node where the printing process lives
------------------
     ethr =  1.00E-02,  avg # of iterations =  1.3

     negative rho (up, down):  1.066E+00 0.000E+00

     total cpu time spent up to now is      225.4 secs

     total energy              =    -290.09275785 Ry
     estimated scf accuracy    <     504.63652366 Ry

     iteration # 14     ecut=    60.00 Ry     beta= 0.70
     Davidson diagonalization with overlap

---- Real-time Memory Report at c_bands before calling an iterative solver
           165 MiB given to the printing process from OS
             0 MiB allocation reported by mallinfo(arena+hblkhd)
           405 MiB available memory on the node where the printing process lives
------------------
     ethr =  1.00E-02,  avg # of iterations =  1.0

     negative rho (up, down):  3.256E+00 0.000E+00

     total cpu time spent up to now is      230.9 secs

     total energy              =    -150.10699521 Ry
     estimated scf accuracy    <     560.42447307 Ry

     iteration # 15     ecut=    60.00 Ry     beta= 0.70
     Davidson diagonalization with overlap

---- Real-time Memory Report at c_bands before calling an iterative solver
           165 MiB given to the printing process from OS
             0 MiB allocation reported by mallinfo(arena+hblkhd)
           392 MiB available memory on the node where the printing process lives
------------------
     ethr =  1.00E-02,  avg # of iterations =  4.7

     negative rho (up, down):  7.313E-01 0.000E+00

     total cpu time spent up to now is      239.1 secs

     total energy              =     223.30564726 Ry
     estimated scf accuracy    <     418.23806962 Ry

     iteration # 16     ecut=    60.00 Ry     beta= 0.70
     Davidson diagonalization with overlap

---- Real-time Memory Report at c_bands before calling an iterative solver
           165 MiB given to the printing process from OS
             0 MiB allocation reported by mallinfo(arena+hblkhd)
           398 MiB available memory on the node where the printing process lives
------------------
     ethr =  1.00E-02,  avg # of iterations = 30.0

     negative rho (up, down):  2.474E+00 0.000E+00

     total cpu time spent up to now is      310.9 secs

     total energy              =    -388.98753778 Ry
     estimated scf accuracy    <    1081.88818008 Ry

     iteration # 17     ecut=    60.00 Ry     beta= 0.70
     Davidson diagonalization with overlap

---- Real-time Memory Report at c_bands before calling an iterative solver
           165 MiB given to the printing process from OS
             0 MiB allocation reported by mallinfo(arena+hblkhd)
           405 MiB available memory on the node where the printing process lives
------------------
     ethr =  1.00E-02,  avg # of iterations =  4.1

     negative rho (up, down):  1.195E+00 0.000E+00

     total cpu time spent up to now is      323.4 secs

     total energy              =    -605.34540532 Ry
     estimated scf accuracy    <     639.86861665 Ry

     iteration # 18     ecut=    60.00 Ry     beta= 0.70
     Davidson diagonalization with overlap

---- Real-time Memory Report at c_bands before calling an iterative solver
           165 MiB given to the printing process from OS
             0 MiB allocation reported by mallinfo(arena+hblkhd)
           387 MiB available memory on the node where the printing process lives
------------------
     ethr =  1.00E-02,  avg # of iterations =  2.0

     negative rho (up, down):  4.402E-01 0.000E+00

     total cpu time spent up to now is      330.1 secs

     total energy              =    -353.46741498 Ry
     estimated scf accuracy    <     858.02239756 Ry

     iteration # 19     ecut=    60.00 Ry     beta= 0.70
     Davidson diagonalization with overlap

---- Real-time Memory Report at c_bands before calling an iterative solver
           165 MiB given to the printing process from OS
             0 MiB allocation reported by mallinfo(arena+hblkhd)
           405 MiB available memory on the node where the printing process lives
------------------
     ethr =  1.00E-02,  avg # of iterations =  3.2

     negative rho (up, down):  1.826E-01 0.000E+00

     total cpu time spent up to now is      342.1 secs

     total energy              =     -80.84351673 Ry
     estimated scf accuracy    <     591.88973962 Ry

     iteration # 20     ecut=    60.00 Ry     beta= 0.70
     Davidson diagonalization with overlap

---- Real-time Memory Report at c_bands before calling an iterative solver
           165 MiB given to the printing process from OS
             0 MiB allocation reported by mallinfo(arena+hblkhd)
           403 MiB available memory on the node where the printing process lives
------------------
     ethr =  1.00E-02,  avg # of iterations = 16.1

     negative rho (up, down):  2.382E-02 0.000E+00

     total cpu time spent up to now is      382.1 secs

     total energy              =    -144.28494058 Ry
     estimated scf accuracy    <     222.09218484 Ry

     iteration # 21     ecut=    60.00 Ry     beta= 0.70
     Davidson diagonalization with overlap

---- Real-time Memory Report at c_bands before calling an iterative solver
           165 MiB given to the printing process from OS
             0 MiB allocation reported by mallinfo(arena+hblkhd)
           397 MiB available memory on the node where the printing process lives
------------------
     ethr =  1.00E-02,  avg # of iterations = 17.0

     negative rho (up, down):  5.032E-03 0.000E+00

     total cpu time spent up to now is      427.7 secs

     total energy              =    -100.21454033 Ry
     estimated scf accuracy    <     398.10622115 Ry

     iteration # 22     ecut=    60.00 Ry     beta= 0.70
     Davidson diagonalization with overlap

---- Real-time Memory Report at c_bands before calling an iterative solver
           165 MiB given to the printing process from OS
             0 MiB allocation reported by mallinfo(arena+hblkhd)
           376 MiB available memory on the node where the printing process lives
------------------
     ethr =  1.00E-02,  avg # of iterations =  8.0

     negative rho (up, down):  2.304E-01 0.000E+00

     total cpu time spent up to now is      448.5 secs

     total energy              =    -194.02324634 Ry
     estimated scf accuracy    <     187.25140650 Ry

     iteration # 23     ecut=    60.00 Ry     beta= 0.70
     Davidson diagonalization with overlap

---- Real-time Memory Report at c_bands before calling an iterative solver
           165 MiB given to the printing process from OS
             0 MiB allocation reported by mallinfo(arena+hblkhd)
           404 MiB available memory on the node where the printing process lives
------------------
     ethr =  1.00E-02,  avg # of iterations = 10.3

     negative rho (up, down):  6.219E-02 0.000E+00

     total cpu time spent up to now is      469.7 secs

     total energy              =    -106.73077249 Ry
     estimated scf accuracy    <     352.58030764 Ry

     iteration # 24     ecut=    60.00 Ry     beta= 0.70
     Davidson diagonalization with overlap

---- Real-time Memory Report at c_bands before calling an iterative solver
           165 MiB given to the printing process from OS
             0 MiB allocation reported by mallinfo(arena+hblkhd)
           393 MiB available memory on the node where the printing process lives
------------------
     ethr =  1.00E-02,  avg # of iterations =  7.3

     negative rho (up, down):  9.077E-01 0.000E+00

     total cpu time spent up to now is      485.5 secs

     total energy              =    -171.16311494 Ry
     estimated scf accuracy    <     197.43803492 Ry

     iteration # 25     ecut=    60.00 Ry     beta= 0.70
     Davidson diagonalization with overlap

---- Real-time Memory Report at c_bands before calling an iterative solver
           165 MiB given to the printing process from OS
             0 MiB allocation reported by mallinfo(arena+hblkhd)
           402 MiB available memory on the node where the printing process lives
------------------
     ethr =  1.00E-02,  avg # of iterations =  7.0

     negative rho (up, down):  1.218E+00 0.000E+00

     total cpu time spent up to now is      498.5 secs

     total energy              =    -153.97478703 Ry
     estimated scf accuracy    <     299.96143578 Ry

     iteration # 26     ecut=    60.00 Ry     beta= 0.70
     Davidson diagonalization with overlap

---- Real-time Memory Report at c_bands before calling an iterative solver
           165 MiB given to the printing process from OS
             0 MiB allocation reported by mallinfo(arena+hblkhd)
           400 MiB available memory on the node where the printing process lives
------------------
     ethr =  1.00E-02,  avg # of iterations =  3.5

     negative rho (up, down):  3.747E+00 0.000E+00

     total cpu time spent up to now is      507.6 secs

     total energy              =    -103.58377081 Ry
     estimated scf accuracy    <     246.51898382 Ry

     iteration # 27     ecut=    60.00 Ry     beta= 0.70
     Davidson diagonalization with overlap

---- Real-time Memory Report at c_bands before calling an iterative solver
           165 MiB given to the printing process from OS
             0 MiB allocation reported by mallinfo(arena+hblkhd)
           391 MiB available memory on the node where the printing process lives
------------------
     ethr =  1.00E-02,  avg # of iterations = 12.6

     negative rho (up, down):  3.856E+00 0.000E+00

     total cpu time spent up to now is      535.1 secs

     total energy              =    -132.31950067 Ry
     estimated scf accuracy    <     196.66900657 Ry

     iteration # 28     ecut=    60.00 Ry     beta= 0.70
     Davidson diagonalization with overlap

---- Real-time Memory Report at c_bands before calling an iterative solver
           165 MiB given to the printing process from OS
             0 MiB allocation reported by mallinfo(arena+hblkhd)
           405 MiB available memory on the node where the printing process lives
------------------
     ethr =  1.00E-02,  avg # of iterations =  3.0

     negative rho (up, down):  2.328E+00 0.000E+00

     total cpu time spent up to now is      543.2 secs

     total energy              =    -121.65222148 Ry
     estimated scf accuracy    <     147.83839822 Ry

     iteration # 29     ecut=    60.00 Ry     beta= 0.70
     Davidson diagonalization with overlap

---- Real-time Memory Report at c_bands before calling an iterative solver
           165 MiB given to the printing process from OS
             0 MiB allocation reported by mallinfo(arena+hblkhd)
           405 MiB available memory on the node where the printing process lives
------------------
     c_bands:  1 eigenvalues not converged
     ethr =  1.00E-02,  avg # of iterations = 16.7

     negative rho (up, down):  2.946E+00 0.000E+00

     total cpu time spent up to now is      576.2 secs

     total energy              =    -225.08866670 Ry
     estimated scf accuracy    <     365.18145692 Ry

     iteration # 30     ecut=    60.00 Ry     beta= 0.70
     Davidson diagonalization with overlap

---- Real-time Memory Report at c_bands before calling an iterative solver
           165 MiB given to the printing process from OS
             0 MiB allocation reported by mallinfo(arena+hblkhd)
           384 MiB available memory on the node where the printing process lives
------------------
     ethr =  1.00E-02,  avg # of iterations =  3.8

     negative rho (up, down):  2.488E+00 0.000E+00

     total cpu time spent up to now is      586.3 secs

     total energy              =    -216.33716551 Ry
     estimated scf accuracy    <     360.87663646 Ry

     iteration # 31     ecut=    60.00 Ry     beta= 0.70
     Davidson diagonalization with overlap

---- Real-time Memory Report at c_bands before calling an iterative solver
           165 MiB given to the printing process from OS
             0 MiB allocation reported by mallinfo(arena+hblkhd)
           404 MiB available memory on the node where the printing process lives
------------------
     ethr =  1.00E-02,  avg # of iterations =  3.2

     negative rho (up, down):  1.348E+00 0.000E+00

     total cpu time spent up to now is      597.7 secs

     total energy              =    -164.23425902 Ry
     estimated scf accuracy    <     336.46969796 Ry

     iteration # 32     ecut=    60.00 Ry     beta= 0.70
     Davidson diagonalization with overlap

---- Real-time Memory Report at c_bands before calling an iterative solver
           165 MiB given to the printing process from OS
             0 MiB allocation reported by mallinfo(arena+hblkhd)
           405 MiB available memory on the node where the printing process lives
------------------
     ethr =  1.00E-02,  avg # of iterations =  7.8

     negative rho (up, down):  4.097E-01 0.000E+00

     total cpu time spent up to now is      617.5 secs

     total energy              =    -101.81038492 Ry
     estimated scf accuracy    <     287.96510857 Ry

     iteration # 33     ecut=    60.00 Ry     beta= 0.70
     Davidson diagonalization with overlap

---- Real-time Memory Report at c_bands before calling an iterative solver
           165 MiB given to the printing process from OS
             0 MiB allocation reported by mallinfo(arena+hblkhd)
           406 MiB available memory on the node where the printing process lives
------------------
     ethr =  1.00E-02,  avg # of iterations =  3.3

     negative rho (up, down):  2.853E-01 0.000E+00

     total cpu time spent up to now is      625.5 secs

     total energy              =     -68.15298403 Ry
     estimated scf accuracy    <     198.46013432 Ry

     iteration # 34     ecut=    60.00 Ry     beta= 0.70
     Davidson diagonalization with overlap

---- Real-time Memory Report at c_bands before calling an iterative solver
           165 MiB given to the printing process from OS
             0 MiB allocation reported by mallinfo(arena+hblkhd)
           391 MiB available memory on the node where the printing process lives
------------------
     ethr =  1.00E-02,  avg # of iterations = 13.9

     negative rho (up, down):  2.811E-01 0.000E+00

     total cpu time spent up to now is      655.5 secs

     total energy              =    -109.19492385 Ry
     estimated scf accuracy    <     415.85310181 Ry

     iteration # 35     ecut=    60.00 Ry     beta= 0.70
     Davidson diagonalization with overlap

---- Real-time Memory Report at c_bands before calling an iterative solver
           165 MiB given to the printing process from OS
             0 MiB allocation reported by mallinfo(arena+hblkhd)
           391 MiB available memory on the node where the printing process lives
------------------
     ethr =  1.00E-02,  avg # of iterations =  1.2

     negative rho (up, down):  3.241E-01 0.000E+00

     total cpu time spent up to now is      660.9 secs

     total energy              =     -99.01920451 Ry
     estimated scf accuracy    <     414.30805705 Ry

     iteration # 36     ecut=    60.00 Ry     beta= 0.70
     Davidson diagonalization with overlap

---- Real-time Memory Report at c_bands before calling an iterative solver
           165 MiB given to the printing process from OS
             0 MiB allocation reported by mallinfo(arena+hblkhd)
           393 MiB available memory on the node where the printing process lives
------------------
     ethr =  1.00E-02,  avg # of iterations =  1.2

     negative rho (up, down):  5.275E-01 0.000E+00

     total cpu time spent up to now is      665.9 secs

     total energy              =     -84.96327234 Ry
     estimated scf accuracy    <     264.21929182 Ry

     iteration # 37     ecut=    60.00 Ry     beta= 0.70
     Davidson diagonalization with overlap

---- Real-time Memory Report at c_bands before calling an iterative solver
           165 MiB given to the printing process from OS
             0 MiB allocation reported by mallinfo(arena+hblkhd)
           393 MiB available memory on the node where the printing process lives
------------------
     ethr =  1.00E-02,  avg # of iterations =  4.4

     negative rho (up, down):  4.961E-01 0.000E+00

     total cpu time spent up to now is      676.5 secs

     total energy              =    -110.24515970 Ry
     estimated scf accuracy    <     105.48575245 Ry

     iteration # 38     ecut=    60.00 Ry     beta= 0.70
     Davidson diagonalization with overlap

---- Real-time Memory Report at c_bands before calling an iterative solver
           165 MiB given to the printing process from OS
             0 MiB allocation reported by mallinfo(arena+hblkhd)
           379 MiB available memory on the node where the printing process lives
------------------
     ethr =  1.00E-02,  avg # of iterations =  8.5

     negative rho (up, down):  3.653E-01 0.000E+00

     total cpu time spent up to now is      690.6 secs

     total energy              =    -122.63541217 Ry
     estimated scf accuracy    <     378.98336356 Ry

     iteration # 39     ecut=    60.00 Ry     beta= 0.70
     Davidson diagonalization with overlap

---- Real-time Memory Report at c_bands before calling an iterative solver
           165 MiB given to the printing process from OS
             0 MiB allocation reported by mallinfo(arena+hblkhd)
           401 MiB available memory on the node where the printing process lives
------------------
     ethr =  1.00E-02,  avg # of iterations =  2.4

     negative rho (up, down):  2.863E-01 0.000E+00

     total cpu time spent up to now is      698.7 secs

     total energy              =    -104.66976273 Ry
     estimated scf accuracy    <     383.51666779 Ry

     iteration # 40     ecut=    60.00 Ry     beta= 0.70
     Davidson diagonalization with overlap

---- Real-time Memory Report at c_bands before calling an iterative solver
           165 MiB given to the printing process from OS
             0 MiB allocation reported by mallinfo(arena+hblkhd)
           370 MiB available memory on the node where the printing process lives
------------------
     ethr =  1.00E-02,  avg # of iterations =  3.3

     negative rho (up, down):  2.215E-01 0.000E+00

     total cpu time spent up to now is      707.7 secs

     total energy              =     -69.52336318 Ry
     estimated scf accuracy    <     332.00029814 Ry

     iteration # 41     ecut=    60.00 Ry     beta= 0.70
     Davidson diagonalization with overlap

---- Real-time Memory Report at c_bands before calling an iterative solver
           165 MiB given to the printing process from OS
             0 MiB allocation reported by mallinfo(arena+hblkhd)
           402 MiB available memory on the node where the printing process lives
------------------
     ethr =  1.00E-02,  avg # of iterations = 11.4

     negative rho (up, down):  1.978E-01 0.000E+00

     total cpu time spent up to now is      733.8 secs

     total energy              =     -76.36114491 Ry
     estimated scf accuracy    <     220.14712713 Ry

     iteration # 42     ecut=    60.00 Ry     beta= 0.70
     Davidson diagonalization with overlap

---- Real-time Memory Report at c_bands before calling an iterative solver
           165 MiB given to the printing process from OS
             0 MiB allocation reported by mallinfo(arena+hblkhd)
           386 MiB available memory on the node where the printing process lives
------------------
     ethr =  1.00E-02,  avg # of iterations =  8.0

     negative rho (up, down):  4.495E-01 0.000E+00

     total cpu time spent up to now is      746.7 secs

     total energy              =     -76.86513393 Ry
     estimated scf accuracy    <      59.86537547 Ry

     iteration # 43     ecut=    60.00 Ry     beta= 0.70
     Davidson diagonalization with overlap

---- Real-time Memory Report at c_bands before calling an iterative solver
           165 MiB given to the printing process from OS
             0 MiB allocation reported by mallinfo(arena+hblkhd)
           402 MiB available memory on the node where the printing process lives
------------------
     ethr =  1.00E-02,  avg # of iterations =  6.4

     negative rho (up, down):  7.259E-02 0.000E+00

     total cpu time spent up to now is      761.1 secs

     total energy              =     -82.26489792 Ry
     estimated scf accuracy    <      13.27949888 Ry

     iteration # 44     ecut=    60.00 Ry     beta= 0.70
     Davidson diagonalization with overlap

---- Real-time Memory Report at c_bands before calling an iterative solver
           165 MiB given to the printing process from OS
             0 MiB allocation reported by mallinfo(arena+hblkhd)
           403 MiB available memory on the node where the printing process lives
------------------
     ethr =  1.00E-02,  avg # of iterations =  1.9

     negative rho (up, down):  4.624E-02 0.000E+00

     total cpu time spent up to now is      768.1 secs

     total energy              =     -82.11405516 Ry
     estimated scf accuracy    <       3.52344157 Ry

     iteration # 45     ecut=    60.00 Ry     beta= 0.70
     Davidson diagonalization with overlap

---- Real-time Memory Report at c_bands before calling an iterative solver
           165 MiB given to the printing process from OS
             0 MiB allocation reported by mallinfo(arena+hblkhd)
           395 MiB available memory on the node where the printing process lives
------------------
     ethr =  1.00E-02,  avg # of iterations =  2.0

     negative rho (up, down):  3.689E-02 0.000E+00

     total cpu time spent up to now is      773.7 secs

     total energy              =     -82.57287120 Ry
     estimated scf accuracy    <       5.72761674 Ry

     iteration # 46     ecut=    60.00 Ry     beta= 0.70
     Davidson diagonalization with overlap

---- Real-time Memory Report at c_bands before calling an iterative solver
           165 MiB given to the printing process from OS
             0 MiB allocation reported by mallinfo(arena+hblkhd)
           388 MiB available memory on the node where the printing process lives
------------------
     ethr =  1.00E-02,  avg # of iterations =  1.6

     negative rho (up, down):  7.335E-05 0.000E+00

     total cpu time spent up to now is      780.0 secs

     total energy              =     -82.26315907 Ry
     estimated scf accuracy    <       1.84421708 Ry

     iteration # 47     ecut=    60.00 Ry     beta= 0.70
     Davidson diagonalization with overlap

---- Real-time Memory Report at c_bands before calling an iterative solver
           165 MiB given to the printing process from OS
             0 MiB allocation reported by mallinfo(arena+hblkhd)
           402 MiB available memory on the node where the printing process lives
------------------
     ethr =  1.00E-02,  avg # of iterations =  1.0

     negative rho (up, down):  5.214E-02 0.000E+00

     total cpu time spent up to now is      785.9 secs

     total energy              =     -82.31676952 Ry
     estimated scf accuracy    <       2.45953496 Ry

     iteration # 48     ecut=    60.00 Ry     beta= 0.70
     Davidson diagonalization with overlap

---- Real-time Memory Report at c_bands before calling an iterative solver
           165 MiB given to the printing process from OS
             0 MiB allocation reported by mallinfo(arena+hblkhd)
           395 MiB available memory on the node where the printing process lives
------------------
     ethr =  1.00E-02,  avg # of iterations =  1.2

     negative rho (up, down):  4.862E-02 0.000E+00

     total cpu time spent up to now is      791.7 secs

     total energy              =     -82.31974959 Ry
     estimated scf accuracy    <       0.28464228 Ry

     iteration # 49     ecut=    60.00 Ry     beta= 0.70
     Davidson diagonalization with overlap

---- Real-time Memory Report at c_bands before calling an iterative solver
           165 MiB given to the printing process from OS
             0 MiB allocation reported by mallinfo(arena+hblkhd)
           403 MiB available memory on the node where the printing process lives
------------------
     ethr =  1.78E-03,  avg # of iterations =  2.4

     negative rho (up, down):  4.359E-03 0.000E+00

     total cpu time spent up to now is      799.2 secs

     total energy              =     -82.28354113 Ry
     estimated scf accuracy    <       0.34922124 Ry

     iteration # 50     ecut=    60.00 Ry     beta= 0.70
     Davidson diagonalization with overlap

---- Real-time Memory Report at c_bands before calling an iterative solver
           165 MiB given to the printing process from OS
             0 MiB allocation reported by mallinfo(arena+hblkhd)
           388 MiB available memory on the node where the printing process lives
------------------
     ethr =  1.78E-03,  avg # of iterations =  2.8

     negative rho (up, down):  7.605E-04 0.000E+00

     total cpu time spent up to now is      806.3 secs

     total energy              =     -82.29758443 Ry
     estimated scf accuracy    <       0.05131744 Ry

     iteration # 51     ecut=    60.00 Ry     beta= 0.70
     Davidson diagonalization with overlap

---- Real-time Memory Report at c_bands before calling an iterative solver
           165 MiB given to the printing process from OS
             0 MiB allocation reported by mallinfo(arena+hblkhd)
           403 MiB available memory on the node where the printing process lives
------------------
     ethr =  3.21E-04,  avg # of iterations =  2.7

     negative rho (up, down):  9.365E-04 0.000E+00

     total cpu time spent up to now is      813.6 secs

     total energy              =     -82.29980821 Ry
     estimated scf accuracy    <       0.01581846 Ry

     iteration # 52     ecut=    60.00 Ry     beta= 0.70
     Davidson diagonalization with overlap

---- Real-time Memory Report at c_bands before calling an iterative solver
           165 MiB given to the printing process from OS
             0 MiB allocation reported by mallinfo(arena+hblkhd)
           403 MiB available memory on the node where the printing process lives
------------------
     ethr =  9.89E-05,  avg # of iterations =  4.2

     negative rho (up, down):  3.762E-04 0.000E+00

     total cpu time spent up to now is      821.5 secs

     total energy              =     -82.30072486 Ry
     estimated scf accuracy    <       0.00198497 Ry

     iteration # 53     ecut=    60.00 Ry     beta= 0.70
     Davidson diagonalization with overlap

---- Real-time Memory Report at c_bands before calling an iterative solver
           165 MiB given to the printing process from OS
             0 MiB allocation reported by mallinfo(arena+hblkhd)
           404 MiB available memory on the node where the printing process lives
------------------
     ethr =  1.24E-05,  avg # of iterations =  4.3

     negative rho (up, down):  1.784E-04 0.000E+00

     total cpu time spent up to now is      828.7 secs

     total energy              =     -82.30078658 Ry
     estimated scf accuracy    <       0.00003464 Ry

     iteration # 54     ecut=    60.00 Ry     beta= 0.70
     Davidson diagonalization with overlap

---- Real-time Memory Report at c_bands before calling an iterative solver
           165 MiB given to the printing process from OS
             0 MiB allocation reported by mallinfo(arena+hblkhd)
           405 MiB available memory on the node where the printing process lives
------------------
     ethr =  2.16E-07,  avg # of iterations =  4.8

     negative rho (up, down):  1.165E-04 0.000E+00

     total cpu time spent up to now is      838.6 secs

     total energy              =     -82.30079538 Ry
     estimated scf accuracy    <       0.00000863 Ry

     iteration # 55     ecut=    60.00 Ry     beta= 0.70
     Davidson diagonalization with overlap

---- Real-time Memory Report at c_bands before calling an iterative solver
           165 MiB given to the printing process from OS
             0 MiB allocation reported by mallinfo(arena+hblkhd)
           389 MiB available memory on the node where the printing process lives
------------------
     ethr =  5.39E-08,  avg # of iterations =  1.1

     negative rho (up, down):  1.126E-04 0.000E+00

     total cpu time spent up to now is      844.5 secs

     total energy              =     -82.30079616 Ry
     estimated scf accuracy    <       0.00000047 Ry

     iteration # 56     ecut=    60.00 Ry     beta= 0.70
     Davidson diagonalization with overlap

---- Real-time Memory Report at c_bands before calling an iterative solver
           165 MiB given to the printing process from OS
             0 MiB allocation reported by mallinfo(arena+hblkhd)
           407 MiB available memory on the node where the printing process lives
------------------
     ethr =  2.96E-09,  avg # of iterations =  2.4

     negative rho (up, down):  1.105E-04 0.000E+00

     total cpu time spent up to now is      852.4 secs

     total energy              =     -82.30079625 Ry
     estimated scf accuracy    <       0.00000007 Ry

     iteration # 57     ecut=    60.00 Ry     beta= 0.70
     Davidson diagonalization with overlap

---- Real-time Memory Report at c_bands before calling an iterative solver
           165 MiB given to the printing process from OS
             0 MiB allocation reported by mallinfo(arena+hblkhd)
           376 MiB available memory on the node where the printing process lives
------------------
     ethr =  4.40E-10,  avg # of iterations =  2.0

     negative rho (up, down):  1.119E-04 0.000E+00

     total cpu time spent up to now is      858.5 secs

     total energy              =     -82.30079626 Ry
     estimated scf accuracy    <       0.00000001 Ry

     iteration # 58     ecut=    60.00 Ry     beta= 0.70
     Davidson diagonalization with overlap

---- Real-time Memory Report at c_bands before calling an iterative solver
           165 MiB given to the printing process from OS
             0 MiB allocation reported by mallinfo(arena+hblkhd)
           407 MiB available memory on the node where the printing process lives
------------------
     ethr =  8.26E-11,  avg # of iterations =  1.8

     negative rho (up, down):  1.119E-04 0.000E+00

     total cpu time spent up to now is      866.4 secs

     End of self-consistent calculation

          k = 0.0000 0.0000 0.0000 (  6469 PWs)   bands (ev):

   -19.4640 -17.5842 -12.4305  -8.5668  -6.1607  -2.0830  -0.9970  -0.6712
     0.6101   1.3376   3.0572   3.1724   3.7558   4.0831

     occupation numbers 
     1.0000   1.0000   1.0000   1.0000   1.0000   0.0000   0.0000   0.0000
     0.0000   0.0000   0.0000   0.0000   0.0000   0.0000

          k = 0.0000 0.0770 0.0000 (  6464 PWs)   bands (ev):

   -19.3468 -17.4746 -12.3032  -8.4435  -6.0440  -2.0157  -1.3187  -0.8281
     0.2587   0.5616   3.1928   3.3162   3.9017   4.2263

     occupation numbers 
     1.0000   1.0000   1.0000   1.0000   1.0000   0.0000   0.0000   0.0000
     0.0000   0.0000   0.0000   0.0000   0.0000   0.0000

          k = 0.0000 0.1540 0.0000 (  6496 PWs)   bands (ev):

   -18.9965 -17.1468 -11.9235  -8.0752  -5.6997  -2.2685  -1.9939  -1.2393
    -0.8650  -0.5473   3.0800   3.7474   4.3367   4.6525

     occupation numbers 
     1.0000   1.0000   1.0000   1.0000   1.0000   0.0000   0.0000   0.0000
     0.0000   0.0000   0.0000   0.0000   0.0000   0.0000

          k = 0.0000 0.2309 0.0000 (  6474 PWs)   bands (ev):

   -18.4177 -16.6040 -11.2984  -7.4683  -5.1630  -3.7182  -3.3661  -1.7168
    -1.4212  -1.1255   2.5767   4.4609   4.9934   5.0905

     occupation numbers 
     1.0000   1.0000   1.0000   1.0000   1.0000   1.0000   1.0000   0.0000
     0.0000   0.0000   0.0000   0.0000   0.0000   0.0000

          k = 0.0000 0.3079 0.0000 (  6492 PWs)   bands (ev):

   -17.6200 -15.8523 -10.4447  -6.6519  -5.5258  -5.4427  -4.2613  -2.2534
    -2.1734  -0.8332   1.8781   4.6730   5.3953   5.9966

     occupation numbers 
     1.0000   1.0000   1.0000   1.0000   1.0000   1.0000   1.0000   0.0000
     0.0000   0.0000   0.0000   0.0000   0.0000   0.0000

          k = 0.0000 0.3849 0.0000 (  6484 PWs)   bands (ev):

   -16.6257 -14.9032  -9.4209  -7.5181  -7.2291  -5.5513  -3.5192  -2.7747
    -2.6837  -0.9520   1.4745   3.7985   4.4729   5.9680

     occupation numbers 
     1.0000   1.0000   1.0000   1.0000   1.0000   1.0000   1.0000   0.6346
     0.2739   0.0000   0.0000   0.0000   0.0000   0.0000

          k = 0.0000 0.4619 0.0000 (  6490 PWs)   bands (ev):

   -15.4974 -13.7846  -9.5397  -8.9568  -8.0300  -4.3926  -3.2951  -3.1808
    -2.9242  -1.2609   1.3071   2.4224   3.7763   5.1125

     occupation numbers 
     1.0000   1.0000   1.0000   1.0000   1.0000   1.0000   1.0000   1.0000
     0.9711   0.0000   0.0000   0.0000   0.0000   0.0000

          k = 0.0000 0.5389 0.0000 (  6524 PWs)   bands (ev):

   -14.4900 -12.6336 -10.8602 -10.4189  -7.0049  -4.0818  -3.4208  -3.2675
    -3.0337  -0.8831   0.3245   2.0937   3.5442   4.3540

     occupation numbers 
     1.0000   1.0000   1.0000   1.0000   1.0000   1.0000   1.0000   1.0000
     0.9988   0.0000   0.0000   0.0000   0.0000   0.0000

          k = 0.0667 0.0385 0.0000 (  6464 PWs)   bands (ev):

   -19.3451 -17.4741 -12.3028  -8.4441  -6.0436  -2.0291  -1.1894  -1.1204
     0.0985   0.9276   3.2512   3.3180   3.8992   4.2248

     occupation numbers 
     1.0000   1.0000   1.0000   1.0000   1.0000   0.0000   0.0000   0.0000
     0.0000   0.0000   0.0000   0.0000   0.0000   0.0000

          k = 0.0667 0.1155 0.0000 (  6499 PWs)   bands (ev):

   -19.1106 -17.2548 -12.0491  -8.1996  -5.8136  -2.0459  -1.6353  -1.4181
    -0.6845  -0.1555   3.4104   3.6035   4.1890   4.5062

     occupation numbers 
     1.0000   1.0000   1.0000   1.0000   1.0000   0.0000   0.0000   0.0000
     0.0000   0.0000   0.0000   0.0000   0.0000   0.0000

          k = 0.0667 0.1925 0.0000 (  6491 PWs)   bands (ev):

   -18.6448 -16.8189 -11.5463  -7.7130  -5.3682  -2.8508  -2.8063  -1.5508
    -1.4686  -1.2908   3.1295   4.1750   4.7408   4.9308

     occupation numbers 
     1.0000   1.0000   1.0000   1.0000   1.0000   0.8718   0.7495   0.0000
     0.0000   0.0000   0.0000   0.0000   0.0000   0.0000

          k = 0.0667 0.2694 0.0000 (  6480 PWs)   bands (ev):

   -17.9545 -16.1712 -10.8054  -6.9964  -4.9233  -4.4769  -4.2810  -2.3693
    -2.2855  -0.9421   2.4616   4.7991   5.0289   5.6447

     occupation numbers 
     1.0000   1.0000   1.0000   1.0000   1.0000   1.0000   1.0000   0.0001
     0.0000   0.0000   0.0000   0.0000   0.0000   0.0000

          k = 0.0667 0.3464 0.0000 (  6491 PWs)   bands (ev):

   -17.0542 -15.3202  -9.8560  -6.6182  -6.2616  -5.9671  -3.8265  -2.9975
    -2.9203  -0.7333   1.7250   4.5682   5.0471   6.1608

     occupation numbers 
     1.0000   1.0000   1.0000   1.0000   1.0000   1.0000   1.0000   0.9961
     0.9684   0.0000   0.0000   0.0000   0.0000   0.0000

          k = 0.0667 0.4234 0.0000 (  6487 PWs)   bands (ev):

   -15.9800 -14.2835  -8.9786  -8.2116  -8.0265  -4.8998  -3.5478  -3.4088
    -3.0385  -1.0690   1.4610   3.1141   4.3195   5.4195

     occupation numbers 
     1.0000   1.0000   1.0000   1.0000   1.0000   1.0000   1.0000   1.0000
     0.9990   0.0000   0.0000   0.0000   0.0000   0.0000

          k = 0.0667 0.5004 0.0000 (  6503 PWs)   bands (ev):

   -14.8536 -13.1154 -10.2277  -9.6765  -7.4028  -4.0060  -3.7318  -3.6242
    -3.1897  -1.0147   0.8764   2.1932   3.6941   4.8649

     occupation numbers 
     1.0000   1.0000   1.0000   1.0000   1.0000   1.0000   1.0000   1.0000
     1.0000   0.0000   0.0000   0.0000   0.0000   0.0000

          k = 0.0667 0.5774 0.0000 (  6480 PWs)   bands (ev):

   -14.2205 -12.2754 -11.0160 -10.6844  -6.7320  -4.2248  -3.8171  -3.7353
    -2.8154  -0.7692   0.2141   2.0402   3.5592   4.3132

     occupation numbers 
     1.0000   1.0000   1.0000   1.0000   1.0000   1.0000   1.0000   1.0000
     0.7784   0.0000   0.0000   0.0000   0.0000   0.0000

          k = 0.0667-0.5004 0.0000 (  6503 PWs)   bands (ev):

   -14.8661 -13.1141 -10.1888  -9.7052  -7.4088  -3.9577  -3.7023  -3.6216
    -3.2589  -0.9648   0.8264   2.2097   3.7737   4.3922

     occupation numbers 
     1.0000   1.0000   1.0000   1.0000   1.0000   1.0000   1.0000   1.0000
     1.0000   0.0000   0.0000   0.0000   0.0000   0.0000

          k = 0.0667-0.4234 0.0000 (  6487 PWs)   bands (ev):

   -15.9912 -14.2858  -8.9511  -8.1810  -8.0812  -4.8919  -3.5408  -3.3315
    -3.0748  -1.0836   1.5283   3.0736   3.9104   5.5394

     occupation numbers 
     1.0000   1.0000   1.0000   1.0000   1.0000   1.0000   1.0000   1.0000
     0.9997   0.0000   0.0000   0.0000   0.0000   0.0000

          k = 0.0667-0.3464 0.0000 (  6491 PWs)   bands (ev):

   -17.0623 -15.3241  -9.8568  -6.5135  -6.3882  -5.9435  -3.8456  -3.0527
    -2.7513  -0.7788   1.7684   4.1285   5.0256   6.2395

     occupation numbers 
     1.0000   1.0000   1.0000   1.0000   1.0000   1.0000   1.0000   0.9994
     0.5403   0.0000   0.0000   0.0000   0.0000   0.0000

          k = 0.0667-0.2694 0.0000 (  6480 PWs)   bands (ev):

   -17.9601 -16.1752 -10.8065  -6.9866  -4.8521  -4.7183  -4.1301  -2.5671
    -1.9742  -0.9391   2.3283   4.6411   5.0247   5.6387

     occupation numbers 
     1.0000   1.0000   1.0000   1.0000   1.0000   1.0000   1.0000   0.0349
     0.0000   0.0000   0.0000   0.0000   0.0000   0.0000

          k = 0.0667-0.1925 0.0000 (  6491 PWs)   bands (ev):

   -18.6484 -16.8222 -11.5471  -7.7063  -5.3619  -3.2554  -2.3270  -2.0040
    -1.2112  -1.0261   2.8081   4.1780   4.7682   5.0114

     occupation numbers 
     1.0000   1.0000   1.0000   1.0000   1.0000   1.0000   0.0000   0.0000
     0.0000   0.0000   0.0000   0.0000   0.0000   0.0000

          k = 0.0667-0.1155 0.0000 (  6499 PWs)   bands (ev):

   -19.1125 -17.2569 -12.0496  -8.1956  -5.8105  -2.1200  -1.9283  -1.3068
    -0.2698  -0.1328   3.0107   3.6043   4.1918   4.5126

     occupation numbers 
     1.0000   1.0000   1.0000   1.0000   1.0000   0.0000   0.0000   0.0000
     0.0000   0.0000   0.0000   0.0000   0.0000   0.0000

          k = 0.0667-0.0385 0.0000 (  6464 PWs)   bands (ev):

   -19.3457 -17.4749 -12.3029  -8.4428  -6.0425  -2.0230  -1.3853  -1.0637
     0.3326   0.9427   3.0366   3.3162   3.9000   4.2261

     occupation numbers 
     1.0000   1.0000   1.0000   1.0000   1.0000   0.0000   0.0000   0.0000
     0.0000   0.0000   0.0000   0.0000   0.0000   0.0000

          k = 0.1333 0.0770 0.0000 (  6496 PWs)   bands (ev):

   -18.9890 -17.1451 -11.9215  -8.0777  -5.6968  -2.5855  -1.7750  -1.5877
    -1.1274   0.1227   3.3821   3.7470   4.3212   4.6224

     occupation numbers 
     1.0000   1.0000   1.0000   1.0000   1.0000   0.0523   0.0000   0.0000
     0.0000   0.0000   0.0000   0.0000   0.0000   0.0000

          k = 0.1333 0.1540 0.0000 (  6491 PWs)   bands (ev):

   -18.6384 -16.8177 -11.5446  -7.7149  -5.3634  -3.2887  -2.2253  -2.1834
    -1.4139  -0.9321   3.3626   4.1743   4.6225   4.8218

     occupation numbers 
     1.0000   1.0000   1.0000   1.0000   1.0000   1.0000   0.0000   0.0000
     0.0000   0.0000   0.0000   0.0000   0.0000   0.0000

          k = 0.1333 0.2309 0.0000 (  6457 PWs)   bands (ev):

   -18.0600 -16.2769 -10.9251  -7.1168  -4.8825  -4.2254  -3.6420  -2.8772
    -2.4211  -1.0264   3.0797   4.4330   4.8898   5.5089

     occupation numbers 
     1.0000   1.0000   1.0000   1.0000   1.0000   1.0000   1.0000   0.9206
     0.0004   0.0000   0.0000   0.0000   0.0000   0.0000

          k = 0.1333 0.3079 0.0000 (  6480 PWs)   bands (ev):

   -17.2635 -15.5297 -10.0826  -6.3414  -5.7022  -5.2977  -4.0251  -3.6485
    -3.5597  -0.7117   2.4003   4.2320   5.6841   6.1527

     occupation numbers 
     1.0000   1.0000   1.0000   1.0000   1.0000   1.0000   1.0000   1.0000
     1.0000   0.0000   0.0000   0.0000   0.0000   0.0000

          k = 0.1333 0.3849 0.0000 (  6474 PWs)   bands (ev):

   -16.2716 -14.5886  -9.0924  -7.4354  -7.0319  -5.2231  -4.4422  -4.1563
    -3.2408  -0.6968   1.6854   4.0473   4.2152   5.9658

     occupation numbers 
     1.0000   1.0000   1.0000   1.0000   1.0000   1.0000   1.0000   1.0000
     1.0000   0.0000   0.0000   0.0000   0.0000   0.0000

          k = 0.1333 0.4619 0.0000 (  6494 PWs)   bands (ev):

   -15.1486 -13.4831  -9.3561  -8.7232  -7.6948  -4.9545  -4.5516  -4.0316
    -2.9253  -0.9037   1.3172   2.4705   3.9921   5.0922

     occupation numbers 
     1.0000   1.0000   1.0000   1.0000   1.0000   1.0000   1.0000   1.0000
     0.9719   0.0000   0.0000   0.0000   0.0000   0.0000

          k = 0.1333 0.5389 0.0000 (  6490 PWs)   bands (ev):

   -14.1560 -12.3469 -10.5960 -10.1744  -6.7379  -5.1509  -4.7380  -3.6904
    -2.8044  -0.6198   0.4943   2.0658   3.2590   4.8033

     occupation numbers 
     1.0000   1.0000   1.0000   1.0000   1.0000   1.0000   1.0000   1.0000
     0.7431   0.0000   0.0000   0.0000   0.0000   0.0000

          k = 0.1333 0.6158 0.0000 (  6490 PWs)   bands (ev):

   -14.1764 -12.3371 -10.5442 -10.2161  -6.7582  -5.1357  -4.7018  -3.7264
    -2.7643  -0.5828   0.4372   2.0250   3.3623   4.4372

     occupation numbers 
     1.0000   1.0000   1.0000   1.0000   1.0000   1.0000   1.0000   1.0000
     0.5932   0.0000   0.0000   0.0000   0.0000   0.0000

          k = 0.1333-0.4619 0.0000 (  6494 PWs)   bands (ev):

   -15.1761 -13.4817  -9.2265  -8.8386  -7.7054  -5.0374  -4.4262  -3.9624
    -2.9457  -0.8586   1.2756   2.4265   3.7264   4.8613

     occupation numbers 
     1.0000   1.0000   1.0000   1.0000   1.0000   1.0000   1.0000   1.0000
     0.9831   0.0000   0.0000   0.0000   0.0000   0.0000

          k = 0.1333-0.3849 0.0000 (  6474 PWs)   bands (ev):

   -16.2927 -14.5936  -9.0852  -7.2894  -7.1872  -5.2262  -4.6318  -3.8576
    -3.1839  -0.7264   1.7505   3.5903   3.9709   6.2725

     occupation numbers 
     1.0000   1.0000   1.0000   1.0000   1.0000   1.0000   1.0000   1.0000
     1.0000   0.0000   0.0000   0.0000   0.0000   0.0000

          k = 0.1333-0.3079 0.0000 (  6480 PWs)   bands (ev):

   -17.2782 -15.5369 -10.0848  -6.2966  -5.7846  -5.2321  -4.3039  -3.7653
    -3.0007  -0.7190   2.3033   3.8532   5.5447   6.0756

     occupation numbers 
     1.0000   1.0000   1.0000   1.0000   1.0000   1.0000   1.0000   1.0000
     0.9965   0.0000   0.0000   0.0000   0.0000   0.0000

          k = 0.1333-0.2309 0.0000 (  6457 PWs)   bands (ev):

   -18.0697 -16.2839 -10.9271  -7.0997  -4.8335  -4.4649  -3.6649  -2.9528
    -1.9383  -0.9834   2.6675   4.4163   4.8894   5.5030

     occupation numbers 
     1.0000   1.0000   1.0000   1.0000   1.0000   1.0000   1.0000   0.9859
     0.0000   0.0000   0.0000   0.0000   0.0000   0.0000

          k = 0.1333-0.1540 0.0000 (  6491 PWs)   bands (ev):

   -18.6443 -16.8229 -11.5459  -7.7039  -5.3549  -3.3547  -2.9233  -1.6298
    -0.9383  -0.8979   2.7704   4.1779   4.7346   4.9104

     occupation numbers 
     1.0000   1.0000   1.0000   1.0000   1.0000   1.0000   0.9706   0.0000
     0.0000   0.0000   0.0000   0.0000   0.0000   0.0000

          k = 0.1333-0.0770 0.0000 (  6496 PWs)   bands (ev):

   -18.9918 -17.1479 -11.9222  -8.0722  -5.6928  -2.4588  -2.4070  -1.6143
    -0.3425   0.1424   2.8760   3.7475   4.3268   4.6424

     occupation numbers 
     1.0000   1.0000   1.0000   1.0000   1.0000   0.0016   0.0003   0.0000
     0.0000   0.0000   0.0000   0.0000   0.0000   0.0000

          k = 0.1333 0.0000 0.0000 (  6499 PWs)   bands (ev):

   -19.1071 -17.2556 -12.0482  -8.1975  -5.8091  -2.2872  -1.8631  -1.6287
    -0.4485   0.5115   3.2015   3.6033   4.1785   4.4972

     occupation numbers 
     1.0000   1.0000   1.0000   1.0000   1.0000   0.0000   0.0000   0.0000
     0.0000   0.0000   0.0000   0.0000   0.0000   0.0000

          k = 0.2000 0.1155 0.0000 (  6474 PWs)   bands (ev):

   -18.3976 -16.6007 -11.2932  -7.4742  -5.1457  -4.2783  -3.1561  -2.0941
    -1.3128  -0.6854   3.0196   4.4511   4.5826   5.0882

     occupation numbers 
     1.0000   1.0000   1.0000   1.0000   1.0000   1.0000   1.0000   0.0000
     0.0000   0.0000   0.0000   0.0000   0.0000   0.0000

          k = 0.2000 0.1925 0.0000 (  6480 PWs)   bands (ev):

   -17.9334 -16.1686 -10.8000  -7.0022  -5.1855  -4.6705  -4.0204  -2.8108
    -1.7838  -1.0196   2.9288   4.3529   5.0239   5.6500

     occupation numbers 
     1.0000   1.0000   1.0000   1.0000   1.0000   1.0000   1.0000   0.7642
     0.0000   0.0000   0.0000   0.0000   0.0000   0.0000

          k = 0.2000 0.2694 0.0000 (  6480 PWs)   bands (ev):

   -17.2465 -15.5287 -10.0786  -6.3826  -5.9909  -5.0225  -4.1196  -3.8716
    -3.2768  -0.7846   2.9112   3.7144   5.7214   6.2273

     occupation numbers 
     1.0000   1.0000   1.0000   1.0000   1.0000   1.0000   1.0000   1.0000
     1.0000   0.0000   0.0000   0.0000   0.0000   0.0000

          k = 0.2000 0.3464 0.0000 (  6482 PWs)   bands (ev):

   -16.3520 -14.6912  -9.1784  -7.0885  -6.2471  -5.3458  -4.9096  -4.8596
    -3.3310  -0.6150   2.2670   3.4677   4.7225   6.3999

     occupation numbers 
     1.0000   1.0000   1.0000   1.0000   1.0000   1.0000   1.0000   1.0000
     1.0000   0.0000   0.0000   0.0000   0.0000   0.0000

          k = 0.2000 0.4234 0.0000 (  6465 PWs)   bands (ev):

   -15.2876 -13.6766  -8.7138  -7.7597  -7.6800  -5.9830  -5.5504  -4.2225
    -2.8181  -0.5663   1.3500   3.0932   3.7707   5.5637

     occupation numbers 
     1.0000   1.0000   1.0000   1.0000   1.0000   1.0000   1.0000   1.0000
     0.7866   0.0000   0.0000   0.0000   0.0000   0.0000

          k = 0.2000 0.5004 0.0000 (  6474 PWs)   bands (ev):

   -14.1795 -12.5402  -9.8509  -9.2613  -6.9195  -6.4003  -5.8784  -3.2427
    -2.8313  -0.4602   0.8551   1.8876   3.4543   4.9494

     occupation numbers 
     1.0000   1.0000   1.0000   1.0000   1.0000   1.0000   1.0000   1.0000
     0.8244   0.0000   0.0000   0.0000   0.0000   0.0000

          k = 0.2000 0.5774 0.0000 (  6484 PWs)   bands (ev):

   -13.5825 -11.6979 -10.4891 -10.2817  -6.9435  -6.0136  -5.8791  -3.5670
    -2.1945  -0.3284   0.1791   2.1408   2.5923   4.8030

     occupation numbers 
     1.0000   1.0000   1.0000   1.0000   1.0000   1.0000   1.0000   1.0000
     0.0000   0.0000   0.0000   0.0000   0.0000   0.0000

          k = 0.2000 0.6543 0.0000 (  6474 PWs)   bands (ev):

   -14.2306 -12.5177  -9.6458  -9.4376  -7.0782  -6.3843  -5.7045  -3.2194
    -2.7599  -0.3987   0.7008   1.8126   3.4299   4.6051

     occupation numbers 
     1.0000   1.0000   1.0000   1.0000   1.0000   1.0000   1.0000   1.0000
     0.5755   0.0000   0.0000   0.0000   0.0000   0.0000

          k = 0.2000-0.4234 0.0000 (  6465 PWs)   bands (ev):

   -15.3318 -13.6729  -8.4555  -8.1331  -7.5512  -6.3392  -5.1217  -4.1368
    -2.7563  -0.5357   1.2693   2.8394   3.4410   5.5862

     occupation numbers 
     1.0000   1.0000   1.0000   1.0000   1.0000   1.0000   1.0000   1.0000
     0.5609   0.0000   0.0000   0.0000   0.0000   0.0000

          k = 0.2000-0.3464 0.0000 (  6482 PWs)   bands (ev):

   -16.3833 -14.6970  -9.1743  -6.9281  -6.4967  -5.5427  -5.1754  -4.1334
    -3.2332  -0.5971   2.1645   3.0935   4.3119   6.8566

     occupation numbers 
     1.0000   1.0000   1.0000   1.0000   1.0000   1.0000   1.0000   1.0000
     1.0000   0.0000   0.0000   0.0000   0.0000   0.0000

          k = 0.2000-0.2694 0.0000 (  6480 PWs)   bands (ev):

   -17.2675 -15.5375 -10.0821  -6.3040  -5.8680  -5.5795  -4.2179  -3.4834
    -2.8963  -0.7521   2.5775   3.4621   5.5280   6.0611

     occupation numbers 
     1.0000   1.0000   1.0000   1.0000   1.0000   1.0000   1.0000   1.0000
     0.9461   0.0000   0.0000   0.0000   0.0000   0.0000

          k = 0.2000-0.1925 0.0000 (  6480 PWs)   bands (ev):

   -17.9468 -16.1768 -10.8029  -6.9797  -4.9359  -4.8893  -4.5667  -2.0010
    -1.7789  -0.9247   2.4342   4.2151   5.0272   5.6493

     occupation numbers 
     1.0000   1.0000   1.0000   1.0000   1.0000   1.0000   1.0000   0.0000
     0.0000   0.0000   0.0000   0.0000   0.0000   0.0000

          k = 0.2000-0.1155 0.0000 (  6474 PWs)   bands (ev):

   -18.4050 -16.6062 -11.2949  -7.4610  -5.1413  -4.0538  -3.9417  -1.4162
    -1.1444  -0.5761   2.4828   4.4505   4.5968   5.0946

     occupation numbers 
     1.0000   1.0000   1.0000   1.0000   1.0000   1.0000   1.0000   0.0000
     0.0000   0.0000   0.0000   0.0000   0.0000   0.0000

          k = 0.2000-0.0385 0.0000 (  6491 PWs)   bands (ev):

   -18.6346 -16.8209 -11.5434  -7.7069  -5.3539  -3.5695  -3.1435  -1.4606
    -1.1804  -0.3612   3.0102   4.1706   4.4992   4.8382

     occupation numbers 
     1.0000   1.0000   1.0000   1.0000   1.0000   1.0000   1.0000   0.0000
     0.0000   0.0000   0.0000   0.0000   0.0000   0.0000

          k = 0.2000 0.0385 0.0000 (  6491 PWs)   bands (ev):

   -18.6323 -16.8190 -11.5429  -7.7113  -5.3559  -3.6563  -2.7471  -1.6488
    -1.4296  -0.3971   3.2934   4.1685   4.4274   4.8231

     occupation numbers 
     1.0000   1.0000   1.0000   1.0000   1.0000   1.0000   0.5230   0.0000
     0.0000   0.0000   0.0000   0.0000   0.0000   0.0000

          k = 0.2667 0.1540 0.0000 (  6492 PWs)   bands (ev):

   -17.5746 -15.8478 -10.4336  -6.6853  -6.2106  -5.0239  -4.3746  -2.7400
    -1.5085  -0.9532   2.4049   4.4317   5.4045   6.0558

     occupation numbers 
     1.0000   1.0000   1.0000   1.0000   1.0000   1.0000   1.0000   0.4933
     0.0000   0.0000   0.0000   0.0000   0.0000   0.0000

          k = 0.2667 0.2309 0.0000 (  6491 PWs)   bands (ev):

   -17.0005 -15.3178  -9.8449  -7.1687  -6.0343  -5.9087  -3.9259  -3.3818
    -2.4257  -0.9234   2.4890   3.9279   5.2639   6.2253

     occupation numbers 
     1.0000   1.0000   1.0000   1.0000   1.0000   1.0000   1.0000   1.0000
     0.0005   0.0000   0.0000   0.0000   0.0000   0.0000

          k = 0.2667 0.3079 0.0000 (  6474 PWs)   bands (ev):

   -16.2119 -14.5896  -9.1053  -7.9141  -6.7459  -5.2484  -4.5090  -4.0112
    -3.3274  -0.8332   2.8266   2.9765   4.4127   6.0416

     occupation numbers 
     1.0000   1.0000   1.0000   1.0000   1.0000   1.0000   1.0000   1.0000
     1.0000   0.0000   0.0000   0.0000   0.0000   0.0000

          k = 0.2667 0.3849 0.0000 (  6465 PWs)   bands (ev):

   -15.2327 -13.6812  -8.9862  -7.7928  -7.5405  -5.7758  -5.6634  -4.2282
    -2.9416  -0.5694   1.7346   2.9369   3.7823   5.3836

     occupation numbers 
     1.0000   1.0000   1.0000   1.0000   1.0000   1.0000   1.0000   1.0000
     0.9812   0.0000   0.0000   0.0000   0.0000   0.0000

          k = 0.2667 0.4619 0.0000 (  6452 PWs)   bands (ev):

   -14.1304 -12.6287  -9.6496  -8.5248  -7.0983  -6.8175  -6.6127  -3.1793
    -2.8360  -0.1339   0.7139   2.0662   3.6785   4.8763

     occupation numbers 
     1.0000   1.0000   1.0000   1.0000   1.0000   1.0000   1.0000   1.0000
     0.8369   0.0000   0.0000   0.0000   0.0000   0.0000

          k = 0.2667 0.5389 0.0000 (  6444 PWs)   bands (ev):

   -13.1787 -11.5452 -10.3091  -9.7197  -7.8954  -7.0634  -5.8043  -3.2577
    -1.9674  -0.4725   0.4530   1.7525   2.9672   4.4717

     occupation numbers 
     1.0000   1.0000   1.0000   1.0000   1.0000   1.0000   1.0000   1.0000
     0.0000   0.0000   0.0000   0.0000   0.0000   0.0000

          k = 0.2667 0.6158 0.0000 (  6444 PWs)   bands (ev):

   -13.2522 -11.4576 -10.0726  -9.9692  -8.0724  -6.8801  -5.7963  -3.2189
    -1.8588  -0.4621   0.2311   1.7917   2.9437   4.3569

     occupation numbers 
     1.0000   1.0000   1.0000   1.0000   1.0000   1.0000   1.0000   1.0000
     0.0000   0.0000   0.0000   0.0000   0.0000   0.0000

          k = 0.2667 0.6928 0.0000 (  6452 PWs)   bands (ev):

   -14.2217 -12.5838  -9.1606  -9.0592  -7.5504  -6.6670  -6.1639  -3.0959
    -2.6788  -0.1407   0.5953   1.7299   3.5804   4.7780

     occupation numbers 
     1.0000   1.0000   1.0000   1.0000   1.0000   1.0000   1.0000   0.9999
     0.2570   0.0000   0.0000   0.0000   0.0000   0.0000

          k = 0.2667-0.3849 0.0000 (  6465 PWs)   bands (ev):

   -15.2981 -13.6692  -8.6288  -8.2198  -7.7136  -6.0206  -5.0257  -4.1167
    -2.8151  -0.5030   1.4413   2.6883   3.3320   5.5721

     occupation numbers 
     1.0000   1.0000   1.0000   1.0000   1.0000   1.0000   1.0000   1.0000
     0.7777   0.0000   0.0000   0.0000   0.0000   0.0000

          k = 0.2667-0.3079 0.0000 (  6474 PWs)   bands (ev):

   -16.2555 -14.5925  -9.0882  -7.5868  -7.4151  -5.2037  -4.2694  -3.6959
    -3.1811  -0.7786   2.4834   2.6833   3.9270   6.3705

     occupation numbers 
     1.0000   1.0000   1.0000   1.0000   1.0000   1.0000   1.0000   1.0000
     1.0000   0.0000   0.0000   0.0000   0.0000   0.0000

          k = 0.2667-0.2309 0.0000 (  6491 PWs)   bands (ev):

   -17.0286 -15.3254  -9.8491  -6.9007  -6.5733  -5.9692  -3.8995  -2.5417
    -2.4994  -0.8623   2.1777   3.3942   4.9503   6.2457

     occupation numbers 
     1.0000   1.0000   1.0000   1.0000   1.0000   1.0000   1.0000   0.0189
     0.0059   0.0000   0.0000   0.0000   0.0000   0.0000

          k = 0.2667-0.1540 0.0000 (  6492 PWs)   bands (ev):

   -17.5913 -15.8551 -10.4372  -6.6522  -6.0055  -5.6597  -4.3410  -1.9010
    -1.6098  -0.7926   1.9782   4.0334   5.3948   5.9880

     occupation numbers 
     1.0000   1.0000   1.0000   1.0000   1.0000   1.0000   1.0000   0.0000
     0.0000   0.0000   0.0000   0.0000   0.0000   0.0000

          k = 0.2667-0.0770 0.0000 (  6480 PWs)   bands (ev):

   -17.9314 -16.1743 -10.7992  -6.9853  -5.3139  -4.7711  -4.6121  -1.9525
    -1.5841  -0.8270   2.5101   4.2232   5.0304   5.6614

     occupation numbers 
     1.0000   1.0000   1.0000   1.0000   1.0000   1.0000   1.0000   0.0000
     0.0000   0.0000   0.0000   0.0000   0.0000   0.0000

          k = 0.2667 0.0000 0.0000 (  6457 PWs)   bands (ev):

   -18.0429 -16.2796 -10.9205  -7.1081  -5.0586  -4.7059  -4.0786  -2.4159
    -1.6700  -0.9658   3.1921   4.0069   4.8929   5.5226

     occupation numbers 
     1.0000   1.0000   1.0000   1.0000   1.0000   1.0000   1.0000   0.0004
     0.0000   0.0000   0.0000   0.0000   0.0000   0.0000

          k = 0.2667 0.0770 0.0000 (  6480 PWs)   bands (ev):

   -17.9236 -16.1701 -10.7974  -6.9980  -5.4291  -4.6784  -4.2009  -2.6201
    -1.4848  -0.9575   2.8606   4.3023   5.0270   5.6604

     occupation numbers 
     1.0000   1.0000   1.0000   1.0000   1.0000   1.0000   1.0000   0.1034
     0.0000   0.0000   0.0000   0.0000   0.0000   0.0000

          k = 0.3333 0.1925 0.0000 (  6484 PWs)   bands (ev):

   -16.5257 -14.9013  -9.4225  -8.2050  -6.8920  -5.5857  -3.6409  -3.2620
    -2.0649  -1.1211   2.1290   3.8648   4.5811   5.8255

     occupation numbers 
     1.0000   1.0000   1.0000   1.0000   1.0000   1.0000   1.0000   1.0000
     0.0000   0.0000   0.0000   0.0000   0.0000   0.0000

          k = 0.3333 0.2694 0.0000 (  6487 PWs)   bands (ev):

   -15.8478 -14.2883  -9.3568  -8.4642  -7.7301  -4.9315  -3.8316  -3.3795
    -2.9299  -1.1348   2.2892   3.2249   3.9462   5.3687

     occupation numbers 
     1.0000   1.0000   1.0000   1.0000   1.0000   1.0000   1.0000   1.0000
     0.9748   0.0000   0.0000   0.0000   0.0000   0.0000

          k = 0.3333 0.3464 0.0000 (  6494 PWs)   bands (ev):

   -14.9682 -13.5003 -10.0084  -8.4410  -7.6794  -4.9062  -4.4807  -4.0252
    -3.2954  -0.7816   1.8593   2.7482   3.7525   4.7367

     occupation numbers 
     1.0000   1.0000   1.0000   1.0000   1.0000   1.0000   1.0000   1.0000
     1.0000   0.0000   0.0000   0.0000   0.0000   0.0000

          k = 0.3333 0.4234 0.0000 (  6474 PWs)   bands (ev):

   -13.9267 -12.5787 -10.5975  -8.9801  -6.7631  -6.1734  -5.9932  -3.4542
    -3.0225  -0.1184   1.0408   1.8932   3.6828   4.5700

     occupation numbers 
     1.0000   1.0000   1.0000   1.0000   1.0000   1.0000   1.0000   1.0000
     0.9982   0.0000   0.0000   0.0000   0.0000   0.0000

          k = 0.3333 0.5004 0.0000 (  6444 PWs)   bands (ev):

   -12.8549 -11.6132 -11.0449  -9.4780  -7.4709  -7.2531  -5.7452  -3.5107
    -2.0190  -0.1568   0.5460   1.6178   3.0329   4.4380

     occupation numbers 
     1.0000   1.0000   1.0000   1.0000   1.0000   1.0000   1.0000   1.0000
     0.0000   0.0000   0.0000   0.0000   0.0000   0.0000

          k = 0.3333 0.5774 0.0000 (  6450 PWs)   bands (ev):

   -12.4027 -11.0504 -10.7771 -10.2660  -8.1725  -7.4975  -5.3563  -3.4434
    -1.2260  -0.8420   0.2227   2.0260   2.7912   3.7216

     occupation numbers 
     1.0000   1.0000   1.0000   1.0000   1.0000   1.0000   1.0000   1.0000
     0.0000   0.0000   0.0000   0.0000   0.0000   0.0000

          k = 0.3333 0.6543 0.0000 (  6444 PWs)   bands (ev):

   -13.0821 -11.3840 -10.5742 -10.1342  -7.7289  -6.7812  -5.7472  -3.3852
    -1.7458  -0.3687   0.2867   1.5925   2.9892   4.3186

     occupation numbers 
     1.0000   1.0000   1.0000   1.0000   1.0000   1.0000   1.0000   1.0000
     0.0000   0.0000   0.0000   0.0000   0.0000   0.0000

          k = 0.3333 0.7313 0.0000 (  6474 PWs)   bands (ev):

   -14.0843 -12.4852 -10.1698  -9.6047  -6.9093  -6.1093  -5.5487  -3.3510
    -2.7613  -0.0805   0.7132   1.5617   3.3981   4.5057

     occupation numbers 
     1.0000   1.0000   1.0000   1.0000   1.0000   1.0000   1.0000   1.0000
     0.5811   0.0000   0.0000   0.0000   0.0000   0.0000

          k = 0.3333-0.3464 0.0000 (  6494 PWs)   bands (ev):

   -15.0665 -13.4677  -9.6744  -9.0066  -7.7067  -4.6596  -4.2278  -3.8849
    -3.1256  -0.6852   1.4906   2.3306   3.2474   4.8370

     occupation numbers 
     1.0000   1.0000   1.0000   1.0000   1.0000   1.0000   1.0000   1.0000
     1.0000   0.0000   0.0000   0.0000   0.0000   0.0000

          k = 0.3333-0.2694 0.0000 (  6487 PWs)   bands (ev):

   -15.9090 -14.2814  -9.1579  -8.3997  -8.2756  -4.8522  -3.3678  -3.0917
    -2.8933  -1.0601   2.1028   2.6059   3.3424   5.6072

     occupation numbers 
     1.0000   1.0000   1.0000   1.0000   1.0000   1.0000   1.0000   0.9999
     0.9426   0.0000   0.0000   0.0000   0.0000   0.0000

          k = 0.3333-0.1925 0.0000 (  6484 PWs)   bands (ev):

   -16.5629 -14.9037  -9.4191  -7.9908  -7.4324  -5.5246  -3.5866  -2.5143
    -2.0566  -1.0198   1.8008   3.2206   4.1650   6.2598

     occupation numbers 
     1.0000   1.0000   1.0000   1.0000   1.0000   1.0000   1.0000   0.0091
     0.0000   0.0000   0.0000   0.0000   0.0000   0.0000

          k = 0.3333-0.1155 0.0000 (  6491 PWs)   bands (ev):

   -17.0057 -15.3229  -9.8460  -7.1722  -6.5079  -5.9776  -3.8790  -2.6294
    -2.2568  -0.7739   1.9418   3.8777   4.9743   6.2406

     occupation numbers 
     1.0000   1.0000   1.0000   1.0000   1.0000   1.0000   1.0000   0.1217
     0.0000   0.0000   0.0000   0.0000   0.0000   0.0000

          k = 0.3333-0.0385 0.0000 (  6480 PWs)   bands (ev):

   -17.2264 -15.5329 -10.0741  -6.5951  -6.1708  -5.6269  -4.0585  -3.2027
    -2.7665  -0.7501   2.6434   3.8056   5.6205   6.0923

     occupation numbers 
     1.0000   1.0000   1.0000   1.0000   1.0000   1.0000   1.0000   1.0000
     0.6022   0.0000   0.0000   0.0000   0.0000   0.0000

          k = 0.3333 0.0385 0.0000 (  6480 PWs)   bands (ev):

   -17.2201 -15.5313 -10.0728  -6.6508  -6.1952  -5.3258  -4.0784  -3.5589
    -2.7326  -0.7973   2.8760   3.7803   5.6750   6.1585

     occupation numbers 
     1.0000   1.0000   1.0000   1.0000   1.0000   1.0000   1.0000   1.0000
     0.4629   0.0000   0.0000   0.0000   0.0000   0.0000

          k = 0.3333 0.1155 0.0000 (  6491 PWs)   bands (ev):

   -16.9857 -15.3192  -9.8425  -7.3348  -6.0321  -5.9783  -3.9163  -3.3016
    -2.2147  -0.9047   2.3207   4.2505   5.1594   6.1463

     occupation numbers 
     1.0000   1.0000   1.0000   1.0000   1.0000   1.0000   1.0000   1.0000
     0.0000   0.0000   0.0000   0.0000   0.0000   0.0000

          k = 0.4000 0.2309 0.0000 (  6490 PWs)   bands (ev):

   -15.2609 -13.8005 -10.3051  -8.6580  -8.0048  -4.4255  -3.6343  -3.5571
    -2.4725  -1.2003   1.6567   2.9863   3.9076   4.8840

     occupation numbers 
     1.0000   1.0000   1.0000   1.0000   1.0000   1.0000   1.0000   1.0000
     0.0026   0.0000   0.0000   0.0000   0.0000   0.0000

          k = 0.4000 0.3079 0.0000 (  6503 PWs)   bands (ev):

   -14.4898 -13.1585 -11.1159  -9.3663  -7.3124  -4.1131  -3.9994  -3.6813
    -3.1899  -0.7933   1.0407   3.0389   3.6431   4.4412

     occupation numbers 
     1.0000   1.0000   1.0000   1.0000   1.0000   1.0000   1.0000   1.0000
     1.0000   0.0000   0.0000   0.0000   0.0000   0.0000

          k = 0.4000 0.3849 0.0000 (  6490 PWs)   bands (ev):

   -13.5405 -12.4464 -11.7692  -9.8118  -6.5467  -5.0990  -4.6937  -4.0703
    -2.9895  -0.2440   0.6580   2.3852   3.4791   4.5993

     occupation numbers 
     1.0000   1.0000   1.0000   1.0000   1.0000   1.0000   1.0000   1.0000
     0.9950   0.0000   0.0000   0.0000   0.0000   0.0000

          k = 0.4000 0.4619 0.0000 (  6484 PWs)   bands (ev):

   -12.4949 -12.2336 -11.8606  -9.8452  -6.3296  -6.1985  -5.8091  -4.0449
    -2.3566   0.1749   0.4734   1.8259   2.9001   5.0723

     occupation numbers 
     1.0000   1.0000   1.0000   1.0000   1.0000   1.0000   1.0000   1.0000
     0.0000   0.0000   0.0000   0.0000   0.0000   0.0000

          k = 0.4000 0.5389 0.0000 (  6444 PWs)   bands (ev):

   -12.5590 -11.5839 -11.5223  -9.5910  -7.2701  -7.1597  -5.7168  -3.6152
    -1.9469  -0.1192   0.5120   1.7088   2.8412   4.5657

     occupation numbers 
     1.0000   1.0000   1.0000   1.0000   1.0000   1.0000   1.0000   1.0000
     0.0000   0.0000   0.0000   0.0000   0.0000   0.0000

          k = 0.4000 0.6158 0.0000 (  6444 PWs)   bands (ev):

   -12.7719 -11.4490 -11.2006  -9.9855  -7.3750  -6.8806  -5.7286  -3.5267
    -1.7869  -0.3355   0.4870   1.6232   2.8317   4.5571

     occupation numbers 
     1.0000   1.0000   1.0000   1.0000   1.0000   1.0000   1.0000   1.0000
     0.0000   0.0000   0.0000   0.0000   0.0000   0.0000

          k = 0.4000 0.6928 0.0000 (  6484 PWs)   bands (ev):

   -13.1392 -11.5151 -11.3770 -10.6459  -6.4943  -5.8393  -5.7014  -3.8745
    -2.0106  -0.0941   0.2085   1.8781   2.4799   4.9314

     occupation numbers 
     1.0000   1.0000   1.0000   1.0000   1.0000   1.0000   1.0000   1.0000
     0.0000   0.0000   0.0000   0.0000   0.0000   0.0000

          k = 0.4000 0.7698 0.0000 (  6490 PWs)   bands (ev):

   -13.8472 -12.2440 -11.2597 -10.4752  -6.6422  -4.7418  -4.4919  -3.9658
    -2.6572  -0.2231   0.3543   1.8946   3.0368   4.4042

     occupation numbers 
     1.0000   1.0000   1.0000   1.0000   1.0000   1.0000   1.0000   1.0000
     0.1902   0.0000   0.0000   0.0000   0.0000   0.0000

          k = 0.4000-0.3079 0.0000 (  6503 PWs)   bands (ev):

   -14.6506 -13.0779 -10.7642  -9.9103  -7.3560  -3.9110  -3.5392  -3.4097
    -3.1600  -0.6511   0.7466   2.3265   3.0188   4.4200

     occupation numbers 
     1.0000   1.0000   1.0000   1.0000   1.0000   1.0000   1.0000   1.0000
     1.0000   0.0000   0.0000   0.0000   0.0000   0.0000

          k = 0.4000-0.2309 0.0000 (  6490 PWs)   bands (ev):

   -15.3515 -13.7709 -10.0436  -9.1501  -8.0257  -4.3235  -3.4444  -2.9409
    -2.4263  -1.1006   1.4604   2.3394   3.1071   5.0670

     occupation numbers 
     1.0000   1.0000   1.0000   1.0000   1.0000   1.0000   1.0000   0.9808
     0.0005   0.0000   0.0000   0.0000   0.0000   0.0000

          k = 0.4000-0.1540 0.0000 (  6487 PWs)   bands (ev):

   -15.8760 -14.2797  -9.2861  -8.4381  -8.2439  -4.8480  -3.4216  -3.1456
    -2.6516  -1.0627   1.7850   2.7998   3.7783   5.5475

     occupation numbers 
     1.0000   1.0000   1.0000   1.0000   1.0000   1.0000   1.0000   1.0000
     0.1749   0.0000   0.0000   0.0000   0.0000   0.0000

          k = 0.4000-0.0770 0.0000 (  6474 PWs)   bands (ev):

   -16.1948 -14.5890  -9.1227  -8.0770  -7.2918  -5.1848  -3.8758  -3.7686
    -3.2065  -0.7666   2.0016   3.6907   4.0874   5.8657

     occupation numbers 
     1.0000   1.0000   1.0000   1.0000   1.0000   1.0000   1.0000   1.0000
     1.0000   0.0000   0.0000   0.0000   0.0000   0.0000

          k = 0.4000 0.0000 0.0000 (  6482 PWs)   bands (ev):

   -16.2953 -14.6930  -9.1880  -7.7524  -6.5838  -5.3114  -4.5525  -4.1330
    -3.3503  -0.6746   2.3965   3.6014   4.5445   5.9935

     occupation numbers 
     1.0000   1.0000   1.0000   1.0000   1.0000   1.0000   1.0000   1.0000
     1.0000   0.0000   0.0000   0.0000   0.0000   0.0000

          k = 0.4000 0.0770 0.0000 (  6474 PWs)   bands (ev):

   -16.1723 -14.5912  -9.1359  -8.1959  -6.8803  -5.2248  -4.3645  -3.6652
    -3.3227  -0.8506   2.3736   3.7755   4.3201   5.5862

     occupation numbers 
     1.0000   1.0000   1.0000   1.0000   1.0000   1.0000   1.0000   1.0000
     1.0000   0.0000   0.0000   0.0000   0.0000   0.0000

          k = 0.4000 0.1540 0.0000 (  6487 PWs)   bands (ev):

   -15.8258 -14.2890  -9.4474  -8.4779  -7.7623  -4.9196  -3.7990  -3.4167
    -2.7447  -1.1506   2.1155   3.2817   4.3873   5.0350

     occupation numbers 
     1.0000   1.0000   1.0000   1.0000   1.0000   1.0000   1.0000   1.0000
     0.5129   0.0000   0.0000   0.0000   0.0000   0.0000

          k = 0.4667 0.2694 0.0000 (  6524 PWs)   bands (ev):

   -13.8058 -12.7325 -12.0850 -10.0567  -6.8230  -4.5001  -3.8243  -3.3418
    -2.6798  -0.6169   0.3776   2.8288   3.4897   4.9077

     occupation numbers 
     1.0000   1.0000   1.0000   1.0000   1.0000   1.0000   1.0000   1.0000
     0.2605   0.0000   0.0000   0.0000   0.0000   0.0000

          k = 0.4667 0.3464 0.0000 (  6480 PWs)   bands (ev):

   -13.1086 -12.6866 -12.4247 -10.2666  -6.4796  -4.6945  -4.2024  -3.2695
    -3.0388  -0.3961   0.2477   2.6649   3.4930   4.9409

     occupation numbers 
     1.0000   1.0000   1.0000   1.0000   1.0000   1.0000   1.0000   1.0000
     0.9990   0.0000   0.0000   0.0000   0.0000   0.0000

          k = 0.4667 0.4234 0.0000 (  6490 PWs)   bands (ev):

   -13.4539 -12.4428 -11.9019  -9.8314  -6.5218  -5.0857  -4.7032  -4.0194
    -2.9777  -0.2756   0.6648   2.4900   3.2175   5.1876

     occupation numbers 
     1.0000   1.0000   1.0000   1.0000   1.0000   1.0000   1.0000   1.0000
     0.9929   0.0000   0.0000   0.0000   0.0000   0.0000

          k = 0.4667 0.5004 0.0000 (  6474 PWs)   bands (ev):

   -13.7952 -12.5692 -10.9170  -9.0698  -6.6902  -6.0897  -5.8249  -3.5185
    -2.9812  -0.1044   0.9893   2.0257   3.4525   4.9811

     occupation numbers 
     1.0000   1.0000   1.0000   1.0000   1.0000   1.0000   1.0000   1.0000
     0.9936   0.0000   0.0000   0.0000   0.0000   0.0000

          k = 0.4667 0.5774 0.0000 (  6452 PWs)   bands (ev):

   -13.9426 -12.6092 -10.3346  -8.7730  -6.7645  -6.4958  -6.4415  -3.2545
    -2.8667   0.0457   0.7100   1.9989   3.6158   4.9956

     occupation numbers 
     1.0000   1.0000   1.0000   1.0000   1.0000   1.0000   1.0000   1.0000
     0.9033   0.0000   0.0000   0.0000   0.0000   0.0000

          k = 0.4667 0.6543 0.0000 (  6474 PWs)   bands (ev):

   -13.9079 -12.4984 -10.6701  -9.5094  -6.7332  -5.9232  -5.6474  -3.4149
    -2.8153  -0.1409   0.8310   1.7542   3.2587   5.2632

     occupation numbers 
     1.0000   1.0000   1.0000   1.0000   1.0000   1.0000   1.0000   1.0000
     0.7783   0.0000   0.0000   0.0000   0.0000   0.0000

          k = 0.4667 0.7313 0.0000 (  6490 PWs)   bands (ev):

   -13.7609 -12.2511 -11.4218 -10.4511  -6.6011  -4.7763  -4.5137  -3.8659
    -2.6931  -0.2675   0.3619   2.1623   2.6806   5.0230

     occupation numbers 
     1.0000   1.0000   1.0000   1.0000   1.0000   1.0000   1.0000   1.0000
     0.3072   0.0000   0.0000   0.0000   0.0000   0.0000

          k = 0.4667 0.8083 0.0000 (  6480 PWs)   bands (ev):

   -13.7459 -12.1098 -11.8569 -11.0298  -6.5856  -4.5083  -3.5697  -3.3196
    -2.6471  -0.5110   0.1746   1.9791   2.8399   4.4679

     occupation numbers 
     1.0000   1.0000   1.0000   1.0000   1.0000   1.0000   1.0000   1.0000
     0.1630   0.0000   0.0000   0.0000   0.0000   0.0000

          k = 0.4667-0.2694 0.0000 (  6524 PWs)   bands (ev):

   -14.1195 -12.5426 -11.5960 -10.6825  -6.8969  -4.3440  -3.1815  -3.0746
    -2.6171  -0.5325   0.1693   2.0952   2.7667   4.4602

     occupation numbers 
     1.0000   1.0000   1.0000   1.0000   1.0000   1.0000   1.0000   0.9997
     0.0979   0.0000   0.0000   0.0000   0.0000   0.0000

          k = 0.4667-0.1925 0.0000 (  6503 PWs)   bands (ev):

   -14.6076 -13.0784 -10.8725  -9.8950  -7.3407  -4.0034  -3.5057  -3.4524
    -2.9761  -0.7450   0.8012   2.3451   2.9161   4.9247

     occupation numbers 
     1.0000   1.0000   1.0000   1.0000   1.0000   1.0000   1.0000   1.0000
     0.9926   0.0000   0.0000   0.0000   0.0000   0.0000

          k = 0.4667-0.1155 0.0000 (  6494 PWs)   bands (ev):

   -14.9807 -13.4679 -10.0007  -8.9454  -7.6817  -4.4174  -4.2975  -3.9578
    -3.0676  -0.7554   1.5053   2.3212   3.6253   5.1531

     occupation numbers 
     1.0000   1.0000   1.0000   1.0000   1.0000   1.0000   1.0000   1.0000
     0.9996   0.0000   0.0000   0.0000   0.0000   0.0000

          k = 0.4667-0.0385 0.0000 (  6465 PWs)   bands (ev):

   -15.1681 -13.6706  -9.3410  -8.0206  -7.8152  -5.2774  -5.2275  -4.1799
    -2.9307  -0.5447   1.5466   2.9592   3.8381   5.2803

     occupation numbers 
     1.0000   1.0000   1.0000   1.0000   1.0000   1.0000   1.0000   1.0000
     0.9754   0.0000   0.0000   0.0000   0.0000   0.0000

          k = 0.4667 0.0385 0.0000 (  6465 PWs)   bands (ev):

   -15.1466 -13.6788  -9.4252  -7.8451  -7.7322  -5.5593  -5.1825  -4.2047
    -3.0003  -0.5752   1.7252   3.0748   3.9513   5.0312

     occupation numbers 
     1.0000   1.0000   1.0000   1.0000   1.0000   1.0000   1.0000   1.0000
     0.9964   0.0000   0.0000   0.0000   0.0000   0.0000

          k = 0.4667 0.1155 0.0000 (  6494 PWs)   bands (ev):

   -14.9091 -13.4991 -10.2118  -8.4992  -7.6643  -4.8512  -4.2981  -4.0305
    -3.2711  -0.8010   1.7699   2.7653   4.0811   4.6435

     occupation numbers 
     1.0000   1.0000   1.0000   1.0000   1.0000   1.0000   1.0000   1.0000
     1.0000   0.0000   0.0000   0.0000   0.0000   0.0000

          k = 0.4667 0.1925 0.0000 (  6503 PWs)   bands (ev):

   -14.4575 -13.1577 -11.1881  -9.3802  -7.3023  -4.1174  -4.0245  -3.6750
    -3.0722  -0.8316   1.0503   2.9638   3.5619   4.8998

     occupation numbers 
     1.0000   1.0000   1.0000   1.0000   1.0000   1.0000   1.0000   1.0000
     0.9997   0.0000   0.0000   0.0000   0.0000   0.0000

     the Fermi energy is    -2.7416 ev

!    total energy              =     -82.30079626 Ry
     total all-electron energy =      -313.357185 Ry
     estimated scf accuracy    <          1.3E-10 Ry
     smearing contrib. (-TS)   =      -0.00142618 Ry
     internal energy E=F+TS    =     -82.29937008 Ry

     The total energy is F=E-TS. E is the sum of the following terms:
     one-electron contribution =    -582.17242890 Ry
     hartree contribution      =     294.69400605 Ry
     xc contribution           =     -16.95884670 Ry
     ewald contribution        =     250.35716808 Ry
     DFT-D3 Dispersion         =      -0.01428750 Ry
     electric field correction =      -3.51821011 Ry
     one-center paw contrib.   =     -24.68677100 Ry
      -> PAW hartree energy AE =       6.04742750 Ry
      -> PAW hartree energy PS =      -6.03853799 Ry
      -> PAW xc energy AE      =      -9.80934383 Ry
      -> PAW xc energy PS      =       3.61990058 Ry
      -> total E_H with PAW    =     294.70289556 Ry
      -> total E_XC with PAW   =     -23.14828995 Ry

     convergence has been achieved in  58 iterations

     negative rho (up, down):  1.119E-04 0.000E+00

     Forces acting on atoms (cartesian axes, Ry/au):

     atom    1 type  1   force =     0.00232453    0.01251522   -2.21552584
     atom    2 type  1   force =    -0.00294865   -0.01289192   -2.58057213
     atom    3 type  1   force =     0.04849024   -0.00302863    2.72417003
     atom    4 type  1   force =    -0.04786612    0.00340533    2.07192794
     The non-local contrib.  to forces
     atom    1 type  1   force =    -0.00655258   -0.02246240    0.32511562
     atom    2 type  1   force =    -0.01108489   -0.04384101   -1.10986980
     atom    3 type  1   force =     0.11435558   -0.00606212   -0.28056457
     atom    4 type  1   force =    -0.11963127    0.00605226   -0.10363549
     The ionic contribution  to forces
     atom    1 type  1   force =    -0.16977906   -0.19136534    5.60422452
     atom    2 type  1   force =     0.16972376    0.19126819   21.04097931
     atom    3 type  1   force =     0.36624109   -0.00838861  -11.98779675
     atom    4 type  1   force =    -0.36618578    0.00848575  -14.65740707
     The local contribution  to forces
     atom    1 type  1   force =     0.17777385    0.22490263   -6.57061998
     atom    2 type  1   force =    -0.16087587   -0.16002216  -20.96496769
     atom    3 type  1   force =    -0.42788744    0.01125482   16.54343908
     atom    4 type  1   force =     0.43360517   -0.01096084   18.39076525
     The core correction contribution to forces
     atom    1 type  1   force =     0.00056531    0.00084848   -0.00483580
     atom    2 type  1   force =    -0.00039659    0.00029916    0.01959688
     atom    3 type  1   force =    -0.00415122    0.00018142    0.01540853
     atom    4 type  1   force =     0.00427756   -0.00018036    0.00855017
     The Hubbard contrib.    to forces
     atom    1 type  1   force =     0.00000000    0.00000000    0.00000000
     atom    2 type  1   force =     0.00000000    0.00000000    0.00000000
     atom    3 type  1   force =     0.00000000    0.00000000    0.00000000
     atom    4 type  1   force =     0.00000000    0.00000000    0.00000000
     The SCF correction term to forces
     atom    1 type  1   force =     0.00000027   -0.00000039    0.00000257
     atom    2 type  1   force =     0.00000022    0.00000080    0.00000719
     atom    3 type  1   force =    -0.00000006    0.00000015   -0.00001732
     atom    4 type  1   force =     0.00000001   -0.00000008   -0.00001597

     DFT-D3 dispersion contribution to forces:
     atom    1 type  1   force =     0.00031625    0.00059482   -0.00232310
     atom    2 type  1   force =    -0.00031576   -0.00059431    0.00077164
     atom    3 type  1   force =    -0.00006819   -0.00001169    0.00079073
     atom    4 type  1   force =     0.00006769    0.00001119    0.00076072

     Total force =     4.825650     Total SCF correction =     0.000025

     DFT-D3 dispersion Force =     0.002848

     Writing all to output data dir /home/ubuntu/projects/Graphene-Band-Structure-Quantum-Espresso/outputs/field_0.1/coupled/data/coupled.save/ :
     XML data file, charge density, pseudopotentials, collected wavefunctions

     init_run     :      4.44s CPU      4.64s WALL (       1 calls)
     electrons    :    854.96s CPU    861.60s WALL (       1 calls)
     forces       :      0.98s CPU      1.03s WALL (       1 calls)
     force_dftd3  :      0.09s CPU      0.09s WALL (       1 calls)

     Called by init_run:
     wfcinit      :      1.95s CPU      1.99s WALL (       1 calls)
     wfcinit:atom :      0.02s CPU      0.02s WALL (      29 calls)
     wfcinit:wfcr :      1.75s CPU      1.78s WALL (      29 calls)
     potinit      :      0.61s CPU      0.70s WALL (       1 calls)
     hinit0       :      0.95s CPU      0.99s WALL (       1 calls)

     Called by electrons:
     c_bands      :    788.40s CPU    794.12s WALL (      58 calls)
     sum_band     :     50.00s CPU     50.61s WALL (      58 calls)
     v_of_rho     :      6.41s CPU      6.67s WALL (      59 calls)
     v_h          :      0.29s CPU      0.30s WALL (      59 calls)
     v_xc         :      6.21s CPU      6.48s WALL (      60 calls)
     newd         :      2.69s CPU      2.71s WALL (      59 calls)
     PAW_pot      :      6.07s CPU      6.12s WALL (      59 calls)
     mix_rho      :      1.02s CPU      1.04s WALL (      58 calls)
     energy_dftd3 :      0.05s CPU      0.05s WALL (       1 calls)

     Called by c_bands:
     init_us_2    :      5.45s CPU      5.53s WALL (    3422 calls)
     cegterg      :    612.26s CPU    616.96s WALL (    1742 calls)

     Called by sum_band:
     sum_band:wei :      0.03s CPU      0.03s WALL (      58 calls)
     sum_band:loo :     37.77s CPU     38.17s WALL (      58 calls)
     sum_band:buf :      0.43s CPU      0.44s WALL (    1682 calls)
     sum_band:ini :      2.42s CPU      2.45s WALL (    1682 calls)
     sum_band:cal :     10.21s CPU     10.31s WALL (    1682 calls)
     sum_band:bec :      0.03s CPU      0.03s WALL (    1682 calls)
     addusdens    :      1.96s CPU      2.05s WALL (      58 calls)
     addusd:skk   :      0.03s CPU      0.03s WALL (      58 calls)

     Called by *egterg:
     cdiaghg      :      3.76s CPU      3.79s WALL (   12243 calls)
     cegterg:over :     61.98s CPU     62.33s WALL (   10501 calls)
     cegterg:upda :     36.95s CPU     37.21s WALL (   10501 calls)
     cegterg:last :    102.36s CPU    102.97s WALL (    7810 calls)
     h_psi        :    342.74s CPU    345.76s WALL (   12272 calls)
     s_psi        :     49.92s CPU     50.30s WALL (   12272 calls)
     g_psi        :      2.93s CPU      2.95s WALL (   10501 calls)

     Called by h_psi:
     h_psi:calbec :     51.88s CPU     52.22s WALL (   12272 calls)
     vloc_psi     :    239.49s CPU    241.80s WALL (   12272 calls)
     add_vuspsi   :     50.02s CPU     50.39s WALL (   12272 calls)

     General routines
     calbec       :     62.56s CPU     63.03s WALL (   14070 calls)
     fft          :      2.98s CPU      3.04s WALL (     776 calls)
     ffts         :      0.45s CPU      0.46s WALL (     117 calls)
     fftw         :    230.03s CPU    232.42s WALL (  259114 calls)
     interpolate  :      0.60s CPU      0.60s WALL (      59 calls)

     Parallel routines

     PAW routines
     PAW_pot      :      6.07s CPU      6.12s WALL (      59 calls)

     PWSCF        :  14m20.53s CPU  14m27.62s WALL


   This run was terminated on:  20: 5:28  19Sep2026            

=------------------------------------------------------------------------------=
   JOB DONE.
=------------------------------------------------------------------------------=
Note: The following floating-point exceptions are signalling: IEEE_DENORMAL
Note: The following floating-point exceptions are signalling: IEEE_DENORMAL
Note: The following floating-point exceptions are signalling: IEEE_DENORMAL
