
     Program PWSCF v.7.6 starts on  7Sep2026 at 11:59:52 

     This program is part of the open-source Quantum ESPRESSO suite
     for quantum simulation of materials; please cite
         "P. Giannozzi et al., J. Phys.:Condens. Matter 21 395502 (2009);
         "P. Giannozzi et al., J. Phys.:Condens. Matter 29 465901 (2017);
         "P. Giannozzi et al., J. Chem. Phys. 152 154105 (2020);
          URL http://www.quantum-espresso.org", 
     in publications or presentations arising from this work. More details at
     http://www.quantum-espresso.org/quote

     Parallel version (MPI), running on     4 processors

     MPI processes distributed on     1 nodes
     2814 MiB available memory on the printing compute node when the environment starts

     Waiting for input...
     Reading input from standard input
Warning: card &IONS ignored
Warning: card &CELL ignored
Warning: card &FCP ignored
Warning: card &RISM ignored

     Current dimensions of program PWSCF are:
     Max number of different atomic species (ntypx) = 10
     Max number of k-points (npk) =  40000
     Max angular momentum in pseudopotentials (lmaxx) =  4
     Presently no symmetry can be used with electric field

     file C.pbe-n-kjpaw_psl.1.0.0.UPF: wavefunction(s)  2S 2P renormalized

     Atomic positions and unit cell read from directory:
     /home/ubuntu/projects/Graphene-Band-Structure-Quantum-Espresso/outputs/bilayer/field_0.01Ry/bottom/data/bottom.save/


     K-points division:     npool     =       4
     Subspace diagonalization in iterative solution of the eigenvalue problem:
     a serial algorithm will be used


     G-vector sticks info
     --------------------
     sticks:   dense  smooth     PW     G-vecs:    dense   smooth      PW
     Sum         595     361    121               111671    52021   10519

     Using Slab Decomposition



     bravais-lattice index     =            0
     lattice parameter (alat)  =       4.6487  a.u.
     unit-cell volume          =     825.8174 (a.u.)^3
     number of atoms/cell      =            2
     number of atomic types    =            1
     number of electrons       =         8.00
     number of Kohn-Sham states=           12
     kinetic-energy cutoff     =      60.0000  Ry
     charge density cutoff     =     400.0000  Ry
     Exchange-correlation= SLA  PW   PBX  PBC
                           (   1   4   3   4   0   0   0)

     celldm(1)=   4.648726  celldm(2)=   0.000000  celldm(3)=   0.000000
     celldm(4)=   0.000000  celldm(5)=   0.000000  celldm(6)=   0.000000

     crystal axes: (cart. coord. in units of alat)
               a(1) = (   1.000000   0.000000   0.000000 )  
               a(2) = (  -0.500000   0.866025   0.000000 )  
               a(3) = (   0.000000   0.000000   9.491870 )  

     reciprocal axes: (cart. coord. in units 2 pi/alat)
               b(1) = (  1.000000  0.577351 -0.000000 )  
               b(2) = (  0.000000  1.154701  0.000000 )  
               b(3) = (  0.000000 -0.000000  0.105353 )  


     PseudoPot. # 1 for C  read from file:
     /home/ubuntu/projects/Graphene-Band-Structure-Quantum-Espresso/pseudo/C.pbe-n-kjpaw_psl.1.0.0.UPF
     MD5 check sum: 5f16ad9a65e90284d1d834d4ab3b0f7d
     Pseudo is Projector augmented-wave + core cor, Zval =  4.0
     Generated using &quot;atomic&quot; code by A. Dal Corso  v.6.3
     Shape of augmentation charge: PSQ
     Using radial grid of 1073 points,  4 beta functions with: 
                l(1) =   0
                l(2) =   0
                l(3) =   1
                l(4) =   1
     Q(r) pseudized with 0 coefficients 


     atomic species   valence    mass     pseudopotential
     C                 4.00    12.01100     C ( 1.00)

     No symmetry found


                                    s                        frac. trans.

      isym =  1     identity                                     

 cryst.   s( 1) = (     1          0          0      )
                  (     0          1          0      )
                  (     0          0          1      )

 cart.    s( 1) = (  1.0000000  0.0000000  0.0000000 )
                  (  0.0000000  1.0000000  0.0000000 )
                  (  0.0000000  0.0000000  1.0000000 )


   Cartesian axes

     site n.     atom                  positions (alat units)
         1        C      tau(   1) = (   0.0000662  -0.0000259   3.8964454  )
         2        C      tau(   2) = (   0.4999411   0.2887090   3.8960654  )

   Crystallographic axes

     site n.     atom                  positions (cryst. coord.)
         1        C      tau(   1) = (  0.0000513 -0.0000299  0.4105035  )
         2        C      tau(   2) = (  0.6666274  0.3333726  0.4104634  )

     number of k points=  1802  Gaussian smearing, width (Ry)=  0.0100
                       cart. coord. in units 2pi/alat
        k(    1) = (   0.0000000   0.0000000   0.0000000), wk =   0.0005556
        k(    2) = (   0.0000000   0.0192450   0.0000000), wk =   0.0011111
        k(    3) = (   0.0000000   0.0384900   0.0000000), wk =   0.0011111
        k(    4) = (   0.0000000   0.0577351   0.0000000), wk =   0.0011111
        k(    5) = (   0.0000000   0.0769801   0.0000000), wk =   0.0011111
        k(    6) = (   0.0000000   0.0962251   0.0000000), wk =   0.0011111
        k(    7) = (   0.0000000   0.1154701   0.0000000), wk =   0.0011111
        k(    8) = (   0.0000000   0.1347151   0.0000000), wk =   0.0011111
        k(    9) = (   0.0000000   0.1539601   0.0000000), wk =   0.0011111
        k(   10) = (   0.0000000   0.1732052   0.0000000), wk =   0.0011111
        k(   11) = (   0.0000000   0.1924502   0.0000000), wk =   0.0011111
        k(   12) = (   0.0000000   0.2116952   0.0000000), wk =   0.0011111
        k(   13) = (   0.0000000   0.2309402   0.0000000), wk =   0.0011111
        k(   14) = (   0.0000000   0.2501852   0.0000000), wk =   0.0011111
        k(   15) = (   0.0000000   0.2694303   0.0000000), wk =   0.0011111
        k(   16) = (   0.0000000   0.2886753   0.0000000), wk =   0.0011111
        k(   17) = (   0.0000000   0.3079203   0.0000000), wk =   0.0011111
        k(   18) = (   0.0000000   0.3271653   0.0000000), wk =   0.0011111
        k(   19) = (   0.0000000   0.3464103   0.0000000), wk =   0.0011111
        k(   20) = (   0.0000000   0.3656553   0.0000000), wk =   0.0011111
        k(   21) = (   0.0000000   0.3849004   0.0000000), wk =   0.0011111
        k(   22) = (   0.0000000   0.4041454   0.0000000), wk =   0.0011111
        k(   23) = (   0.0000000   0.4233904   0.0000000), wk =   0.0011111
        k(   24) = (   0.0000000   0.4426354   0.0000000), wk =   0.0011111
        k(   25) = (   0.0000000   0.4618804   0.0000000), wk =   0.0011111
        k(   26) = (   0.0000000   0.4811254   0.0000000), wk =   0.0011111
        k(   27) = (   0.0000000   0.5003705   0.0000000), wk =   0.0011111
        k(   28) = (   0.0000000   0.5196155   0.0000000), wk =   0.0011111
        k(   29) = (   0.0000000   0.5388605   0.0000000), wk =   0.0011111
        k(   30) = (   0.0000000   0.5581055   0.0000000), wk =   0.0011111
        k(   31) = (   0.0000000  -0.5773505   0.0000000), wk =   0.0005556
        k(   32) = (   0.0166667   0.0096225   0.0000000), wk =   0.0011111
        k(   33) = (   0.0166667   0.0288675   0.0000000), wk =   0.0011111
        k(   34) = (   0.0166667   0.0481125   0.0000000), wk =   0.0011111
        k(   35) = (   0.0166667   0.0673576   0.0000000), wk =   0.0011111
        k(   36) = (   0.0166667   0.0866026   0.0000000), wk =   0.0011111
        k(   37) = (   0.0166667   0.1058476   0.0000000), wk =   0.0011111
        k(   38) = (   0.0166667   0.1250926   0.0000000), wk =   0.0011111
        k(   39) = (   0.0166667   0.1443376   0.0000000), wk =   0.0011111
        k(   40) = (   0.0166667   0.1635827   0.0000000), wk =   0.0011111
        k(   41) = (   0.0166667   0.1828277   0.0000000), wk =   0.0011111
        k(   42) = (   0.0166667   0.2020727   0.0000000), wk =   0.0011111
        k(   43) = (   0.0166667   0.2213177   0.0000000), wk =   0.0011111
        k(   44) = (   0.0166667   0.2405627   0.0000000), wk =   0.0011111
        k(   45) = (   0.0166667   0.2598077   0.0000000), wk =   0.0011111
        k(   46) = (   0.0166667   0.2790528   0.0000000), wk =   0.0011111
        k(   47) = (   0.0166667   0.2982978   0.0000000), wk =   0.0011111
        k(   48) = (   0.0166667   0.3175428   0.0000000), wk =   0.0011111
        k(   49) = (   0.0166667   0.3367878   0.0000000), wk =   0.0011111
        k(   50) = (   0.0166667   0.3560328   0.0000000), wk =   0.0011111
        k(   51) = (   0.0166667   0.3752778   0.0000000), wk =   0.0011111
        k(   52) = (   0.0166667   0.3945229   0.0000000), wk =   0.0011111
        k(   53) = (   0.0166667   0.4137679   0.0000000), wk =   0.0011111
        k(   54) = (   0.0166667   0.4330129   0.0000000), wk =   0.0011111
        k(   55) = (   0.0166667   0.4522579   0.0000000), wk =   0.0011111
        k(   56) = (   0.0166667   0.4715029   0.0000000), wk =   0.0011111
        k(   57) = (   0.0166667   0.4907480   0.0000000), wk =   0.0011111
        k(   58) = (   0.0166667   0.5099930   0.0000000), wk =   0.0011111
        k(   59) = (   0.0166667   0.5292380   0.0000000), wk =   0.0011111
        k(   60) = (   0.0166667   0.5484830   0.0000000), wk =   0.0011111
        k(   61) = (   0.0166667   0.5677280   0.0000000), wk =   0.0011111
        k(   62) = (   0.0166667  -0.5677280   0.0000000), wk =   0.0011111
        k(   63) = (   0.0166667  -0.5484830   0.0000000), wk =   0.0011111
        k(   64) = (   0.0166667  -0.5292380   0.0000000), wk =   0.0011111
        k(   65) = (   0.0166667  -0.5099930   0.0000000), wk =   0.0011111
        k(   66) = (   0.0166667  -0.4907480   0.0000000), wk =   0.0011111
        k(   67) = (   0.0166667  -0.4715029   0.0000000), wk =   0.0011111
        k(   68) = (   0.0166667  -0.4522579   0.0000000), wk =   0.0011111
        k(   69) = (   0.0166667  -0.4330129   0.0000000), wk =   0.0011111
        k(   70) = (   0.0166667  -0.4137679   0.0000000), wk =   0.0011111
        k(   71) = (   0.0166667  -0.3945229   0.0000000), wk =   0.0011111
        k(   72) = (   0.0166667  -0.3752778   0.0000000), wk =   0.0011111
        k(   73) = (   0.0166667  -0.3560328   0.0000000), wk =   0.0011111
        k(   74) = (   0.0166667  -0.3367878   0.0000000), wk =   0.0011111
        k(   75) = (   0.0166667  -0.3175428   0.0000000), wk =   0.0011111
        k(   76) = (   0.0166667  -0.2982978   0.0000000), wk =   0.0011111
        k(   77) = (   0.0166667  -0.2790528   0.0000000), wk =   0.0011111
        k(   78) = (   0.0166667  -0.2598077   0.0000000), wk =   0.0011111
        k(   79) = (   0.0166667  -0.2405627   0.0000000), wk =   0.0011111
        k(   80) = (   0.0166667  -0.2213177   0.0000000), wk =   0.0011111
        k(   81) = (   0.0166667  -0.2020727   0.0000000), wk =   0.0011111
        k(   82) = (   0.0166667  -0.1828277   0.0000000), wk =   0.0011111
        k(   83) = (   0.0166667  -0.1635827   0.0000000), wk =   0.0011111
        k(   84) = (   0.0166667  -0.1443376   0.0000000), wk =   0.0011111
        k(   85) = (   0.0166667  -0.1250926   0.0000000), wk =   0.0011111
        k(   86) = (   0.0166667  -0.1058476   0.0000000), wk =   0.0011111
        k(   87) = (   0.0166667  -0.0866026   0.0000000), wk =   0.0011111
        k(   88) = (   0.0166667  -0.0673576   0.0000000), wk =   0.0011111
        k(   89) = (   0.0166667  -0.0481125   0.0000000), wk =   0.0011111
        k(   90) = (   0.0166667  -0.0288675   0.0000000), wk =   0.0011111
        k(   91) = (   0.0166667  -0.0096225   0.0000000), wk =   0.0011111
        k(   92) = (   0.0333333   0.0192450   0.0000000), wk =   0.0011111
        k(   93) = (   0.0333333   0.0384900   0.0000000), wk =   0.0011111
        k(   94) = (   0.0333333   0.0577351   0.0000000), wk =   0.0011111
        k(   95) = (   0.0333333   0.0769801   0.0000000), wk =   0.0011111
        k(   96) = (   0.0333333   0.0962251   0.0000000), wk =   0.0011111
        k(   97) = (   0.0333333   0.1154701   0.0000000), wk =   0.0011111
        k(   98) = (   0.0333333   0.1347151   0.0000000), wk =   0.0011111
        k(   99) = (   0.0333333   0.1539601   0.0000000), wk =   0.0011111
        k(  100) = (   0.0333333   0.1732052   0.0000000), wk =   0.0011111
        k(  101) = (   0.0333333   0.1924502   0.0000000), wk =   0.0011111
        k(  102) = (   0.0333333   0.2116952   0.0000000), wk =   0.0011111
        k(  103) = (   0.0333333   0.2309402   0.0000000), wk =   0.0011111
        k(  104) = (   0.0333333   0.2501852   0.0000000), wk =   0.0011111
        k(  105) = (   0.0333333   0.2694303   0.0000000), wk =   0.0011111
        k(  106) = (   0.0333333   0.2886753   0.0000000), wk =   0.0011111
        k(  107) = (   0.0333333   0.3079203   0.0000000), wk =   0.0011111
        k(  108) = (   0.0333333   0.3271653   0.0000000), wk =   0.0011111
        k(  109) = (   0.0333333   0.3464103   0.0000000), wk =   0.0011111
        k(  110) = (   0.0333333   0.3656553   0.0000000), wk =   0.0011111
        k(  111) = (   0.0333333   0.3849004   0.0000000), wk =   0.0011111
        k(  112) = (   0.0333333   0.4041454   0.0000000), wk =   0.0011111
        k(  113) = (   0.0333333   0.4233904   0.0000000), wk =   0.0011111
        k(  114) = (   0.0333333   0.4426354   0.0000000), wk =   0.0011111
        k(  115) = (   0.0333333   0.4618804   0.0000000), wk =   0.0011111
        k(  116) = (   0.0333333   0.4811254   0.0000000), wk =   0.0011111
        k(  117) = (   0.0333333   0.5003705   0.0000000), wk =   0.0011111
        k(  118) = (   0.0333333   0.5196155   0.0000000), wk =   0.0011111
        k(  119) = (   0.0333333   0.5388605   0.0000000), wk =   0.0011111
        k(  120) = (   0.0333333   0.5581055   0.0000000), wk =   0.0011111
        k(  121) = (   0.0333333   0.5773505   0.0000000), wk =   0.0011111
        k(  122) = (   0.0333333  -0.5581055   0.0000000), wk =   0.0011111
        k(  123) = (   0.0333333  -0.5388605   0.0000000), wk =   0.0011111
        k(  124) = (   0.0333333  -0.5196155   0.0000000), wk =   0.0011111
        k(  125) = (   0.0333333  -0.5003705   0.0000000), wk =   0.0011111
        k(  126) = (   0.0333333  -0.4811254   0.0000000), wk =   0.0011111
        k(  127) = (   0.0333333  -0.4618804   0.0000000), wk =   0.0011111
        k(  128) = (   0.0333333  -0.4426354   0.0000000), wk =   0.0011111
        k(  129) = (   0.0333333  -0.4233904   0.0000000), wk =   0.0011111
        k(  130) = (   0.0333333  -0.4041454   0.0000000), wk =   0.0011111
        k(  131) = (   0.0333333  -0.3849004   0.0000000), wk =   0.0011111
        k(  132) = (   0.0333333  -0.3656553   0.0000000), wk =   0.0011111
        k(  133) = (   0.0333333  -0.3464103   0.0000000), wk =   0.0011111
        k(  134) = (   0.0333333  -0.3271653   0.0000000), wk =   0.0011111
        k(  135) = (   0.0333333  -0.3079203   0.0000000), wk =   0.0011111
        k(  136) = (   0.0333333  -0.2886753   0.0000000), wk =   0.0011111
        k(  137) = (   0.0333333  -0.2694303   0.0000000), wk =   0.0011111
        k(  138) = (   0.0333333  -0.2501852   0.0000000), wk =   0.0011111
        k(  139) = (   0.0333333  -0.2309402   0.0000000), wk =   0.0011111
        k(  140) = (   0.0333333  -0.2116952   0.0000000), wk =   0.0011111
        k(  141) = (   0.0333333  -0.1924502   0.0000000), wk =   0.0011111
        k(  142) = (   0.0333333  -0.1732052   0.0000000), wk =   0.0011111
        k(  143) = (   0.0333333  -0.1539601   0.0000000), wk =   0.0011111
        k(  144) = (   0.0333333  -0.1347151   0.0000000), wk =   0.0011111
        k(  145) = (   0.0333333  -0.1154701   0.0000000), wk =   0.0011111
        k(  146) = (   0.0333333  -0.0962251   0.0000000), wk =   0.0011111
        k(  147) = (   0.0333333  -0.0769801   0.0000000), wk =   0.0011111
        k(  148) = (   0.0333333  -0.0577351   0.0000000), wk =   0.0011111
        k(  149) = (   0.0333333  -0.0384900   0.0000000), wk =   0.0011111
        k(  150) = (   0.0333333  -0.0192450   0.0000000), wk =   0.0011111
        k(  151) = (   0.0333333  -0.0000000   0.0000000), wk =   0.0011111
        k(  152) = (   0.0500000   0.0288675   0.0000000), wk =   0.0011111
        k(  153) = (   0.0500000   0.0481125   0.0000000), wk =   0.0011111
        k(  154) = (   0.0500000   0.0673576   0.0000000), wk =   0.0011111
        k(  155) = (   0.0500000   0.0866026   0.0000000), wk =   0.0011111
        k(  156) = (   0.0500000   0.1058476   0.0000000), wk =   0.0011111
        k(  157) = (   0.0500000   0.1250926   0.0000000), wk =   0.0011111
        k(  158) = (   0.0500000   0.1443376   0.0000000), wk =   0.0011111
        k(  159) = (   0.0500000   0.1635827   0.0000000), wk =   0.0011111
        k(  160) = (   0.0500000   0.1828277   0.0000000), wk =   0.0011111
        k(  161) = (   0.0500000   0.2020727   0.0000000), wk =   0.0011111
        k(  162) = (   0.0500000   0.2213177   0.0000000), wk =   0.0011111
        k(  163) = (   0.0500000   0.2405627   0.0000000), wk =   0.0011111
        k(  164) = (   0.0500000   0.2598077   0.0000000), wk =   0.0011111
        k(  165) = (   0.0500000   0.2790528   0.0000000), wk =   0.0011111
        k(  166) = (   0.0500000   0.2982978   0.0000000), wk =   0.0011111
        k(  167) = (   0.0500000   0.3175428   0.0000000), wk =   0.0011111
        k(  168) = (   0.0500000   0.3367878   0.0000000), wk =   0.0011111
        k(  169) = (   0.0500000   0.3560328   0.0000000), wk =   0.0011111
        k(  170) = (   0.0500000   0.3752778   0.0000000), wk =   0.0011111
        k(  171) = (   0.0500000   0.3945229   0.0000000), wk =   0.0011111
        k(  172) = (   0.0500000   0.4137679   0.0000000), wk =   0.0011111
        k(  173) = (   0.0500000   0.4330129   0.0000000), wk =   0.0011111
        k(  174) = (   0.0500000   0.4522579   0.0000000), wk =   0.0011111
        k(  175) = (   0.0500000   0.4715029   0.0000000), wk =   0.0011111
        k(  176) = (   0.0500000   0.4907480   0.0000000), wk =   0.0011111
        k(  177) = (   0.0500000   0.5099930   0.0000000), wk =   0.0011111
        k(  178) = (   0.0500000   0.5292380   0.0000000), wk =   0.0011111
        k(  179) = (   0.0500000   0.5484830   0.0000000), wk =   0.0011111
        k(  180) = (   0.0500000   0.5677280   0.0000000), wk =   0.0011111
        k(  181) = (   0.0500000   0.5869730   0.0000000), wk =   0.0011111
        k(  182) = (   0.0500000  -0.5484830   0.0000000), wk =   0.0011111
        k(  183) = (   0.0500000  -0.5292380   0.0000000), wk =   0.0011111
        k(  184) = (   0.0500000  -0.5099930   0.0000000), wk =   0.0011111
        k(  185) = (   0.0500000  -0.4907480   0.0000000), wk =   0.0011111
        k(  186) = (   0.0500000  -0.4715029   0.0000000), wk =   0.0011111
        k(  187) = (   0.0500000  -0.4522579   0.0000000), wk =   0.0011111
        k(  188) = (   0.0500000  -0.4330129   0.0000000), wk =   0.0011111
        k(  189) = (   0.0500000  -0.4137679   0.0000000), wk =   0.0011111
        k(  190) = (   0.0500000  -0.3945229   0.0000000), wk =   0.0011111
        k(  191) = (   0.0500000  -0.3752778   0.0000000), wk =   0.0011111
        k(  192) = (   0.0500000  -0.3560328   0.0000000), wk =   0.0011111
        k(  193) = (   0.0500000  -0.3367878   0.0000000), wk =   0.0011111
        k(  194) = (   0.0500000  -0.3175428   0.0000000), wk =   0.0011111
        k(  195) = (   0.0500000  -0.2982978   0.0000000), wk =   0.0011111
        k(  196) = (   0.0500000  -0.2790528   0.0000000), wk =   0.0011111
        k(  197) = (   0.0500000  -0.2598077   0.0000000), wk =   0.0011111
        k(  198) = (   0.0500000  -0.2405627   0.0000000), wk =   0.0011111
        k(  199) = (   0.0500000  -0.2213177   0.0000000), wk =   0.0011111
        k(  200) = (   0.0500000  -0.2020727   0.0000000), wk =   0.0011111
        k(  201) = (   0.0500000  -0.1828277   0.0000000), wk =   0.0011111
        k(  202) = (   0.0500000  -0.1635827   0.0000000), wk =   0.0011111
        k(  203) = (   0.0500000  -0.1443376   0.0000000), wk =   0.0011111
        k(  204) = (   0.0500000  -0.1250926   0.0000000), wk =   0.0011111
        k(  205) = (   0.0500000  -0.1058476   0.0000000), wk =   0.0011111
        k(  206) = (   0.0500000  -0.0866026   0.0000000), wk =   0.0011111
        k(  207) = (   0.0500000  -0.0673576   0.0000000), wk =   0.0011111
        k(  208) = (   0.0500000  -0.0481125   0.0000000), wk =   0.0011111
        k(  209) = (   0.0500000  -0.0288675   0.0000000), wk =   0.0011111
        k(  210) = (   0.0500000  -0.0096225   0.0000000), wk =   0.0011111
        k(  211) = (   0.0500000   0.0096225   0.0000000), wk =   0.0011111
        k(  212) = (   0.0666667   0.0384900   0.0000000), wk =   0.0011111
        k(  213) = (   0.0666667   0.0577351   0.0000000), wk =   0.0011111
        k(  214) = (   0.0666667   0.0769801   0.0000000), wk =   0.0011111
        k(  215) = (   0.0666667   0.0962251   0.0000000), wk =   0.0011111
        k(  216) = (   0.0666667   0.1154701   0.0000000), wk =   0.0011111
        k(  217) = (   0.0666667   0.1347151   0.0000000), wk =   0.0011111
        k(  218) = (   0.0666667   0.1539601   0.0000000), wk =   0.0011111
        k(  219) = (   0.0666667   0.1732052   0.0000000), wk =   0.0011111
        k(  220) = (   0.0666667   0.1924502   0.0000000), wk =   0.0011111
        k(  221) = (   0.0666667   0.2116952   0.0000000), wk =   0.0011111
        k(  222) = (   0.0666667   0.2309402   0.0000000), wk =   0.0011111
        k(  223) = (   0.0666667   0.2501852   0.0000000), wk =   0.0011111
        k(  224) = (   0.0666667   0.2694303   0.0000000), wk =   0.0011111
        k(  225) = (   0.0666667   0.2886753   0.0000000), wk =   0.0011111
        k(  226) = (   0.0666667   0.3079203   0.0000000), wk =   0.0011111
        k(  227) = (   0.0666667   0.3271653   0.0000000), wk =   0.0011111
        k(  228) = (   0.0666667   0.3464103   0.0000000), wk =   0.0011111
        k(  229) = (   0.0666667   0.3656553   0.0000000), wk =   0.0011111
        k(  230) = (   0.0666667   0.3849004   0.0000000), wk =   0.0011111
        k(  231) = (   0.0666667   0.4041454   0.0000000), wk =   0.0011111
        k(  232) = (   0.0666667   0.4233904   0.0000000), wk =   0.0011111
        k(  233) = (   0.0666667   0.4426354   0.0000000), wk =   0.0011111
        k(  234) = (   0.0666667   0.4618804   0.0000000), wk =   0.0011111
        k(  235) = (   0.0666667   0.4811254   0.0000000), wk =   0.0011111
        k(  236) = (   0.0666667   0.5003705   0.0000000), wk =   0.0011111
        k(  237) = (   0.0666667   0.5196155   0.0000000), wk =   0.0011111
        k(  238) = (   0.0666667   0.5388605   0.0000000), wk =   0.0011111
        k(  239) = (   0.0666667   0.5581055   0.0000000), wk =   0.0011111
        k(  240) = (   0.0666667   0.5773505   0.0000000), wk =   0.0011111
        k(  241) = (   0.0666667   0.5965956   0.0000000), wk =   0.0011111
        k(  242) = (   0.0666667  -0.5388605   0.0000000), wk =   0.0011111
        k(  243) = (   0.0666667  -0.5196155   0.0000000), wk =   0.0011111
        k(  244) = (   0.0666667  -0.5003705   0.0000000), wk =   0.0011111
        k(  245) = (   0.0666667  -0.4811254   0.0000000), wk =   0.0011111
        k(  246) = (   0.0666667  -0.4618804   0.0000000), wk =   0.0011111
        k(  247) = (   0.0666667  -0.4426354   0.0000000), wk =   0.0011111
        k(  248) = (   0.0666667  -0.4233904   0.0000000), wk =   0.0011111
        k(  249) = (   0.0666667  -0.4041454   0.0000000), wk =   0.0011111
        k(  250) = (   0.0666667  -0.3849004   0.0000000), wk =   0.0011111
        k(  251) = (   0.0666667  -0.3656553   0.0000000), wk =   0.0011111
        k(  252) = (   0.0666667  -0.3464103   0.0000000), wk =   0.0011111
        k(  253) = (   0.0666667  -0.3271653   0.0000000), wk =   0.0011111
        k(  254) = (   0.0666667  -0.3079203   0.0000000), wk =   0.0011111
        k(  255) = (   0.0666667  -0.2886753   0.0000000), wk =   0.0011111
        k(  256) = (   0.0666667  -0.2694303   0.0000000), wk =   0.0011111
        k(  257) = (   0.0666667  -0.2501852   0.0000000), wk =   0.0011111
        k(  258) = (   0.0666667  -0.2309402   0.0000000), wk =   0.0011111
        k(  259) = (   0.0666667  -0.2116952   0.0000000), wk =   0.0011111
        k(  260) = (   0.0666667  -0.1924502   0.0000000), wk =   0.0011111
        k(  261) = (   0.0666667  -0.1732052   0.0000000), wk =   0.0011111
        k(  262) = (   0.0666667  -0.1539601   0.0000000), wk =   0.0011111
        k(  263) = (   0.0666667  -0.1347151   0.0000000), wk =   0.0011111
        k(  264) = (   0.0666667  -0.1154701   0.0000000), wk =   0.0011111
        k(  265) = (   0.0666667  -0.0962251   0.0000000), wk =   0.0011111
        k(  266) = (   0.0666667  -0.0769801   0.0000000), wk =   0.0011111
        k(  267) = (   0.0666667  -0.0577351   0.0000000), wk =   0.0011111
        k(  268) = (   0.0666667  -0.0384900   0.0000000), wk =   0.0011111
        k(  269) = (   0.0666667  -0.0192450   0.0000000), wk =   0.0011111
        k(  270) = (   0.0666667   0.0000000   0.0000000), wk =   0.0011111
        k(  271) = (   0.0666667   0.0192450   0.0000000), wk =   0.0011111
        k(  272) = (   0.0833333   0.0481125   0.0000000), wk =   0.0011111
        k(  273) = (   0.0833333   0.0673576   0.0000000), wk =   0.0011111
        k(  274) = (   0.0833333   0.0866026   0.0000000), wk =   0.0011111
        k(  275) = (   0.0833333   0.1058476   0.0000000), wk =   0.0011111
        k(  276) = (   0.0833333   0.1250926   0.0000000), wk =   0.0011111
        k(  277) = (   0.0833333   0.1443376   0.0000000), wk =   0.0011111
        k(  278) = (   0.0833333   0.1635827   0.0000000), wk =   0.0011111
        k(  279) = (   0.0833333   0.1828277   0.0000000), wk =   0.0011111
        k(  280) = (   0.0833333   0.2020727   0.0000000), wk =   0.0011111
        k(  281) = (   0.0833333   0.2213177   0.0000000), wk =   0.0011111
        k(  282) = (   0.0833333   0.2405627   0.0000000), wk =   0.0011111
        k(  283) = (   0.0833333   0.2598077   0.0000000), wk =   0.0011111
        k(  284) = (   0.0833333   0.2790528   0.0000000), wk =   0.0011111
        k(  285) = (   0.0833333   0.2982978   0.0000000), wk =   0.0011111
        k(  286) = (   0.0833333   0.3175428   0.0000000), wk =   0.0011111
        k(  287) = (   0.0833333   0.3367878   0.0000000), wk =   0.0011111
        k(  288) = (   0.0833333   0.3560328   0.0000000), wk =   0.0011111
        k(  289) = (   0.0833333   0.3752778   0.0000000), wk =   0.0011111
        k(  290) = (   0.0833333   0.3945229   0.0000000), wk =   0.0011111
        k(  291) = (   0.0833333   0.4137679   0.0000000), wk =   0.0011111
        k(  292) = (   0.0833333   0.4330129   0.0000000), wk =   0.0011111
        k(  293) = (   0.0833333   0.4522579   0.0000000), wk =   0.0011111
        k(  294) = (   0.0833333   0.4715029   0.0000000), wk =   0.0011111
        k(  295) = (   0.0833333   0.4907480   0.0000000), wk =   0.0011111
        k(  296) = (   0.0833333   0.5099930   0.0000000), wk =   0.0011111
        k(  297) = (   0.0833333   0.5292380   0.0000000), wk =   0.0011111
        k(  298) = (   0.0833333   0.5484830   0.0000000), wk =   0.0011111
        k(  299) = (   0.0833333   0.5677280   0.0000000), wk =   0.0011111
        k(  300) = (   0.0833333   0.5869730   0.0000000), wk =   0.0011111
        k(  301) = (   0.0833333   0.6062181   0.0000000), wk =   0.0011111
        k(  302) = (   0.0833333  -0.5292380   0.0000000), wk =   0.0011111
        k(  303) = (   0.0833333  -0.5099930   0.0000000), wk =   0.0011111
        k(  304) = (   0.0833333  -0.4907480   0.0000000), wk =   0.0011111
        k(  305) = (   0.0833333  -0.4715029   0.0000000), wk =   0.0011111
        k(  306) = (   0.0833333  -0.4522579   0.0000000), wk =   0.0011111
        k(  307) = (   0.0833333  -0.4330129   0.0000000), wk =   0.0011111
        k(  308) = (   0.0833333  -0.4137679   0.0000000), wk =   0.0011111
        k(  309) = (   0.0833333  -0.3945229   0.0000000), wk =   0.0011111
        k(  310) = (   0.0833333  -0.3752778   0.0000000), wk =   0.0011111
        k(  311) = (   0.0833333  -0.3560328   0.0000000), wk =   0.0011111
        k(  312) = (   0.0833333  -0.3367878   0.0000000), wk =   0.0011111
        k(  313) = (   0.0833333  -0.3175428   0.0000000), wk =   0.0011111
        k(  314) = (   0.0833333  -0.2982978   0.0000000), wk =   0.0011111
        k(  315) = (   0.0833333  -0.2790528   0.0000000), wk =   0.0011111
        k(  316) = (   0.0833333  -0.2598077   0.0000000), wk =   0.0011111
        k(  317) = (   0.0833333  -0.2405627   0.0000000), wk =   0.0011111
        k(  318) = (   0.0833333  -0.2213177   0.0000000), wk =   0.0011111
        k(  319) = (   0.0833333  -0.2020727   0.0000000), wk =   0.0011111
        k(  320) = (   0.0833333  -0.1828277   0.0000000), wk =   0.0011111
        k(  321) = (   0.0833333  -0.1635827   0.0000000), wk =   0.0011111
        k(  322) = (   0.0833333  -0.1443376   0.0000000), wk =   0.0011111
        k(  323) = (   0.0833333  -0.1250926   0.0000000), wk =   0.0011111
        k(  324) = (   0.0833333  -0.1058476   0.0000000), wk =   0.0011111
        k(  325) = (   0.0833333  -0.0866026   0.0000000), wk =   0.0011111
        k(  326) = (   0.0833333  -0.0673576   0.0000000), wk =   0.0011111
        k(  327) = (   0.0833333  -0.0481125   0.0000000), wk =   0.0011111
        k(  328) = (   0.0833333  -0.0288675   0.0000000), wk =   0.0011111
        k(  329) = (   0.0833333  -0.0096225   0.0000000), wk =   0.0011111
        k(  330) = (   0.0833333   0.0096225   0.0000000), wk =   0.0011111
        k(  331) = (   0.0833333   0.0288675   0.0000000), wk =   0.0011111
        k(  332) = (   0.1000000   0.0577351   0.0000000), wk =   0.0011111
        k(  333) = (   0.1000000   0.0769801   0.0000000), wk =   0.0011111
        k(  334) = (   0.1000000   0.0962251   0.0000000), wk =   0.0011111
        k(  335) = (   0.1000000   0.1154701   0.0000000), wk =   0.0011111
        k(  336) = (   0.1000000   0.1347151   0.0000000), wk =   0.0011111
        k(  337) = (   0.1000000   0.1539601   0.0000000), wk =   0.0011111
        k(  338) = (   0.1000000   0.1732052   0.0000000), wk =   0.0011111
        k(  339) = (   0.1000000   0.1924502   0.0000000), wk =   0.0011111
        k(  340) = (   0.1000000   0.2116952   0.0000000), wk =   0.0011111
        k(  341) = (   0.1000000   0.2309402   0.0000000), wk =   0.0011111
        k(  342) = (   0.1000000   0.2501852   0.0000000), wk =   0.0011111
        k(  343) = (   0.1000000   0.2694303   0.0000000), wk =   0.0011111
        k(  344) = (   0.1000000   0.2886753   0.0000000), wk =   0.0011111
        k(  345) = (   0.1000000   0.3079203   0.0000000), wk =   0.0011111
        k(  346) = (   0.1000000   0.3271653   0.0000000), wk =   0.0011111
        k(  347) = (   0.1000000   0.3464103   0.0000000), wk =   0.0011111
        k(  348) = (   0.1000000   0.3656553   0.0000000), wk =   0.0011111
        k(  349) = (   0.1000000   0.3849004   0.0000000), wk =   0.0011111
        k(  350) = (   0.1000000   0.4041454   0.0000000), wk =   0.0011111
        k(  351) = (   0.1000000   0.4233904   0.0000000), wk =   0.0011111
        k(  352) = (   0.1000000   0.4426354   0.0000000), wk =   0.0011111
        k(  353) = (   0.1000000   0.4618804   0.0000000), wk =   0.0011111
        k(  354) = (   0.1000000   0.4811254   0.0000000), wk =   0.0011111
        k(  355) = (   0.1000000   0.5003705   0.0000000), wk =   0.0011111
        k(  356) = (   0.1000000   0.5196155   0.0000000), wk =   0.0011111
        k(  357) = (   0.1000000   0.5388605   0.0000000), wk =   0.0011111
        k(  358) = (   0.1000000   0.5581055   0.0000000), wk =   0.0011111
        k(  359) = (   0.1000000   0.5773505   0.0000000), wk =   0.0011111
        k(  360) = (   0.1000000   0.5965956   0.0000000), wk =   0.0011111
        k(  361) = (   0.1000000   0.6158406   0.0000000), wk =   0.0011111
        k(  362) = (   0.1000000  -0.5196155   0.0000000), wk =   0.0011111
        k(  363) = (   0.1000000  -0.5003705   0.0000000), wk =   0.0011111
        k(  364) = (   0.1000000  -0.4811254   0.0000000), wk =   0.0011111
        k(  365) = (   0.1000000  -0.4618804   0.0000000), wk =   0.0011111
        k(  366) = (   0.1000000  -0.4426354   0.0000000), wk =   0.0011111
        k(  367) = (   0.1000000  -0.4233904   0.0000000), wk =   0.0011111
        k(  368) = (   0.1000000  -0.4041454   0.0000000), wk =   0.0011111
        k(  369) = (   0.1000000  -0.3849004   0.0000000), wk =   0.0011111
        k(  370) = (   0.1000000  -0.3656553   0.0000000), wk =   0.0011111
        k(  371) = (   0.1000000  -0.3464103   0.0000000), wk =   0.0011111
        k(  372) = (   0.1000000  -0.3271653   0.0000000), wk =   0.0011111
        k(  373) = (   0.1000000  -0.3079203   0.0000000), wk =   0.0011111
        k(  374) = (   0.1000000  -0.2886753   0.0000000), wk =   0.0011111
        k(  375) = (   0.1000000  -0.2694303   0.0000000), wk =   0.0011111
        k(  376) = (   0.1000000  -0.2501852   0.0000000), wk =   0.0011111
        k(  377) = (   0.1000000  -0.2309402   0.0000000), wk =   0.0011111
        k(  378) = (   0.1000000  -0.2116952   0.0000000), wk =   0.0011111
        k(  379) = (   0.1000000  -0.1924502   0.0000000), wk =   0.0011111
        k(  380) = (   0.1000000  -0.1732052   0.0000000), wk =   0.0011111
        k(  381) = (   0.1000000  -0.1539601   0.0000000), wk =   0.0011111
        k(  382) = (   0.1000000  -0.1347151   0.0000000), wk =   0.0011111
        k(  383) = (   0.1000000  -0.1154701   0.0000000), wk =   0.0011111
        k(  384) = (   0.1000000  -0.0962251   0.0000000), wk =   0.0011111
        k(  385) = (   0.1000000  -0.0769801   0.0000000), wk =   0.0011111
        k(  386) = (   0.1000000  -0.0577351   0.0000000), wk =   0.0011111
        k(  387) = (   0.1000000  -0.0384900   0.0000000), wk =   0.0011111
        k(  388) = (   0.1000000  -0.0192450   0.0000000), wk =   0.0011111
        k(  389) = (   0.1000000  -0.0000000   0.0000000), wk =   0.0011111
        k(  390) = (   0.1000000   0.0192450   0.0000000), wk =   0.0011111
        k(  391) = (   0.1000000   0.0384900   0.0000000), wk =   0.0011111
        k(  392) = (   0.1166667   0.0673576   0.0000000), wk =   0.0011111
        k(  393) = (   0.1166667   0.0866026   0.0000000), wk =   0.0011111
        k(  394) = (   0.1166667   0.1058476   0.0000000), wk =   0.0011111
        k(  395) = (   0.1166667   0.1250926   0.0000000), wk =   0.0011111
        k(  396) = (   0.1166667   0.1443376   0.0000000), wk =   0.0011111
        k(  397) = (   0.1166667   0.1635827   0.0000000), wk =   0.0011111
        k(  398) = (   0.1166667   0.1828277   0.0000000), wk =   0.0011111
        k(  399) = (   0.1166667   0.2020727   0.0000000), wk =   0.0011111
        k(  400) = (   0.1166667   0.2213177   0.0000000), wk =   0.0011111
        k(  401) = (   0.1166667   0.2405627   0.0000000), wk =   0.0011111
        k(  402) = (   0.1166667   0.2598077   0.0000000), wk =   0.0011111
        k(  403) = (   0.1166667   0.2790528   0.0000000), wk =   0.0011111
        k(  404) = (   0.1166667   0.2982978   0.0000000), wk =   0.0011111
        k(  405) = (   0.1166667   0.3175428   0.0000000), wk =   0.0011111
        k(  406) = (   0.1166667   0.3367878   0.0000000), wk =   0.0011111
        k(  407) = (   0.1166667   0.3560328   0.0000000), wk =   0.0011111
        k(  408) = (   0.1166667   0.3752778   0.0000000), wk =   0.0011111
        k(  409) = (   0.1166667   0.3945229   0.0000000), wk =   0.0011111
        k(  410) = (   0.1166667   0.4137679   0.0000000), wk =   0.0011111
        k(  411) = (   0.1166667   0.4330129   0.0000000), wk =   0.0011111
        k(  412) = (   0.1166667   0.4522579   0.0000000), wk =   0.0011111
        k(  413) = (   0.1166667   0.4715029   0.0000000), wk =   0.0011111
        k(  414) = (   0.1166667   0.4907480   0.0000000), wk =   0.0011111
        k(  415) = (   0.1166667   0.5099930   0.0000000), wk =   0.0011111
        k(  416) = (   0.1166667   0.5292380   0.0000000), wk =   0.0011111
        k(  417) = (   0.1166667   0.5484830   0.0000000), wk =   0.0011111
        k(  418) = (   0.1166667   0.5677280   0.0000000), wk =   0.0011111
        k(  419) = (   0.1166667   0.5869730   0.0000000), wk =   0.0011111
        k(  420) = (   0.1166667   0.6062181   0.0000000), wk =   0.0011111
        k(  421) = (   0.1166667   0.6254631   0.0000000), wk =   0.0011111
        k(  422) = (   0.1166667  -0.5099930   0.0000000), wk =   0.0011111
        k(  423) = (   0.1166667  -0.4907480   0.0000000), wk =   0.0011111
        k(  424) = (   0.1166667  -0.4715029   0.0000000), wk =   0.0011111
        k(  425) = (   0.1166667  -0.4522579   0.0000000), wk =   0.0011111
        k(  426) = (   0.1166667  -0.4330129   0.0000000), wk =   0.0011111
        k(  427) = (   0.1166667  -0.4137679   0.0000000), wk =   0.0011111
        k(  428) = (   0.1166667  -0.3945229   0.0000000), wk =   0.0011111
        k(  429) = (   0.1166667  -0.3752778   0.0000000), wk =   0.0011111
        k(  430) = (   0.1166667  -0.3560328   0.0000000), wk =   0.0011111
        k(  431) = (   0.1166667  -0.3367878   0.0000000), wk =   0.0011111
        k(  432) = (   0.1166667  -0.3175428   0.0000000), wk =   0.0011111
        k(  433) = (   0.1166667  -0.2982978   0.0000000), wk =   0.0011111
        k(  434) = (   0.1166667  -0.2790528   0.0000000), wk =   0.0011111
        k(  435) = (   0.1166667  -0.2598077   0.0000000), wk =   0.0011111
        k(  436) = (   0.1166667  -0.2405627   0.0000000), wk =   0.0011111
        k(  437) = (   0.1166667  -0.2213177   0.0000000), wk =   0.0011111
        k(  438) = (   0.1166667  -0.2020727   0.0000000), wk =   0.0011111
        k(  439) = (   0.1166667  -0.1828277   0.0000000), wk =   0.0011111
        k(  440) = (   0.1166667  -0.1635827   0.0000000), wk =   0.0011111
        k(  441) = (   0.1166667  -0.1443376   0.0000000), wk =   0.0011111
        k(  442) = (   0.1166667  -0.1250926   0.0000000), wk =   0.0011111
        k(  443) = (   0.1166667  -0.1058476   0.0000000), wk =   0.0011111
        k(  444) = (   0.1166667  -0.0866026   0.0000000), wk =   0.0011111
        k(  445) = (   0.1166667  -0.0673576   0.0000000), wk =   0.0011111
        k(  446) = (   0.1166667  -0.0481125   0.0000000), wk =   0.0011111
        k(  447) = (   0.1166667  -0.0288675   0.0000000), wk =   0.0011111
        k(  448) = (   0.1166667  -0.0096225   0.0000000), wk =   0.0011111
        k(  449) = (   0.1166667   0.0096225   0.0000000), wk =   0.0011111
        k(  450) = (   0.1166667   0.0288675   0.0000000), wk =   0.0011111
        k(  451) = (   0.1166667   0.0481125   0.0000000), wk =   0.0011111
        k(  452) = (   0.1333333   0.0769801   0.0000000), wk =   0.0011111
        k(  453) = (   0.1333333   0.0962251   0.0000000), wk =   0.0011111
        k(  454) = (   0.1333333   0.1154701   0.0000000), wk =   0.0011111
        k(  455) = (   0.1333333   0.1347151   0.0000000), wk =   0.0011111
        k(  456) = (   0.1333333   0.1539601   0.0000000), wk =   0.0011111
        k(  457) = (   0.1333333   0.1732052   0.0000000), wk =   0.0011111
        k(  458) = (   0.1333333   0.1924502   0.0000000), wk =   0.0011111
        k(  459) = (   0.1333333   0.2116952   0.0000000), wk =   0.0011111
        k(  460) = (   0.1333333   0.2309402   0.0000000), wk =   0.0011111
        k(  461) = (   0.1333333   0.2501852   0.0000000), wk =   0.0011111
        k(  462) = (   0.1333333   0.2694303   0.0000000), wk =   0.0011111
        k(  463) = (   0.1333333   0.2886753   0.0000000), wk =   0.0011111
        k(  464) = (   0.1333333   0.3079203   0.0000000), wk =   0.0011111
        k(  465) = (   0.1333333   0.3271653   0.0000000), wk =   0.0011111
        k(  466) = (   0.1333333   0.3464103   0.0000000), wk =   0.0011111
        k(  467) = (   0.1333333   0.3656553   0.0000000), wk =   0.0011111
        k(  468) = (   0.1333333   0.3849004   0.0000000), wk =   0.0011111
        k(  469) = (   0.1333333   0.4041454   0.0000000), wk =   0.0011111
        k(  470) = (   0.1333333   0.4233904   0.0000000), wk =   0.0011111
        k(  471) = (   0.1333333   0.4426354   0.0000000), wk =   0.0011111
        k(  472) = (   0.1333333   0.4618804   0.0000000), wk =   0.0011111
        k(  473) = (   0.1333333   0.4811254   0.0000000), wk =   0.0011111
        k(  474) = (   0.1333333   0.5003705   0.0000000), wk =   0.0011111
        k(  475) = (   0.1333333   0.5196155   0.0000000), wk =   0.0011111
        k(  476) = (   0.1333333   0.5388605   0.0000000), wk =   0.0011111
        k(  477) = (   0.1333333   0.5581055   0.0000000), wk =   0.0011111
        k(  478) = (   0.1333333   0.5773505   0.0000000), wk =   0.0011111
        k(  479) = (   0.1333333   0.5965956   0.0000000), wk =   0.0011111
        k(  480) = (   0.1333333   0.6158406   0.0000000), wk =   0.0011111
        k(  481) = (   0.1333333   0.6350856   0.0000000), wk =   0.0011111
        k(  482) = (   0.1333333  -0.5003705   0.0000000), wk =   0.0011111
        k(  483) = (   0.1333333  -0.4811254   0.0000000), wk =   0.0011111
        k(  484) = (   0.1333333  -0.4618804   0.0000000), wk =   0.0011111
        k(  485) = (   0.1333333  -0.4426354   0.0000000), wk =   0.0011111
        k(  486) = (   0.1333333  -0.4233904   0.0000000), wk =   0.0011111
        k(  487) = (   0.1333333  -0.4041454   0.0000000), wk =   0.0011111
        k(  488) = (   0.1333333  -0.3849004   0.0000000), wk =   0.0011111
        k(  489) = (   0.1333333  -0.3656553   0.0000000), wk =   0.0011111
        k(  490) = (   0.1333333  -0.3464103   0.0000000), wk =   0.0011111
        k(  491) = (   0.1333333  -0.3271653   0.0000000), wk =   0.0011111
        k(  492) = (   0.1333333  -0.3079203   0.0000000), wk =   0.0011111
        k(  493) = (   0.1333333  -0.2886753   0.0000000), wk =   0.0011111
        k(  494) = (   0.1333333  -0.2694303   0.0000000), wk =   0.0011111
        k(  495) = (   0.1333333  -0.2501852   0.0000000), wk =   0.0011111
        k(  496) = (   0.1333333  -0.2309402   0.0000000), wk =   0.0011111
        k(  497) = (   0.1333333  -0.2116952   0.0000000), wk =   0.0011111
        k(  498) = (   0.1333333  -0.1924502   0.0000000), wk =   0.0011111
        k(  499) = (   0.1333333  -0.1732052   0.0000000), wk =   0.0011111
        k(  500) = (   0.1333333  -0.1539601   0.0000000), wk =   0.0011111
        k(  501) = (   0.1333333  -0.1347151   0.0000000), wk =   0.0011111
        k(  502) = (   0.1333333  -0.1154701   0.0000000), wk =   0.0011111
        k(  503) = (   0.1333333  -0.0962251   0.0000000), wk =   0.0011111
        k(  504) = (   0.1333333  -0.0769801   0.0000000), wk =   0.0011111
        k(  505) = (   0.1333333  -0.0577351   0.0000000), wk =   0.0011111
        k(  506) = (   0.1333333  -0.0384900   0.0000000), wk =   0.0011111
        k(  507) = (   0.1333333  -0.0192450   0.0000000), wk =   0.0011111
        k(  508) = (   0.1333333   0.0000000   0.0000000), wk =   0.0011111
        k(  509) = (   0.1333333   0.0192450   0.0000000), wk =   0.0011111
        k(  510) = (   0.1333333   0.0384900   0.0000000), wk =   0.0011111
        k(  511) = (   0.1333333   0.0577351   0.0000000), wk =   0.0011111
        k(  512) = (   0.1500000   0.0866026   0.0000000), wk =   0.0011111
        k(  513) = (   0.1500000   0.1058476   0.0000000), wk =   0.0011111
        k(  514) = (   0.1500000   0.1250926   0.0000000), wk =   0.0011111
        k(  515) = (   0.1500000   0.1443376   0.0000000), wk =   0.0011111
        k(  516) = (   0.1500000   0.1635827   0.0000000), wk =   0.0011111
        k(  517) = (   0.1500000   0.1828277   0.0000000), wk =   0.0011111
        k(  518) = (   0.1500000   0.2020727   0.0000000), wk =   0.0011111
        k(  519) = (   0.1500000   0.2213177   0.0000000), wk =   0.0011111
        k(  520) = (   0.1500000   0.2405627   0.0000000), wk =   0.0011111
        k(  521) = (   0.1500000   0.2598077   0.0000000), wk =   0.0011111
        k(  522) = (   0.1500000   0.2790528   0.0000000), wk =   0.0011111
        k(  523) = (   0.1500000   0.2982978   0.0000000), wk =   0.0011111
        k(  524) = (   0.1500000   0.3175428   0.0000000), wk =   0.0011111
        k(  525) = (   0.1500000   0.3367878   0.0000000), wk =   0.0011111
        k(  526) = (   0.1500000   0.3560328   0.0000000), wk =   0.0011111
        k(  527) = (   0.1500000   0.3752778   0.0000000), wk =   0.0011111
        k(  528) = (   0.1500000   0.3945229   0.0000000), wk =   0.0011111
        k(  529) = (   0.1500000   0.4137679   0.0000000), wk =   0.0011111
        k(  530) = (   0.1500000   0.4330129   0.0000000), wk =   0.0011111
        k(  531) = (   0.1500000   0.4522579   0.0000000), wk =   0.0011111
        k(  532) = (   0.1500000   0.4715029   0.0000000), wk =   0.0011111
        k(  533) = (   0.1500000   0.4907480   0.0000000), wk =   0.0011111
        k(  534) = (   0.1500000   0.5099930   0.0000000), wk =   0.0011111
        k(  535) = (   0.1500000   0.5292380   0.0000000), wk =   0.0011111
        k(  536) = (   0.1500000   0.5484830   0.0000000), wk =   0.0011111
        k(  537) = (   0.1500000   0.5677280   0.0000000), wk =   0.0011111
        k(  538) = (   0.1500000   0.5869730   0.0000000), wk =   0.0011111
        k(  539) = (   0.1500000   0.6062181   0.0000000), wk =   0.0011111
        k(  540) = (   0.1500000   0.6254631   0.0000000), wk =   0.0011111
        k(  541) = (   0.1500000   0.6447081   0.0000000), wk =   0.0011111
        k(  542) = (   0.1500000  -0.4907480   0.0000000), wk =   0.0011111
        k(  543) = (   0.1500000  -0.4715029   0.0000000), wk =   0.0011111
        k(  544) = (   0.1500000  -0.4522579   0.0000000), wk =   0.0011111
        k(  545) = (   0.1500000  -0.4330129   0.0000000), wk =   0.0011111
        k(  546) = (   0.1500000  -0.4137679   0.0000000), wk =   0.0011111
        k(  547) = (   0.1500000  -0.3945229   0.0000000), wk =   0.0011111
        k(  548) = (   0.1500000  -0.3752778   0.0000000), wk =   0.0011111
        k(  549) = (   0.1500000  -0.3560328   0.0000000), wk =   0.0011111
        k(  550) = (   0.1500000  -0.3367878   0.0000000), wk =   0.0011111
        k(  551) = (   0.1500000  -0.3175428   0.0000000), wk =   0.0011111
        k(  552) = (   0.1500000  -0.2982978   0.0000000), wk =   0.0011111
        k(  553) = (   0.1500000  -0.2790528   0.0000000), wk =   0.0011111
        k(  554) = (   0.1500000  -0.2598077   0.0000000), wk =   0.0011111
        k(  555) = (   0.1500000  -0.2405627   0.0000000), wk =   0.0011111
        k(  556) = (   0.1500000  -0.2213177   0.0000000), wk =   0.0011111
        k(  557) = (   0.1500000  -0.2020727   0.0000000), wk =   0.0011111
        k(  558) = (   0.1500000  -0.1828277   0.0000000), wk =   0.0011111
        k(  559) = (   0.1500000  -0.1635827   0.0000000), wk =   0.0011111
        k(  560) = (   0.1500000  -0.1443376   0.0000000), wk =   0.0011111
        k(  561) = (   0.1500000  -0.1250926   0.0000000), wk =   0.0011111
        k(  562) = (   0.1500000  -0.1058476   0.0000000), wk =   0.0011111
        k(  563) = (   0.1500000  -0.0866026   0.0000000), wk =   0.0011111
        k(  564) = (   0.1500000  -0.0673576   0.0000000), wk =   0.0011111
        k(  565) = (   0.1500000  -0.0481125   0.0000000), wk =   0.0011111
        k(  566) = (   0.1500000  -0.0288675   0.0000000), wk =   0.0011111
        k(  567) = (   0.1500000  -0.0096225   0.0000000), wk =   0.0011111
        k(  568) = (   0.1500000   0.0096225   0.0000000), wk =   0.0011111
        k(  569) = (   0.1500000   0.0288675   0.0000000), wk =   0.0011111
        k(  570) = (   0.1500000   0.0481125   0.0000000), wk =   0.0011111
        k(  571) = (   0.1500000   0.0673576   0.0000000), wk =   0.0011111
        k(  572) = (   0.1666667   0.0962251   0.0000000), wk =   0.0011111
        k(  573) = (   0.1666667   0.1154701   0.0000000), wk =   0.0011111
        k(  574) = (   0.1666667   0.1347151   0.0000000), wk =   0.0011111
        k(  575) = (   0.1666667   0.1539601   0.0000000), wk =   0.0011111
        k(  576) = (   0.1666667   0.1732052   0.0000000), wk =   0.0011111
        k(  577) = (   0.1666667   0.1924502   0.0000000), wk =   0.0011111
        k(  578) = (   0.1666667   0.2116952   0.0000000), wk =   0.0011111
        k(  579) = (   0.1666667   0.2309402   0.0000000), wk =   0.0011111
        k(  580) = (   0.1666667   0.2501852   0.0000000), wk =   0.0011111
        k(  581) = (   0.1666667   0.2694303   0.0000000), wk =   0.0011111
        k(  582) = (   0.1666667   0.2886753   0.0000000), wk =   0.0011111
        k(  583) = (   0.1666667   0.3079203   0.0000000), wk =   0.0011111
        k(  584) = (   0.1666667   0.3271653   0.0000000), wk =   0.0011111
        k(  585) = (   0.1666667   0.3464103   0.0000000), wk =   0.0011111
        k(  586) = (   0.1666667   0.3656553   0.0000000), wk =   0.0011111
        k(  587) = (   0.1666667   0.3849004   0.0000000), wk =   0.0011111
        k(  588) = (   0.1666667   0.4041454   0.0000000), wk =   0.0011111
        k(  589) = (   0.1666667   0.4233904   0.0000000), wk =   0.0011111
        k(  590) = (   0.1666667   0.4426354   0.0000000), wk =   0.0011111
        k(  591) = (   0.1666667   0.4618804   0.0000000), wk =   0.0011111
        k(  592) = (   0.1666667   0.4811254   0.0000000), wk =   0.0011111
        k(  593) = (   0.1666667   0.5003705   0.0000000), wk =   0.0011111
        k(  594) = (   0.1666667   0.5196155   0.0000000), wk =   0.0011111
        k(  595) = (   0.1666667   0.5388605   0.0000000), wk =   0.0011111
        k(  596) = (   0.1666667   0.5581055   0.0000000), wk =   0.0011111
        k(  597) = (   0.1666667   0.5773505   0.0000000), wk =   0.0011111
        k(  598) = (   0.1666667   0.5965956   0.0000000), wk =   0.0011111
        k(  599) = (   0.1666667   0.6158406   0.0000000), wk =   0.0011111
        k(  600) = (   0.1666667   0.6350856   0.0000000), wk =   0.0011111
        k(  601) = (   0.1666667   0.6543306   0.0000000), wk =   0.0011111
        k(  602) = (   0.1666667  -0.4811254   0.0000000), wk =   0.0011111
        k(  603) = (   0.1666667  -0.4618804   0.0000000), wk =   0.0011111
        k(  604) = (   0.1666667  -0.4426354   0.0000000), wk =   0.0011111
        k(  605) = (   0.1666667  -0.4233904   0.0000000), wk =   0.0011111
        k(  606) = (   0.1666667  -0.4041454   0.0000000), wk =   0.0011111
        k(  607) = (   0.1666667  -0.3849004   0.0000000), wk =   0.0011111
        k(  608) = (   0.1666667  -0.3656553   0.0000000), wk =   0.0011111
        k(  609) = (   0.1666667  -0.3464103   0.0000000), wk =   0.0011111
        k(  610) = (   0.1666667  -0.3271653   0.0000000), wk =   0.0011111
        k(  611) = (   0.1666667  -0.3079203   0.0000000), wk =   0.0011111
        k(  612) = (   0.1666667  -0.2886753   0.0000000), wk =   0.0011111
        k(  613) = (   0.1666667  -0.2694303   0.0000000), wk =   0.0011111
        k(  614) = (   0.1666667  -0.2501852   0.0000000), wk =   0.0011111
        k(  615) = (   0.1666667  -0.2309402   0.0000000), wk =   0.0011111
        k(  616) = (   0.1666667  -0.2116952   0.0000000), wk =   0.0011111
        k(  617) = (   0.1666667  -0.1924502   0.0000000), wk =   0.0011111
        k(  618) = (   0.1666667  -0.1732052   0.0000000), wk =   0.0011111
        k(  619) = (   0.1666667  -0.1539601   0.0000000), wk =   0.0011111
        k(  620) = (   0.1666667  -0.1347151   0.0000000), wk =   0.0011111
        k(  621) = (   0.1666667  -0.1154701   0.0000000), wk =   0.0011111
        k(  622) = (   0.1666667  -0.0962251   0.0000000), wk =   0.0011111
        k(  623) = (   0.1666667  -0.0769801   0.0000000), wk =   0.0011111
        k(  624) = (   0.1666667  -0.0577351   0.0000000), wk =   0.0011111
        k(  625) = (   0.1666667  -0.0384900   0.0000000), wk =   0.0011111
        k(  626) = (   0.1666667  -0.0192450   0.0000000), wk =   0.0011111
        k(  627) = (   0.1666667  -0.0000000   0.0000000), wk =   0.0011111
        k(  628) = (   0.1666667   0.0192450   0.0000000), wk =   0.0011111
        k(  629) = (   0.1666667   0.0384900   0.0000000), wk =   0.0011111
        k(  630) = (   0.1666667   0.0577351   0.0000000), wk =   0.0011111
        k(  631) = (   0.1666667   0.0769801   0.0000000), wk =   0.0011111
        k(  632) = (   0.1833333   0.1058476   0.0000000), wk =   0.0011111
        k(  633) = (   0.1833333   0.1250926   0.0000000), wk =   0.0011111
        k(  634) = (   0.1833333   0.1443376   0.0000000), wk =   0.0011111
        k(  635) = (   0.1833333   0.1635827   0.0000000), wk =   0.0011111
        k(  636) = (   0.1833333   0.1828277   0.0000000), wk =   0.0011111
        k(  637) = (   0.1833333   0.2020727   0.0000000), wk =   0.0011111
        k(  638) = (   0.1833333   0.2213177   0.0000000), wk =   0.0011111
        k(  639) = (   0.1833333   0.2405627   0.0000000), wk =   0.0011111
        k(  640) = (   0.1833333   0.2598077   0.0000000), wk =   0.0011111
        k(  641) = (   0.1833333   0.2790528   0.0000000), wk =   0.0011111
        k(  642) = (   0.1833333   0.2982978   0.0000000), wk =   0.0011111
        k(  643) = (   0.1833333   0.3175428   0.0000000), wk =   0.0011111
        k(  644) = (   0.1833333   0.3367878   0.0000000), wk =   0.0011111
        k(  645) = (   0.1833333   0.3560328   0.0000000), wk =   0.0011111
        k(  646) = (   0.1833333   0.3752778   0.0000000), wk =   0.0011111
        k(  647) = (   0.1833333   0.3945229   0.0000000), wk =   0.0011111
        k(  648) = (   0.1833333   0.4137679   0.0000000), wk =   0.0011111
        k(  649) = (   0.1833333   0.4330129   0.0000000), wk =   0.0011111
        k(  650) = (   0.1833333   0.4522579   0.0000000), wk =   0.0011111
        k(  651) = (   0.1833333   0.4715029   0.0000000), wk =   0.0011111
        k(  652) = (   0.1833333   0.4907480   0.0000000), wk =   0.0011111
        k(  653) = (   0.1833333   0.5099930   0.0000000), wk =   0.0011111
        k(  654) = (   0.1833333   0.5292380   0.0000000), wk =   0.0011111
        k(  655) = (   0.1833333   0.5484830   0.0000000), wk =   0.0011111
        k(  656) = (   0.1833333   0.5677280   0.0000000), wk =   0.0011111
        k(  657) = (   0.1833333   0.5869730   0.0000000), wk =   0.0011111
        k(  658) = (   0.1833333   0.6062181   0.0000000), wk =   0.0011111
        k(  659) = (   0.1833333   0.6254631   0.0000000), wk =   0.0011111
        k(  660) = (   0.1833333   0.6447081   0.0000000), wk =   0.0011111
        k(  661) = (   0.1833333   0.6639531   0.0000000), wk =   0.0011111
        k(  662) = (   0.1833333  -0.4715029   0.0000000), wk =   0.0011111
        k(  663) = (   0.1833333  -0.4522579   0.0000000), wk =   0.0011111
        k(  664) = (   0.1833333  -0.4330129   0.0000000), wk =   0.0011111
        k(  665) = (   0.1833333  -0.4137679   0.0000000), wk =   0.0011111
        k(  666) = (   0.1833333  -0.3945229   0.0000000), wk =   0.0011111
        k(  667) = (   0.1833333  -0.3752778   0.0000000), wk =   0.0011111
        k(  668) = (   0.1833333  -0.3560328   0.0000000), wk =   0.0011111
        k(  669) = (   0.1833333  -0.3367878   0.0000000), wk =   0.0011111
        k(  670) = (   0.1833333  -0.3175428   0.0000000), wk =   0.0011111
        k(  671) = (   0.1833333  -0.2982978   0.0000000), wk =   0.0011111
        k(  672) = (   0.1833333  -0.2790528   0.0000000), wk =   0.0011111
        k(  673) = (   0.1833333  -0.2598077   0.0000000), wk =   0.0011111
        k(  674) = (   0.1833333  -0.2405627   0.0000000), wk =   0.0011111
        k(  675) = (   0.1833333  -0.2213177   0.0000000), wk =   0.0011111
        k(  676) = (   0.1833333  -0.2020727   0.0000000), wk =   0.0011111
        k(  677) = (   0.1833333  -0.1828277   0.0000000), wk =   0.0011111
        k(  678) = (   0.1833333  -0.1635827   0.0000000), wk =   0.0011111
        k(  679) = (   0.1833333  -0.1443376   0.0000000), wk =   0.0011111
        k(  680) = (   0.1833333  -0.1250926   0.0000000), wk =   0.0011111
        k(  681) = (   0.1833333  -0.1058476   0.0000000), wk =   0.0011111
        k(  682) = (   0.1833333  -0.0866026   0.0000000), wk =   0.0011111
        k(  683) = (   0.1833333  -0.0673576   0.0000000), wk =   0.0011111
        k(  684) = (   0.1833333  -0.0481125   0.0000000), wk =   0.0011111
        k(  685) = (   0.1833333  -0.0288675   0.0000000), wk =   0.0011111
        k(  686) = (   0.1833333  -0.0096225   0.0000000), wk =   0.0011111
        k(  687) = (   0.1833333   0.0096225   0.0000000), wk =   0.0011111
        k(  688) = (   0.1833333   0.0288675   0.0000000), wk =   0.0011111
        k(  689) = (   0.1833333   0.0481125   0.0000000), wk =   0.0011111
        k(  690) = (   0.1833333   0.0673576   0.0000000), wk =   0.0011111
        k(  691) = (   0.1833333   0.0866026   0.0000000), wk =   0.0011111
        k(  692) = (   0.2000000   0.1154701   0.0000000), wk =   0.0011111
        k(  693) = (   0.2000000   0.1347151   0.0000000), wk =   0.0011111
        k(  694) = (   0.2000000   0.1539601   0.0000000), wk =   0.0011111
        k(  695) = (   0.2000000   0.1732052   0.0000000), wk =   0.0011111
        k(  696) = (   0.2000000   0.1924502   0.0000000), wk =   0.0011111
        k(  697) = (   0.2000000   0.2116952   0.0000000), wk =   0.0011111
        k(  698) = (   0.2000000   0.2309402   0.0000000), wk =   0.0011111
        k(  699) = (   0.2000000   0.2501852   0.0000000), wk =   0.0011111
        k(  700) = (   0.2000000   0.2694303   0.0000000), wk =   0.0011111
        k(  701) = (   0.2000000   0.2886753   0.0000000), wk =   0.0011111
        k(  702) = (   0.2000000   0.3079203   0.0000000), wk =   0.0011111
        k(  703) = (   0.2000000   0.3271653   0.0000000), wk =   0.0011111
        k(  704) = (   0.2000000   0.3464103   0.0000000), wk =   0.0011111
        k(  705) = (   0.2000000   0.3656553   0.0000000), wk =   0.0011111
        k(  706) = (   0.2000000   0.3849004   0.0000000), wk =   0.0011111
        k(  707) = (   0.2000000   0.4041454   0.0000000), wk =   0.0011111
        k(  708) = (   0.2000000   0.4233904   0.0000000), wk =   0.0011111
        k(  709) = (   0.2000000   0.4426354   0.0000000), wk =   0.0011111
        k(  710) = (   0.2000000   0.4618804   0.0000000), wk =   0.0011111
        k(  711) = (   0.2000000   0.4811254   0.0000000), wk =   0.0011111
        k(  712) = (   0.2000000   0.5003705   0.0000000), wk =   0.0011111
        k(  713) = (   0.2000000   0.5196155   0.0000000), wk =   0.0011111
        k(  714) = (   0.2000000   0.5388605   0.0000000), wk =   0.0011111
        k(  715) = (   0.2000000   0.5581055   0.0000000), wk =   0.0011111
        k(  716) = (   0.2000000   0.5773505   0.0000000), wk =   0.0011111
        k(  717) = (   0.2000000   0.5965956   0.0000000), wk =   0.0011111
        k(  718) = (   0.2000000   0.6158406   0.0000000), wk =   0.0011111
        k(  719) = (   0.2000000   0.6350856   0.0000000), wk =   0.0011111
        k(  720) = (   0.2000000   0.6543306   0.0000000), wk =   0.0011111
        k(  721) = (   0.2000000   0.6735756   0.0000000), wk =   0.0011111
        k(  722) = (   0.2000000  -0.4618804   0.0000000), wk =   0.0011111
        k(  723) = (   0.2000000  -0.4426354   0.0000000), wk =   0.0011111
        k(  724) = (   0.2000000  -0.4233904   0.0000000), wk =   0.0011111
        k(  725) = (   0.2000000  -0.4041454   0.0000000), wk =   0.0011111
        k(  726) = (   0.2000000  -0.3849004   0.0000000), wk =   0.0011111
        k(  727) = (   0.2000000  -0.3656553   0.0000000), wk =   0.0011111
        k(  728) = (   0.2000000  -0.3464103   0.0000000), wk =   0.0011111
        k(  729) = (   0.2000000  -0.3271653   0.0000000), wk =   0.0011111
        k(  730) = (   0.2000000  -0.3079203   0.0000000), wk =   0.0011111
        k(  731) = (   0.2000000  -0.2886753   0.0000000), wk =   0.0011111
        k(  732) = (   0.2000000  -0.2694303   0.0000000), wk =   0.0011111
        k(  733) = (   0.2000000  -0.2501852   0.0000000), wk =   0.0011111
        k(  734) = (   0.2000000  -0.2309402   0.0000000), wk =   0.0011111
        k(  735) = (   0.2000000  -0.2116952   0.0000000), wk =   0.0011111
        k(  736) = (   0.2000000  -0.1924502   0.0000000), wk =   0.0011111
        k(  737) = (   0.2000000  -0.1732052   0.0000000), wk =   0.0011111
        k(  738) = (   0.2000000  -0.1539601   0.0000000), wk =   0.0011111
        k(  739) = (   0.2000000  -0.1347151   0.0000000), wk =   0.0011111
        k(  740) = (   0.2000000  -0.1154701   0.0000000), wk =   0.0011111
        k(  741) = (   0.2000000  -0.0962251   0.0000000), wk =   0.0011111
        k(  742) = (   0.2000000  -0.0769801   0.0000000), wk =   0.0011111
        k(  743) = (   0.2000000  -0.0577351   0.0000000), wk =   0.0011111
        k(  744) = (   0.2000000  -0.0384900   0.0000000), wk =   0.0011111
        k(  745) = (   0.2000000  -0.0192450   0.0000000), wk =   0.0011111
        k(  746) = (   0.2000000   0.0000000   0.0000000), wk =   0.0011111
        k(  747) = (   0.2000000   0.0192450   0.0000000), wk =   0.0011111
        k(  748) = (   0.2000000   0.0384900   0.0000000), wk =   0.0011111
        k(  749) = (   0.2000000   0.0577351   0.0000000), wk =   0.0011111
        k(  750) = (   0.2000000   0.0769801   0.0000000), wk =   0.0011111
        k(  751) = (   0.2000000   0.0962251   0.0000000), wk =   0.0011111
        k(  752) = (   0.2166667   0.1250926   0.0000000), wk =   0.0011111
        k(  753) = (   0.2166667   0.1443376   0.0000000), wk =   0.0011111
        k(  754) = (   0.2166667   0.1635827   0.0000000), wk =   0.0011111
        k(  755) = (   0.2166667   0.1828277   0.0000000), wk =   0.0011111
        k(  756) = (   0.2166667   0.2020727   0.0000000), wk =   0.0011111
        k(  757) = (   0.2166667   0.2213177   0.0000000), wk =   0.0011111
        k(  758) = (   0.2166667   0.2405627   0.0000000), wk =   0.0011111
        k(  759) = (   0.2166667   0.2598077   0.0000000), wk =   0.0011111
        k(  760) = (   0.2166667   0.2790528   0.0000000), wk =   0.0011111
        k(  761) = (   0.2166667   0.2982978   0.0000000), wk =   0.0011111
        k(  762) = (   0.2166667   0.3175428   0.0000000), wk =   0.0011111
        k(  763) = (   0.2166667   0.3367878   0.0000000), wk =   0.0011111
        k(  764) = (   0.2166667   0.3560328   0.0000000), wk =   0.0011111
        k(  765) = (   0.2166667   0.3752778   0.0000000), wk =   0.0011111
        k(  766) = (   0.2166667   0.3945229   0.0000000), wk =   0.0011111
        k(  767) = (   0.2166667   0.4137679   0.0000000), wk =   0.0011111
        k(  768) = (   0.2166667   0.4330129   0.0000000), wk =   0.0011111
        k(  769) = (   0.2166667   0.4522579   0.0000000), wk =   0.0011111
        k(  770) = (   0.2166667   0.4715029   0.0000000), wk =   0.0011111
        k(  771) = (   0.2166667   0.4907480   0.0000000), wk =   0.0011111
        k(  772) = (   0.2166667   0.5099930   0.0000000), wk =   0.0011111
        k(  773) = (   0.2166667   0.5292380   0.0000000), wk =   0.0011111
        k(  774) = (   0.2166667   0.5484830   0.0000000), wk =   0.0011111
        k(  775) = (   0.2166667   0.5677280   0.0000000), wk =   0.0011111
        k(  776) = (   0.2166667   0.5869730   0.0000000), wk =   0.0011111
        k(  777) = (   0.2166667   0.6062181   0.0000000), wk =   0.0011111
        k(  778) = (   0.2166667   0.6254631   0.0000000), wk =   0.0011111
        k(  779) = (   0.2166667   0.6447081   0.0000000), wk =   0.0011111
        k(  780) = (   0.2166667   0.6639531   0.0000000), wk =   0.0011111
        k(  781) = (   0.2166667   0.6831981   0.0000000), wk =   0.0011111
        k(  782) = (   0.2166667  -0.4522579   0.0000000), wk =   0.0011111
        k(  783) = (   0.2166667  -0.4330129   0.0000000), wk =   0.0011111
        k(  784) = (   0.2166667  -0.4137679   0.0000000), wk =   0.0011111
        k(  785) = (   0.2166667  -0.3945229   0.0000000), wk =   0.0011111
        k(  786) = (   0.2166667  -0.3752778   0.0000000), wk =   0.0011111
        k(  787) = (   0.2166667  -0.3560328   0.0000000), wk =   0.0011111
        k(  788) = (   0.2166667  -0.3367878   0.0000000), wk =   0.0011111
        k(  789) = (   0.2166667  -0.3175428   0.0000000), wk =   0.0011111
        k(  790) = (   0.2166667  -0.2982978   0.0000000), wk =   0.0011111
        k(  791) = (   0.2166667  -0.2790528   0.0000000), wk =   0.0011111
        k(  792) = (   0.2166667  -0.2598077   0.0000000), wk =   0.0011111
        k(  793) = (   0.2166667  -0.2405627   0.0000000), wk =   0.0011111
        k(  794) = (   0.2166667  -0.2213177   0.0000000), wk =   0.0011111
        k(  795) = (   0.2166667  -0.2020727   0.0000000), wk =   0.0011111
        k(  796) = (   0.2166667  -0.1828277   0.0000000), wk =   0.0011111
        k(  797) = (   0.2166667  -0.1635827   0.0000000), wk =   0.0011111
        k(  798) = (   0.2166667  -0.1443376   0.0000000), wk =   0.0011111
        k(  799) = (   0.2166667  -0.1250926   0.0000000), wk =   0.0011111
        k(  800) = (   0.2166667  -0.1058476   0.0000000), wk =   0.0011111
        k(  801) = (   0.2166667  -0.0866026   0.0000000), wk =   0.0011111
        k(  802) = (   0.2166667  -0.0673576   0.0000000), wk =   0.0011111
        k(  803) = (   0.2166667  -0.0481125   0.0000000), wk =   0.0011111
        k(  804) = (   0.2166667  -0.0288675   0.0000000), wk =   0.0011111
        k(  805) = (   0.2166667  -0.0096225   0.0000000), wk =   0.0011111
        k(  806) = (   0.2166667   0.0096225   0.0000000), wk =   0.0011111
        k(  807) = (   0.2166667   0.0288675   0.0000000), wk =   0.0011111
        k(  808) = (   0.2166667   0.0481125   0.0000000), wk =   0.0011111
        k(  809) = (   0.2166667   0.0673576   0.0000000), wk =   0.0011111
        k(  810) = (   0.2166667   0.0866026   0.0000000), wk =   0.0011111
        k(  811) = (   0.2166667   0.1058476   0.0000000), wk =   0.0011111
        k(  812) = (   0.2333333   0.1347151   0.0000000), wk =   0.0011111
        k(  813) = (   0.2333333   0.1539601   0.0000000), wk =   0.0011111
        k(  814) = (   0.2333333   0.1732052   0.0000000), wk =   0.0011111
        k(  815) = (   0.2333333   0.1924502   0.0000000), wk =   0.0011111
        k(  816) = (   0.2333333   0.2116952   0.0000000), wk =   0.0011111
        k(  817) = (   0.2333333   0.2309402   0.0000000), wk =   0.0011111
        k(  818) = (   0.2333333   0.2501852   0.0000000), wk =   0.0011111
        k(  819) = (   0.2333333   0.2694303   0.0000000), wk =   0.0011111
        k(  820) = (   0.2333333   0.2886753   0.0000000), wk =   0.0011111
        k(  821) = (   0.2333333   0.3079203   0.0000000), wk =   0.0011111
        k(  822) = (   0.2333333   0.3271653   0.0000000), wk =   0.0011111
        k(  823) = (   0.2333333   0.3464103   0.0000000), wk =   0.0011111
        k(  824) = (   0.2333333   0.3656553   0.0000000), wk =   0.0011111
        k(  825) = (   0.2333333   0.3849004   0.0000000), wk =   0.0011111
        k(  826) = (   0.2333333   0.4041454   0.0000000), wk =   0.0011111
        k(  827) = (   0.2333333   0.4233904   0.0000000), wk =   0.0011111
        k(  828) = (   0.2333333   0.4426354   0.0000000), wk =   0.0011111
        k(  829) = (   0.2333333   0.4618804   0.0000000), wk =   0.0011111
        k(  830) = (   0.2333333   0.4811254   0.0000000), wk =   0.0011111
        k(  831) = (   0.2333333   0.5003705   0.0000000), wk =   0.0011111
        k(  832) = (   0.2333333   0.5196155   0.0000000), wk =   0.0011111
        k(  833) = (   0.2333333   0.5388605   0.0000000), wk =   0.0011111
        k(  834) = (   0.2333333   0.5581055   0.0000000), wk =   0.0011111
        k(  835) = (   0.2333333   0.5773505   0.0000000), wk =   0.0011111
        k(  836) = (   0.2333333   0.5965956   0.0000000), wk =   0.0011111
        k(  837) = (   0.2333333   0.6158406   0.0000000), wk =   0.0011111
        k(  838) = (   0.2333333   0.6350856   0.0000000), wk =   0.0011111
        k(  839) = (   0.2333333   0.6543306   0.0000000), wk =   0.0011111
        k(  840) = (   0.2333333   0.6735756   0.0000000), wk =   0.0011111
        k(  841) = (   0.2333333   0.6928206   0.0000000), wk =   0.0011111
        k(  842) = (   0.2333333  -0.4426354   0.0000000), wk =   0.0011111
        k(  843) = (   0.2333333  -0.4233904   0.0000000), wk =   0.0011111
        k(  844) = (   0.2333333  -0.4041454   0.0000000), wk =   0.0011111
        k(  845) = (   0.2333333  -0.3849004   0.0000000), wk =   0.0011111
        k(  846) = (   0.2333333  -0.3656553   0.0000000), wk =   0.0011111
        k(  847) = (   0.2333333  -0.3464103   0.0000000), wk =   0.0011111
        k(  848) = (   0.2333333  -0.3271653   0.0000000), wk =   0.0011111
        k(  849) = (   0.2333333  -0.3079203   0.0000000), wk =   0.0011111
        k(  850) = (   0.2333333  -0.2886753   0.0000000), wk =   0.0011111
        k(  851) = (   0.2333333  -0.2694303   0.0000000), wk =   0.0011111
        k(  852) = (   0.2333333  -0.2501852   0.0000000), wk =   0.0011111
        k(  853) = (   0.2333333  -0.2309402   0.0000000), wk =   0.0011111
        k(  854) = (   0.2333333  -0.2116952   0.0000000), wk =   0.0011111
        k(  855) = (   0.2333333  -0.1924502   0.0000000), wk =   0.0011111
        k(  856) = (   0.2333333  -0.1732052   0.0000000), wk =   0.0011111
        k(  857) = (   0.2333333  -0.1539601   0.0000000), wk =   0.0011111
        k(  858) = (   0.2333333  -0.1347151   0.0000000), wk =   0.0011111
        k(  859) = (   0.2333333  -0.1154701   0.0000000), wk =   0.0011111
        k(  860) = (   0.2333333  -0.0962251   0.0000000), wk =   0.0011111
        k(  861) = (   0.2333333  -0.0769801   0.0000000), wk =   0.0011111
        k(  862) = (   0.2333333  -0.0577351   0.0000000), wk =   0.0011111
        k(  863) = (   0.2333333  -0.0384900   0.0000000), wk =   0.0011111
        k(  864) = (   0.2333333  -0.0192450   0.0000000), wk =   0.0011111
        k(  865) = (   0.2333333  -0.0000000   0.0000000), wk =   0.0011111
        k(  866) = (   0.2333333   0.0192450   0.0000000), wk =   0.0011111
        k(  867) = (   0.2333333   0.0384900   0.0000000), wk =   0.0011111
        k(  868) = (   0.2333333   0.0577351   0.0000000), wk =   0.0011111
        k(  869) = (   0.2333333   0.0769801   0.0000000), wk =   0.0011111
        k(  870) = (   0.2333333   0.0962251   0.0000000), wk =   0.0011111
        k(  871) = (   0.2333333   0.1154701   0.0000000), wk =   0.0011111
        k(  872) = (   0.2500000   0.1443376   0.0000000), wk =   0.0011111
        k(  873) = (   0.2500000   0.1635827   0.0000000), wk =   0.0011111
        k(  874) = (   0.2500000   0.1828277   0.0000000), wk =   0.0011111
        k(  875) = (   0.2500000   0.2020727   0.0000000), wk =   0.0011111
        k(  876) = (   0.2500000   0.2213177   0.0000000), wk =   0.0011111
        k(  877) = (   0.2500000   0.2405627   0.0000000), wk =   0.0011111
        k(  878) = (   0.2500000   0.2598077   0.0000000), wk =   0.0011111
        k(  879) = (   0.2500000   0.2790528   0.0000000), wk =   0.0011111
        k(  880) = (   0.2500000   0.2982978   0.0000000), wk =   0.0011111
        k(  881) = (   0.2500000   0.3175428   0.0000000), wk =   0.0011111
        k(  882) = (   0.2500000   0.3367878   0.0000000), wk =   0.0011111
        k(  883) = (   0.2500000   0.3560328   0.0000000), wk =   0.0011111
        k(  884) = (   0.2500000   0.3752778   0.0000000), wk =   0.0011111
        k(  885) = (   0.2500000   0.3945229   0.0000000), wk =   0.0011111
        k(  886) = (   0.2500000   0.4137679   0.0000000), wk =   0.0011111
        k(  887) = (   0.2500000   0.4330129   0.0000000), wk =   0.0011111
        k(  888) = (   0.2500000   0.4522579   0.0000000), wk =   0.0011111
        k(  889) = (   0.2500000   0.4715029   0.0000000), wk =   0.0011111
        k(  890) = (   0.2500000   0.4907480   0.0000000), wk =   0.0011111
        k(  891) = (   0.2500000   0.5099930   0.0000000), wk =   0.0011111
        k(  892) = (   0.2500000   0.5292380   0.0000000), wk =   0.0011111
        k(  893) = (   0.2500000   0.5484830   0.0000000), wk =   0.0011111
        k(  894) = (   0.2500000   0.5677280   0.0000000), wk =   0.0011111
        k(  895) = (   0.2500000   0.5869730   0.0000000), wk =   0.0011111
        k(  896) = (   0.2500000   0.6062181   0.0000000), wk =   0.0011111
        k(  897) = (   0.2500000   0.6254631   0.0000000), wk =   0.0011111
        k(  898) = (   0.2500000   0.6447081   0.0000000), wk =   0.0011111
        k(  899) = (   0.2500000   0.6639531   0.0000000), wk =   0.0011111
        k(  900) = (   0.2500000   0.6831981   0.0000000), wk =   0.0011111
        k(  901) = (   0.2500000   0.7024432   0.0000000), wk =   0.0011111
        k(  902) = (   0.2500000  -0.4330129   0.0000000), wk =   0.0011111
        k(  903) = (   0.2500000  -0.4137679   0.0000000), wk =   0.0011111
        k(  904) = (   0.2500000  -0.3945229   0.0000000), wk =   0.0011111
        k(  905) = (   0.2500000  -0.3752778   0.0000000), wk =   0.0011111
        k(  906) = (   0.2500000  -0.3560328   0.0000000), wk =   0.0011111
        k(  907) = (   0.2500000  -0.3367878   0.0000000), wk =   0.0011111
        k(  908) = (   0.2500000  -0.3175428   0.0000000), wk =   0.0011111
        k(  909) = (   0.2500000  -0.2982978   0.0000000), wk =   0.0011111
        k(  910) = (   0.2500000  -0.2790528   0.0000000), wk =   0.0011111
        k(  911) = (   0.2500000  -0.2598077   0.0000000), wk =   0.0011111
        k(  912) = (   0.2500000  -0.2405627   0.0000000), wk =   0.0011111
        k(  913) = (   0.2500000  -0.2213177   0.0000000), wk =   0.0011111
        k(  914) = (   0.2500000  -0.2020727   0.0000000), wk =   0.0011111
        k(  915) = (   0.2500000  -0.1828277   0.0000000), wk =   0.0011111
        k(  916) = (   0.2500000  -0.1635827   0.0000000), wk =   0.0011111
        k(  917) = (   0.2500000  -0.1443376   0.0000000), wk =   0.0011111
        k(  918) = (   0.2500000  -0.1250926   0.0000000), wk =   0.0011111
        k(  919) = (   0.2500000  -0.1058476   0.0000000), wk =   0.0011111
        k(  920) = (   0.2500000  -0.0866026   0.0000000), wk =   0.0011111
        k(  921) = (   0.2500000  -0.0673576   0.0000000), wk =   0.0011111
        k(  922) = (   0.2500000  -0.0481125   0.0000000), wk =   0.0011111
        k(  923) = (   0.2500000  -0.0288675   0.0000000), wk =   0.0011111
        k(  924) = (   0.2500000  -0.0096225   0.0000000), wk =   0.0011111
        k(  925) = (   0.2500000   0.0096225   0.0000000), wk =   0.0011111
        k(  926) = (   0.2500000   0.0288675   0.0000000), wk =   0.0011111
        k(  927) = (   0.2500000   0.0481125   0.0000000), wk =   0.0011111
        k(  928) = (   0.2500000   0.0673576   0.0000000), wk =   0.0011111
        k(  929) = (   0.2500000   0.0866026   0.0000000), wk =   0.0011111
        k(  930) = (   0.2500000   0.1058476   0.0000000), wk =   0.0011111
        k(  931) = (   0.2500000   0.1250926   0.0000000), wk =   0.0011111
        k(  932) = (   0.2666667   0.1539601   0.0000000), wk =   0.0011111
        k(  933) = (   0.2666667   0.1732052   0.0000000), wk =   0.0011111
        k(  934) = (   0.2666667   0.1924502   0.0000000), wk =   0.0011111
        k(  935) = (   0.2666667   0.2116952   0.0000000), wk =   0.0011111
        k(  936) = (   0.2666667   0.2309402   0.0000000), wk =   0.0011111
        k(  937) = (   0.2666667   0.2501852   0.0000000), wk =   0.0011111
        k(  938) = (   0.2666667   0.2694303   0.0000000), wk =   0.0011111
        k(  939) = (   0.2666667   0.2886753   0.0000000), wk =   0.0011111
        k(  940) = (   0.2666667   0.3079203   0.0000000), wk =   0.0011111
        k(  941) = (   0.2666667   0.3271653   0.0000000), wk =   0.0011111
        k(  942) = (   0.2666667   0.3464103   0.0000000), wk =   0.0011111
        k(  943) = (   0.2666667   0.3656553   0.0000000), wk =   0.0011111
        k(  944) = (   0.2666667   0.3849004   0.0000000), wk =   0.0011111
        k(  945) = (   0.2666667   0.4041454   0.0000000), wk =   0.0011111
        k(  946) = (   0.2666667   0.4233904   0.0000000), wk =   0.0011111
        k(  947) = (   0.2666667   0.4426354   0.0000000), wk =   0.0011111
        k(  948) = (   0.2666667   0.4618804   0.0000000), wk =   0.0011111
        k(  949) = (   0.2666667   0.4811254   0.0000000), wk =   0.0011111
        k(  950) = (   0.2666667   0.5003705   0.0000000), wk =   0.0011111
        k(  951) = (   0.2666667   0.5196155   0.0000000), wk =   0.0011111
        k(  952) = (   0.2666667   0.5388605   0.0000000), wk =   0.0011111
        k(  953) = (   0.2666667   0.5581055   0.0000000), wk =   0.0011111
        k(  954) = (   0.2666667   0.5773505   0.0000000), wk =   0.0011111
        k(  955) = (   0.2666667   0.5965956   0.0000000), wk =   0.0011111
        k(  956) = (   0.2666667   0.6158406   0.0000000), wk =   0.0011111
        k(  957) = (   0.2666667   0.6350856   0.0000000), wk =   0.0011111
        k(  958) = (   0.2666667   0.6543306   0.0000000), wk =   0.0011111
        k(  959) = (   0.2666667   0.6735756   0.0000000), wk =   0.0011111
        k(  960) = (   0.2666667   0.6928206   0.0000000), wk =   0.0011111
        k(  961) = (   0.2666667   0.7120657   0.0000000), wk =   0.0011111
        k(  962) = (   0.2666667  -0.4233904   0.0000000), wk =   0.0011111
        k(  963) = (   0.2666667  -0.4041454   0.0000000), wk =   0.0011111
        k(  964) = (   0.2666667  -0.3849004   0.0000000), wk =   0.0011111
        k(  965) = (   0.2666667  -0.3656553   0.0000000), wk =   0.0011111
        k(  966) = (   0.2666667  -0.3464103   0.0000000), wk =   0.0011111
        k(  967) = (   0.2666667  -0.3271653   0.0000000), wk =   0.0011111
        k(  968) = (   0.2666667  -0.3079203   0.0000000), wk =   0.0011111
        k(  969) = (   0.2666667  -0.2886753   0.0000000), wk =   0.0011111
        k(  970) = (   0.2666667  -0.2694303   0.0000000), wk =   0.0011111
        k(  971) = (   0.2666667  -0.2501852   0.0000000), wk =   0.0011111
        k(  972) = (   0.2666667  -0.2309402   0.0000000), wk =   0.0011111
        k(  973) = (   0.2666667  -0.2116952   0.0000000), wk =   0.0011111
        k(  974) = (   0.2666667  -0.1924502   0.0000000), wk =   0.0011111
        k(  975) = (   0.2666667  -0.1732052   0.0000000), wk =   0.0011111
        k(  976) = (   0.2666667  -0.1539601   0.0000000), wk =   0.0011111
        k(  977) = (   0.2666667  -0.1347151   0.0000000), wk =   0.0011111
        k(  978) = (   0.2666667  -0.1154701   0.0000000), wk =   0.0011111
        k(  979) = (   0.2666667  -0.0962251   0.0000000), wk =   0.0011111
        k(  980) = (   0.2666667  -0.0769801   0.0000000), wk =   0.0011111
        k(  981) = (   0.2666667  -0.0577351   0.0000000), wk =   0.0011111
        k(  982) = (   0.2666667  -0.0384900   0.0000000), wk =   0.0011111
        k(  983) = (   0.2666667  -0.0192450   0.0000000), wk =   0.0011111
        k(  984) = (   0.2666667   0.0000000   0.0000000), wk =   0.0011111
        k(  985) = (   0.2666667   0.0192450   0.0000000), wk =   0.0011111
        k(  986) = (   0.2666667   0.0384900   0.0000000), wk =   0.0011111
        k(  987) = (   0.2666667   0.0577351   0.0000000), wk =   0.0011111
        k(  988) = (   0.2666667   0.0769801   0.0000000), wk =   0.0011111
        k(  989) = (   0.2666667   0.0962251   0.0000000), wk =   0.0011111
        k(  990) = (   0.2666667   0.1154701   0.0000000), wk =   0.0011111
        k(  991) = (   0.2666667   0.1347151   0.0000000), wk =   0.0011111
        k(  992) = (   0.2833333   0.1635827   0.0000000), wk =   0.0011111
        k(  993) = (   0.2833333   0.1828277   0.0000000), wk =   0.0011111
        k(  994) = (   0.2833333   0.2020727   0.0000000), wk =   0.0011111
        k(  995) = (   0.2833333   0.2213177   0.0000000), wk =   0.0011111
        k(  996) = (   0.2833333   0.2405627   0.0000000), wk =   0.0011111
        k(  997) = (   0.2833333   0.2598077   0.0000000), wk =   0.0011111
        k(  998) = (   0.2833333   0.2790528   0.0000000), wk =   0.0011111
        k(  999) = (   0.2833333   0.2982978   0.0000000), wk =   0.0011111
        k( 1000) = (   0.2833333   0.3175428   0.0000000), wk =   0.0011111
        k( 1001) = (   0.2833333   0.3367878   0.0000000), wk =   0.0011111
        k( 1002) = (   0.2833333   0.3560328   0.0000000), wk =   0.0011111
        k( 1003) = (   0.2833333   0.3752778   0.0000000), wk =   0.0011111
        k( 1004) = (   0.2833333   0.3945229   0.0000000), wk =   0.0011111
        k( 1005) = (   0.2833333   0.4137679   0.0000000), wk =   0.0011111
        k( 1006) = (   0.2833333   0.4330129   0.0000000), wk =   0.0011111
        k( 1007) = (   0.2833333   0.4522579   0.0000000), wk =   0.0011111
        k( 1008) = (   0.2833333   0.4715029   0.0000000), wk =   0.0011111
        k( 1009) = (   0.2833333   0.4907480   0.0000000), wk =   0.0011111
        k( 1010) = (   0.2833333   0.5099930   0.0000000), wk =   0.0011111
        k( 1011) = (   0.2833333   0.5292380   0.0000000), wk =   0.0011111
        k( 1012) = (   0.2833333   0.5484830   0.0000000), wk =   0.0011111
        k( 1013) = (   0.2833333   0.5677280   0.0000000), wk =   0.0011111
        k( 1014) = (   0.2833333   0.5869730   0.0000000), wk =   0.0011111
        k( 1015) = (   0.2833333   0.6062181   0.0000000), wk =   0.0011111
        k( 1016) = (   0.2833333   0.6254631   0.0000000), wk =   0.0011111
        k( 1017) = (   0.2833333   0.6447081   0.0000000), wk =   0.0011111
        k( 1018) = (   0.2833333   0.6639531   0.0000000), wk =   0.0011111
        k( 1019) = (   0.2833333   0.6831981   0.0000000), wk =   0.0011111
        k( 1020) = (   0.2833333   0.7024432   0.0000000), wk =   0.0011111
        k( 1021) = (   0.2833333   0.7216882   0.0000000), wk =   0.0011111
        k( 1022) = (   0.2833333  -0.4137679   0.0000000), wk =   0.0011111
        k( 1023) = (   0.2833333  -0.3945229   0.0000000), wk =   0.0011111
        k( 1024) = (   0.2833333  -0.3752778   0.0000000), wk =   0.0011111
        k( 1025) = (   0.2833333  -0.3560328   0.0000000), wk =   0.0011111
        k( 1026) = (   0.2833333  -0.3367878   0.0000000), wk =   0.0011111
        k( 1027) = (   0.2833333  -0.3175428   0.0000000), wk =   0.0011111
        k( 1028) = (   0.2833333  -0.2982978   0.0000000), wk =   0.0011111
        k( 1029) = (   0.2833333  -0.2790528   0.0000000), wk =   0.0011111
        k( 1030) = (   0.2833333  -0.2598077   0.0000000), wk =   0.0011111
        k( 1031) = (   0.2833333  -0.2405627   0.0000000), wk =   0.0011111
        k( 1032) = (   0.2833333  -0.2213177   0.0000000), wk =   0.0011111
        k( 1033) = (   0.2833333  -0.2020727   0.0000000), wk =   0.0011111
        k( 1034) = (   0.2833333  -0.1828277   0.0000000), wk =   0.0011111
        k( 1035) = (   0.2833333  -0.1635827   0.0000000), wk =   0.0011111
        k( 1036) = (   0.2833333  -0.1443376   0.0000000), wk =   0.0011111
        k( 1037) = (   0.2833333  -0.1250926   0.0000000), wk =   0.0011111
        k( 1038) = (   0.2833333  -0.1058476   0.0000000), wk =   0.0011111
        k( 1039) = (   0.2833333  -0.0866026   0.0000000), wk =   0.0011111
        k( 1040) = (   0.2833333  -0.0673576   0.0000000), wk =   0.0011111
        k( 1041) = (   0.2833333  -0.0481125   0.0000000), wk =   0.0011111
        k( 1042) = (   0.2833333  -0.0288675   0.0000000), wk =   0.0011111
        k( 1043) = (   0.2833333  -0.0096225   0.0000000), wk =   0.0011111
        k( 1044) = (   0.2833333   0.0096225   0.0000000), wk =   0.0011111
        k( 1045) = (   0.2833333   0.0288675   0.0000000), wk =   0.0011111
        k( 1046) = (   0.2833333   0.0481125   0.0000000), wk =   0.0011111
        k( 1047) = (   0.2833333   0.0673576   0.0000000), wk =   0.0011111
        k( 1048) = (   0.2833333   0.0866026   0.0000000), wk =   0.0011111
        k( 1049) = (   0.2833333   0.1058476   0.0000000), wk =   0.0011111
        k( 1050) = (   0.2833333   0.1250926   0.0000000), wk =   0.0011111
        k( 1051) = (   0.2833333   0.1443376   0.0000000), wk =   0.0011111
        k( 1052) = (   0.3000000   0.1732052   0.0000000), wk =   0.0011111
        k( 1053) = (   0.3000000   0.1924502   0.0000000), wk =   0.0011111
        k( 1054) = (   0.3000000   0.2116952   0.0000000), wk =   0.0011111
        k( 1055) = (   0.3000000   0.2309402   0.0000000), wk =   0.0011111
        k( 1056) = (   0.3000000   0.2501852   0.0000000), wk =   0.0011111
        k( 1057) = (   0.3000000   0.2694303   0.0000000), wk =   0.0011111
        k( 1058) = (   0.3000000   0.2886753   0.0000000), wk =   0.0011111
        k( 1059) = (   0.3000000   0.3079203   0.0000000), wk =   0.0011111
        k( 1060) = (   0.3000000   0.3271653   0.0000000), wk =   0.0011111
        k( 1061) = (   0.3000000   0.3464103   0.0000000), wk =   0.0011111
        k( 1062) = (   0.3000000   0.3656553   0.0000000), wk =   0.0011111
        k( 1063) = (   0.3000000   0.3849004   0.0000000), wk =   0.0011111
        k( 1064) = (   0.3000000   0.4041454   0.0000000), wk =   0.0011111
        k( 1065) = (   0.3000000   0.4233904   0.0000000), wk =   0.0011111
        k( 1066) = (   0.3000000   0.4426354   0.0000000), wk =   0.0011111
        k( 1067) = (   0.3000000   0.4618804   0.0000000), wk =   0.0011111
        k( 1068) = (   0.3000000   0.4811254   0.0000000), wk =   0.0011111
        k( 1069) = (   0.3000000   0.5003705   0.0000000), wk =   0.0011111
        k( 1070) = (   0.3000000   0.5196155   0.0000000), wk =   0.0011111
        k( 1071) = (   0.3000000   0.5388605   0.0000000), wk =   0.0011111
        k( 1072) = (   0.3000000   0.5581055   0.0000000), wk =   0.0011111
        k( 1073) = (   0.3000000   0.5773505   0.0000000), wk =   0.0011111
        k( 1074) = (   0.3000000   0.5965956   0.0000000), wk =   0.0011111
        k( 1075) = (   0.3000000   0.6158406   0.0000000), wk =   0.0011111
        k( 1076) = (   0.3000000   0.6350856   0.0000000), wk =   0.0011111
        k( 1077) = (   0.3000000   0.6543306   0.0000000), wk =   0.0011111
        k( 1078) = (   0.3000000   0.6735756   0.0000000), wk =   0.0011111
        k( 1079) = (   0.3000000   0.6928206   0.0000000), wk =   0.0011111
        k( 1080) = (   0.3000000   0.7120657   0.0000000), wk =   0.0011111
        k( 1081) = (   0.3000000   0.7313107   0.0000000), wk =   0.0011111
        k( 1082) = (   0.3000000  -0.4041454   0.0000000), wk =   0.0011111
        k( 1083) = (   0.3000000  -0.3849004   0.0000000), wk =   0.0011111
        k( 1084) = (   0.3000000  -0.3656553   0.0000000), wk =   0.0011111
        k( 1085) = (   0.3000000  -0.3464103   0.0000000), wk =   0.0011111
        k( 1086) = (   0.3000000  -0.3271653   0.0000000), wk =   0.0011111
        k( 1087) = (   0.3000000  -0.3079203   0.0000000), wk =   0.0011111
        k( 1088) = (   0.3000000  -0.2886753   0.0000000), wk =   0.0011111
        k( 1089) = (   0.3000000  -0.2694303   0.0000000), wk =   0.0011111
        k( 1090) = (   0.3000000  -0.2501852   0.0000000), wk =   0.0011111
        k( 1091) = (   0.3000000  -0.2309402   0.0000000), wk =   0.0011111
        k( 1092) = (   0.3000000  -0.2116952   0.0000000), wk =   0.0011111
        k( 1093) = (   0.3000000  -0.1924502   0.0000000), wk =   0.0011111
        k( 1094) = (   0.3000000  -0.1732052   0.0000000), wk =   0.0011111
        k( 1095) = (   0.3000000  -0.1539601   0.0000000), wk =   0.0011111
        k( 1096) = (   0.3000000  -0.1347151   0.0000000), wk =   0.0011111
        k( 1097) = (   0.3000000  -0.1154701   0.0000000), wk =   0.0011111
        k( 1098) = (   0.3000000  -0.0962251   0.0000000), wk =   0.0011111
        k( 1099) = (   0.3000000  -0.0769801   0.0000000), wk =   0.0011111
        k( 1100) = (   0.3000000  -0.0577351   0.0000000), wk =   0.0011111
        k( 1101) = (   0.3000000  -0.0384900   0.0000000), wk =   0.0011111
        k( 1102) = (   0.3000000  -0.0192450   0.0000000), wk =   0.0011111
        k( 1103) = (   0.3000000  -0.0000000   0.0000000), wk =   0.0011111
        k( 1104) = (   0.3000000   0.0192450   0.0000000), wk =   0.0011111
        k( 1105) = (   0.3000000   0.0384900   0.0000000), wk =   0.0011111
        k( 1106) = (   0.3000000   0.0577351   0.0000000), wk =   0.0011111
        k( 1107) = (   0.3000000   0.0769801   0.0000000), wk =   0.0011111
        k( 1108) = (   0.3000000   0.0962251   0.0000000), wk =   0.0011111
        k( 1109) = (   0.3000000   0.1154701   0.0000000), wk =   0.0011111
        k( 1110) = (   0.3000000   0.1347151   0.0000000), wk =   0.0011111
        k( 1111) = (   0.3000000   0.1539601   0.0000000), wk =   0.0011111
        k( 1112) = (   0.3166667   0.1828277   0.0000000), wk =   0.0011111
        k( 1113) = (   0.3166667   0.2020727   0.0000000), wk =   0.0011111
        k( 1114) = (   0.3166667   0.2213177   0.0000000), wk =   0.0011111
        k( 1115) = (   0.3166667   0.2405627   0.0000000), wk =   0.0011111
        k( 1116) = (   0.3166667   0.2598077   0.0000000), wk =   0.0011111
        k( 1117) = (   0.3166667   0.2790528   0.0000000), wk =   0.0011111
        k( 1118) = (   0.3166667   0.2982978   0.0000000), wk =   0.0011111
        k( 1119) = (   0.3166667   0.3175428   0.0000000), wk =   0.0011111
        k( 1120) = (   0.3166667   0.3367878   0.0000000), wk =   0.0011111
        k( 1121) = (   0.3166667   0.3560328   0.0000000), wk =   0.0011111
        k( 1122) = (   0.3166667   0.3752778   0.0000000), wk =   0.0011111
        k( 1123) = (   0.3166667   0.3945229   0.0000000), wk =   0.0011111
        k( 1124) = (   0.3166667   0.4137679   0.0000000), wk =   0.0011111
        k( 1125) = (   0.3166667   0.4330129   0.0000000), wk =   0.0011111
        k( 1126) = (   0.3166667   0.4522579   0.0000000), wk =   0.0011111
        k( 1127) = (   0.3166667   0.4715029   0.0000000), wk =   0.0011111
        k( 1128) = (   0.3166667   0.4907480   0.0000000), wk =   0.0011111
        k( 1129) = (   0.3166667   0.5099930   0.0000000), wk =   0.0011111
        k( 1130) = (   0.3166667   0.5292380   0.0000000), wk =   0.0011111
        k( 1131) = (   0.3166667   0.5484830   0.0000000), wk =   0.0011111
        k( 1132) = (   0.3166667   0.5677280   0.0000000), wk =   0.0011111
        k( 1133) = (   0.3166667   0.5869730   0.0000000), wk =   0.0011111
        k( 1134) = (   0.3166667   0.6062181   0.0000000), wk =   0.0011111
        k( 1135) = (   0.3166667   0.6254631   0.0000000), wk =   0.0011111
        k( 1136) = (   0.3166667   0.6447081   0.0000000), wk =   0.0011111
        k( 1137) = (   0.3166667   0.6639531   0.0000000), wk =   0.0011111
        k( 1138) = (   0.3166667   0.6831981   0.0000000), wk =   0.0011111
        k( 1139) = (   0.3166667   0.7024432   0.0000000), wk =   0.0011111
        k( 1140) = (   0.3166667   0.7216882   0.0000000), wk =   0.0011111
        k( 1141) = (   0.3166667   0.7409332   0.0000000), wk =   0.0011111
        k( 1142) = (   0.3166667  -0.3945229   0.0000000), wk =   0.0011111
        k( 1143) = (   0.3166667  -0.3752778   0.0000000), wk =   0.0011111
        k( 1144) = (   0.3166667  -0.3560328   0.0000000), wk =   0.0011111
        k( 1145) = (   0.3166667  -0.3367878   0.0000000), wk =   0.0011111
        k( 1146) = (   0.3166667  -0.3175428   0.0000000), wk =   0.0011111
        k( 1147) = (   0.3166667  -0.2982978   0.0000000), wk =   0.0011111
        k( 1148) = (   0.3166667  -0.2790528   0.0000000), wk =   0.0011111
        k( 1149) = (   0.3166667  -0.2598077   0.0000000), wk =   0.0011111
        k( 1150) = (   0.3166667  -0.2405627   0.0000000), wk =   0.0011111
        k( 1151) = (   0.3166667  -0.2213177   0.0000000), wk =   0.0011111
        k( 1152) = (   0.3166667  -0.2020727   0.0000000), wk =   0.0011111
        k( 1153) = (   0.3166667  -0.1828277   0.0000000), wk =   0.0011111
        k( 1154) = (   0.3166667  -0.1635827   0.0000000), wk =   0.0011111
        k( 1155) = (   0.3166667  -0.1443376   0.0000000), wk =   0.0011111
        k( 1156) = (   0.3166667  -0.1250926   0.0000000), wk =   0.0011111
        k( 1157) = (   0.3166667  -0.1058476   0.0000000), wk =   0.0011111
        k( 1158) = (   0.3166667  -0.0866026   0.0000000), wk =   0.0011111
        k( 1159) = (   0.3166667  -0.0673576   0.0000000), wk =   0.0011111
        k( 1160) = (   0.3166667  -0.0481125   0.0000000), wk =   0.0011111
        k( 1161) = (   0.3166667  -0.0288675   0.0000000), wk =   0.0011111
        k( 1162) = (   0.3166667  -0.0096225   0.0000000), wk =   0.0011111
        k( 1163) = (   0.3166667   0.0096225   0.0000000), wk =   0.0011111
        k( 1164) = (   0.3166667   0.0288675   0.0000000), wk =   0.0011111
        k( 1165) = (   0.3166667   0.0481125   0.0000000), wk =   0.0011111
        k( 1166) = (   0.3166667   0.0673576   0.0000000), wk =   0.0011111
        k( 1167) = (   0.3166667   0.0866026   0.0000000), wk =   0.0011111
        k( 1168) = (   0.3166667   0.1058476   0.0000000), wk =   0.0011111
        k( 1169) = (   0.3166667   0.1250926   0.0000000), wk =   0.0011111
        k( 1170) = (   0.3166667   0.1443376   0.0000000), wk =   0.0011111
        k( 1171) = (   0.3166667   0.1635827   0.0000000), wk =   0.0011111
        k( 1172) = (   0.3333333   0.1924502   0.0000000), wk =   0.0011111
        k( 1173) = (   0.3333333   0.2116952   0.0000000), wk =   0.0011111
        k( 1174) = (   0.3333333   0.2309402   0.0000000), wk =   0.0011111
        k( 1175) = (   0.3333333   0.2501852   0.0000000), wk =   0.0011111
        k( 1176) = (   0.3333333   0.2694303   0.0000000), wk =   0.0011111
        k( 1177) = (   0.3333333   0.2886753   0.0000000), wk =   0.0011111
        k( 1178) = (   0.3333333   0.3079203   0.0000000), wk =   0.0011111
        k( 1179) = (   0.3333333   0.3271653   0.0000000), wk =   0.0011111
        k( 1180) = (   0.3333333   0.3464103   0.0000000), wk =   0.0011111
        k( 1181) = (   0.3333333   0.3656553   0.0000000), wk =   0.0011111
        k( 1182) = (   0.3333333   0.3849004   0.0000000), wk =   0.0011111
        k( 1183) = (   0.3333333   0.4041454   0.0000000), wk =   0.0011111
        k( 1184) = (   0.3333333   0.4233904   0.0000000), wk =   0.0011111
        k( 1185) = (   0.3333333   0.4426354   0.0000000), wk =   0.0011111
        k( 1186) = (   0.3333333   0.4618804   0.0000000), wk =   0.0011111
        k( 1187) = (   0.3333333   0.4811254   0.0000000), wk =   0.0011111
        k( 1188) = (   0.3333333   0.5003705   0.0000000), wk =   0.0011111
        k( 1189) = (   0.3333333   0.5196155   0.0000000), wk =   0.0011111
        k( 1190) = (   0.3333333   0.5388605   0.0000000), wk =   0.0011111
        k( 1191) = (   0.3333333   0.5581055   0.0000000), wk =   0.0011111
        k( 1192) = (   0.3333333   0.5773505   0.0000000), wk =   0.0011111
        k( 1193) = (   0.3333333   0.5965956   0.0000000), wk =   0.0011111
        k( 1194) = (   0.3333333   0.6158406   0.0000000), wk =   0.0011111
        k( 1195) = (   0.3333333   0.6350856   0.0000000), wk =   0.0011111
        k( 1196) = (   0.3333333   0.6543306   0.0000000), wk =   0.0011111
        k( 1197) = (   0.3333333   0.6735756   0.0000000), wk =   0.0011111
        k( 1198) = (   0.3333333   0.6928206   0.0000000), wk =   0.0011111
        k( 1199) = (   0.3333333   0.7120657   0.0000000), wk =   0.0011111
        k( 1200) = (   0.3333333   0.7313107   0.0000000), wk =   0.0011111
        k( 1201) = (   0.3333333   0.7505557   0.0000000), wk =   0.0011111
        k( 1202) = (   0.3333333  -0.3849004   0.0000000), wk =   0.0011111
        k( 1203) = (   0.3333333  -0.3656553   0.0000000), wk =   0.0011111
        k( 1204) = (   0.3333333  -0.3464103   0.0000000), wk =   0.0011111
        k( 1205) = (   0.3333333  -0.3271653   0.0000000), wk =   0.0011111
        k( 1206) = (   0.3333333  -0.3079203   0.0000000), wk =   0.0011111
        k( 1207) = (   0.3333333  -0.2886753   0.0000000), wk =   0.0011111
        k( 1208) = (   0.3333333  -0.2694303   0.0000000), wk =   0.0011111
        k( 1209) = (   0.3333333  -0.2501852   0.0000000), wk =   0.0011111
        k( 1210) = (   0.3333333  -0.2309402   0.0000000), wk =   0.0011111
        k( 1211) = (   0.3333333  -0.2116952   0.0000000), wk =   0.0011111
        k( 1212) = (   0.3333333  -0.1924502   0.0000000), wk =   0.0011111
        k( 1213) = (   0.3333333  -0.1732052   0.0000000), wk =   0.0011111
        k( 1214) = (   0.3333333  -0.1539601   0.0000000), wk =   0.0011111
        k( 1215) = (   0.3333333  -0.1347151   0.0000000), wk =   0.0011111
        k( 1216) = (   0.3333333  -0.1154701   0.0000000), wk =   0.0011111
        k( 1217) = (   0.3333333  -0.0962251   0.0000000), wk =   0.0011111
        k( 1218) = (   0.3333333  -0.0769801   0.0000000), wk =   0.0011111
        k( 1219) = (   0.3333333  -0.0577351   0.0000000), wk =   0.0011111
        k( 1220) = (   0.3333333  -0.0384900   0.0000000), wk =   0.0011111
        k( 1221) = (   0.3333333  -0.0192450   0.0000000), wk =   0.0011111
        k( 1222) = (   0.3333333   0.0000000   0.0000000), wk =   0.0011111
        k( 1223) = (   0.3333333   0.0192450   0.0000000), wk =   0.0011111
        k( 1224) = (   0.3333333   0.0384900   0.0000000), wk =   0.0011111
        k( 1225) = (   0.3333333   0.0577351   0.0000000), wk =   0.0011111
        k( 1226) = (   0.3333333   0.0769801   0.0000000), wk =   0.0011111
        k( 1227) = (   0.3333333   0.0962251   0.0000000), wk =   0.0011111
        k( 1228) = (   0.3333333   0.1154701   0.0000000), wk =   0.0011111
        k( 1229) = (   0.3333333   0.1347151   0.0000000), wk =   0.0011111
        k( 1230) = (   0.3333333   0.1539601   0.0000000), wk =   0.0011111
        k( 1231) = (   0.3333333   0.1732052   0.0000000), wk =   0.0011111
        k( 1232) = (   0.3500000   0.2020727   0.0000000), wk =   0.0011111
        k( 1233) = (   0.3500000   0.2213177   0.0000000), wk =   0.0011111
        k( 1234) = (   0.3500000   0.2405627   0.0000000), wk =   0.0011111
        k( 1235) = (   0.3500000   0.2598077   0.0000000), wk =   0.0011111
        k( 1236) = (   0.3500000   0.2790528   0.0000000), wk =   0.0011111
        k( 1237) = (   0.3500000   0.2982978   0.0000000), wk =   0.0011111
        k( 1238) = (   0.3500000   0.3175428   0.0000000), wk =   0.0011111
        k( 1239) = (   0.3500000   0.3367878   0.0000000), wk =   0.0011111
        k( 1240) = (   0.3500000   0.3560328   0.0000000), wk =   0.0011111
        k( 1241) = (   0.3500000   0.3752778   0.0000000), wk =   0.0011111
        k( 1242) = (   0.3500000   0.3945229   0.0000000), wk =   0.0011111
        k( 1243) = (   0.3500000   0.4137679   0.0000000), wk =   0.0011111
        k( 1244) = (   0.3500000   0.4330129   0.0000000), wk =   0.0011111
        k( 1245) = (   0.3500000   0.4522579   0.0000000), wk =   0.0011111
        k( 1246) = (   0.3500000   0.4715029   0.0000000), wk =   0.0011111
        k( 1247) = (   0.3500000   0.4907480   0.0000000), wk =   0.0011111
        k( 1248) = (   0.3500000   0.5099930   0.0000000), wk =   0.0011111
        k( 1249) = (   0.3500000   0.5292380   0.0000000), wk =   0.0011111
        k( 1250) = (   0.3500000   0.5484830   0.0000000), wk =   0.0011111
        k( 1251) = (   0.3500000   0.5677280   0.0000000), wk =   0.0011111
        k( 1252) = (   0.3500000   0.5869730   0.0000000), wk =   0.0011111
        k( 1253) = (   0.3500000   0.6062181   0.0000000), wk =   0.0011111
        k( 1254) = (   0.3500000   0.6254631   0.0000000), wk =   0.0011111
        k( 1255) = (   0.3500000   0.6447081   0.0000000), wk =   0.0011111
        k( 1256) = (   0.3500000   0.6639531   0.0000000), wk =   0.0011111
        k( 1257) = (   0.3500000   0.6831981   0.0000000), wk =   0.0011111
        k( 1258) = (   0.3500000   0.7024432   0.0000000), wk =   0.0011111
        k( 1259) = (   0.3500000   0.7216882   0.0000000), wk =   0.0011111
        k( 1260) = (   0.3500000   0.7409332   0.0000000), wk =   0.0011111
        k( 1261) = (   0.3500000   0.7601782   0.0000000), wk =   0.0011111
        k( 1262) = (   0.3500000  -0.3752778   0.0000000), wk =   0.0011111
        k( 1263) = (   0.3500000  -0.3560328   0.0000000), wk =   0.0011111
        k( 1264) = (   0.3500000  -0.3367878   0.0000000), wk =   0.0011111
        k( 1265) = (   0.3500000  -0.3175428   0.0000000), wk =   0.0011111
        k( 1266) = (   0.3500000  -0.2982978   0.0000000), wk =   0.0011111
        k( 1267) = (   0.3500000  -0.2790528   0.0000000), wk =   0.0011111
        k( 1268) = (   0.3500000  -0.2598077   0.0000000), wk =   0.0011111
        k( 1269) = (   0.3500000  -0.2405627   0.0000000), wk =   0.0011111
        k( 1270) = (   0.3500000  -0.2213177   0.0000000), wk =   0.0011111
        k( 1271) = (   0.3500000  -0.2020727   0.0000000), wk =   0.0011111
        k( 1272) = (   0.3500000  -0.1828277   0.0000000), wk =   0.0011111
        k( 1273) = (   0.3500000  -0.1635827   0.0000000), wk =   0.0011111
        k( 1274) = (   0.3500000  -0.1443376   0.0000000), wk =   0.0011111
        k( 1275) = (   0.3500000  -0.1250926   0.0000000), wk =   0.0011111
        k( 1276) = (   0.3500000  -0.1058476   0.0000000), wk =   0.0011111
        k( 1277) = (   0.3500000  -0.0866026   0.0000000), wk =   0.0011111
        k( 1278) = (   0.3500000  -0.0673576   0.0000000), wk =   0.0011111
        k( 1279) = (   0.3500000  -0.0481125   0.0000000), wk =   0.0011111
        k( 1280) = (   0.3500000  -0.0288675   0.0000000), wk =   0.0011111
        k( 1281) = (   0.3500000  -0.0096225   0.0000000), wk =   0.0011111
        k( 1282) = (   0.3500000   0.0096225   0.0000000), wk =   0.0011111
        k( 1283) = (   0.3500000   0.0288675   0.0000000), wk =   0.0011111
        k( 1284) = (   0.3500000   0.0481125   0.0000000), wk =   0.0011111
        k( 1285) = (   0.3500000   0.0673576   0.0000000), wk =   0.0011111
        k( 1286) = (   0.3500000   0.0866026   0.0000000), wk =   0.0011111
        k( 1287) = (   0.3500000   0.1058476   0.0000000), wk =   0.0011111
        k( 1288) = (   0.3500000   0.1250926   0.0000000), wk =   0.0011111
        k( 1289) = (   0.3500000   0.1443376   0.0000000), wk =   0.0011111
        k( 1290) = (   0.3500000   0.1635827   0.0000000), wk =   0.0011111
        k( 1291) = (   0.3500000   0.1828277   0.0000000), wk =   0.0011111
        k( 1292) = (   0.3666667   0.2116952   0.0000000), wk =   0.0011111
        k( 1293) = (   0.3666667   0.2309402   0.0000000), wk =   0.0011111
        k( 1294) = (   0.3666667   0.2501852   0.0000000), wk =   0.0011111
        k( 1295) = (   0.3666667   0.2694303   0.0000000), wk =   0.0011111
        k( 1296) = (   0.3666667   0.2886753   0.0000000), wk =   0.0011111
        k( 1297) = (   0.3666667   0.3079203   0.0000000), wk =   0.0011111
        k( 1298) = (   0.3666667   0.3271653   0.0000000), wk =   0.0011111
        k( 1299) = (   0.3666667   0.3464103   0.0000000), wk =   0.0011111
        k( 1300) = (   0.3666667   0.3656553   0.0000000), wk =   0.0011111
        k( 1301) = (   0.3666667   0.3849004   0.0000000), wk =   0.0011111
        k( 1302) = (   0.3666667   0.4041454   0.0000000), wk =   0.0011111
        k( 1303) = (   0.3666667   0.4233904   0.0000000), wk =   0.0011111
        k( 1304) = (   0.3666667   0.4426354   0.0000000), wk =   0.0011111
        k( 1305) = (   0.3666667   0.4618804   0.0000000), wk =   0.0011111
        k( 1306) = (   0.3666667   0.4811254   0.0000000), wk =   0.0011111
        k( 1307) = (   0.3666667   0.5003705   0.0000000), wk =   0.0011111
        k( 1308) = (   0.3666667   0.5196155   0.0000000), wk =   0.0011111
        k( 1309) = (   0.3666667   0.5388605   0.0000000), wk =   0.0011111
        k( 1310) = (   0.3666667   0.5581055   0.0000000), wk =   0.0011111
        k( 1311) = (   0.3666667   0.5773505   0.0000000), wk =   0.0011111
        k( 1312) = (   0.3666667   0.5965956   0.0000000), wk =   0.0011111
        k( 1313) = (   0.3666667   0.6158406   0.0000000), wk =   0.0011111
        k( 1314) = (   0.3666667   0.6350856   0.0000000), wk =   0.0011111
        k( 1315) = (   0.3666667   0.6543306   0.0000000), wk =   0.0011111
        k( 1316) = (   0.3666667   0.6735756   0.0000000), wk =   0.0011111
        k( 1317) = (   0.3666667   0.6928206   0.0000000), wk =   0.0011111
        k( 1318) = (   0.3666667   0.7120657   0.0000000), wk =   0.0011111
        k( 1319) = (   0.3666667   0.7313107   0.0000000), wk =   0.0011111
        k( 1320) = (   0.3666667   0.7505557   0.0000000), wk =   0.0011111
        k( 1321) = (   0.3666667   0.7698007   0.0000000), wk =   0.0011111
        k( 1322) = (   0.3666667  -0.3656553   0.0000000), wk =   0.0011111
        k( 1323) = (   0.3666667  -0.3464103   0.0000000), wk =   0.0011111
        k( 1324) = (   0.3666667  -0.3271653   0.0000000), wk =   0.0011111
        k( 1325) = (   0.3666667  -0.3079203   0.0000000), wk =   0.0011111
        k( 1326) = (   0.3666667  -0.2886753   0.0000000), wk =   0.0011111
        k( 1327) = (   0.3666667  -0.2694303   0.0000000), wk =   0.0011111
        k( 1328) = (   0.3666667  -0.2501852   0.0000000), wk =   0.0011111
        k( 1329) = (   0.3666667  -0.2309402   0.0000000), wk =   0.0011111
        k( 1330) = (   0.3666667  -0.2116952   0.0000000), wk =   0.0011111
        k( 1331) = (   0.3666667  -0.1924502   0.0000000), wk =   0.0011111
        k( 1332) = (   0.3666667  -0.1732052   0.0000000), wk =   0.0011111
        k( 1333) = (   0.3666667  -0.1539601   0.0000000), wk =   0.0011111
        k( 1334) = (   0.3666667  -0.1347151   0.0000000), wk =   0.0011111
        k( 1335) = (   0.3666667  -0.1154701   0.0000000), wk =   0.0011111
        k( 1336) = (   0.3666667  -0.0962251   0.0000000), wk =   0.0011111
        k( 1337) = (   0.3666667  -0.0769801   0.0000000), wk =   0.0011111
        k( 1338) = (   0.3666667  -0.0577351   0.0000000), wk =   0.0011111
        k( 1339) = (   0.3666667  -0.0384900   0.0000000), wk =   0.0011111
        k( 1340) = (   0.3666667  -0.0192450   0.0000000), wk =   0.0011111
        k( 1341) = (   0.3666667  -0.0000000   0.0000000), wk =   0.0011111
        k( 1342) = (   0.3666667   0.0192450   0.0000000), wk =   0.0011111
        k( 1343) = (   0.3666667   0.0384900   0.0000000), wk =   0.0011111
        k( 1344) = (   0.3666667   0.0577351   0.0000000), wk =   0.0011111
        k( 1345) = (   0.3666667   0.0769801   0.0000000), wk =   0.0011111
        k( 1346) = (   0.3666667   0.0962251   0.0000000), wk =   0.0011111
        k( 1347) = (   0.3666667   0.1154701   0.0000000), wk =   0.0011111
        k( 1348) = (   0.3666667   0.1347151   0.0000000), wk =   0.0011111
        k( 1349) = (   0.3666667   0.1539601   0.0000000), wk =   0.0011111
        k( 1350) = (   0.3666667   0.1732052   0.0000000), wk =   0.0011111
        k( 1351) = (   0.3666667   0.1924502   0.0000000), wk =   0.0011111
        k( 1352) = (   0.3833333   0.2213177   0.0000000), wk =   0.0011111
        k( 1353) = (   0.3833333   0.2405627   0.0000000), wk =   0.0011111
        k( 1354) = (   0.3833333   0.2598077   0.0000000), wk =   0.0011111
        k( 1355) = (   0.3833333   0.2790528   0.0000000), wk =   0.0011111
        k( 1356) = (   0.3833333   0.2982978   0.0000000), wk =   0.0011111
        k( 1357) = (   0.3833333   0.3175428   0.0000000), wk =   0.0011111
        k( 1358) = (   0.3833333   0.3367878   0.0000000), wk =   0.0011111
        k( 1359) = (   0.3833333   0.3560328   0.0000000), wk =   0.0011111
        k( 1360) = (   0.3833333   0.3752778   0.0000000), wk =   0.0011111
        k( 1361) = (   0.3833333   0.3945229   0.0000000), wk =   0.0011111
        k( 1362) = (   0.3833333   0.4137679   0.0000000), wk =   0.0011111
        k( 1363) = (   0.3833333   0.4330129   0.0000000), wk =   0.0011111
        k( 1364) = (   0.3833333   0.4522579   0.0000000), wk =   0.0011111
        k( 1365) = (   0.3833333   0.4715029   0.0000000), wk =   0.0011111
        k( 1366) = (   0.3833333   0.4907480   0.0000000), wk =   0.0011111
        k( 1367) = (   0.3833333   0.5099930   0.0000000), wk =   0.0011111
        k( 1368) = (   0.3833333   0.5292380   0.0000000), wk =   0.0011111
        k( 1369) = (   0.3833333   0.5484830   0.0000000), wk =   0.0011111
        k( 1370) = (   0.3833333   0.5677280   0.0000000), wk =   0.0011111
        k( 1371) = (   0.3833333   0.5869730   0.0000000), wk =   0.0011111
        k( 1372) = (   0.3833333   0.6062181   0.0000000), wk =   0.0011111
        k( 1373) = (   0.3833333   0.6254631   0.0000000), wk =   0.0011111
        k( 1374) = (   0.3833333   0.6447081   0.0000000), wk =   0.0011111
        k( 1375) = (   0.3833333   0.6639531   0.0000000), wk =   0.0011111
        k( 1376) = (   0.3833333   0.6831981   0.0000000), wk =   0.0011111
        k( 1377) = (   0.3833333   0.7024432   0.0000000), wk =   0.0011111
        k( 1378) = (   0.3833333   0.7216882   0.0000000), wk =   0.0011111
        k( 1379) = (   0.3833333   0.7409332   0.0000000), wk =   0.0011111
        k( 1380) = (   0.3833333   0.7601782   0.0000000), wk =   0.0011111
        k( 1381) = (   0.3833333   0.7794232   0.0000000), wk =   0.0011111
        k( 1382) = (   0.3833333  -0.3560328   0.0000000), wk =   0.0011111
        k( 1383) = (   0.3833333  -0.3367878   0.0000000), wk =   0.0011111
        k( 1384) = (   0.3833333  -0.3175428   0.0000000), wk =   0.0011111
        k( 1385) = (   0.3833333  -0.2982978   0.0000000), wk =   0.0011111
        k( 1386) = (   0.3833333  -0.2790528   0.0000000), wk =   0.0011111
        k( 1387) = (   0.3833333  -0.2598077   0.0000000), wk =   0.0011111
        k( 1388) = (   0.3833333  -0.2405627   0.0000000), wk =   0.0011111
        k( 1389) = (   0.3833333  -0.2213177   0.0000000), wk =   0.0011111
        k( 1390) = (   0.3833333  -0.2020727   0.0000000), wk =   0.0011111
        k( 1391) = (   0.3833333  -0.1828277   0.0000000), wk =   0.0011111
        k( 1392) = (   0.3833333  -0.1635827   0.0000000), wk =   0.0011111
        k( 1393) = (   0.3833333  -0.1443376   0.0000000), wk =   0.0011111
        k( 1394) = (   0.3833333  -0.1250926   0.0000000), wk =   0.0011111
        k( 1395) = (   0.3833333  -0.1058476   0.0000000), wk =   0.0011111
        k( 1396) = (   0.3833333  -0.0866026   0.0000000), wk =   0.0011111
        k( 1397) = (   0.3833333  -0.0673576   0.0000000), wk =   0.0011111
        k( 1398) = (   0.3833333  -0.0481125   0.0000000), wk =   0.0011111
        k( 1399) = (   0.3833333  -0.0288675   0.0000000), wk =   0.0011111
        k( 1400) = (   0.3833333  -0.0096225   0.0000000), wk =   0.0011111
        k( 1401) = (   0.3833333   0.0096225   0.0000000), wk =   0.0011111
        k( 1402) = (   0.3833333   0.0288675   0.0000000), wk =   0.0011111
        k( 1403) = (   0.3833333   0.0481125   0.0000000), wk =   0.0011111
        k( 1404) = (   0.3833333   0.0673576   0.0000000), wk =   0.0011111
        k( 1405) = (   0.3833333   0.0866026   0.0000000), wk =   0.0011111
        k( 1406) = (   0.3833333   0.1058476   0.0000000), wk =   0.0011111
        k( 1407) = (   0.3833333   0.1250926   0.0000000), wk =   0.0011111
        k( 1408) = (   0.3833333   0.1443376   0.0000000), wk =   0.0011111
        k( 1409) = (   0.3833333   0.1635827   0.0000000), wk =   0.0011111
        k( 1410) = (   0.3833333   0.1828277   0.0000000), wk =   0.0011111
        k( 1411) = (   0.3833333   0.2020727   0.0000000), wk =   0.0011111
        k( 1412) = (   0.4000000   0.2309402   0.0000000), wk =   0.0011111
        k( 1413) = (   0.4000000   0.2501852   0.0000000), wk =   0.0011111
        k( 1414) = (   0.4000000   0.2694303   0.0000000), wk =   0.0011111
        k( 1415) = (   0.4000000   0.2886753   0.0000000), wk =   0.0011111
        k( 1416) = (   0.4000000   0.3079203   0.0000000), wk =   0.0011111
        k( 1417) = (   0.4000000   0.3271653   0.0000000), wk =   0.0011111
        k( 1418) = (   0.4000000   0.3464103   0.0000000), wk =   0.0011111
        k( 1419) = (   0.4000000   0.3656553   0.0000000), wk =   0.0011111
        k( 1420) = (   0.4000000   0.3849004   0.0000000), wk =   0.0011111
        k( 1421) = (   0.4000000   0.4041454   0.0000000), wk =   0.0011111
        k( 1422) = (   0.4000000   0.4233904   0.0000000), wk =   0.0011111
        k( 1423) = (   0.4000000   0.4426354   0.0000000), wk =   0.0011111
        k( 1424) = (   0.4000000   0.4618804   0.0000000), wk =   0.0011111
        k( 1425) = (   0.4000000   0.4811254   0.0000000), wk =   0.0011111
        k( 1426) = (   0.4000000   0.5003705   0.0000000), wk =   0.0011111
        k( 1427) = (   0.4000000   0.5196155   0.0000000), wk =   0.0011111
        k( 1428) = (   0.4000000   0.5388605   0.0000000), wk =   0.0011111
        k( 1429) = (   0.4000000   0.5581055   0.0000000), wk =   0.0011111
        k( 1430) = (   0.4000000   0.5773505   0.0000000), wk =   0.0011111
        k( 1431) = (   0.4000000   0.5965956   0.0000000), wk =   0.0011111
        k( 1432) = (   0.4000000   0.6158406   0.0000000), wk =   0.0011111
        k( 1433) = (   0.4000000   0.6350856   0.0000000), wk =   0.0011111
        k( 1434) = (   0.4000000   0.6543306   0.0000000), wk =   0.0011111
        k( 1435) = (   0.4000000   0.6735756   0.0000000), wk =   0.0011111
        k( 1436) = (   0.4000000   0.6928206   0.0000000), wk =   0.0011111
        k( 1437) = (   0.4000000   0.7120657   0.0000000), wk =   0.0011111
        k( 1438) = (   0.4000000   0.7313107   0.0000000), wk =   0.0011111
        k( 1439) = (   0.4000000   0.7505557   0.0000000), wk =   0.0011111
        k( 1440) = (   0.4000000   0.7698007   0.0000000), wk =   0.0011111
        k( 1441) = (   0.4000000   0.7890457   0.0000000), wk =   0.0011111
        k( 1442) = (   0.4000000  -0.3464103   0.0000000), wk =   0.0011111
        k( 1443) = (   0.4000000  -0.3271653   0.0000000), wk =   0.0011111
        k( 1444) = (   0.4000000  -0.3079203   0.0000000), wk =   0.0011111
        k( 1445) = (   0.4000000  -0.2886753   0.0000000), wk =   0.0011111
        k( 1446) = (   0.4000000  -0.2694303   0.0000000), wk =   0.0011111
        k( 1447) = (   0.4000000  -0.2501852   0.0000000), wk =   0.0011111
        k( 1448) = (   0.4000000  -0.2309402   0.0000000), wk =   0.0011111
        k( 1449) = (   0.4000000  -0.2116952   0.0000000), wk =   0.0011111
        k( 1450) = (   0.4000000  -0.1924502   0.0000000), wk =   0.0011111
        k( 1451) = (   0.4000000  -0.1732052   0.0000000), wk =   0.0011111
        k( 1452) = (   0.4000000  -0.1539601   0.0000000), wk =   0.0011111
        k( 1453) = (   0.4000000  -0.1347151   0.0000000), wk =   0.0011111
        k( 1454) = (   0.4000000  -0.1154701   0.0000000), wk =   0.0011111
        k( 1455) = (   0.4000000  -0.0962251   0.0000000), wk =   0.0011111
        k( 1456) = (   0.4000000  -0.0769801   0.0000000), wk =   0.0011111
        k( 1457) = (   0.4000000  -0.0577351   0.0000000), wk =   0.0011111
        k( 1458) = (   0.4000000  -0.0384900   0.0000000), wk =   0.0011111
        k( 1459) = (   0.4000000  -0.0192450   0.0000000), wk =   0.0011111
        k( 1460) = (   0.4000000   0.0000000   0.0000000), wk =   0.0011111
        k( 1461) = (   0.4000000   0.0192450   0.0000000), wk =   0.0011111
        k( 1462) = (   0.4000000   0.0384900   0.0000000), wk =   0.0011111
        k( 1463) = (   0.4000000   0.0577351   0.0000000), wk =   0.0011111
        k( 1464) = (   0.4000000   0.0769801   0.0000000), wk =   0.0011111
        k( 1465) = (   0.4000000   0.0962251   0.0000000), wk =   0.0011111
        k( 1466) = (   0.4000000   0.1154701   0.0000000), wk =   0.0011111
        k( 1467) = (   0.4000000   0.1347151   0.0000000), wk =   0.0011111
        k( 1468) = (   0.4000000   0.1539601   0.0000000), wk =   0.0011111
        k( 1469) = (   0.4000000   0.1732052   0.0000000), wk =   0.0011111
        k( 1470) = (   0.4000000   0.1924502   0.0000000), wk =   0.0011111
        k( 1471) = (   0.4000000   0.2116952   0.0000000), wk =   0.0011111
        k( 1472) = (   0.4166667   0.2405627   0.0000000), wk =   0.0011111
        k( 1473) = (   0.4166667   0.2598077   0.0000000), wk =   0.0011111
        k( 1474) = (   0.4166667   0.2790528   0.0000000), wk =   0.0011111
        k( 1475) = (   0.4166667   0.2982978   0.0000000), wk =   0.0011111
        k( 1476) = (   0.4166667   0.3175428   0.0000000), wk =   0.0011111
        k( 1477) = (   0.4166667   0.3367878   0.0000000), wk =   0.0011111
        k( 1478) = (   0.4166667   0.3560328   0.0000000), wk =   0.0011111
        k( 1479) = (   0.4166667   0.3752778   0.0000000), wk =   0.0011111
        k( 1480) = (   0.4166667   0.3945229   0.0000000), wk =   0.0011111
        k( 1481) = (   0.4166667   0.4137679   0.0000000), wk =   0.0011111
        k( 1482) = (   0.4166667   0.4330129   0.0000000), wk =   0.0011111
        k( 1483) = (   0.4166667   0.4522579   0.0000000), wk =   0.0011111
        k( 1484) = (   0.4166667   0.4715029   0.0000000), wk =   0.0011111
        k( 1485) = (   0.4166667   0.4907480   0.0000000), wk =   0.0011111
        k( 1486) = (   0.4166667   0.5099930   0.0000000), wk =   0.0011111
        k( 1487) = (   0.4166667   0.5292380   0.0000000), wk =   0.0011111
        k( 1488) = (   0.4166667   0.5484830   0.0000000), wk =   0.0011111
        k( 1489) = (   0.4166667   0.5677280   0.0000000), wk =   0.0011111
        k( 1490) = (   0.4166667   0.5869730   0.0000000), wk =   0.0011111
        k( 1491) = (   0.4166667   0.6062181   0.0000000), wk =   0.0011111
        k( 1492) = (   0.4166667   0.6254631   0.0000000), wk =   0.0011111
        k( 1493) = (   0.4166667   0.6447081   0.0000000), wk =   0.0011111
        k( 1494) = (   0.4166667   0.6639531   0.0000000), wk =   0.0011111
        k( 1495) = (   0.4166667   0.6831981   0.0000000), wk =   0.0011111
        k( 1496) = (   0.4166667   0.7024432   0.0000000), wk =   0.0011111
        k( 1497) = (   0.4166667   0.7216882   0.0000000), wk =   0.0011111
        k( 1498) = (   0.4166667   0.7409332   0.0000000), wk =   0.0011111
        k( 1499) = (   0.4166667   0.7601782   0.0000000), wk =   0.0011111
        k( 1500) = (   0.4166667   0.7794232   0.0000000), wk =   0.0011111
        k( 1501) = (   0.4166667   0.7986682   0.0000000), wk =   0.0011111
        k( 1502) = (   0.4166667  -0.3367878   0.0000000), wk =   0.0011111
        k( 1503) = (   0.4166667  -0.3175428   0.0000000), wk =   0.0011111
        k( 1504) = (   0.4166667  -0.2982978   0.0000000), wk =   0.0011111
        k( 1505) = (   0.4166667  -0.2790528   0.0000000), wk =   0.0011111
        k( 1506) = (   0.4166667  -0.2598077   0.0000000), wk =   0.0011111
        k( 1507) = (   0.4166667  -0.2405627   0.0000000), wk =   0.0011111
        k( 1508) = (   0.4166667  -0.2213177   0.0000000), wk =   0.0011111
        k( 1509) = (   0.4166667  -0.2020727   0.0000000), wk =   0.0011111
        k( 1510) = (   0.4166667  -0.1828277   0.0000000), wk =   0.0011111
        k( 1511) = (   0.4166667  -0.1635827   0.0000000), wk =   0.0011111
        k( 1512) = (   0.4166667  -0.1443376   0.0000000), wk =   0.0011111
        k( 1513) = (   0.4166667  -0.1250926   0.0000000), wk =   0.0011111
        k( 1514) = (   0.4166667  -0.1058476   0.0000000), wk =   0.0011111
        k( 1515) = (   0.4166667  -0.0866026   0.0000000), wk =   0.0011111
        k( 1516) = (   0.4166667  -0.0673576   0.0000000), wk =   0.0011111
        k( 1517) = (   0.4166667  -0.0481125   0.0000000), wk =   0.0011111
        k( 1518) = (   0.4166667  -0.0288675   0.0000000), wk =   0.0011111
        k( 1519) = (   0.4166667  -0.0096225   0.0000000), wk =   0.0011111
        k( 1520) = (   0.4166667   0.0096225   0.0000000), wk =   0.0011111
        k( 1521) = (   0.4166667   0.0288675   0.0000000), wk =   0.0011111
        k( 1522) = (   0.4166667   0.0481125   0.0000000), wk =   0.0011111
        k( 1523) = (   0.4166667   0.0673576   0.0000000), wk =   0.0011111
        k( 1524) = (   0.4166667   0.0866026   0.0000000), wk =   0.0011111
        k( 1525) = (   0.4166667   0.1058476   0.0000000), wk =   0.0011111
        k( 1526) = (   0.4166667   0.1250926   0.0000000), wk =   0.0011111
        k( 1527) = (   0.4166667   0.1443376   0.0000000), wk =   0.0011111
        k( 1528) = (   0.4166667   0.1635827   0.0000000), wk =   0.0011111
        k( 1529) = (   0.4166667   0.1828277   0.0000000), wk =   0.0011111
        k( 1530) = (   0.4166667   0.2020727   0.0000000), wk =   0.0011111
        k( 1531) = (   0.4166667   0.2213177   0.0000000), wk =   0.0011111
        k( 1532) = (   0.4333333   0.2501852   0.0000000), wk =   0.0011111
        k( 1533) = (   0.4333333   0.2694303   0.0000000), wk =   0.0011111
        k( 1534) = (   0.4333333   0.2886753   0.0000000), wk =   0.0011111
        k( 1535) = (   0.4333333   0.3079203   0.0000000), wk =   0.0011111
        k( 1536) = (   0.4333333   0.3271653   0.0000000), wk =   0.0011111
        k( 1537) = (   0.4333333   0.3464103   0.0000000), wk =   0.0011111
        k( 1538) = (   0.4333333   0.3656553   0.0000000), wk =   0.0011111
        k( 1539) = (   0.4333333   0.3849004   0.0000000), wk =   0.0011111
        k( 1540) = (   0.4333333   0.4041454   0.0000000), wk =   0.0011111
        k( 1541) = (   0.4333333   0.4233904   0.0000000), wk =   0.0011111
        k( 1542) = (   0.4333333   0.4426354   0.0000000), wk =   0.0011111
        k( 1543) = (   0.4333333   0.4618804   0.0000000), wk =   0.0011111
        k( 1544) = (   0.4333333   0.4811254   0.0000000), wk =   0.0011111
        k( 1545) = (   0.4333333   0.5003705   0.0000000), wk =   0.0011111
        k( 1546) = (   0.4333333   0.5196155   0.0000000), wk =   0.0011111
        k( 1547) = (   0.4333333   0.5388605   0.0000000), wk =   0.0011111
        k( 1548) = (   0.4333333   0.5581055   0.0000000), wk =   0.0011111
        k( 1549) = (   0.4333333   0.5773505   0.0000000), wk =   0.0011111
        k( 1550) = (   0.4333333   0.5965956   0.0000000), wk =   0.0011111
        k( 1551) = (   0.4333333   0.6158406   0.0000000), wk =   0.0011111
        k( 1552) = (   0.4333333   0.6350856   0.0000000), wk =   0.0011111
        k( 1553) = (   0.4333333   0.6543306   0.0000000), wk =   0.0011111
        k( 1554) = (   0.4333333   0.6735756   0.0000000), wk =   0.0011111
        k( 1555) = (   0.4333333   0.6928206   0.0000000), wk =   0.0011111
        k( 1556) = (   0.4333333   0.7120657   0.0000000), wk =   0.0011111
        k( 1557) = (   0.4333333   0.7313107   0.0000000), wk =   0.0011111
        k( 1558) = (   0.4333333   0.7505557   0.0000000), wk =   0.0011111
        k( 1559) = (   0.4333333   0.7698007   0.0000000), wk =   0.0011111
        k( 1560) = (   0.4333333   0.7890457   0.0000000), wk =   0.0011111
        k( 1561) = (   0.4333333   0.8082908   0.0000000), wk =   0.0011111
        k( 1562) = (   0.4333333  -0.3271653   0.0000000), wk =   0.0011111
        k( 1563) = (   0.4333333  -0.3079203   0.0000000), wk =   0.0011111
        k( 1564) = (   0.4333333  -0.2886753   0.0000000), wk =   0.0011111
        k( 1565) = (   0.4333333  -0.2694303   0.0000000), wk =   0.0011111
        k( 1566) = (   0.4333333  -0.2501852   0.0000000), wk =   0.0011111
        k( 1567) = (   0.4333333  -0.2309402   0.0000000), wk =   0.0011111
        k( 1568) = (   0.4333333  -0.2116952   0.0000000), wk =   0.0011111
        k( 1569) = (   0.4333333  -0.1924502   0.0000000), wk =   0.0011111
        k( 1570) = (   0.4333333  -0.1732052   0.0000000), wk =   0.0011111
        k( 1571) = (   0.4333333  -0.1539601   0.0000000), wk =   0.0011111
        k( 1572) = (   0.4333333  -0.1347151   0.0000000), wk =   0.0011111
        k( 1573) = (   0.4333333  -0.1154701   0.0000000), wk =   0.0011111
        k( 1574) = (   0.4333333  -0.0962251   0.0000000), wk =   0.0011111
        k( 1575) = (   0.4333333  -0.0769801   0.0000000), wk =   0.0011111
        k( 1576) = (   0.4333333  -0.0577351   0.0000000), wk =   0.0011111
        k( 1577) = (   0.4333333  -0.0384900   0.0000000), wk =   0.0011111
        k( 1578) = (   0.4333333  -0.0192450   0.0000000), wk =   0.0011111
        k( 1579) = (   0.4333333   0.0000000   0.0000000), wk =   0.0011111
        k( 1580) = (   0.4333333   0.0192450   0.0000000), wk =   0.0011111
        k( 1581) = (   0.4333333   0.0384900   0.0000000), wk =   0.0011111
        k( 1582) = (   0.4333333   0.0577351   0.0000000), wk =   0.0011111
        k( 1583) = (   0.4333333   0.0769801   0.0000000), wk =   0.0011111
        k( 1584) = (   0.4333333   0.0962251   0.0000000), wk =   0.0011111
        k( 1585) = (   0.4333333   0.1154701   0.0000000), wk =   0.0011111
        k( 1586) = (   0.4333333   0.1347151   0.0000000), wk =   0.0011111
        k( 1587) = (   0.4333333   0.1539601   0.0000000), wk =   0.0011111
        k( 1588) = (   0.4333333   0.1732052   0.0000000), wk =   0.0011111
        k( 1589) = (   0.4333333   0.1924502   0.0000000), wk =   0.0011111
        k( 1590) = (   0.4333333   0.2116952   0.0000000), wk =   0.0011111
        k( 1591) = (   0.4333333   0.2309402   0.0000000), wk =   0.0011111
        k( 1592) = (   0.4500000   0.2598077   0.0000000), wk =   0.0011111
        k( 1593) = (   0.4500000   0.2790528   0.0000000), wk =   0.0011111
        k( 1594) = (   0.4500000   0.2982978   0.0000000), wk =   0.0011111
        k( 1595) = (   0.4500000   0.3175428   0.0000000), wk =   0.0011111
        k( 1596) = (   0.4500000   0.3367878   0.0000000), wk =   0.0011111
        k( 1597) = (   0.4500000   0.3560328   0.0000000), wk =   0.0011111
        k( 1598) = (   0.4500000   0.3752778   0.0000000), wk =   0.0011111
        k( 1599) = (   0.4500000   0.3945229   0.0000000), wk =   0.0011111
        k( 1600) = (   0.4500000   0.4137679   0.0000000), wk =   0.0011111
        k( 1601) = (   0.4500000   0.4330129   0.0000000), wk =   0.0011111
        k( 1602) = (   0.4500000   0.4522579   0.0000000), wk =   0.0011111
        k( 1603) = (   0.4500000   0.4715029   0.0000000), wk =   0.0011111
        k( 1604) = (   0.4500000   0.4907480   0.0000000), wk =   0.0011111
        k( 1605) = (   0.4500000   0.5099930   0.0000000), wk =   0.0011111
        k( 1606) = (   0.4500000   0.5292380   0.0000000), wk =   0.0011111
        k( 1607) = (   0.4500000   0.5484830   0.0000000), wk =   0.0011111
        k( 1608) = (   0.4500000   0.5677280   0.0000000), wk =   0.0011111
        k( 1609) = (   0.4500000   0.5869730   0.0000000), wk =   0.0011111
        k( 1610) = (   0.4500000   0.6062181   0.0000000), wk =   0.0011111
        k( 1611) = (   0.4500000   0.6254631   0.0000000), wk =   0.0011111
        k( 1612) = (   0.4500000   0.6447081   0.0000000), wk =   0.0011111
        k( 1613) = (   0.4500000   0.6639531   0.0000000), wk =   0.0011111
        k( 1614) = (   0.4500000   0.6831981   0.0000000), wk =   0.0011111
        k( 1615) = (   0.4500000   0.7024432   0.0000000), wk =   0.0011111
        k( 1616) = (   0.4500000   0.7216882   0.0000000), wk =   0.0011111
        k( 1617) = (   0.4500000   0.7409332   0.0000000), wk =   0.0011111
        k( 1618) = (   0.4500000   0.7601782   0.0000000), wk =   0.0011111
        k( 1619) = (   0.4500000   0.7794232   0.0000000), wk =   0.0011111
        k( 1620) = (   0.4500000   0.7986682   0.0000000), wk =   0.0011111
        k( 1621) = (   0.4500000   0.8179133   0.0000000), wk =   0.0011111
        k( 1622) = (   0.4500000  -0.3175428   0.0000000), wk =   0.0011111
        k( 1623) = (   0.4500000  -0.2982978   0.0000000), wk =   0.0011111
        k( 1624) = (   0.4500000  -0.2790528   0.0000000), wk =   0.0011111
        k( 1625) = (   0.4500000  -0.2598077   0.0000000), wk =   0.0011111
        k( 1626) = (   0.4500000  -0.2405627   0.0000000), wk =   0.0011111
        k( 1627) = (   0.4500000  -0.2213177   0.0000000), wk =   0.0011111
        k( 1628) = (   0.4500000  -0.2020727   0.0000000), wk =   0.0011111
        k( 1629) = (   0.4500000  -0.1828277   0.0000000), wk =   0.0011111
        k( 1630) = (   0.4500000  -0.1635827   0.0000000), wk =   0.0011111
        k( 1631) = (   0.4500000  -0.1443376   0.0000000), wk =   0.0011111
        k( 1632) = (   0.4500000  -0.1250926   0.0000000), wk =   0.0011111
        k( 1633) = (   0.4500000  -0.1058476   0.0000000), wk =   0.0011111
        k( 1634) = (   0.4500000  -0.0866026   0.0000000), wk =   0.0011111
        k( 1635) = (   0.4500000  -0.0673576   0.0000000), wk =   0.0011111
        k( 1636) = (   0.4500000  -0.0481125   0.0000000), wk =   0.0011111
        k( 1637) = (   0.4500000  -0.0288675   0.0000000), wk =   0.0011111
        k( 1638) = (   0.4500000  -0.0096225   0.0000000), wk =   0.0011111
        k( 1639) = (   0.4500000   0.0096225   0.0000000), wk =   0.0011111
        k( 1640) = (   0.4500000   0.0288675   0.0000000), wk =   0.0011111
        k( 1641) = (   0.4500000   0.0481125   0.0000000), wk =   0.0011111
        k( 1642) = (   0.4500000   0.0673576   0.0000000), wk =   0.0011111
        k( 1643) = (   0.4500000   0.0866026   0.0000000), wk =   0.0011111
        k( 1644) = (   0.4500000   0.1058476   0.0000000), wk =   0.0011111
        k( 1645) = (   0.4500000   0.1250926   0.0000000), wk =   0.0011111
        k( 1646) = (   0.4500000   0.1443376   0.0000000), wk =   0.0011111
        k( 1647) = (   0.4500000   0.1635827   0.0000000), wk =   0.0011111
        k( 1648) = (   0.4500000   0.1828277   0.0000000), wk =   0.0011111
        k( 1649) = (   0.4500000   0.2020727   0.0000000), wk =   0.0011111
        k( 1650) = (   0.4500000   0.2213177   0.0000000), wk =   0.0011111
        k( 1651) = (   0.4500000   0.2405627   0.0000000), wk =   0.0011111
        k( 1652) = (   0.4666667   0.2694303   0.0000000), wk =   0.0011111
        k( 1653) = (   0.4666667   0.2886753   0.0000000), wk =   0.0011111
        k( 1654) = (   0.4666667   0.3079203   0.0000000), wk =   0.0011111
        k( 1655) = (   0.4666667   0.3271653   0.0000000), wk =   0.0011111
        k( 1656) = (   0.4666667   0.3464103   0.0000000), wk =   0.0011111
        k( 1657) = (   0.4666667   0.3656553   0.0000000), wk =   0.0011111
        k( 1658) = (   0.4666667   0.3849004   0.0000000), wk =   0.0011111
        k( 1659) = (   0.4666667   0.4041454   0.0000000), wk =   0.0011111
        k( 1660) = (   0.4666667   0.4233904   0.0000000), wk =   0.0011111
        k( 1661) = (   0.4666667   0.4426354   0.0000000), wk =   0.0011111
        k( 1662) = (   0.4666667   0.4618804   0.0000000), wk =   0.0011111
        k( 1663) = (   0.4666667   0.4811254   0.0000000), wk =   0.0011111
        k( 1664) = (   0.4666667   0.5003705   0.0000000), wk =   0.0011111
        k( 1665) = (   0.4666667   0.5196155   0.0000000), wk =   0.0011111
        k( 1666) = (   0.4666667   0.5388605   0.0000000), wk =   0.0011111
        k( 1667) = (   0.4666667   0.5581055   0.0000000), wk =   0.0011111
        k( 1668) = (   0.4666667   0.5773505   0.0000000), wk =   0.0011111
        k( 1669) = (   0.4666667   0.5965956   0.0000000), wk =   0.0011111
        k( 1670) = (   0.4666667   0.6158406   0.0000000), wk =   0.0011111
        k( 1671) = (   0.4666667   0.6350856   0.0000000), wk =   0.0011111
        k( 1672) = (   0.4666667   0.6543306   0.0000000), wk =   0.0011111
        k( 1673) = (   0.4666667   0.6735756   0.0000000), wk =   0.0011111
        k( 1674) = (   0.4666667   0.6928206   0.0000000), wk =   0.0011111
        k( 1675) = (   0.4666667   0.7120657   0.0000000), wk =   0.0011111
        k( 1676) = (   0.4666667   0.7313107   0.0000000), wk =   0.0011111
        k( 1677) = (   0.4666667   0.7505557   0.0000000), wk =   0.0011111
        k( 1678) = (   0.4666667   0.7698007   0.0000000), wk =   0.0011111
        k( 1679) = (   0.4666667   0.7890457   0.0000000), wk =   0.0011111
        k( 1680) = (   0.4666667   0.8082908   0.0000000), wk =   0.0011111
        k( 1681) = (   0.4666667   0.8275358   0.0000000), wk =   0.0011111
        k( 1682) = (   0.4666667  -0.3079203   0.0000000), wk =   0.0011111
        k( 1683) = (   0.4666667  -0.2886753   0.0000000), wk =   0.0011111
        k( 1684) = (   0.4666667  -0.2694303   0.0000000), wk =   0.0011111
        k( 1685) = (   0.4666667  -0.2501852   0.0000000), wk =   0.0011111
        k( 1686) = (   0.4666667  -0.2309402   0.0000000), wk =   0.0011111
        k( 1687) = (   0.4666667  -0.2116952   0.0000000), wk =   0.0011111
        k( 1688) = (   0.4666667  -0.1924502   0.0000000), wk =   0.0011111
        k( 1689) = (   0.4666667  -0.1732052   0.0000000), wk =   0.0011111
        k( 1690) = (   0.4666667  -0.1539601   0.0000000), wk =   0.0011111
        k( 1691) = (   0.4666667  -0.1347151   0.0000000), wk =   0.0011111
        k( 1692) = (   0.4666667  -0.1154701   0.0000000), wk =   0.0011111
        k( 1693) = (   0.4666667  -0.0962251   0.0000000), wk =   0.0011111
        k( 1694) = (   0.4666667  -0.0769801   0.0000000), wk =   0.0011111
        k( 1695) = (   0.4666667  -0.0577351   0.0000000), wk =   0.0011111
        k( 1696) = (   0.4666667  -0.0384900   0.0000000), wk =   0.0011111
        k( 1697) = (   0.4666667  -0.0192450   0.0000000), wk =   0.0011111
        k( 1698) = (   0.4666667   0.0000000   0.0000000), wk =   0.0011111
        k( 1699) = (   0.4666667   0.0192450   0.0000000), wk =   0.0011111
        k( 1700) = (   0.4666667   0.0384900   0.0000000), wk =   0.0011111
        k( 1701) = (   0.4666667   0.0577351   0.0000000), wk =   0.0011111
        k( 1702) = (   0.4666667   0.0769801   0.0000000), wk =   0.0011111
        k( 1703) = (   0.4666667   0.0962251   0.0000000), wk =   0.0011111
        k( 1704) = (   0.4666667   0.1154701   0.0000000), wk =   0.0011111
        k( 1705) = (   0.4666667   0.1347151   0.0000000), wk =   0.0011111
        k( 1706) = (   0.4666667   0.1539601   0.0000000), wk =   0.0011111
        k( 1707) = (   0.4666667   0.1732052   0.0000000), wk =   0.0011111
        k( 1708) = (   0.4666667   0.1924502   0.0000000), wk =   0.0011111
        k( 1709) = (   0.4666667   0.2116952   0.0000000), wk =   0.0011111
        k( 1710) = (   0.4666667   0.2309402   0.0000000), wk =   0.0011111
        k( 1711) = (   0.4666667   0.2501852   0.0000000), wk =   0.0011111
        k( 1712) = (   0.4833333   0.2790528   0.0000000), wk =   0.0011111
        k( 1713) = (   0.4833333   0.2982978   0.0000000), wk =   0.0011111
        k( 1714) = (   0.4833333   0.3175428   0.0000000), wk =   0.0011111
        k( 1715) = (   0.4833333   0.3367878   0.0000000), wk =   0.0011111
        k( 1716) = (   0.4833333   0.3560328   0.0000000), wk =   0.0011111
        k( 1717) = (   0.4833333   0.3752778   0.0000000), wk =   0.0011111
        k( 1718) = (   0.4833333   0.3945229   0.0000000), wk =   0.0011111
        k( 1719) = (   0.4833333   0.4137679   0.0000000), wk =   0.0011111
        k( 1720) = (   0.4833333   0.4330129   0.0000000), wk =   0.0011111
        k( 1721) = (   0.4833333   0.4522579   0.0000000), wk =   0.0011111
        k( 1722) = (   0.4833333   0.4715029   0.0000000), wk =   0.0011111
        k( 1723) = (   0.4833333   0.4907480   0.0000000), wk =   0.0011111
        k( 1724) = (   0.4833333   0.5099930   0.0000000), wk =   0.0011111
        k( 1725) = (   0.4833333   0.5292380   0.0000000), wk =   0.0011111
        k( 1726) = (   0.4833333   0.5484830   0.0000000), wk =   0.0011111
        k( 1727) = (   0.4833333   0.5677280   0.0000000), wk =   0.0011111
        k( 1728) = (   0.4833333   0.5869730   0.0000000), wk =   0.0011111
        k( 1729) = (   0.4833333   0.6062181   0.0000000), wk =   0.0011111
        k( 1730) = (   0.4833333   0.6254631   0.0000000), wk =   0.0011111
        k( 1731) = (   0.4833333   0.6447081   0.0000000), wk =   0.0011111
        k( 1732) = (   0.4833333   0.6639531   0.0000000), wk =   0.0011111
        k( 1733) = (   0.4833333   0.6831981   0.0000000), wk =   0.0011111
        k( 1734) = (   0.4833333   0.7024432   0.0000000), wk =   0.0011111
        k( 1735) = (   0.4833333   0.7216882   0.0000000), wk =   0.0011111
        k( 1736) = (   0.4833333   0.7409332   0.0000000), wk =   0.0011111
        k( 1737) = (   0.4833333   0.7601782   0.0000000), wk =   0.0011111
        k( 1738) = (   0.4833333   0.7794232   0.0000000), wk =   0.0011111
        k( 1739) = (   0.4833333   0.7986682   0.0000000), wk =   0.0011111
        k( 1740) = (   0.4833333   0.8179133   0.0000000), wk =   0.0011111
        k( 1741) = (   0.4833333   0.8371583   0.0000000), wk =   0.0011111
        k( 1742) = (   0.4833333  -0.2982978   0.0000000), wk =   0.0011111
        k( 1743) = (   0.4833333  -0.2790528   0.0000000), wk =   0.0011111
        k( 1744) = (   0.4833333  -0.2598077   0.0000000), wk =   0.0011111
        k( 1745) = (   0.4833333  -0.2405627   0.0000000), wk =   0.0011111
        k( 1746) = (   0.4833333  -0.2213177   0.0000000), wk =   0.0011111
        k( 1747) = (   0.4833333  -0.2020727   0.0000000), wk =   0.0011111
        k( 1748) = (   0.4833333  -0.1828277   0.0000000), wk =   0.0011111
        k( 1749) = (   0.4833333  -0.1635827   0.0000000), wk =   0.0011111
        k( 1750) = (   0.4833333  -0.1443376   0.0000000), wk =   0.0011111
        k( 1751) = (   0.4833333  -0.1250926   0.0000000), wk =   0.0011111
        k( 1752) = (   0.4833333  -0.1058476   0.0000000), wk =   0.0011111
        k( 1753) = (   0.4833333  -0.0866026   0.0000000), wk =   0.0011111
        k( 1754) = (   0.4833333  -0.0673576   0.0000000), wk =   0.0011111
        k( 1755) = (   0.4833333  -0.0481125   0.0000000), wk =   0.0011111
        k( 1756) = (   0.4833333  -0.0288675   0.0000000), wk =   0.0011111
        k( 1757) = (   0.4833333  -0.0096225   0.0000000), wk =   0.0011111
        k( 1758) = (   0.4833333   0.0096225   0.0000000), wk =   0.0011111
        k( 1759) = (   0.4833333   0.0288675   0.0000000), wk =   0.0011111
        k( 1760) = (   0.4833333   0.0481125   0.0000000), wk =   0.0011111
        k( 1761) = (   0.4833333   0.0673576   0.0000000), wk =   0.0011111
        k( 1762) = (   0.4833333   0.0866026   0.0000000), wk =   0.0011111
        k( 1763) = (   0.4833333   0.1058476   0.0000000), wk =   0.0011111
        k( 1764) = (   0.4833333   0.1250926   0.0000000), wk =   0.0011111
        k( 1765) = (   0.4833333   0.1443376   0.0000000), wk =   0.0011111
        k( 1766) = (   0.4833333   0.1635827   0.0000000), wk =   0.0011111
        k( 1767) = (   0.4833333   0.1828277   0.0000000), wk =   0.0011111
        k( 1768) = (   0.4833333   0.2020727   0.0000000), wk =   0.0011111
        k( 1769) = (   0.4833333   0.2213177   0.0000000), wk =   0.0011111
        k( 1770) = (   0.4833333   0.2405627   0.0000000), wk =   0.0011111
        k( 1771) = (   0.4833333   0.2598077   0.0000000), wk =   0.0011111
        k( 1772) = (  -0.5000000  -0.2886753   0.0000000), wk =   0.0005556
        k( 1773) = (  -0.5000000  -0.2694303   0.0000000), wk =   0.0011111
        k( 1774) = (  -0.5000000  -0.2501852   0.0000000), wk =   0.0011111
        k( 1775) = (  -0.5000000  -0.2309402   0.0000000), wk =   0.0011111
        k( 1776) = (  -0.5000000  -0.2116952   0.0000000), wk =   0.0011111
        k( 1777) = (  -0.5000000  -0.1924502   0.0000000), wk =   0.0011111
        k( 1778) = (  -0.5000000  -0.1732052   0.0000000), wk =   0.0011111
        k( 1779) = (  -0.5000000  -0.1539601   0.0000000), wk =   0.0011111
        k( 1780) = (  -0.5000000  -0.1347151   0.0000000), wk =   0.0011111
        k( 1781) = (  -0.5000000  -0.1154701   0.0000000), wk =   0.0011111
        k( 1782) = (  -0.5000000  -0.0962251   0.0000000), wk =   0.0011111
        k( 1783) = (  -0.5000000  -0.0769801   0.0000000), wk =   0.0011111
        k( 1784) = (  -0.5000000  -0.0577351   0.0000000), wk =   0.0011111
        k( 1785) = (  -0.5000000  -0.0384900   0.0000000), wk =   0.0011111
        k( 1786) = (  -0.5000000  -0.0192450   0.0000000), wk =   0.0011111
        k( 1787) = (  -0.5000000   0.0000000   0.0000000), wk =   0.0011111
        k( 1788) = (  -0.5000000   0.0192450   0.0000000), wk =   0.0011111
        k( 1789) = (  -0.5000000   0.0384900   0.0000000), wk =   0.0011111
        k( 1790) = (  -0.5000000   0.0577351   0.0000000), wk =   0.0011111
        k( 1791) = (  -0.5000000   0.0769801   0.0000000), wk =   0.0011111
        k( 1792) = (  -0.5000000   0.0962251   0.0000000), wk =   0.0011111
        k( 1793) = (  -0.5000000   0.1154701   0.0000000), wk =   0.0011111
        k( 1794) = (  -0.5000000   0.1347151   0.0000000), wk =   0.0011111
        k( 1795) = (  -0.5000000   0.1539601   0.0000000), wk =   0.0011111
        k( 1796) = (  -0.5000000   0.1732052   0.0000000), wk =   0.0011111
        k( 1797) = (  -0.5000000   0.1924502   0.0000000), wk =   0.0011111
        k( 1798) = (  -0.5000000   0.2116952   0.0000000), wk =   0.0011111
        k( 1799) = (  -0.5000000   0.2309402   0.0000000), wk =   0.0011111
        k( 1800) = (  -0.5000000   0.2501852   0.0000000), wk =   0.0011111
        k( 1801) = (  -0.5000000   0.2694303   0.0000000), wk =   0.0011111
        k( 1802) = (  -0.5000000  -0.8660258   0.0000000), wk =   0.0005556

                       cryst. coord.
        k(    1) = (   0.0000000   0.0000000   0.0000000), wk =   0.0005556
        k(    2) = (   0.0000000   0.0166667   0.0000000), wk =   0.0011111
        k(    3) = (   0.0000000   0.0333333   0.0000000), wk =   0.0011111
        k(    4) = (   0.0000000   0.0500000   0.0000000), wk =   0.0011111
        k(    5) = (   0.0000000   0.0666667   0.0000000), wk =   0.0011111
        k(    6) = (   0.0000000   0.0833333   0.0000000), wk =   0.0011111
        k(    7) = (   0.0000000   0.1000000   0.0000000), wk =   0.0011111
        k(    8) = (   0.0000000   0.1166667   0.0000000), wk =   0.0011111
        k(    9) = (   0.0000000   0.1333333   0.0000000), wk =   0.0011111
        k(   10) = (   0.0000000   0.1500000   0.0000000), wk =   0.0011111
        k(   11) = (   0.0000000   0.1666667   0.0000000), wk =   0.0011111
        k(   12) = (   0.0000000   0.1833333   0.0000000), wk =   0.0011111
        k(   13) = (   0.0000000   0.2000000   0.0000000), wk =   0.0011111
        k(   14) = (   0.0000000   0.2166667   0.0000000), wk =   0.0011111
        k(   15) = (   0.0000000   0.2333333   0.0000000), wk =   0.0011111
        k(   16) = (   0.0000000   0.2500000   0.0000000), wk =   0.0011111
        k(   17) = (   0.0000000   0.2666667   0.0000000), wk =   0.0011111
        k(   18) = (   0.0000000   0.2833333   0.0000000), wk =   0.0011111
        k(   19) = (   0.0000000   0.3000000   0.0000000), wk =   0.0011111
        k(   20) = (   0.0000000   0.3166667   0.0000000), wk =   0.0011111
        k(   21) = (   0.0000000   0.3333333   0.0000000), wk =   0.0011111
        k(   22) = (   0.0000000   0.3500000   0.0000000), wk =   0.0011111
        k(   23) = (   0.0000000   0.3666667   0.0000000), wk =   0.0011111
        k(   24) = (   0.0000000   0.3833333   0.0000000), wk =   0.0011111
        k(   25) = (   0.0000000   0.4000000   0.0000000), wk =   0.0011111
        k(   26) = (   0.0000000   0.4166667   0.0000000), wk =   0.0011111
        k(   27) = (   0.0000000   0.4333333   0.0000000), wk =   0.0011111
        k(   28) = (   0.0000000   0.4500000   0.0000000), wk =   0.0011111
        k(   29) = (   0.0000000   0.4666667   0.0000000), wk =   0.0011111
        k(   30) = (   0.0000000   0.4833333   0.0000000), wk =   0.0011111
        k(   31) = (   0.0000000  -0.5000000   0.0000000), wk =   0.0005556
        k(   32) = (   0.0166667   0.0000000   0.0000000), wk =   0.0011111
        k(   33) = (   0.0166667   0.0166667   0.0000000), wk =   0.0011111
        k(   34) = (   0.0166667   0.0333333   0.0000000), wk =   0.0011111
        k(   35) = (   0.0166667   0.0500000   0.0000000), wk =   0.0011111
        k(   36) = (   0.0166667   0.0666667   0.0000000), wk =   0.0011111
        k(   37) = (   0.0166667   0.0833333   0.0000000), wk =   0.0011111
        k(   38) = (   0.0166667   0.1000000   0.0000000), wk =   0.0011111
        k(   39) = (   0.0166667   0.1166667   0.0000000), wk =   0.0011111
        k(   40) = (   0.0166667   0.1333333   0.0000000), wk =   0.0011111
        k(   41) = (   0.0166667   0.1500000   0.0000000), wk =   0.0011111
        k(   42) = (   0.0166667   0.1666667   0.0000000), wk =   0.0011111
        k(   43) = (   0.0166667   0.1833333   0.0000000), wk =   0.0011111
        k(   44) = (   0.0166667   0.2000000   0.0000000), wk =   0.0011111
        k(   45) = (   0.0166667   0.2166667   0.0000000), wk =   0.0011111
        k(   46) = (   0.0166667   0.2333333   0.0000000), wk =   0.0011111
        k(   47) = (   0.0166667   0.2500000   0.0000000), wk =   0.0011111
        k(   48) = (   0.0166667   0.2666667   0.0000000), wk =   0.0011111
        k(   49) = (   0.0166667   0.2833333   0.0000000), wk =   0.0011111
        k(   50) = (   0.0166667   0.3000000   0.0000000), wk =   0.0011111
        k(   51) = (   0.0166667   0.3166667   0.0000000), wk =   0.0011111
        k(   52) = (   0.0166667   0.3333333   0.0000000), wk =   0.0011111
        k(   53) = (   0.0166667   0.3500000   0.0000000), wk =   0.0011111
        k(   54) = (   0.0166667   0.3666667   0.0000000), wk =   0.0011111
        k(   55) = (   0.0166667   0.3833333   0.0000000), wk =   0.0011111
        k(   56) = (   0.0166667   0.4000000   0.0000000), wk =   0.0011111
        k(   57) = (   0.0166667   0.4166667   0.0000000), wk =   0.0011111
        k(   58) = (   0.0166667   0.4333333   0.0000000), wk =   0.0011111
        k(   59) = (   0.0166667   0.4500000   0.0000000), wk =   0.0011111
        k(   60) = (   0.0166667   0.4666667   0.0000000), wk =   0.0011111
        k(   61) = (   0.0166667   0.4833333   0.0000000), wk =   0.0011111
        k(   62) = (   0.0166667  -0.5000000   0.0000000), wk =   0.0011111
        k(   63) = (   0.0166667  -0.4833333   0.0000000), wk =   0.0011111
        k(   64) = (   0.0166667  -0.4666667   0.0000000), wk =   0.0011111
        k(   65) = (   0.0166667  -0.4500000   0.0000000), wk =   0.0011111
        k(   66) = (   0.0166667  -0.4333333   0.0000000), wk =   0.0011111
        k(   67) = (   0.0166667  -0.4166667   0.0000000), wk =   0.0011111
        k(   68) = (   0.0166667  -0.4000000   0.0000000), wk =   0.0011111
        k(   69) = (   0.0166667  -0.3833333   0.0000000), wk =   0.0011111
        k(   70) = (   0.0166667  -0.3666667   0.0000000), wk =   0.0011111
        k(   71) = (   0.0166667  -0.3500000   0.0000000), wk =   0.0011111
        k(   72) = (   0.0166667  -0.3333333   0.0000000), wk =   0.0011111
        k(   73) = (   0.0166667  -0.3166667   0.0000000), wk =   0.0011111
        k(   74) = (   0.0166667  -0.3000000   0.0000000), wk =   0.0011111
        k(   75) = (   0.0166667  -0.2833333   0.0000000), wk =   0.0011111
        k(   76) = (   0.0166667  -0.2666667   0.0000000), wk =   0.0011111
        k(   77) = (   0.0166667  -0.2500000   0.0000000), wk =   0.0011111
        k(   78) = (   0.0166667  -0.2333333   0.0000000), wk =   0.0011111
        k(   79) = (   0.0166667  -0.2166667   0.0000000), wk =   0.0011111
        k(   80) = (   0.0166667  -0.2000000   0.0000000), wk =   0.0011111
        k(   81) = (   0.0166667  -0.1833333   0.0000000), wk =   0.0011111
        k(   82) = (   0.0166667  -0.1666667   0.0000000), wk =   0.0011111
        k(   83) = (   0.0166667  -0.1500000   0.0000000), wk =   0.0011111
        k(   84) = (   0.0166667  -0.1333333   0.0000000), wk =   0.0011111
        k(   85) = (   0.0166667  -0.1166667   0.0000000), wk =   0.0011111
        k(   86) = (   0.0166667  -0.1000000   0.0000000), wk =   0.0011111
        k(   87) = (   0.0166667  -0.0833333   0.0000000), wk =   0.0011111
        k(   88) = (   0.0166667  -0.0666667   0.0000000), wk =   0.0011111
        k(   89) = (   0.0166667  -0.0500000   0.0000000), wk =   0.0011111
        k(   90) = (   0.0166667  -0.0333333   0.0000000), wk =   0.0011111
        k(   91) = (   0.0166667  -0.0166667   0.0000000), wk =   0.0011111
        k(   92) = (   0.0333333   0.0000000   0.0000000), wk =   0.0011111
        k(   93) = (   0.0333333   0.0166667   0.0000000), wk =   0.0011111
        k(   94) = (   0.0333333   0.0333333   0.0000000), wk =   0.0011111
        k(   95) = (   0.0333333   0.0500000   0.0000000), wk =   0.0011111
        k(   96) = (   0.0333333   0.0666667   0.0000000), wk =   0.0011111
        k(   97) = (   0.0333333   0.0833333   0.0000000), wk =   0.0011111
        k(   98) = (   0.0333333   0.1000000   0.0000000), wk =   0.0011111
        k(   99) = (   0.0333333   0.1166667   0.0000000), wk =   0.0011111
        k(  100) = (   0.0333333   0.1333333   0.0000000), wk =   0.0011111
        k(  101) = (   0.0333333   0.1500000   0.0000000), wk =   0.0011111
        k(  102) = (   0.0333333   0.1666667   0.0000000), wk =   0.0011111
        k(  103) = (   0.0333333   0.1833333   0.0000000), wk =   0.0011111
        k(  104) = (   0.0333333   0.2000000   0.0000000), wk =   0.0011111
        k(  105) = (   0.0333333   0.2166667   0.0000000), wk =   0.0011111
        k(  106) = (   0.0333333   0.2333333   0.0000000), wk =   0.0011111
        k(  107) = (   0.0333333   0.2500000   0.0000000), wk =   0.0011111
        k(  108) = (   0.0333333   0.2666667   0.0000000), wk =   0.0011111
        k(  109) = (   0.0333333   0.2833333   0.0000000), wk =   0.0011111
        k(  110) = (   0.0333333   0.3000000   0.0000000), wk =   0.0011111
        k(  111) = (   0.0333333   0.3166667   0.0000000), wk =   0.0011111
        k(  112) = (   0.0333333   0.3333333   0.0000000), wk =   0.0011111
        k(  113) = (   0.0333333   0.3500000   0.0000000), wk =   0.0011111
        k(  114) = (   0.0333333   0.3666667   0.0000000), wk =   0.0011111
        k(  115) = (   0.0333333   0.3833333   0.0000000), wk =   0.0011111
        k(  116) = (   0.0333333   0.4000000   0.0000000), wk =   0.0011111
        k(  117) = (   0.0333333   0.4166667   0.0000000), wk =   0.0011111
        k(  118) = (   0.0333333   0.4333333   0.0000000), wk =   0.0011111
        k(  119) = (   0.0333333   0.4500000   0.0000000), wk =   0.0011111
        k(  120) = (   0.0333333   0.4666667   0.0000000), wk =   0.0011111
        k(  121) = (   0.0333333   0.4833333   0.0000000), wk =   0.0011111
        k(  122) = (   0.0333333  -0.5000000   0.0000000), wk =   0.0011111
        k(  123) = (   0.0333333  -0.4833333   0.0000000), wk =   0.0011111
        k(  124) = (   0.0333333  -0.4666667   0.0000000), wk =   0.0011111
        k(  125) = (   0.0333333  -0.4500000   0.0000000), wk =   0.0011111
        k(  126) = (   0.0333333  -0.4333333   0.0000000), wk =   0.0011111
        k(  127) = (   0.0333333  -0.4166667   0.0000000), wk =   0.0011111
        k(  128) = (   0.0333333  -0.4000000   0.0000000), wk =   0.0011111
        k(  129) = (   0.0333333  -0.3833333   0.0000000), wk =   0.0011111
        k(  130) = (   0.0333333  -0.3666667   0.0000000), wk =   0.0011111
        k(  131) = (   0.0333333  -0.3500000   0.0000000), wk =   0.0011111
        k(  132) = (   0.0333333  -0.3333333   0.0000000), wk =   0.0011111
        k(  133) = (   0.0333333  -0.3166667   0.0000000), wk =   0.0011111
        k(  134) = (   0.0333333  -0.3000000   0.0000000), wk =   0.0011111
        k(  135) = (   0.0333333  -0.2833333   0.0000000), wk =   0.0011111
        k(  136) = (   0.0333333  -0.2666667   0.0000000), wk =   0.0011111
        k(  137) = (   0.0333333  -0.2500000   0.0000000), wk =   0.0011111
        k(  138) = (   0.0333333  -0.2333333   0.0000000), wk =   0.0011111
        k(  139) = (   0.0333333  -0.2166667   0.0000000), wk =   0.0011111
        k(  140) = (   0.0333333  -0.2000000   0.0000000), wk =   0.0011111
        k(  141) = (   0.0333333  -0.1833333   0.0000000), wk =   0.0011111
        k(  142) = (   0.0333333  -0.1666667   0.0000000), wk =   0.0011111
        k(  143) = (   0.0333333  -0.1500000   0.0000000), wk =   0.0011111
        k(  144) = (   0.0333333  -0.1333333   0.0000000), wk =   0.0011111
        k(  145) = (   0.0333333  -0.1166667   0.0000000), wk =   0.0011111
        k(  146) = (   0.0333333  -0.1000000   0.0000000), wk =   0.0011111
        k(  147) = (   0.0333333  -0.0833333   0.0000000), wk =   0.0011111
        k(  148) = (   0.0333333  -0.0666667   0.0000000), wk =   0.0011111
        k(  149) = (   0.0333333  -0.0500000   0.0000000), wk =   0.0011111
        k(  150) = (   0.0333333  -0.0333333   0.0000000), wk =   0.0011111
        k(  151) = (   0.0333333  -0.0166667   0.0000000), wk =   0.0011111
        k(  152) = (   0.0500000   0.0000000   0.0000000), wk =   0.0011111
        k(  153) = (   0.0500000   0.0166667   0.0000000), wk =   0.0011111
        k(  154) = (   0.0500000   0.0333333   0.0000000), wk =   0.0011111
        k(  155) = (   0.0500000   0.0500000   0.0000000), wk =   0.0011111
        k(  156) = (   0.0500000   0.0666667   0.0000000), wk =   0.0011111
        k(  157) = (   0.0500000   0.0833333   0.0000000), wk =   0.0011111
        k(  158) = (   0.0500000   0.1000000   0.0000000), wk =   0.0011111
        k(  159) = (   0.0500000   0.1166667   0.0000000), wk =   0.0011111
        k(  160) = (   0.0500000   0.1333333   0.0000000), wk =   0.0011111
        k(  161) = (   0.0500000   0.1500000   0.0000000), wk =   0.0011111
        k(  162) = (   0.0500000   0.1666667   0.0000000), wk =   0.0011111
        k(  163) = (   0.0500000   0.1833333   0.0000000), wk =   0.0011111
        k(  164) = (   0.0500000   0.2000000   0.0000000), wk =   0.0011111
        k(  165) = (   0.0500000   0.2166667   0.0000000), wk =   0.0011111
        k(  166) = (   0.0500000   0.2333333   0.0000000), wk =   0.0011111
        k(  167) = (   0.0500000   0.2500000   0.0000000), wk =   0.0011111
        k(  168) = (   0.0500000   0.2666667   0.0000000), wk =   0.0011111
        k(  169) = (   0.0500000   0.2833333   0.0000000), wk =   0.0011111
        k(  170) = (   0.0500000   0.3000000   0.0000000), wk =   0.0011111
        k(  171) = (   0.0500000   0.3166667   0.0000000), wk =   0.0011111
        k(  172) = (   0.0500000   0.3333333   0.0000000), wk =   0.0011111
        k(  173) = (   0.0500000   0.3500000   0.0000000), wk =   0.0011111
        k(  174) = (   0.0500000   0.3666667   0.0000000), wk =   0.0011111
        k(  175) = (   0.0500000   0.3833333   0.0000000), wk =   0.0011111
        k(  176) = (   0.0500000   0.4000000   0.0000000), wk =   0.0011111
        k(  177) = (   0.0500000   0.4166667   0.0000000), wk =   0.0011111
        k(  178) = (   0.0500000   0.4333333   0.0000000), wk =   0.0011111
        k(  179) = (   0.0500000   0.4500000   0.0000000), wk =   0.0011111
        k(  180) = (   0.0500000   0.4666667   0.0000000), wk =   0.0011111
        k(  181) = (   0.0500000   0.4833333   0.0000000), wk =   0.0011111
        k(  182) = (   0.0500000  -0.5000000   0.0000000), wk =   0.0011111
        k(  183) = (   0.0500000  -0.4833333   0.0000000), wk =   0.0011111
        k(  184) = (   0.0500000  -0.4666667   0.0000000), wk =   0.0011111
        k(  185) = (   0.0500000  -0.4500000   0.0000000), wk =   0.0011111
        k(  186) = (   0.0500000  -0.4333333   0.0000000), wk =   0.0011111
        k(  187) = (   0.0500000  -0.4166667   0.0000000), wk =   0.0011111
        k(  188) = (   0.0500000  -0.4000000   0.0000000), wk =   0.0011111
        k(  189) = (   0.0500000  -0.3833333   0.0000000), wk =   0.0011111
        k(  190) = (   0.0500000  -0.3666667   0.0000000), wk =   0.0011111
        k(  191) = (   0.0500000  -0.3500000   0.0000000), wk =   0.0011111
        k(  192) = (   0.0500000  -0.3333333   0.0000000), wk =   0.0011111
        k(  193) = (   0.0500000  -0.3166667   0.0000000), wk =   0.0011111
        k(  194) = (   0.0500000  -0.3000000   0.0000000), wk =   0.0011111
        k(  195) = (   0.0500000  -0.2833333   0.0000000), wk =   0.0011111
        k(  196) = (   0.0500000  -0.2666667   0.0000000), wk =   0.0011111
        k(  197) = (   0.0500000  -0.2500000   0.0000000), wk =   0.0011111
        k(  198) = (   0.0500000  -0.2333333   0.0000000), wk =   0.0011111
        k(  199) = (   0.0500000  -0.2166667   0.0000000), wk =   0.0011111
        k(  200) = (   0.0500000  -0.2000000   0.0000000), wk =   0.0011111
        k(  201) = (   0.0500000  -0.1833333   0.0000000), wk =   0.0011111
        k(  202) = (   0.0500000  -0.1666667   0.0000000), wk =   0.0011111
        k(  203) = (   0.0500000  -0.1500000   0.0000000), wk =   0.0011111
        k(  204) = (   0.0500000  -0.1333333   0.0000000), wk =   0.0011111
        k(  205) = (   0.0500000  -0.1166667   0.0000000), wk =   0.0011111
        k(  206) = (   0.0500000  -0.1000000   0.0000000), wk =   0.0011111
        k(  207) = (   0.0500000  -0.0833333   0.0000000), wk =   0.0011111
        k(  208) = (   0.0500000  -0.0666667   0.0000000), wk =   0.0011111
        k(  209) = (   0.0500000  -0.0500000   0.0000000), wk =   0.0011111
        k(  210) = (   0.0500000  -0.0333333   0.0000000), wk =   0.0011111
        k(  211) = (   0.0500000  -0.0166667   0.0000000), wk =   0.0011111
        k(  212) = (   0.0666667   0.0000000   0.0000000), wk =   0.0011111
        k(  213) = (   0.0666667   0.0166667   0.0000000), wk =   0.0011111
        k(  214) = (   0.0666667   0.0333333   0.0000000), wk =   0.0011111
        k(  215) = (   0.0666667   0.0500000   0.0000000), wk =   0.0011111
        k(  216) = (   0.0666667   0.0666667   0.0000000), wk =   0.0011111
        k(  217) = (   0.0666667   0.0833333   0.0000000), wk =   0.0011111
        k(  218) = (   0.0666667   0.1000000   0.0000000), wk =   0.0011111
        k(  219) = (   0.0666667   0.1166667   0.0000000), wk =   0.0011111
        k(  220) = (   0.0666667   0.1333333   0.0000000), wk =   0.0011111
        k(  221) = (   0.0666667   0.1500000   0.0000000), wk =   0.0011111
        k(  222) = (   0.0666667   0.1666667   0.0000000), wk =   0.0011111
        k(  223) = (   0.0666667   0.1833333   0.0000000), wk =   0.0011111
        k(  224) = (   0.0666667   0.2000000   0.0000000), wk =   0.0011111
        k(  225) = (   0.0666667   0.2166667   0.0000000), wk =   0.0011111
        k(  226) = (   0.0666667   0.2333333   0.0000000), wk =   0.0011111
        k(  227) = (   0.0666667   0.2500000   0.0000000), wk =   0.0011111
        k(  228) = (   0.0666667   0.2666667   0.0000000), wk =   0.0011111
        k(  229) = (   0.0666667   0.2833333   0.0000000), wk =   0.0011111
        k(  230) = (   0.0666667   0.3000000   0.0000000), wk =   0.0011111
        k(  231) = (   0.0666667   0.3166667   0.0000000), wk =   0.0011111
        k(  232) = (   0.0666667   0.3333333   0.0000000), wk =   0.0011111
        k(  233) = (   0.0666667   0.3500000   0.0000000), wk =   0.0011111
        k(  234) = (   0.0666667   0.3666667   0.0000000), wk =   0.0011111
        k(  235) = (   0.0666667   0.3833333   0.0000000), wk =   0.0011111
        k(  236) = (   0.0666667   0.4000000   0.0000000), wk =   0.0011111
        k(  237) = (   0.0666667   0.4166667   0.0000000), wk =   0.0011111
        k(  238) = (   0.0666667   0.4333333   0.0000000), wk =   0.0011111
        k(  239) = (   0.0666667   0.4500000   0.0000000), wk =   0.0011111
        k(  240) = (   0.0666667   0.4666667   0.0000000), wk =   0.0011111
        k(  241) = (   0.0666667   0.4833333   0.0000000), wk =   0.0011111
        k(  242) = (   0.0666667  -0.5000000   0.0000000), wk =   0.0011111
        k(  243) = (   0.0666667  -0.4833333   0.0000000), wk =   0.0011111
        k(  244) = (   0.0666667  -0.4666667   0.0000000), wk =   0.0011111
        k(  245) = (   0.0666667  -0.4500000   0.0000000), wk =   0.0011111
        k(  246) = (   0.0666667  -0.4333333   0.0000000), wk =   0.0011111
        k(  247) = (   0.0666667  -0.4166667   0.0000000), wk =   0.0011111
        k(  248) = (   0.0666667  -0.4000000   0.0000000), wk =   0.0011111
        k(  249) = (   0.0666667  -0.3833333   0.0000000), wk =   0.0011111
        k(  250) = (   0.0666667  -0.3666667   0.0000000), wk =   0.0011111
        k(  251) = (   0.0666667  -0.3500000   0.0000000), wk =   0.0011111
        k(  252) = (   0.0666667  -0.3333333   0.0000000), wk =   0.0011111
        k(  253) = (   0.0666667  -0.3166667   0.0000000), wk =   0.0011111
        k(  254) = (   0.0666667  -0.3000000   0.0000000), wk =   0.0011111
        k(  255) = (   0.0666667  -0.2833333   0.0000000), wk =   0.0011111
        k(  256) = (   0.0666667  -0.2666667   0.0000000), wk =   0.0011111
        k(  257) = (   0.0666667  -0.2500000   0.0000000), wk =   0.0011111
        k(  258) = (   0.0666667  -0.2333333   0.0000000), wk =   0.0011111
        k(  259) = (   0.0666667  -0.2166667   0.0000000), wk =   0.0011111
        k(  260) = (   0.0666667  -0.2000000   0.0000000), wk =   0.0011111
        k(  261) = (   0.0666667  -0.1833333   0.0000000), wk =   0.0011111
        k(  262) = (   0.0666667  -0.1666667   0.0000000), wk =   0.0011111
        k(  263) = (   0.0666667  -0.1500000   0.0000000), wk =   0.0011111
        k(  264) = (   0.0666667  -0.1333333   0.0000000), wk =   0.0011111
        k(  265) = (   0.0666667  -0.1166667   0.0000000), wk =   0.0011111
        k(  266) = (   0.0666667  -0.1000000   0.0000000), wk =   0.0011111
        k(  267) = (   0.0666667  -0.0833333   0.0000000), wk =   0.0011111
        k(  268) = (   0.0666667  -0.0666667   0.0000000), wk =   0.0011111
        k(  269) = (   0.0666667  -0.0500000   0.0000000), wk =   0.0011111
        k(  270) = (   0.0666667  -0.0333333   0.0000000), wk =   0.0011111
        k(  271) = (   0.0666667  -0.0166667   0.0000000), wk =   0.0011111
        k(  272) = (   0.0833333   0.0000000   0.0000000), wk =   0.0011111
        k(  273) = (   0.0833333   0.0166667   0.0000000), wk =   0.0011111
        k(  274) = (   0.0833333   0.0333333   0.0000000), wk =   0.0011111
        k(  275) = (   0.0833333   0.0500000   0.0000000), wk =   0.0011111
        k(  276) = (   0.0833333   0.0666667   0.0000000), wk =   0.0011111
        k(  277) = (   0.0833333   0.0833333   0.0000000), wk =   0.0011111
        k(  278) = (   0.0833333   0.1000000   0.0000000), wk =   0.0011111
        k(  279) = (   0.0833333   0.1166667   0.0000000), wk =   0.0011111
        k(  280) = (   0.0833333   0.1333333   0.0000000), wk =   0.0011111
        k(  281) = (   0.0833333   0.1500000   0.0000000), wk =   0.0011111
        k(  282) = (   0.0833333   0.1666667   0.0000000), wk =   0.0011111
        k(  283) = (   0.0833333   0.1833333   0.0000000), wk =   0.0011111
        k(  284) = (   0.0833333   0.2000000   0.0000000), wk =   0.0011111
        k(  285) = (   0.0833333   0.2166667   0.0000000), wk =   0.0011111
        k(  286) = (   0.0833333   0.2333333   0.0000000), wk =   0.0011111
        k(  287) = (   0.0833333   0.2500000   0.0000000), wk =   0.0011111
        k(  288) = (   0.0833333   0.2666667   0.0000000), wk =   0.0011111
        k(  289) = (   0.0833333   0.2833333   0.0000000), wk =   0.0011111
        k(  290) = (   0.0833333   0.3000000   0.0000000), wk =   0.0011111
        k(  291) = (   0.0833333   0.3166667   0.0000000), wk =   0.0011111
        k(  292) = (   0.0833333   0.3333333   0.0000000), wk =   0.0011111
        k(  293) = (   0.0833333   0.3500000   0.0000000), wk =   0.0011111
        k(  294) = (   0.0833333   0.3666667   0.0000000), wk =   0.0011111
        k(  295) = (   0.0833333   0.3833333   0.0000000), wk =   0.0011111
        k(  296) = (   0.0833333   0.4000000   0.0000000), wk =   0.0011111
        k(  297) = (   0.0833333   0.4166667   0.0000000), wk =   0.0011111
        k(  298) = (   0.0833333   0.4333333   0.0000000), wk =   0.0011111
        k(  299) = (   0.0833333   0.4500000   0.0000000), wk =   0.0011111
        k(  300) = (   0.0833333   0.4666667   0.0000000), wk =   0.0011111
        k(  301) = (   0.0833333   0.4833333   0.0000000), wk =   0.0011111
        k(  302) = (   0.0833333  -0.5000000   0.0000000), wk =   0.0011111
        k(  303) = (   0.0833333  -0.4833333   0.0000000), wk =   0.0011111
        k(  304) = (   0.0833333  -0.4666667   0.0000000), wk =   0.0011111
        k(  305) = (   0.0833333  -0.4500000   0.0000000), wk =   0.0011111
        k(  306) = (   0.0833333  -0.4333333   0.0000000), wk =   0.0011111
        k(  307) = (   0.0833333  -0.4166667   0.0000000), wk =   0.0011111
        k(  308) = (   0.0833333  -0.4000000   0.0000000), wk =   0.0011111
        k(  309) = (   0.0833333  -0.3833333   0.0000000), wk =   0.0011111
        k(  310) = (   0.0833333  -0.3666667   0.0000000), wk =   0.0011111
        k(  311) = (   0.0833333  -0.3500000   0.0000000), wk =   0.0011111
        k(  312) = (   0.0833333  -0.3333333   0.0000000), wk =   0.0011111
        k(  313) = (   0.0833333  -0.3166667   0.0000000), wk =   0.0011111
        k(  314) = (   0.0833333  -0.3000000   0.0000000), wk =   0.0011111
        k(  315) = (   0.0833333  -0.2833333   0.0000000), wk =   0.0011111
        k(  316) = (   0.0833333  -0.2666667   0.0000000), wk =   0.0011111
        k(  317) = (   0.0833333  -0.2500000   0.0000000), wk =   0.0011111
        k(  318) = (   0.0833333  -0.2333333   0.0000000), wk =   0.0011111
        k(  319) = (   0.0833333  -0.2166667   0.0000000), wk =   0.0011111
        k(  320) = (   0.0833333  -0.2000000   0.0000000), wk =   0.0011111
        k(  321) = (   0.0833333  -0.1833333   0.0000000), wk =   0.0011111
        k(  322) = (   0.0833333  -0.1666667   0.0000000), wk =   0.0011111
        k(  323) = (   0.0833333  -0.1500000   0.0000000), wk =   0.0011111
        k(  324) = (   0.0833333  -0.1333333   0.0000000), wk =   0.0011111
        k(  325) = (   0.0833333  -0.1166667   0.0000000), wk =   0.0011111
        k(  326) = (   0.0833333  -0.1000000   0.0000000), wk =   0.0011111
        k(  327) = (   0.0833333  -0.0833333   0.0000000), wk =   0.0011111
        k(  328) = (   0.0833333  -0.0666667   0.0000000), wk =   0.0011111
        k(  329) = (   0.0833333  -0.0500000   0.0000000), wk =   0.0011111
        k(  330) = (   0.0833333  -0.0333333   0.0000000), wk =   0.0011111
        k(  331) = (   0.0833333  -0.0166667   0.0000000), wk =   0.0011111
        k(  332) = (   0.1000000   0.0000000   0.0000000), wk =   0.0011111
        k(  333) = (   0.1000000   0.0166667   0.0000000), wk =   0.0011111
        k(  334) = (   0.1000000   0.0333333   0.0000000), wk =   0.0011111
        k(  335) = (   0.1000000   0.0500000   0.0000000), wk =   0.0011111
        k(  336) = (   0.1000000   0.0666667   0.0000000), wk =   0.0011111
        k(  337) = (   0.1000000   0.0833333   0.0000000), wk =   0.0011111
        k(  338) = (   0.1000000   0.1000000   0.0000000), wk =   0.0011111
        k(  339) = (   0.1000000   0.1166667   0.0000000), wk =   0.0011111
        k(  340) = (   0.1000000   0.1333333   0.0000000), wk =   0.0011111
        k(  341) = (   0.1000000   0.1500000   0.0000000), wk =   0.0011111
        k(  342) = (   0.1000000   0.1666667   0.0000000), wk =   0.0011111
        k(  343) = (   0.1000000   0.1833333   0.0000000), wk =   0.0011111
        k(  344) = (   0.1000000   0.2000000   0.0000000), wk =   0.0011111
        k(  345) = (   0.1000000   0.2166667   0.0000000), wk =   0.0011111
        k(  346) = (   0.1000000   0.2333333   0.0000000), wk =   0.0011111
        k(  347) = (   0.1000000   0.2500000   0.0000000), wk =   0.0011111
        k(  348) = (   0.1000000   0.2666667   0.0000000), wk =   0.0011111
        k(  349) = (   0.1000000   0.2833333   0.0000000), wk =   0.0011111
        k(  350) = (   0.1000000   0.3000000   0.0000000), wk =   0.0011111
        k(  351) = (   0.1000000   0.3166667   0.0000000), wk =   0.0011111
        k(  352) = (   0.1000000   0.3333333   0.0000000), wk =   0.0011111
        k(  353) = (   0.1000000   0.3500000   0.0000000), wk =   0.0011111
        k(  354) = (   0.1000000   0.3666667   0.0000000), wk =   0.0011111
        k(  355) = (   0.1000000   0.3833333   0.0000000), wk =   0.0011111
        k(  356) = (   0.1000000   0.4000000   0.0000000), wk =   0.0011111
        k(  357) = (   0.1000000   0.4166667   0.0000000), wk =   0.0011111
        k(  358) = (   0.1000000   0.4333333   0.0000000), wk =   0.0011111
        k(  359) = (   0.1000000   0.4500000   0.0000000), wk =   0.0011111
        k(  360) = (   0.1000000   0.4666667   0.0000000), wk =   0.0011111
        k(  361) = (   0.1000000   0.4833333   0.0000000), wk =   0.0011111
        k(  362) = (   0.1000000  -0.5000000   0.0000000), wk =   0.0011111
        k(  363) = (   0.1000000  -0.4833333   0.0000000), wk =   0.0011111
        k(  364) = (   0.1000000  -0.4666667   0.0000000), wk =   0.0011111
        k(  365) = (   0.1000000  -0.4500000   0.0000000), wk =   0.0011111
        k(  366) = (   0.1000000  -0.4333333   0.0000000), wk =   0.0011111
        k(  367) = (   0.1000000  -0.4166667   0.0000000), wk =   0.0011111
        k(  368) = (   0.1000000  -0.4000000   0.0000000), wk =   0.0011111
        k(  369) = (   0.1000000  -0.3833333   0.0000000), wk =   0.0011111
        k(  370) = (   0.1000000  -0.3666667   0.0000000), wk =   0.0011111
        k(  371) = (   0.1000000  -0.3500000   0.0000000), wk =   0.0011111
        k(  372) = (   0.1000000  -0.3333333   0.0000000), wk =   0.0011111
        k(  373) = (   0.1000000  -0.3166667   0.0000000), wk =   0.0011111
        k(  374) = (   0.1000000  -0.3000000   0.0000000), wk =   0.0011111
        k(  375) = (   0.1000000  -0.2833333   0.0000000), wk =   0.0011111
        k(  376) = (   0.1000000  -0.2666667   0.0000000), wk =   0.0011111
        k(  377) = (   0.1000000  -0.2500000   0.0000000), wk =   0.0011111
        k(  378) = (   0.1000000  -0.2333333   0.0000000), wk =   0.0011111
        k(  379) = (   0.1000000  -0.2166667   0.0000000), wk =   0.0011111
        k(  380) = (   0.1000000  -0.2000000   0.0000000), wk =   0.0011111
        k(  381) = (   0.1000000  -0.1833333   0.0000000), wk =   0.0011111
        k(  382) = (   0.1000000  -0.1666667   0.0000000), wk =   0.0011111
        k(  383) = (   0.1000000  -0.1500000   0.0000000), wk =   0.0011111
        k(  384) = (   0.1000000  -0.1333333   0.0000000), wk =   0.0011111
        k(  385) = (   0.1000000  -0.1166667   0.0000000), wk =   0.0011111
        k(  386) = (   0.1000000  -0.1000000   0.0000000), wk =   0.0011111
        k(  387) = (   0.1000000  -0.0833333   0.0000000), wk =   0.0011111
        k(  388) = (   0.1000000  -0.0666667   0.0000000), wk =   0.0011111
        k(  389) = (   0.1000000  -0.0500000   0.0000000), wk =   0.0011111
        k(  390) = (   0.1000000  -0.0333333   0.0000000), wk =   0.0011111
        k(  391) = (   0.1000000  -0.0166667   0.0000000), wk =   0.0011111
        k(  392) = (   0.1166667   0.0000000   0.0000000), wk =   0.0011111
        k(  393) = (   0.1166667   0.0166667   0.0000000), wk =   0.0011111
        k(  394) = (   0.1166667   0.0333333   0.0000000), wk =   0.0011111
        k(  395) = (   0.1166667   0.0500000   0.0000000), wk =   0.0011111
        k(  396) = (   0.1166667   0.0666667   0.0000000), wk =   0.0011111
        k(  397) = (   0.1166667   0.0833333   0.0000000), wk =   0.0011111
        k(  398) = (   0.1166667   0.1000000   0.0000000), wk =   0.0011111
        k(  399) = (   0.1166667   0.1166667   0.0000000), wk =   0.0011111
        k(  400) = (   0.1166667   0.1333333   0.0000000), wk =   0.0011111
        k(  401) = (   0.1166667   0.1500000   0.0000000), wk =   0.0011111
        k(  402) = (   0.1166667   0.1666667   0.0000000), wk =   0.0011111
        k(  403) = (   0.1166667   0.1833333   0.0000000), wk =   0.0011111
        k(  404) = (   0.1166667   0.2000000   0.0000000), wk =   0.0011111
        k(  405) = (   0.1166667   0.2166667   0.0000000), wk =   0.0011111
        k(  406) = (   0.1166667   0.2333333   0.0000000), wk =   0.0011111
        k(  407) = (   0.1166667   0.2500000   0.0000000), wk =   0.0011111
        k(  408) = (   0.1166667   0.2666667   0.0000000), wk =   0.0011111
        k(  409) = (   0.1166667   0.2833333   0.0000000), wk =   0.0011111
        k(  410) = (   0.1166667   0.3000000   0.0000000), wk =   0.0011111
        k(  411) = (   0.1166667   0.3166667   0.0000000), wk =   0.0011111
        k(  412) = (   0.1166667   0.3333333   0.0000000), wk =   0.0011111
        k(  413) = (   0.1166667   0.3500000   0.0000000), wk =   0.0011111
        k(  414) = (   0.1166667   0.3666667   0.0000000), wk =   0.0011111
        k(  415) = (   0.1166667   0.3833333   0.0000000), wk =   0.0011111
        k(  416) = (   0.1166667   0.4000000   0.0000000), wk =   0.0011111
        k(  417) = (   0.1166667   0.4166667   0.0000000), wk =   0.0011111
        k(  418) = (   0.1166667   0.4333333   0.0000000), wk =   0.0011111
        k(  419) = (   0.1166667   0.4500000   0.0000000), wk =   0.0011111
        k(  420) = (   0.1166667   0.4666667   0.0000000), wk =   0.0011111
        k(  421) = (   0.1166667   0.4833333   0.0000000), wk =   0.0011111
        k(  422) = (   0.1166667  -0.5000000   0.0000000), wk =   0.0011111
        k(  423) = (   0.1166667  -0.4833333   0.0000000), wk =   0.0011111
        k(  424) = (   0.1166667  -0.4666667   0.0000000), wk =   0.0011111
        k(  425) = (   0.1166667  -0.4500000   0.0000000), wk =   0.0011111
        k(  426) = (   0.1166667  -0.4333333   0.0000000), wk =   0.0011111
        k(  427) = (   0.1166667  -0.4166667   0.0000000), wk =   0.0011111
        k(  428) = (   0.1166667  -0.4000000   0.0000000), wk =   0.0011111
        k(  429) = (   0.1166667  -0.3833333   0.0000000), wk =   0.0011111
        k(  430) = (   0.1166667  -0.3666667   0.0000000), wk =   0.0011111
        k(  431) = (   0.1166667  -0.3500000   0.0000000), wk =   0.0011111
        k(  432) = (   0.1166667  -0.3333333   0.0000000), wk =   0.0011111
        k(  433) = (   0.1166667  -0.3166667   0.0000000), wk =   0.0011111
        k(  434) = (   0.1166667  -0.3000000   0.0000000), wk =   0.0011111
        k(  435) = (   0.1166667  -0.2833333   0.0000000), wk =   0.0011111
        k(  436) = (   0.1166667  -0.2666667   0.0000000), wk =   0.0011111
        k(  437) = (   0.1166667  -0.2500000   0.0000000), wk =   0.0011111
        k(  438) = (   0.1166667  -0.2333333   0.0000000), wk =   0.0011111
        k(  439) = (   0.1166667  -0.2166667   0.0000000), wk =   0.0011111
        k(  440) = (   0.1166667  -0.2000000   0.0000000), wk =   0.0011111
        k(  441) = (   0.1166667  -0.1833333   0.0000000), wk =   0.0011111
        k(  442) = (   0.1166667  -0.1666667   0.0000000), wk =   0.0011111
        k(  443) = (   0.1166667  -0.1500000   0.0000000), wk =   0.0011111
        k(  444) = (   0.1166667  -0.1333333   0.0000000), wk =   0.0011111
        k(  445) = (   0.1166667  -0.1166667   0.0000000), wk =   0.0011111
        k(  446) = (   0.1166667  -0.1000000   0.0000000), wk =   0.0011111
        k(  447) = (   0.1166667  -0.0833333   0.0000000), wk =   0.0011111
        k(  448) = (   0.1166667  -0.0666667   0.0000000), wk =   0.0011111
        k(  449) = (   0.1166667  -0.0500000   0.0000000), wk =   0.0011111
        k(  450) = (   0.1166667  -0.0333333   0.0000000), wk =   0.0011111
        k(  451) = (   0.1166667  -0.0166667   0.0000000), wk =   0.0011111
        k(  452) = (   0.1333333   0.0000000   0.0000000), wk =   0.0011111
        k(  453) = (   0.1333333   0.0166667   0.0000000), wk =   0.0011111
        k(  454) = (   0.1333333   0.0333333   0.0000000), wk =   0.0011111
        k(  455) = (   0.1333333   0.0500000   0.0000000), wk =   0.0011111
        k(  456) = (   0.1333333   0.0666667   0.0000000), wk =   0.0011111
        k(  457) = (   0.1333333   0.0833333   0.0000000), wk =   0.0011111
        k(  458) = (   0.1333333   0.1000000   0.0000000), wk =   0.0011111
        k(  459) = (   0.1333333   0.1166667   0.0000000), wk =   0.0011111
        k(  460) = (   0.1333333   0.1333333   0.0000000), wk =   0.0011111
        k(  461) = (   0.1333333   0.1500000   0.0000000), wk =   0.0011111
        k(  462) = (   0.1333333   0.1666667   0.0000000), wk =   0.0011111
        k(  463) = (   0.1333333   0.1833333   0.0000000), wk =   0.0011111
        k(  464) = (   0.1333333   0.2000000   0.0000000), wk =   0.0011111
        k(  465) = (   0.1333333   0.2166667   0.0000000), wk =   0.0011111
        k(  466) = (   0.1333333   0.2333333   0.0000000), wk =   0.0011111
        k(  467) = (   0.1333333   0.2500000   0.0000000), wk =   0.0011111
        k(  468) = (   0.1333333   0.2666667   0.0000000), wk =   0.0011111
        k(  469) = (   0.1333333   0.2833333   0.0000000), wk =   0.0011111
        k(  470) = (   0.1333333   0.3000000   0.0000000), wk =   0.0011111
        k(  471) = (   0.1333333   0.3166667   0.0000000), wk =   0.0011111
        k(  472) = (   0.1333333   0.3333333   0.0000000), wk =   0.0011111
        k(  473) = (   0.1333333   0.3500000   0.0000000), wk =   0.0011111
        k(  474) = (   0.1333333   0.3666667   0.0000000), wk =   0.0011111
        k(  475) = (   0.1333333   0.3833333   0.0000000), wk =   0.0011111
        k(  476) = (   0.1333333   0.4000000   0.0000000), wk =   0.0011111
        k(  477) = (   0.1333333   0.4166667   0.0000000), wk =   0.0011111
        k(  478) = (   0.1333333   0.4333333   0.0000000), wk =   0.0011111
        k(  479) = (   0.1333333   0.4500000   0.0000000), wk =   0.0011111
        k(  480) = (   0.1333333   0.4666667   0.0000000), wk =   0.0011111
        k(  481) = (   0.1333333   0.4833333   0.0000000), wk =   0.0011111
        k(  482) = (   0.1333333  -0.5000000   0.0000000), wk =   0.0011111
        k(  483) = (   0.1333333  -0.4833333   0.0000000), wk =   0.0011111
        k(  484) = (   0.1333333  -0.4666667   0.0000000), wk =   0.0011111
        k(  485) = (   0.1333333  -0.4500000   0.0000000), wk =   0.0011111
        k(  486) = (   0.1333333  -0.4333333   0.0000000), wk =   0.0011111
        k(  487) = (   0.1333333  -0.4166667   0.0000000), wk =   0.0011111
        k(  488) = (   0.1333333  -0.4000000   0.0000000), wk =   0.0011111
        k(  489) = (   0.1333333  -0.3833333   0.0000000), wk =   0.0011111
        k(  490) = (   0.1333333  -0.3666667   0.0000000), wk =   0.0011111
        k(  491) = (   0.1333333  -0.3500000   0.0000000), wk =   0.0011111
        k(  492) = (   0.1333333  -0.3333333   0.0000000), wk =   0.0011111
        k(  493) = (   0.1333333  -0.3166667   0.0000000), wk =   0.0011111
        k(  494) = (   0.1333333  -0.3000000   0.0000000), wk =   0.0011111
        k(  495) = (   0.1333333  -0.2833333   0.0000000), wk =   0.0011111
        k(  496) = (   0.1333333  -0.2666667   0.0000000), wk =   0.0011111
        k(  497) = (   0.1333333  -0.2500000   0.0000000), wk =   0.0011111
        k(  498) = (   0.1333333  -0.2333333   0.0000000), wk =   0.0011111
        k(  499) = (   0.1333333  -0.2166667   0.0000000), wk =   0.0011111
        k(  500) = (   0.1333333  -0.2000000   0.0000000), wk =   0.0011111
        k(  501) = (   0.1333333  -0.1833333   0.0000000), wk =   0.0011111
        k(  502) = (   0.1333333  -0.1666667   0.0000000), wk =   0.0011111
        k(  503) = (   0.1333333  -0.1500000   0.0000000), wk =   0.0011111
        k(  504) = (   0.1333333  -0.1333333   0.0000000), wk =   0.0011111
        k(  505) = (   0.1333333  -0.1166667   0.0000000), wk =   0.0011111
        k(  506) = (   0.1333333  -0.1000000   0.0000000), wk =   0.0011111
        k(  507) = (   0.1333333  -0.0833333   0.0000000), wk =   0.0011111
        k(  508) = (   0.1333333  -0.0666667   0.0000000), wk =   0.0011111
        k(  509) = (   0.1333333  -0.0500000   0.0000000), wk =   0.0011111
        k(  510) = (   0.1333333  -0.0333333   0.0000000), wk =   0.0011111
        k(  511) = (   0.1333333  -0.0166667   0.0000000), wk =   0.0011111
        k(  512) = (   0.1500000   0.0000000   0.0000000), wk =   0.0011111
        k(  513) = (   0.1500000   0.0166667   0.0000000), wk =   0.0011111
        k(  514) = (   0.1500000   0.0333333   0.0000000), wk =   0.0011111
        k(  515) = (   0.1500000   0.0500000   0.0000000), wk =   0.0011111
        k(  516) = (   0.1500000   0.0666667   0.0000000), wk =   0.0011111
        k(  517) = (   0.1500000   0.0833333   0.0000000), wk =   0.0011111
        k(  518) = (   0.1500000   0.1000000   0.0000000), wk =   0.0011111
        k(  519) = (   0.1500000   0.1166667   0.0000000), wk =   0.0011111
        k(  520) = (   0.1500000   0.1333333   0.0000000), wk =   0.0011111
        k(  521) = (   0.1500000   0.1500000   0.0000000), wk =   0.0011111
        k(  522) = (   0.1500000   0.1666667   0.0000000), wk =   0.0011111
        k(  523) = (   0.1500000   0.1833333   0.0000000), wk =   0.0011111
        k(  524) = (   0.1500000   0.2000000   0.0000000), wk =   0.0011111
        k(  525) = (   0.1500000   0.2166667   0.0000000), wk =   0.0011111
        k(  526) = (   0.1500000   0.2333333   0.0000000), wk =   0.0011111
        k(  527) = (   0.1500000   0.2500000   0.0000000), wk =   0.0011111
        k(  528) = (   0.1500000   0.2666667   0.0000000), wk =   0.0011111
        k(  529) = (   0.1500000   0.2833333   0.0000000), wk =   0.0011111
        k(  530) = (   0.1500000   0.3000000   0.0000000), wk =   0.0011111
        k(  531) = (   0.1500000   0.3166667   0.0000000), wk =   0.0011111
        k(  532) = (   0.1500000   0.3333333   0.0000000), wk =   0.0011111
        k(  533) = (   0.1500000   0.3500000   0.0000000), wk =   0.0011111
        k(  534) = (   0.1500000   0.3666667   0.0000000), wk =   0.0011111
        k(  535) = (   0.1500000   0.3833333   0.0000000), wk =   0.0011111
        k(  536) = (   0.1500000   0.4000000   0.0000000), wk =   0.0011111
        k(  537) = (   0.1500000   0.4166667   0.0000000), wk =   0.0011111
        k(  538) = (   0.1500000   0.4333333   0.0000000), wk =   0.0011111
        k(  539) = (   0.1500000   0.4500000   0.0000000), wk =   0.0011111
        k(  540) = (   0.1500000   0.4666667   0.0000000), wk =   0.0011111
        k(  541) = (   0.1500000   0.4833333   0.0000000), wk =   0.0011111
        k(  542) = (   0.1500000  -0.5000000   0.0000000), wk =   0.0011111
        k(  543) = (   0.1500000  -0.4833333   0.0000000), wk =   0.0011111
        k(  544) = (   0.1500000  -0.4666667   0.0000000), wk =   0.0011111
        k(  545) = (   0.1500000  -0.4500000   0.0000000), wk =   0.0011111
        k(  546) = (   0.1500000  -0.4333333   0.0000000), wk =   0.0011111
        k(  547) = (   0.1500000  -0.4166667   0.0000000), wk =   0.0011111
        k(  548) = (   0.1500000  -0.4000000   0.0000000), wk =   0.0011111
        k(  549) = (   0.1500000  -0.3833333   0.0000000), wk =   0.0011111
        k(  550) = (   0.1500000  -0.3666667   0.0000000), wk =   0.0011111
        k(  551) = (   0.1500000  -0.3500000   0.0000000), wk =   0.0011111
        k(  552) = (   0.1500000  -0.3333333   0.0000000), wk =   0.0011111
        k(  553) = (   0.1500000  -0.3166667   0.0000000), wk =   0.0011111
        k(  554) = (   0.1500000  -0.3000000   0.0000000), wk =   0.0011111
        k(  555) = (   0.1500000  -0.2833333   0.0000000), wk =   0.0011111
        k(  556) = (   0.1500000  -0.2666667   0.0000000), wk =   0.0011111
        k(  557) = (   0.1500000  -0.2500000   0.0000000), wk =   0.0011111
        k(  558) = (   0.1500000  -0.2333333   0.0000000), wk =   0.0011111
        k(  559) = (   0.1500000  -0.2166667   0.0000000), wk =   0.0011111
        k(  560) = (   0.1500000  -0.2000000   0.0000000), wk =   0.0011111
        k(  561) = (   0.1500000  -0.1833333   0.0000000), wk =   0.0011111
        k(  562) = (   0.1500000  -0.1666667   0.0000000), wk =   0.0011111
        k(  563) = (   0.1500000  -0.1500000   0.0000000), wk =   0.0011111
        k(  564) = (   0.1500000  -0.1333333   0.0000000), wk =   0.0011111
        k(  565) = (   0.1500000  -0.1166667   0.0000000), wk =   0.0011111
        k(  566) = (   0.1500000  -0.1000000   0.0000000), wk =   0.0011111
        k(  567) = (   0.1500000  -0.0833333   0.0000000), wk =   0.0011111
        k(  568) = (   0.1500000  -0.0666667   0.0000000), wk =   0.0011111
        k(  569) = (   0.1500000  -0.0500000   0.0000000), wk =   0.0011111
        k(  570) = (   0.1500000  -0.0333333   0.0000000), wk =   0.0011111
        k(  571) = (   0.1500000  -0.0166667   0.0000000), wk =   0.0011111
        k(  572) = (   0.1666667   0.0000000   0.0000000), wk =   0.0011111
        k(  573) = (   0.1666667   0.0166667   0.0000000), wk =   0.0011111
        k(  574) = (   0.1666667   0.0333333   0.0000000), wk =   0.0011111
        k(  575) = (   0.1666667   0.0500000   0.0000000), wk =   0.0011111
        k(  576) = (   0.1666667   0.0666667   0.0000000), wk =   0.0011111
        k(  577) = (   0.1666667   0.0833333   0.0000000), wk =   0.0011111
        k(  578) = (   0.1666667   0.1000000   0.0000000), wk =   0.0011111
        k(  579) = (   0.1666667   0.1166667   0.0000000), wk =   0.0011111
        k(  580) = (   0.1666667   0.1333333   0.0000000), wk =   0.0011111
        k(  581) = (   0.1666667   0.1500000   0.0000000), wk =   0.0011111
        k(  582) = (   0.1666667   0.1666667   0.0000000), wk =   0.0011111
        k(  583) = (   0.1666667   0.1833333   0.0000000), wk =   0.0011111
        k(  584) = (   0.1666667   0.2000000   0.0000000), wk =   0.0011111
        k(  585) = (   0.1666667   0.2166667   0.0000000), wk =   0.0011111
        k(  586) = (   0.1666667   0.2333333   0.0000000), wk =   0.0011111
        k(  587) = (   0.1666667   0.2500000   0.0000000), wk =   0.0011111
        k(  588) = (   0.1666667   0.2666667   0.0000000), wk =   0.0011111
        k(  589) = (   0.1666667   0.2833333   0.0000000), wk =   0.0011111
        k(  590) = (   0.1666667   0.3000000   0.0000000), wk =   0.0011111
        k(  591) = (   0.1666667   0.3166667   0.0000000), wk =   0.0011111
        k(  592) = (   0.1666667   0.3333333   0.0000000), wk =   0.0011111
        k(  593) = (   0.1666667   0.3500000   0.0000000), wk =   0.0011111
        k(  594) = (   0.1666667   0.3666667   0.0000000), wk =   0.0011111
        k(  595) = (   0.1666667   0.3833333   0.0000000), wk =   0.0011111
        k(  596) = (   0.1666667   0.4000000   0.0000000), wk =   0.0011111
        k(  597) = (   0.1666667   0.4166667   0.0000000), wk =   0.0011111
        k(  598) = (   0.1666667   0.4333333   0.0000000), wk =   0.0011111
        k(  599) = (   0.1666667   0.4500000   0.0000000), wk =   0.0011111
        k(  600) = (   0.1666667   0.4666667   0.0000000), wk =   0.0011111
        k(  601) = (   0.1666667   0.4833333   0.0000000), wk =   0.0011111
        k(  602) = (   0.1666667  -0.5000000   0.0000000), wk =   0.0011111
        k(  603) = (   0.1666667  -0.4833333   0.0000000), wk =   0.0011111
        k(  604) = (   0.1666667  -0.4666667   0.0000000), wk =   0.0011111
        k(  605) = (   0.1666667  -0.4500000   0.0000000), wk =   0.0011111
        k(  606) = (   0.1666667  -0.4333333   0.0000000), wk =   0.0011111
        k(  607) = (   0.1666667  -0.4166667   0.0000000), wk =   0.0011111
        k(  608) = (   0.1666667  -0.4000000   0.0000000), wk =   0.0011111
        k(  609) = (   0.1666667  -0.3833333   0.0000000), wk =   0.0011111
        k(  610) = (   0.1666667  -0.3666667   0.0000000), wk =   0.0011111
        k(  611) = (   0.1666667  -0.3500000   0.0000000), wk =   0.0011111
        k(  612) = (   0.1666667  -0.3333333   0.0000000), wk =   0.0011111
        k(  613) = (   0.1666667  -0.3166667   0.0000000), wk =   0.0011111
        k(  614) = (   0.1666667  -0.3000000   0.0000000), wk =   0.0011111
        k(  615) = (   0.1666667  -0.2833333   0.0000000), wk =   0.0011111
        k(  616) = (   0.1666667  -0.2666667   0.0000000), wk =   0.0011111
        k(  617) = (   0.1666667  -0.2500000   0.0000000), wk =   0.0011111
        k(  618) = (   0.1666667  -0.2333333   0.0000000), wk =   0.0011111
        k(  619) = (   0.1666667  -0.2166667   0.0000000), wk =   0.0011111
        k(  620) = (   0.1666667  -0.2000000   0.0000000), wk =   0.0011111
        k(  621) = (   0.1666667  -0.1833333   0.0000000), wk =   0.0011111
        k(  622) = (   0.1666667  -0.1666667   0.0000000), wk =   0.0011111
        k(  623) = (   0.1666667  -0.1500000   0.0000000), wk =   0.0011111
        k(  624) = (   0.1666667  -0.1333333   0.0000000), wk =   0.0011111
        k(  625) = (   0.1666667  -0.1166667   0.0000000), wk =   0.0011111
        k(  626) = (   0.1666667  -0.1000000   0.0000000), wk =   0.0011111
        k(  627) = (   0.1666667  -0.0833333   0.0000000), wk =   0.0011111
        k(  628) = (   0.1666667  -0.0666667   0.0000000), wk =   0.0011111
        k(  629) = (   0.1666667  -0.0500000   0.0000000), wk =   0.0011111
        k(  630) = (   0.1666667  -0.0333333   0.0000000), wk =   0.0011111
        k(  631) = (   0.1666667  -0.0166667   0.0000000), wk =   0.0011111
        k(  632) = (   0.1833333   0.0000000   0.0000000), wk =   0.0011111
        k(  633) = (   0.1833333   0.0166667   0.0000000), wk =   0.0011111
        k(  634) = (   0.1833333   0.0333333   0.0000000), wk =   0.0011111
        k(  635) = (   0.1833333   0.0500000   0.0000000), wk =   0.0011111
        k(  636) = (   0.1833333   0.0666667   0.0000000), wk =   0.0011111
        k(  637) = (   0.1833333   0.0833333   0.0000000), wk =   0.0011111
        k(  638) = (   0.1833333   0.1000000   0.0000000), wk =   0.0011111
        k(  639) = (   0.1833333   0.1166667   0.0000000), wk =   0.0011111
        k(  640) = (   0.1833333   0.1333333   0.0000000), wk =   0.0011111
        k(  641) = (   0.1833333   0.1500000   0.0000000), wk =   0.0011111
        k(  642) = (   0.1833333   0.1666667   0.0000000), wk =   0.0011111
        k(  643) = (   0.1833333   0.1833333   0.0000000), wk =   0.0011111
        k(  644) = (   0.1833333   0.2000000   0.0000000), wk =   0.0011111
        k(  645) = (   0.1833333   0.2166667   0.0000000), wk =   0.0011111
        k(  646) = (   0.1833333   0.2333333   0.0000000), wk =   0.0011111
        k(  647) = (   0.1833333   0.2500000   0.0000000), wk =   0.0011111
        k(  648) = (   0.1833333   0.2666667   0.0000000), wk =   0.0011111
        k(  649) = (   0.1833333   0.2833333   0.0000000), wk =   0.0011111
        k(  650) = (   0.1833333   0.3000000   0.0000000), wk =   0.0011111
        k(  651) = (   0.1833333   0.3166667   0.0000000), wk =   0.0011111
        k(  652) = (   0.1833333   0.3333333   0.0000000), wk =   0.0011111
        k(  653) = (   0.1833333   0.3500000   0.0000000), wk =   0.0011111
        k(  654) = (   0.1833333   0.3666667   0.0000000), wk =   0.0011111
        k(  655) = (   0.1833333   0.3833333   0.0000000), wk =   0.0011111
        k(  656) = (   0.1833333   0.4000000   0.0000000), wk =   0.0011111
        k(  657) = (   0.1833333   0.4166667   0.0000000), wk =   0.0011111
        k(  658) = (   0.1833333   0.4333333   0.0000000), wk =   0.0011111
        k(  659) = (   0.1833333   0.4500000   0.0000000), wk =   0.0011111
        k(  660) = (   0.1833333   0.4666667   0.0000000), wk =   0.0011111
        k(  661) = (   0.1833333   0.4833333   0.0000000), wk =   0.0011111
        k(  662) = (   0.1833333  -0.5000000   0.0000000), wk =   0.0011111
        k(  663) = (   0.1833333  -0.4833333   0.0000000), wk =   0.0011111
        k(  664) = (   0.1833333  -0.4666667   0.0000000), wk =   0.0011111
        k(  665) = (   0.1833333  -0.4500000   0.0000000), wk =   0.0011111
        k(  666) = (   0.1833333  -0.4333333   0.0000000), wk =   0.0011111
        k(  667) = (   0.1833333  -0.4166667   0.0000000), wk =   0.0011111
        k(  668) = (   0.1833333  -0.4000000   0.0000000), wk =   0.0011111
        k(  669) = (   0.1833333  -0.3833333   0.0000000), wk =   0.0011111
        k(  670) = (   0.1833333  -0.3666667   0.0000000), wk =   0.0011111
        k(  671) = (   0.1833333  -0.3500000   0.0000000), wk =   0.0011111
        k(  672) = (   0.1833333  -0.3333333   0.0000000), wk =   0.0011111
        k(  673) = (   0.1833333  -0.3166667   0.0000000), wk =   0.0011111
        k(  674) = (   0.1833333  -0.3000000   0.0000000), wk =   0.0011111
        k(  675) = (   0.1833333  -0.2833333   0.0000000), wk =   0.0011111
        k(  676) = (   0.1833333  -0.2666667   0.0000000), wk =   0.0011111
        k(  677) = (   0.1833333  -0.2500000   0.0000000), wk =   0.0011111
        k(  678) = (   0.1833333  -0.2333333   0.0000000), wk =   0.0011111
        k(  679) = (   0.1833333  -0.2166667   0.0000000), wk =   0.0011111
        k(  680) = (   0.1833333  -0.2000000   0.0000000), wk =   0.0011111
        k(  681) = (   0.1833333  -0.1833333   0.0000000), wk =   0.0011111
        k(  682) = (   0.1833333  -0.1666667   0.0000000), wk =   0.0011111
        k(  683) = (   0.1833333  -0.1500000   0.0000000), wk =   0.0011111
        k(  684) = (   0.1833333  -0.1333333   0.0000000), wk =   0.0011111
        k(  685) = (   0.1833333  -0.1166667   0.0000000), wk =   0.0011111
        k(  686) = (   0.1833333  -0.1000000   0.0000000), wk =   0.0011111
        k(  687) = (   0.1833333  -0.0833333   0.0000000), wk =   0.0011111
        k(  688) = (   0.1833333  -0.0666667   0.0000000), wk =   0.0011111
        k(  689) = (   0.1833333  -0.0500000   0.0000000), wk =   0.0011111
        k(  690) = (   0.1833333  -0.0333333   0.0000000), wk =   0.0011111
        k(  691) = (   0.1833333  -0.0166667   0.0000000), wk =   0.0011111
        k(  692) = (   0.2000000   0.0000000   0.0000000), wk =   0.0011111
        k(  693) = (   0.2000000   0.0166667   0.0000000), wk =   0.0011111
        k(  694) = (   0.2000000   0.0333333   0.0000000), wk =   0.0011111
        k(  695) = (   0.2000000   0.0500000   0.0000000), wk =   0.0011111
        k(  696) = (   0.2000000   0.0666667   0.0000000), wk =   0.0011111
        k(  697) = (   0.2000000   0.0833333   0.0000000), wk =   0.0011111
        k(  698) = (   0.2000000   0.1000000   0.0000000), wk =   0.0011111
        k(  699) = (   0.2000000   0.1166667   0.0000000), wk =   0.0011111
        k(  700) = (   0.2000000   0.1333333   0.0000000), wk =   0.0011111
        k(  701) = (   0.2000000   0.1500000   0.0000000), wk =   0.0011111
        k(  702) = (   0.2000000   0.1666667   0.0000000), wk =   0.0011111
        k(  703) = (   0.2000000   0.1833333   0.0000000), wk =   0.0011111
        k(  704) = (   0.2000000   0.2000000   0.0000000), wk =   0.0011111
        k(  705) = (   0.2000000   0.2166667   0.0000000), wk =   0.0011111
        k(  706) = (   0.2000000   0.2333333   0.0000000), wk =   0.0011111
        k(  707) = (   0.2000000   0.2500000   0.0000000), wk =   0.0011111
        k(  708) = (   0.2000000   0.2666667   0.0000000), wk =   0.0011111
        k(  709) = (   0.2000000   0.2833333   0.0000000), wk =   0.0011111
        k(  710) = (   0.2000000   0.3000000   0.0000000), wk =   0.0011111
        k(  711) = (   0.2000000   0.3166667   0.0000000), wk =   0.0011111
        k(  712) = (   0.2000000   0.3333333   0.0000000), wk =   0.0011111
        k(  713) = (   0.2000000   0.3500000   0.0000000), wk =   0.0011111
        k(  714) = (   0.2000000   0.3666667   0.0000000), wk =   0.0011111
        k(  715) = (   0.2000000   0.3833333   0.0000000), wk =   0.0011111
        k(  716) = (   0.2000000   0.4000000   0.0000000), wk =   0.0011111
        k(  717) = (   0.2000000   0.4166667   0.0000000), wk =   0.0011111
        k(  718) = (   0.2000000   0.4333333   0.0000000), wk =   0.0011111
        k(  719) = (   0.2000000   0.4500000   0.0000000), wk =   0.0011111
        k(  720) = (   0.2000000   0.4666667   0.0000000), wk =   0.0011111
        k(  721) = (   0.2000000   0.4833333   0.0000000), wk =   0.0011111
        k(  722) = (   0.2000000  -0.5000000   0.0000000), wk =   0.0011111
        k(  723) = (   0.2000000  -0.4833333   0.0000000), wk =   0.0011111
        k(  724) = (   0.2000000  -0.4666667   0.0000000), wk =   0.0011111
        k(  725) = (   0.2000000  -0.4500000   0.0000000), wk =   0.0011111
        k(  726) = (   0.2000000  -0.4333333   0.0000000), wk =   0.0011111
        k(  727) = (   0.2000000  -0.4166667   0.0000000), wk =   0.0011111
        k(  728) = (   0.2000000  -0.4000000   0.0000000), wk =   0.0011111
        k(  729) = (   0.2000000  -0.3833333   0.0000000), wk =   0.0011111
        k(  730) = (   0.2000000  -0.3666667   0.0000000), wk =   0.0011111
        k(  731) = (   0.2000000  -0.3500000   0.0000000), wk =   0.0011111
        k(  732) = (   0.2000000  -0.3333333   0.0000000), wk =   0.0011111
        k(  733) = (   0.2000000  -0.3166667   0.0000000), wk =   0.0011111
        k(  734) = (   0.2000000  -0.3000000   0.0000000), wk =   0.0011111
        k(  735) = (   0.2000000  -0.2833333   0.0000000), wk =   0.0011111
        k(  736) = (   0.2000000  -0.2666667   0.0000000), wk =   0.0011111
        k(  737) = (   0.2000000  -0.2500000   0.0000000), wk =   0.0011111
        k(  738) = (   0.2000000  -0.2333333   0.0000000), wk =   0.0011111
        k(  739) = (   0.2000000  -0.2166667   0.0000000), wk =   0.0011111
        k(  740) = (   0.2000000  -0.2000000   0.0000000), wk =   0.0011111
        k(  741) = (   0.2000000  -0.1833333   0.0000000), wk =   0.0011111
        k(  742) = (   0.2000000  -0.1666667   0.0000000), wk =   0.0011111
        k(  743) = (   0.2000000  -0.1500000   0.0000000), wk =   0.0011111
        k(  744) = (   0.2000000  -0.1333333   0.0000000), wk =   0.0011111
        k(  745) = (   0.2000000  -0.1166667   0.0000000), wk =   0.0011111
        k(  746) = (   0.2000000  -0.1000000   0.0000000), wk =   0.0011111
        k(  747) = (   0.2000000  -0.0833333   0.0000000), wk =   0.0011111
        k(  748) = (   0.2000000  -0.0666667   0.0000000), wk =   0.0011111
        k(  749) = (   0.2000000  -0.0500000   0.0000000), wk =   0.0011111
        k(  750) = (   0.2000000  -0.0333333   0.0000000), wk =   0.0011111
        k(  751) = (   0.2000000  -0.0166667   0.0000000), wk =   0.0011111
        k(  752) = (   0.2166667   0.0000000   0.0000000), wk =   0.0011111
        k(  753) = (   0.2166667   0.0166667   0.0000000), wk =   0.0011111
        k(  754) = (   0.2166667   0.0333333   0.0000000), wk =   0.0011111
        k(  755) = (   0.2166667   0.0500000   0.0000000), wk =   0.0011111
        k(  756) = (   0.2166667   0.0666667   0.0000000), wk =   0.0011111
        k(  757) = (   0.2166667   0.0833333   0.0000000), wk =   0.0011111
        k(  758) = (   0.2166667   0.1000000   0.0000000), wk =   0.0011111
        k(  759) = (   0.2166667   0.1166667   0.0000000), wk =   0.0011111
        k(  760) = (   0.2166667   0.1333333   0.0000000), wk =   0.0011111
        k(  761) = (   0.2166667   0.1500000   0.0000000), wk =   0.0011111
        k(  762) = (   0.2166667   0.1666667   0.0000000), wk =   0.0011111
        k(  763) = (   0.2166667   0.1833333   0.0000000), wk =   0.0011111
        k(  764) = (   0.2166667   0.2000000   0.0000000), wk =   0.0011111
        k(  765) = (   0.2166667   0.2166667   0.0000000), wk =   0.0011111
        k(  766) = (   0.2166667   0.2333333   0.0000000), wk =   0.0011111
        k(  767) = (   0.2166667   0.2500000   0.0000000), wk =   0.0011111
        k(  768) = (   0.2166667   0.2666667   0.0000000), wk =   0.0011111
        k(  769) = (   0.2166667   0.2833333   0.0000000), wk =   0.0011111
        k(  770) = (   0.2166667   0.3000000   0.0000000), wk =   0.0011111
        k(  771) = (   0.2166667   0.3166667   0.0000000), wk =   0.0011111
        k(  772) = (   0.2166667   0.3333333   0.0000000), wk =   0.0011111
        k(  773) = (   0.2166667   0.3500000   0.0000000), wk =   0.0011111
        k(  774) = (   0.2166667   0.3666667   0.0000000), wk =   0.0011111
        k(  775) = (   0.2166667   0.3833333   0.0000000), wk =   0.0011111
        k(  776) = (   0.2166667   0.4000000   0.0000000), wk =   0.0011111
        k(  777) = (   0.2166667   0.4166667   0.0000000), wk =   0.0011111
        k(  778) = (   0.2166667   0.4333333   0.0000000), wk =   0.0011111
        k(  779) = (   0.2166667   0.4500000   0.0000000), wk =   0.0011111
        k(  780) = (   0.2166667   0.4666667   0.0000000), wk =   0.0011111
        k(  781) = (   0.2166667   0.4833333   0.0000000), wk =   0.0011111
        k(  782) = (   0.2166667  -0.5000000   0.0000000), wk =   0.0011111
        k(  783) = (   0.2166667  -0.4833333   0.0000000), wk =   0.0011111
        k(  784) = (   0.2166667  -0.4666667   0.0000000), wk =   0.0011111
        k(  785) = (   0.2166667  -0.4500000   0.0000000), wk =   0.0011111
        k(  786) = (   0.2166667  -0.4333333   0.0000000), wk =   0.0011111
        k(  787) = (   0.2166667  -0.4166667   0.0000000), wk =   0.0011111
        k(  788) = (   0.2166667  -0.4000000   0.0000000), wk =   0.0011111
        k(  789) = (   0.2166667  -0.3833333   0.0000000), wk =   0.0011111
        k(  790) = (   0.2166667  -0.3666667   0.0000000), wk =   0.0011111
        k(  791) = (   0.2166667  -0.3500000   0.0000000), wk =   0.0011111
        k(  792) = (   0.2166667  -0.3333333   0.0000000), wk =   0.0011111
        k(  793) = (   0.2166667  -0.3166667   0.0000000), wk =   0.0011111
        k(  794) = (   0.2166667  -0.3000000   0.0000000), wk =   0.0011111
        k(  795) = (   0.2166667  -0.2833333   0.0000000), wk =   0.0011111
        k(  796) = (   0.2166667  -0.2666667   0.0000000), wk =   0.0011111
        k(  797) = (   0.2166667  -0.2500000   0.0000000), wk =   0.0011111
        k(  798) = (   0.2166667  -0.2333333   0.0000000), wk =   0.0011111
        k(  799) = (   0.2166667  -0.2166667   0.0000000), wk =   0.0011111
        k(  800) = (   0.2166667  -0.2000000   0.0000000), wk =   0.0011111
        k(  801) = (   0.2166667  -0.1833333   0.0000000), wk =   0.0011111
        k(  802) = (   0.2166667  -0.1666667   0.0000000), wk =   0.0011111
        k(  803) = (   0.2166667  -0.1500000   0.0000000), wk =   0.0011111
        k(  804) = (   0.2166667  -0.1333333   0.0000000), wk =   0.0011111
        k(  805) = (   0.2166667  -0.1166667   0.0000000), wk =   0.0011111
        k(  806) = (   0.2166667  -0.1000000   0.0000000), wk =   0.0011111
        k(  807) = (   0.2166667  -0.0833333   0.0000000), wk =   0.0011111
        k(  808) = (   0.2166667  -0.0666667   0.0000000), wk =   0.0011111
        k(  809) = (   0.2166667  -0.0500000   0.0000000), wk =   0.0011111
        k(  810) = (   0.2166667  -0.0333333   0.0000000), wk =   0.0011111
        k(  811) = (   0.2166667  -0.0166667   0.0000000), wk =   0.0011111
        k(  812) = (   0.2333333   0.0000000   0.0000000), wk =   0.0011111
        k(  813) = (   0.2333333   0.0166667   0.0000000), wk =   0.0011111
        k(  814) = (   0.2333333   0.0333333   0.0000000), wk =   0.0011111
        k(  815) = (   0.2333333   0.0500000   0.0000000), wk =   0.0011111
        k(  816) = (   0.2333333   0.0666667   0.0000000), wk =   0.0011111
        k(  817) = (   0.2333333   0.0833333   0.0000000), wk =   0.0011111
        k(  818) = (   0.2333333   0.1000000   0.0000000), wk =   0.0011111
        k(  819) = (   0.2333333   0.1166667   0.0000000), wk =   0.0011111
        k(  820) = (   0.2333333   0.1333333   0.0000000), wk =   0.0011111
        k(  821) = (   0.2333333   0.1500000   0.0000000), wk =   0.0011111
        k(  822) = (   0.2333333   0.1666667   0.0000000), wk =   0.0011111
        k(  823) = (   0.2333333   0.1833333   0.0000000), wk =   0.0011111
        k(  824) = (   0.2333333   0.2000000   0.0000000), wk =   0.0011111
        k(  825) = (   0.2333333   0.2166667   0.0000000), wk =   0.0011111
        k(  826) = (   0.2333333   0.2333333   0.0000000), wk =   0.0011111
        k(  827) = (   0.2333333   0.2500000   0.0000000), wk =   0.0011111
        k(  828) = (   0.2333333   0.2666667   0.0000000), wk =   0.0011111
        k(  829) = (   0.2333333   0.2833333   0.0000000), wk =   0.0011111
        k(  830) = (   0.2333333   0.3000000   0.0000000), wk =   0.0011111
        k(  831) = (   0.2333333   0.3166667   0.0000000), wk =   0.0011111
        k(  832) = (   0.2333333   0.3333333   0.0000000), wk =   0.0011111
        k(  833) = (   0.2333333   0.3500000   0.0000000), wk =   0.0011111
        k(  834) = (   0.2333333   0.3666667   0.0000000), wk =   0.0011111
        k(  835) = (   0.2333333   0.3833333   0.0000000), wk =   0.0011111
        k(  836) = (   0.2333333   0.4000000   0.0000000), wk =   0.0011111
        k(  837) = (   0.2333333   0.4166667   0.0000000), wk =   0.0011111
        k(  838) = (   0.2333333   0.4333333   0.0000000), wk =   0.0011111
        k(  839) = (   0.2333333   0.4500000   0.0000000), wk =   0.0011111
        k(  840) = (   0.2333333   0.4666667   0.0000000), wk =   0.0011111
        k(  841) = (   0.2333333   0.4833333   0.0000000), wk =   0.0011111
        k(  842) = (   0.2333333  -0.5000000   0.0000000), wk =   0.0011111
        k(  843) = (   0.2333333  -0.4833333   0.0000000), wk =   0.0011111
        k(  844) = (   0.2333333  -0.4666667   0.0000000), wk =   0.0011111
        k(  845) = (   0.2333333  -0.4500000   0.0000000), wk =   0.0011111
        k(  846) = (   0.2333333  -0.4333333   0.0000000), wk =   0.0011111
        k(  847) = (   0.2333333  -0.4166667   0.0000000), wk =   0.0011111
        k(  848) = (   0.2333333  -0.4000000   0.0000000), wk =   0.0011111
        k(  849) = (   0.2333333  -0.3833333   0.0000000), wk =   0.0011111
        k(  850) = (   0.2333333  -0.3666667   0.0000000), wk =   0.0011111
        k(  851) = (   0.2333333  -0.3500000   0.0000000), wk =   0.0011111
        k(  852) = (   0.2333333  -0.3333333   0.0000000), wk =   0.0011111
        k(  853) = (   0.2333333  -0.3166667   0.0000000), wk =   0.0011111
        k(  854) = (   0.2333333  -0.3000000   0.0000000), wk =   0.0011111
        k(  855) = (   0.2333333  -0.2833333   0.0000000), wk =   0.0011111
        k(  856) = (   0.2333333  -0.2666667   0.0000000), wk =   0.0011111
        k(  857) = (   0.2333333  -0.2500000   0.0000000), wk =   0.0011111
        k(  858) = (   0.2333333  -0.2333333   0.0000000), wk =   0.0011111
        k(  859) = (   0.2333333  -0.2166667   0.0000000), wk =   0.0011111
        k(  860) = (   0.2333333  -0.2000000   0.0000000), wk =   0.0011111
        k(  861) = (   0.2333333  -0.1833333   0.0000000), wk =   0.0011111
        k(  862) = (   0.2333333  -0.1666667   0.0000000), wk =   0.0011111
        k(  863) = (   0.2333333  -0.1500000   0.0000000), wk =   0.0011111
        k(  864) = (   0.2333333  -0.1333333   0.0000000), wk =   0.0011111
        k(  865) = (   0.2333333  -0.1166667   0.0000000), wk =   0.0011111
        k(  866) = (   0.2333333  -0.1000000   0.0000000), wk =   0.0011111
        k(  867) = (   0.2333333  -0.0833333   0.0000000), wk =   0.0011111
        k(  868) = (   0.2333333  -0.0666667   0.0000000), wk =   0.0011111
        k(  869) = (   0.2333333  -0.0500000   0.0000000), wk =   0.0011111
        k(  870) = (   0.2333333  -0.0333333   0.0000000), wk =   0.0011111
        k(  871) = (   0.2333333  -0.0166667   0.0000000), wk =   0.0011111
        k(  872) = (   0.2500000   0.0000000   0.0000000), wk =   0.0011111
        k(  873) = (   0.2500000   0.0166667   0.0000000), wk =   0.0011111
        k(  874) = (   0.2500000   0.0333333   0.0000000), wk =   0.0011111
        k(  875) = (   0.2500000   0.0500000   0.0000000), wk =   0.0011111
        k(  876) = (   0.2500000   0.0666667   0.0000000), wk =   0.0011111
        k(  877) = (   0.2500000   0.0833333   0.0000000), wk =   0.0011111
        k(  878) = (   0.2500000   0.1000000   0.0000000), wk =   0.0011111
        k(  879) = (   0.2500000   0.1166667   0.0000000), wk =   0.0011111
        k(  880) = (   0.2500000   0.1333333   0.0000000), wk =   0.0011111
        k(  881) = (   0.2500000   0.1500000   0.0000000), wk =   0.0011111
        k(  882) = (   0.2500000   0.1666667   0.0000000), wk =   0.0011111
        k(  883) = (   0.2500000   0.1833333   0.0000000), wk =   0.0011111
        k(  884) = (   0.2500000   0.2000000   0.0000000), wk =   0.0011111
        k(  885) = (   0.2500000   0.2166667   0.0000000), wk =   0.0011111
        k(  886) = (   0.2500000   0.2333333   0.0000000), wk =   0.0011111
        k(  887) = (   0.2500000   0.2500000   0.0000000), wk =   0.0011111
        k(  888) = (   0.2500000   0.2666667   0.0000000), wk =   0.0011111
        k(  889) = (   0.2500000   0.2833333   0.0000000), wk =   0.0011111
        k(  890) = (   0.2500000   0.3000000   0.0000000), wk =   0.0011111
        k(  891) = (   0.2500000   0.3166667   0.0000000), wk =   0.0011111
        k(  892) = (   0.2500000   0.3333333   0.0000000), wk =   0.0011111
        k(  893) = (   0.2500000   0.3500000   0.0000000), wk =   0.0011111
        k(  894) = (   0.2500000   0.3666667   0.0000000), wk =   0.0011111
        k(  895) = (   0.2500000   0.3833333   0.0000000), wk =   0.0011111
        k(  896) = (   0.2500000   0.4000000   0.0000000), wk =   0.0011111
        k(  897) = (   0.2500000   0.4166667   0.0000000), wk =   0.0011111
        k(  898) = (   0.2500000   0.4333333   0.0000000), wk =   0.0011111
        k(  899) = (   0.2500000   0.4500000   0.0000000), wk =   0.0011111
        k(  900) = (   0.2500000   0.4666667   0.0000000), wk =   0.0011111
        k(  901) = (   0.2500000   0.4833333   0.0000000), wk =   0.0011111
        k(  902) = (   0.2500000  -0.5000000   0.0000000), wk =   0.0011111
        k(  903) = (   0.2500000  -0.4833333   0.0000000), wk =   0.0011111
        k(  904) = (   0.2500000  -0.4666667   0.0000000), wk =   0.0011111
        k(  905) = (   0.2500000  -0.4500000   0.0000000), wk =   0.0011111
        k(  906) = (   0.2500000  -0.4333333   0.0000000), wk =   0.0011111
        k(  907) = (   0.2500000  -0.4166667   0.0000000), wk =   0.0011111
        k(  908) = (   0.2500000  -0.4000000   0.0000000), wk =   0.0011111
        k(  909) = (   0.2500000  -0.3833333   0.0000000), wk =   0.0011111
        k(  910) = (   0.2500000  -0.3666667   0.0000000), wk =   0.0011111
        k(  911) = (   0.2500000  -0.3500000   0.0000000), wk =   0.0011111
        k(  912) = (   0.2500000  -0.3333333   0.0000000), wk =   0.0011111
        k(  913) = (   0.2500000  -0.3166667   0.0000000), wk =   0.0011111
        k(  914) = (   0.2500000  -0.3000000   0.0000000), wk =   0.0011111
        k(  915) = (   0.2500000  -0.2833333   0.0000000), wk =   0.0011111
        k(  916) = (   0.2500000  -0.2666667   0.0000000), wk =   0.0011111
        k(  917) = (   0.2500000  -0.2500000   0.0000000), wk =   0.0011111
        k(  918) = (   0.2500000  -0.2333333   0.0000000), wk =   0.0011111
        k(  919) = (   0.2500000  -0.2166667   0.0000000), wk =   0.0011111
        k(  920) = (   0.2500000  -0.2000000   0.0000000), wk =   0.0011111
        k(  921) = (   0.2500000  -0.1833333   0.0000000), wk =   0.0011111
        k(  922) = (   0.2500000  -0.1666667   0.0000000), wk =   0.0011111
        k(  923) = (   0.2500000  -0.1500000   0.0000000), wk =   0.0011111
        k(  924) = (   0.2500000  -0.1333333   0.0000000), wk =   0.0011111
        k(  925) = (   0.2500000  -0.1166667   0.0000000), wk =   0.0011111
        k(  926) = (   0.2500000  -0.1000000   0.0000000), wk =   0.0011111
        k(  927) = (   0.2500000  -0.0833333   0.0000000), wk =   0.0011111
        k(  928) = (   0.2500000  -0.0666667   0.0000000), wk =   0.0011111
        k(  929) = (   0.2500000  -0.0500000   0.0000000), wk =   0.0011111
        k(  930) = (   0.2500000  -0.0333333   0.0000000), wk =   0.0011111
        k(  931) = (   0.2500000  -0.0166667   0.0000000), wk =   0.0011111
        k(  932) = (   0.2666667   0.0000000   0.0000000), wk =   0.0011111
        k(  933) = (   0.2666667   0.0166667   0.0000000), wk =   0.0011111
        k(  934) = (   0.2666667   0.0333333   0.0000000), wk =   0.0011111
        k(  935) = (   0.2666667   0.0500000   0.0000000), wk =   0.0011111
        k(  936) = (   0.2666667   0.0666667   0.0000000), wk =   0.0011111
        k(  937) = (   0.2666667   0.0833333   0.0000000), wk =   0.0011111
        k(  938) = (   0.2666667   0.1000000   0.0000000), wk =   0.0011111
        k(  939) = (   0.2666667   0.1166667   0.0000000), wk =   0.0011111
        k(  940) = (   0.2666667   0.1333333   0.0000000), wk =   0.0011111
        k(  941) = (   0.2666667   0.1500000   0.0000000), wk =   0.0011111
        k(  942) = (   0.2666667   0.1666667   0.0000000), wk =   0.0011111
        k(  943) = (   0.2666667   0.1833333   0.0000000), wk =   0.0011111
        k(  944) = (   0.2666667   0.2000000   0.0000000), wk =   0.0011111
        k(  945) = (   0.2666667   0.2166667   0.0000000), wk =   0.0011111
        k(  946) = (   0.2666667   0.2333333   0.0000000), wk =   0.0011111
        k(  947) = (   0.2666667   0.2500000   0.0000000), wk =   0.0011111
        k(  948) = (   0.2666667   0.2666667   0.0000000), wk =   0.0011111
        k(  949) = (   0.2666667   0.2833333   0.0000000), wk =   0.0011111
        k(  950) = (   0.2666667   0.3000000   0.0000000), wk =   0.0011111
        k(  951) = (   0.2666667   0.3166667   0.0000000), wk =   0.0011111
        k(  952) = (   0.2666667   0.3333333   0.0000000), wk =   0.0011111
        k(  953) = (   0.2666667   0.3500000   0.0000000), wk =   0.0011111
        k(  954) = (   0.2666667   0.3666667   0.0000000), wk =   0.0011111
        k(  955) = (   0.2666667   0.3833333   0.0000000), wk =   0.0011111
        k(  956) = (   0.2666667   0.4000000   0.0000000), wk =   0.0011111
        k(  957) = (   0.2666667   0.4166667   0.0000000), wk =   0.0011111
        k(  958) = (   0.2666667   0.4333333   0.0000000), wk =   0.0011111
        k(  959) = (   0.2666667   0.4500000   0.0000000), wk =   0.0011111
        k(  960) = (   0.2666667   0.4666667   0.0000000), wk =   0.0011111
        k(  961) = (   0.2666667   0.4833333   0.0000000), wk =   0.0011111
        k(  962) = (   0.2666667  -0.5000000   0.0000000), wk =   0.0011111
        k(  963) = (   0.2666667  -0.4833333   0.0000000), wk =   0.0011111
        k(  964) = (   0.2666667  -0.4666667   0.0000000), wk =   0.0011111
        k(  965) = (   0.2666667  -0.4500000   0.0000000), wk =   0.0011111
        k(  966) = (   0.2666667  -0.4333333   0.0000000), wk =   0.0011111
        k(  967) = (   0.2666667  -0.4166667   0.0000000), wk =   0.0011111
        k(  968) = (   0.2666667  -0.4000000   0.0000000), wk =   0.0011111
        k(  969) = (   0.2666667  -0.3833333   0.0000000), wk =   0.0011111
        k(  970) = (   0.2666667  -0.3666667   0.0000000), wk =   0.0011111
        k(  971) = (   0.2666667  -0.3500000   0.0000000), wk =   0.0011111
        k(  972) = (   0.2666667  -0.3333333   0.0000000), wk =   0.0011111
        k(  973) = (   0.2666667  -0.3166667   0.0000000), wk =   0.0011111
        k(  974) = (   0.2666667  -0.3000000   0.0000000), wk =   0.0011111
        k(  975) = (   0.2666667  -0.2833333   0.0000000), wk =   0.0011111
        k(  976) = (   0.2666667  -0.2666667   0.0000000), wk =   0.0011111
        k(  977) = (   0.2666667  -0.2500000   0.0000000), wk =   0.0011111
        k(  978) = (   0.2666667  -0.2333333   0.0000000), wk =   0.0011111
        k(  979) = (   0.2666667  -0.2166667   0.0000000), wk =   0.0011111
        k(  980) = (   0.2666667  -0.2000000   0.0000000), wk =   0.0011111
        k(  981) = (   0.2666667  -0.1833333   0.0000000), wk =   0.0011111
        k(  982) = (   0.2666667  -0.1666667   0.0000000), wk =   0.0011111
        k(  983) = (   0.2666667  -0.1500000   0.0000000), wk =   0.0011111
        k(  984) = (   0.2666667  -0.1333333   0.0000000), wk =   0.0011111
        k(  985) = (   0.2666667  -0.1166667   0.0000000), wk =   0.0011111
        k(  986) = (   0.2666667  -0.1000000   0.0000000), wk =   0.0011111
        k(  987) = (   0.2666667  -0.0833333   0.0000000), wk =   0.0011111
        k(  988) = (   0.2666667  -0.0666667   0.0000000), wk =   0.0011111
        k(  989) = (   0.2666667  -0.0500000   0.0000000), wk =   0.0011111
        k(  990) = (   0.2666667  -0.0333333   0.0000000), wk =   0.0011111
        k(  991) = (   0.2666667  -0.0166667   0.0000000), wk =   0.0011111
        k(  992) = (   0.2833333   0.0000000   0.0000000), wk =   0.0011111
        k(  993) = (   0.2833333   0.0166667   0.0000000), wk =   0.0011111
        k(  994) = (   0.2833333   0.0333333   0.0000000), wk =   0.0011111
        k(  995) = (   0.2833333   0.0500000   0.0000000), wk =   0.0011111
        k(  996) = (   0.2833333   0.0666667   0.0000000), wk =   0.0011111
        k(  997) = (   0.2833333   0.0833333   0.0000000), wk =   0.0011111
        k(  998) = (   0.2833333   0.1000000   0.0000000), wk =   0.0011111
        k(  999) = (   0.2833333   0.1166667   0.0000000), wk =   0.0011111
        k( 1000) = (   0.2833333   0.1333333   0.0000000), wk =   0.0011111
        k( 1001) = (   0.2833333   0.1500000   0.0000000), wk =   0.0011111
        k( 1002) = (   0.2833333   0.1666667   0.0000000), wk =   0.0011111
        k( 1003) = (   0.2833333   0.1833333   0.0000000), wk =   0.0011111
        k( 1004) = (   0.2833333   0.2000000   0.0000000), wk =   0.0011111
        k( 1005) = (   0.2833333   0.2166667   0.0000000), wk =   0.0011111
        k( 1006) = (   0.2833333   0.2333333   0.0000000), wk =   0.0011111
        k( 1007) = (   0.2833333   0.2500000   0.0000000), wk =   0.0011111
        k( 1008) = (   0.2833333   0.2666667   0.0000000), wk =   0.0011111
        k( 1009) = (   0.2833333   0.2833333   0.0000000), wk =   0.0011111
        k( 1010) = (   0.2833333   0.3000000   0.0000000), wk =   0.0011111
        k( 1011) = (   0.2833333   0.3166667   0.0000000), wk =   0.0011111
        k( 1012) = (   0.2833333   0.3333333   0.0000000), wk =   0.0011111
        k( 1013) = (   0.2833333   0.3500000   0.0000000), wk =   0.0011111
        k( 1014) = (   0.2833333   0.3666667   0.0000000), wk =   0.0011111
        k( 1015) = (   0.2833333   0.3833333   0.0000000), wk =   0.0011111
        k( 1016) = (   0.2833333   0.4000000   0.0000000), wk =   0.0011111
        k( 1017) = (   0.2833333   0.4166667   0.0000000), wk =   0.0011111
        k( 1018) = (   0.2833333   0.4333333   0.0000000), wk =   0.0011111
        k( 1019) = (   0.2833333   0.4500000   0.0000000), wk =   0.0011111
        k( 1020) = (   0.2833333   0.4666667   0.0000000), wk =   0.0011111
        k( 1021) = (   0.2833333   0.4833333   0.0000000), wk =   0.0011111
        k( 1022) = (   0.2833333  -0.5000000   0.0000000), wk =   0.0011111
        k( 1023) = (   0.2833333  -0.4833333   0.0000000), wk =   0.0011111
        k( 1024) = (   0.2833333  -0.4666667   0.0000000), wk =   0.0011111
        k( 1025) = (   0.2833333  -0.4500000   0.0000000), wk =   0.0011111
        k( 1026) = (   0.2833333  -0.4333333   0.0000000), wk =   0.0011111
        k( 1027) = (   0.2833333  -0.4166667   0.0000000), wk =   0.0011111
        k( 1028) = (   0.2833333  -0.4000000   0.0000000), wk =   0.0011111
        k( 1029) = (   0.2833333  -0.3833333   0.0000000), wk =   0.0011111
        k( 1030) = (   0.2833333  -0.3666667   0.0000000), wk =   0.0011111
        k( 1031) = (   0.2833333  -0.3500000   0.0000000), wk =   0.0011111
        k( 1032) = (   0.2833333  -0.3333333   0.0000000), wk =   0.0011111
        k( 1033) = (   0.2833333  -0.3166667   0.0000000), wk =   0.0011111
        k( 1034) = (   0.2833333  -0.3000000   0.0000000), wk =   0.0011111
        k( 1035) = (   0.2833333  -0.2833333   0.0000000), wk =   0.0011111
        k( 1036) = (   0.2833333  -0.2666667   0.0000000), wk =   0.0011111
        k( 1037) = (   0.2833333  -0.2500000   0.0000000), wk =   0.0011111
        k( 1038) = (   0.2833333  -0.2333333   0.0000000), wk =   0.0011111
        k( 1039) = (   0.2833333  -0.2166667   0.0000000), wk =   0.0011111
        k( 1040) = (   0.2833333  -0.2000000   0.0000000), wk =   0.0011111
        k( 1041) = (   0.2833333  -0.1833333   0.0000000), wk =   0.0011111
        k( 1042) = (   0.2833333  -0.1666667   0.0000000), wk =   0.0011111
        k( 1043) = (   0.2833333  -0.1500000   0.0000000), wk =   0.0011111
        k( 1044) = (   0.2833333  -0.1333333   0.0000000), wk =   0.0011111
        k( 1045) = (   0.2833333  -0.1166667   0.0000000), wk =   0.0011111
        k( 1046) = (   0.2833333  -0.1000000   0.0000000), wk =   0.0011111
        k( 1047) = (   0.2833333  -0.0833333   0.0000000), wk =   0.0011111
        k( 1048) = (   0.2833333  -0.0666667   0.0000000), wk =   0.0011111
        k( 1049) = (   0.2833333  -0.0500000   0.0000000), wk =   0.0011111
        k( 1050) = (   0.2833333  -0.0333333   0.0000000), wk =   0.0011111
        k( 1051) = (   0.2833333  -0.0166667   0.0000000), wk =   0.0011111
        k( 1052) = (   0.3000000   0.0000000   0.0000000), wk =   0.0011111
        k( 1053) = (   0.3000000   0.0166667   0.0000000), wk =   0.0011111
        k( 1054) = (   0.3000000   0.0333333   0.0000000), wk =   0.0011111
        k( 1055) = (   0.3000000   0.0500000   0.0000000), wk =   0.0011111
        k( 1056) = (   0.3000000   0.0666667   0.0000000), wk =   0.0011111
        k( 1057) = (   0.3000000   0.0833333   0.0000000), wk =   0.0011111
        k( 1058) = (   0.3000000   0.1000000   0.0000000), wk =   0.0011111
        k( 1059) = (   0.3000000   0.1166667   0.0000000), wk =   0.0011111
        k( 1060) = (   0.3000000   0.1333333   0.0000000), wk =   0.0011111
        k( 1061) = (   0.3000000   0.1500000   0.0000000), wk =   0.0011111
        k( 1062) = (   0.3000000   0.1666667   0.0000000), wk =   0.0011111
        k( 1063) = (   0.3000000   0.1833333   0.0000000), wk =   0.0011111
        k( 1064) = (   0.3000000   0.2000000   0.0000000), wk =   0.0011111
        k( 1065) = (   0.3000000   0.2166667   0.0000000), wk =   0.0011111
        k( 1066) = (   0.3000000   0.2333333   0.0000000), wk =   0.0011111
        k( 1067) = (   0.3000000   0.2500000   0.0000000), wk =   0.0011111
        k( 1068) = (   0.3000000   0.2666667   0.0000000), wk =   0.0011111
        k( 1069) = (   0.3000000   0.2833333   0.0000000), wk =   0.0011111
        k( 1070) = (   0.3000000   0.3000000   0.0000000), wk =   0.0011111
        k( 1071) = (   0.3000000   0.3166667   0.0000000), wk =   0.0011111
        k( 1072) = (   0.3000000   0.3333333   0.0000000), wk =   0.0011111
        k( 1073) = (   0.3000000   0.3500000   0.0000000), wk =   0.0011111
        k( 1074) = (   0.3000000   0.3666667   0.0000000), wk =   0.0011111
        k( 1075) = (   0.3000000   0.3833333   0.0000000), wk =   0.0011111
        k( 1076) = (   0.3000000   0.4000000   0.0000000), wk =   0.0011111
        k( 1077) = (   0.3000000   0.4166667   0.0000000), wk =   0.0011111
        k( 1078) = (   0.3000000   0.4333333   0.0000000), wk =   0.0011111
        k( 1079) = (   0.3000000   0.4500000   0.0000000), wk =   0.0011111
        k( 1080) = (   0.3000000   0.4666667   0.0000000), wk =   0.0011111
        k( 1081) = (   0.3000000   0.4833333   0.0000000), wk =   0.0011111
        k( 1082) = (   0.3000000  -0.5000000   0.0000000), wk =   0.0011111
        k( 1083) = (   0.3000000  -0.4833333   0.0000000), wk =   0.0011111
        k( 1084) = (   0.3000000  -0.4666667   0.0000000), wk =   0.0011111
        k( 1085) = (   0.3000000  -0.4500000   0.0000000), wk =   0.0011111
        k( 1086) = (   0.3000000  -0.4333333   0.0000000), wk =   0.0011111
        k( 1087) = (   0.3000000  -0.4166667   0.0000000), wk =   0.0011111
        k( 1088) = (   0.3000000  -0.4000000   0.0000000), wk =   0.0011111
        k( 1089) = (   0.3000000  -0.3833333   0.0000000), wk =   0.0011111
        k( 1090) = (   0.3000000  -0.3666667   0.0000000), wk =   0.0011111
        k( 1091) = (   0.3000000  -0.3500000   0.0000000), wk =   0.0011111
        k( 1092) = (   0.3000000  -0.3333333   0.0000000), wk =   0.0011111
        k( 1093) = (   0.3000000  -0.3166667   0.0000000), wk =   0.0011111
        k( 1094) = (   0.3000000  -0.3000000   0.0000000), wk =   0.0011111
        k( 1095) = (   0.3000000  -0.2833333   0.0000000), wk =   0.0011111
        k( 1096) = (   0.3000000  -0.2666667   0.0000000), wk =   0.0011111
        k( 1097) = (   0.3000000  -0.2500000   0.0000000), wk =   0.0011111
        k( 1098) = (   0.3000000  -0.2333333   0.0000000), wk =   0.0011111
        k( 1099) = (   0.3000000  -0.2166667   0.0000000), wk =   0.0011111
        k( 1100) = (   0.3000000  -0.2000000   0.0000000), wk =   0.0011111
        k( 1101) = (   0.3000000  -0.1833333   0.0000000), wk =   0.0011111
        k( 1102) = (   0.3000000  -0.1666667   0.0000000), wk =   0.0011111
        k( 1103) = (   0.3000000  -0.1500000   0.0000000), wk =   0.0011111
        k( 1104) = (   0.3000000  -0.1333333   0.0000000), wk =   0.0011111
        k( 1105) = (   0.3000000  -0.1166667   0.0000000), wk =   0.0011111
        k( 1106) = (   0.3000000  -0.1000000   0.0000000), wk =   0.0011111
        k( 1107) = (   0.3000000  -0.0833333   0.0000000), wk =   0.0011111
        k( 1108) = (   0.3000000  -0.0666667   0.0000000), wk =   0.0011111
        k( 1109) = (   0.3000000  -0.0500000   0.0000000), wk =   0.0011111
        k( 1110) = (   0.3000000  -0.0333333   0.0000000), wk =   0.0011111
        k( 1111) = (   0.3000000  -0.0166667   0.0000000), wk =   0.0011111
        k( 1112) = (   0.3166667   0.0000000   0.0000000), wk =   0.0011111
        k( 1113) = (   0.3166667   0.0166667   0.0000000), wk =   0.0011111
        k( 1114) = (   0.3166667   0.0333333   0.0000000), wk =   0.0011111
        k( 1115) = (   0.3166667   0.0500000   0.0000000), wk =   0.0011111
        k( 1116) = (   0.3166667   0.0666667   0.0000000), wk =   0.0011111
        k( 1117) = (   0.3166667   0.0833333   0.0000000), wk =   0.0011111
        k( 1118) = (   0.3166667   0.1000000   0.0000000), wk =   0.0011111
        k( 1119) = (   0.3166667   0.1166667   0.0000000), wk =   0.0011111
        k( 1120) = (   0.3166667   0.1333333   0.0000000), wk =   0.0011111
        k( 1121) = (   0.3166667   0.1500000   0.0000000), wk =   0.0011111
        k( 1122) = (   0.3166667   0.1666667   0.0000000), wk =   0.0011111
        k( 1123) = (   0.3166667   0.1833333   0.0000000), wk =   0.0011111
        k( 1124) = (   0.3166667   0.2000000   0.0000000), wk =   0.0011111
        k( 1125) = (   0.3166667   0.2166667   0.0000000), wk =   0.0011111
        k( 1126) = (   0.3166667   0.2333333   0.0000000), wk =   0.0011111
        k( 1127) = (   0.3166667   0.2500000   0.0000000), wk =   0.0011111
        k( 1128) = (   0.3166667   0.2666667   0.0000000), wk =   0.0011111
        k( 1129) = (   0.3166667   0.2833333   0.0000000), wk =   0.0011111
        k( 1130) = (   0.3166667   0.3000000   0.0000000), wk =   0.0011111
        k( 1131) = (   0.3166667   0.3166667   0.0000000), wk =   0.0011111
        k( 1132) = (   0.3166667   0.3333333   0.0000000), wk =   0.0011111
        k( 1133) = (   0.3166667   0.3500000   0.0000000), wk =   0.0011111
        k( 1134) = (   0.3166667   0.3666667   0.0000000), wk =   0.0011111
        k( 1135) = (   0.3166667   0.3833333   0.0000000), wk =   0.0011111
        k( 1136) = (   0.3166667   0.4000000   0.0000000), wk =   0.0011111
        k( 1137) = (   0.3166667   0.4166667   0.0000000), wk =   0.0011111
        k( 1138) = (   0.3166667   0.4333333   0.0000000), wk =   0.0011111
        k( 1139) = (   0.3166667   0.4500000   0.0000000), wk =   0.0011111
        k( 1140) = (   0.3166667   0.4666667   0.0000000), wk =   0.0011111
        k( 1141) = (   0.3166667   0.4833333   0.0000000), wk =   0.0011111
        k( 1142) = (   0.3166667  -0.5000000   0.0000000), wk =   0.0011111
        k( 1143) = (   0.3166667  -0.4833333   0.0000000), wk =   0.0011111
        k( 1144) = (   0.3166667  -0.4666667   0.0000000), wk =   0.0011111
        k( 1145) = (   0.3166667  -0.4500000   0.0000000), wk =   0.0011111
        k( 1146) = (   0.3166667  -0.4333333   0.0000000), wk =   0.0011111
        k( 1147) = (   0.3166667  -0.4166667   0.0000000), wk =   0.0011111
        k( 1148) = (   0.3166667  -0.4000000   0.0000000), wk =   0.0011111
        k( 1149) = (   0.3166667  -0.3833333   0.0000000), wk =   0.0011111
        k( 1150) = (   0.3166667  -0.3666667   0.0000000), wk =   0.0011111
        k( 1151) = (   0.3166667  -0.3500000   0.0000000), wk =   0.0011111
        k( 1152) = (   0.3166667  -0.3333333   0.0000000), wk =   0.0011111
        k( 1153) = (   0.3166667  -0.3166667   0.0000000), wk =   0.0011111
        k( 1154) = (   0.3166667  -0.3000000   0.0000000), wk =   0.0011111
        k( 1155) = (   0.3166667  -0.2833333   0.0000000), wk =   0.0011111
        k( 1156) = (   0.3166667  -0.2666667   0.0000000), wk =   0.0011111
        k( 1157) = (   0.3166667  -0.2500000   0.0000000), wk =   0.0011111
        k( 1158) = (   0.3166667  -0.2333333   0.0000000), wk =   0.0011111
        k( 1159) = (   0.3166667  -0.2166667   0.0000000), wk =   0.0011111
        k( 1160) = (   0.3166667  -0.2000000   0.0000000), wk =   0.0011111
        k( 1161) = (   0.3166667  -0.1833333   0.0000000), wk =   0.0011111
        k( 1162) = (   0.3166667  -0.1666667   0.0000000), wk =   0.0011111
        k( 1163) = (   0.3166667  -0.1500000   0.0000000), wk =   0.0011111
        k( 1164) = (   0.3166667  -0.1333333   0.0000000), wk =   0.0011111
        k( 1165) = (   0.3166667  -0.1166667   0.0000000), wk =   0.0011111
        k( 1166) = (   0.3166667  -0.1000000   0.0000000), wk =   0.0011111
        k( 1167) = (   0.3166667  -0.0833333   0.0000000), wk =   0.0011111
        k( 1168) = (   0.3166667  -0.0666667   0.0000000), wk =   0.0011111
        k( 1169) = (   0.3166667  -0.0500000   0.0000000), wk =   0.0011111
        k( 1170) = (   0.3166667  -0.0333333   0.0000000), wk =   0.0011111
        k( 1171) = (   0.3166667  -0.0166667   0.0000000), wk =   0.0011111
        k( 1172) = (   0.3333333   0.0000000   0.0000000), wk =   0.0011111
        k( 1173) = (   0.3333333   0.0166667   0.0000000), wk =   0.0011111
        k( 1174) = (   0.3333333   0.0333333   0.0000000), wk =   0.0011111
        k( 1175) = (   0.3333333   0.0500000   0.0000000), wk =   0.0011111
        k( 1176) = (   0.3333333   0.0666667   0.0000000), wk =   0.0011111
        k( 1177) = (   0.3333333   0.0833333   0.0000000), wk =   0.0011111
        k( 1178) = (   0.3333333   0.1000000   0.0000000), wk =   0.0011111
        k( 1179) = (   0.3333333   0.1166667   0.0000000), wk =   0.0011111
        k( 1180) = (   0.3333333   0.1333333   0.0000000), wk =   0.0011111
        k( 1181) = (   0.3333333   0.1500000   0.0000000), wk =   0.0011111
        k( 1182) = (   0.3333333   0.1666667   0.0000000), wk =   0.0011111
        k( 1183) = (   0.3333333   0.1833333   0.0000000), wk =   0.0011111
        k( 1184) = (   0.3333333   0.2000000   0.0000000), wk =   0.0011111
        k( 1185) = (   0.3333333   0.2166667   0.0000000), wk =   0.0011111
        k( 1186) = (   0.3333333   0.2333333   0.0000000), wk =   0.0011111
        k( 1187) = (   0.3333333   0.2500000   0.0000000), wk =   0.0011111
        k( 1188) = (   0.3333333   0.2666667   0.0000000), wk =   0.0011111
        k( 1189) = (   0.3333333   0.2833333   0.0000000), wk =   0.0011111
        k( 1190) = (   0.3333333   0.3000000   0.0000000), wk =   0.0011111
        k( 1191) = (   0.3333333   0.3166667   0.0000000), wk =   0.0011111
        k( 1192) = (   0.3333333   0.3333333   0.0000000), wk =   0.0011111
        k( 1193) = (   0.3333333   0.3500000   0.0000000), wk =   0.0011111
        k( 1194) = (   0.3333333   0.3666667   0.0000000), wk =   0.0011111
        k( 1195) = (   0.3333333   0.3833333   0.0000000), wk =   0.0011111
        k( 1196) = (   0.3333333   0.4000000   0.0000000), wk =   0.0011111
        k( 1197) = (   0.3333333   0.4166667   0.0000000), wk =   0.0011111
        k( 1198) = (   0.3333333   0.4333333   0.0000000), wk =   0.0011111
        k( 1199) = (   0.3333333   0.4500000   0.0000000), wk =   0.0011111
        k( 1200) = (   0.3333333   0.4666667   0.0000000), wk =   0.0011111
        k( 1201) = (   0.3333333   0.4833333   0.0000000), wk =   0.0011111
        k( 1202) = (   0.3333333  -0.5000000   0.0000000), wk =   0.0011111
        k( 1203) = (   0.3333333  -0.4833333   0.0000000), wk =   0.0011111
        k( 1204) = (   0.3333333  -0.4666667   0.0000000), wk =   0.0011111
        k( 1205) = (   0.3333333  -0.4500000   0.0000000), wk =   0.0011111
        k( 1206) = (   0.3333333  -0.4333333   0.0000000), wk =   0.0011111
        k( 1207) = (   0.3333333  -0.4166667   0.0000000), wk =   0.0011111
        k( 1208) = (   0.3333333  -0.4000000   0.0000000), wk =   0.0011111
        k( 1209) = (   0.3333333  -0.3833333   0.0000000), wk =   0.0011111
        k( 1210) = (   0.3333333  -0.3666667   0.0000000), wk =   0.0011111
        k( 1211) = (   0.3333333  -0.3500000   0.0000000), wk =   0.0011111
        k( 1212) = (   0.3333333  -0.3333333   0.0000000), wk =   0.0011111
        k( 1213) = (   0.3333333  -0.3166667   0.0000000), wk =   0.0011111
        k( 1214) = (   0.3333333  -0.3000000   0.0000000), wk =   0.0011111
        k( 1215) = (   0.3333333  -0.2833333   0.0000000), wk =   0.0011111
        k( 1216) = (   0.3333333  -0.2666667   0.0000000), wk =   0.0011111
        k( 1217) = (   0.3333333  -0.2500000   0.0000000), wk =   0.0011111
        k( 1218) = (   0.3333333  -0.2333333   0.0000000), wk =   0.0011111
        k( 1219) = (   0.3333333  -0.2166667   0.0000000), wk =   0.0011111
        k( 1220) = (   0.3333333  -0.2000000   0.0000000), wk =   0.0011111
        k( 1221) = (   0.3333333  -0.1833333   0.0000000), wk =   0.0011111
        k( 1222) = (   0.3333333  -0.1666667   0.0000000), wk =   0.0011111
        k( 1223) = (   0.3333333  -0.1500000   0.0000000), wk =   0.0011111
        k( 1224) = (   0.3333333  -0.1333333   0.0000000), wk =   0.0011111
        k( 1225) = (   0.3333333  -0.1166667   0.0000000), wk =   0.0011111
        k( 1226) = (   0.3333333  -0.1000000   0.0000000), wk =   0.0011111
        k( 1227) = (   0.3333333  -0.0833333   0.0000000), wk =   0.0011111
        k( 1228) = (   0.3333333  -0.0666667   0.0000000), wk =   0.0011111
        k( 1229) = (   0.3333333  -0.0500000   0.0000000), wk =   0.0011111
        k( 1230) = (   0.3333333  -0.0333333   0.0000000), wk =   0.0011111
        k( 1231) = (   0.3333333  -0.0166667   0.0000000), wk =   0.0011111
        k( 1232) = (   0.3500000   0.0000000   0.0000000), wk =   0.0011111
        k( 1233) = (   0.3500000   0.0166667   0.0000000), wk =   0.0011111
        k( 1234) = (   0.3500000   0.0333333   0.0000000), wk =   0.0011111
        k( 1235) = (   0.3500000   0.0500000   0.0000000), wk =   0.0011111
        k( 1236) = (   0.3500000   0.0666667   0.0000000), wk =   0.0011111
        k( 1237) = (   0.3500000   0.0833333   0.0000000), wk =   0.0011111
        k( 1238) = (   0.3500000   0.1000000   0.0000000), wk =   0.0011111
        k( 1239) = (   0.3500000   0.1166667   0.0000000), wk =   0.0011111
        k( 1240) = (   0.3500000   0.1333333   0.0000000), wk =   0.0011111
        k( 1241) = (   0.3500000   0.1500000   0.0000000), wk =   0.0011111
        k( 1242) = (   0.3500000   0.1666667   0.0000000), wk =   0.0011111
        k( 1243) = (   0.3500000   0.1833333   0.0000000), wk =   0.0011111
        k( 1244) = (   0.3500000   0.2000000   0.0000000), wk =   0.0011111
        k( 1245) = (   0.3500000   0.2166667   0.0000000), wk =   0.0011111
        k( 1246) = (   0.3500000   0.2333333   0.0000000), wk =   0.0011111
        k( 1247) = (   0.3500000   0.2500000   0.0000000), wk =   0.0011111
        k( 1248) = (   0.3500000   0.2666667   0.0000000), wk =   0.0011111
        k( 1249) = (   0.3500000   0.2833333   0.0000000), wk =   0.0011111
        k( 1250) = (   0.3500000   0.3000000   0.0000000), wk =   0.0011111
        k( 1251) = (   0.3500000   0.3166667   0.0000000), wk =   0.0011111
        k( 1252) = (   0.3500000   0.3333333   0.0000000), wk =   0.0011111
        k( 1253) = (   0.3500000   0.3500000   0.0000000), wk =   0.0011111
        k( 1254) = (   0.3500000   0.3666667   0.0000000), wk =   0.0011111
        k( 1255) = (   0.3500000   0.3833333   0.0000000), wk =   0.0011111
        k( 1256) = (   0.3500000   0.4000000   0.0000000), wk =   0.0011111
        k( 1257) = (   0.3500000   0.4166667   0.0000000), wk =   0.0011111
        k( 1258) = (   0.3500000   0.4333333   0.0000000), wk =   0.0011111
        k( 1259) = (   0.3500000   0.4500000   0.0000000), wk =   0.0011111
        k( 1260) = (   0.3500000   0.4666667   0.0000000), wk =   0.0011111
        k( 1261) = (   0.3500000   0.4833333   0.0000000), wk =   0.0011111
        k( 1262) = (   0.3500000  -0.5000000   0.0000000), wk =   0.0011111
        k( 1263) = (   0.3500000  -0.4833333   0.0000000), wk =   0.0011111
        k( 1264) = (   0.3500000  -0.4666667   0.0000000), wk =   0.0011111
        k( 1265) = (   0.3500000  -0.4500000   0.0000000), wk =   0.0011111
        k( 1266) = (   0.3500000  -0.4333333   0.0000000), wk =   0.0011111
        k( 1267) = (   0.3500000  -0.4166667   0.0000000), wk =   0.0011111
        k( 1268) = (   0.3500000  -0.4000000   0.0000000), wk =   0.0011111
        k( 1269) = (   0.3500000  -0.3833333   0.0000000), wk =   0.0011111
        k( 1270) = (   0.3500000  -0.3666667   0.0000000), wk =   0.0011111
        k( 1271) = (   0.3500000  -0.3500000   0.0000000), wk =   0.0011111
        k( 1272) = (   0.3500000  -0.3333333   0.0000000), wk =   0.0011111
        k( 1273) = (   0.3500000  -0.3166667   0.0000000), wk =   0.0011111
        k( 1274) = (   0.3500000  -0.3000000   0.0000000), wk =   0.0011111
        k( 1275) = (   0.3500000  -0.2833333   0.0000000), wk =   0.0011111
        k( 1276) = (   0.3500000  -0.2666667   0.0000000), wk =   0.0011111
        k( 1277) = (   0.3500000  -0.2500000   0.0000000), wk =   0.0011111
        k( 1278) = (   0.3500000  -0.2333333   0.0000000), wk =   0.0011111
        k( 1279) = (   0.3500000  -0.2166667   0.0000000), wk =   0.0011111
        k( 1280) = (   0.3500000  -0.2000000   0.0000000), wk =   0.0011111
        k( 1281) = (   0.3500000  -0.1833333   0.0000000), wk =   0.0011111
        k( 1282) = (   0.3500000  -0.1666667   0.0000000), wk =   0.0011111
        k( 1283) = (   0.3500000  -0.1500000   0.0000000), wk =   0.0011111
        k( 1284) = (   0.3500000  -0.1333333   0.0000000), wk =   0.0011111
        k( 1285) = (   0.3500000  -0.1166667   0.0000000), wk =   0.0011111
        k( 1286) = (   0.3500000  -0.1000000   0.0000000), wk =   0.0011111
        k( 1287) = (   0.3500000  -0.0833333   0.0000000), wk =   0.0011111
        k( 1288) = (   0.3500000  -0.0666667   0.0000000), wk =   0.0011111
        k( 1289) = (   0.3500000  -0.0500000   0.0000000), wk =   0.0011111
        k( 1290) = (   0.3500000  -0.0333333   0.0000000), wk =   0.0011111
        k( 1291) = (   0.3500000  -0.0166667   0.0000000), wk =   0.0011111
        k( 1292) = (   0.3666667   0.0000000   0.0000000), wk =   0.0011111
        k( 1293) = (   0.3666667   0.0166667   0.0000000), wk =   0.0011111
        k( 1294) = (   0.3666667   0.0333333   0.0000000), wk =   0.0011111
        k( 1295) = (   0.3666667   0.0500000   0.0000000), wk =   0.0011111
        k( 1296) = (   0.3666667   0.0666667   0.0000000), wk =   0.0011111
        k( 1297) = (   0.3666667   0.0833333   0.0000000), wk =   0.0011111
        k( 1298) = (   0.3666667   0.1000000   0.0000000), wk =   0.0011111
        k( 1299) = (   0.3666667   0.1166667   0.0000000), wk =   0.0011111
        k( 1300) = (   0.3666667   0.1333333   0.0000000), wk =   0.0011111
        k( 1301) = (   0.3666667   0.1500000   0.0000000), wk =   0.0011111
        k( 1302) = (   0.3666667   0.1666667   0.0000000), wk =   0.0011111
        k( 1303) = (   0.3666667   0.1833333   0.0000000), wk =   0.0011111
        k( 1304) = (   0.3666667   0.2000000   0.0000000), wk =   0.0011111
        k( 1305) = (   0.3666667   0.2166667   0.0000000), wk =   0.0011111
        k( 1306) = (   0.3666667   0.2333333   0.0000000), wk =   0.0011111
        k( 1307) = (   0.3666667   0.2500000   0.0000000), wk =   0.0011111
        k( 1308) = (   0.3666667   0.2666667   0.0000000), wk =   0.0011111
        k( 1309) = (   0.3666667   0.2833333   0.0000000), wk =   0.0011111
        k( 1310) = (   0.3666667   0.3000000   0.0000000), wk =   0.0011111
        k( 1311) = (   0.3666667   0.3166667   0.0000000), wk =   0.0011111
        k( 1312) = (   0.3666667   0.3333333   0.0000000), wk =   0.0011111
        k( 1313) = (   0.3666667   0.3500000   0.0000000), wk =   0.0011111
        k( 1314) = (   0.3666667   0.3666667   0.0000000), wk =   0.0011111
        k( 1315) = (   0.3666667   0.3833333   0.0000000), wk =   0.0011111
        k( 1316) = (   0.3666667   0.4000000   0.0000000), wk =   0.0011111
        k( 1317) = (   0.3666667   0.4166667   0.0000000), wk =   0.0011111
        k( 1318) = (   0.3666667   0.4333333   0.0000000), wk =   0.0011111
        k( 1319) = (   0.3666667   0.4500000   0.0000000), wk =   0.0011111
        k( 1320) = (   0.3666667   0.4666667   0.0000000), wk =   0.0011111
        k( 1321) = (   0.3666667   0.4833333   0.0000000), wk =   0.0011111
        k( 1322) = (   0.3666667  -0.5000000   0.0000000), wk =   0.0011111
        k( 1323) = (   0.3666667  -0.4833333   0.0000000), wk =   0.0011111
        k( 1324) = (   0.3666667  -0.4666667   0.0000000), wk =   0.0011111
        k( 1325) = (   0.3666667  -0.4500000   0.0000000), wk =   0.0011111
        k( 1326) = (   0.3666667  -0.4333333   0.0000000), wk =   0.0011111
        k( 1327) = (   0.3666667  -0.4166667   0.0000000), wk =   0.0011111
        k( 1328) = (   0.3666667  -0.4000000   0.0000000), wk =   0.0011111
        k( 1329) = (   0.3666667  -0.3833333   0.0000000), wk =   0.0011111
        k( 1330) = (   0.3666667  -0.3666667   0.0000000), wk =   0.0011111
        k( 1331) = (   0.3666667  -0.3500000   0.0000000), wk =   0.0011111
        k( 1332) = (   0.3666667  -0.3333333   0.0000000), wk =   0.0011111
        k( 1333) = (   0.3666667  -0.3166667   0.0000000), wk =   0.0011111
        k( 1334) = (   0.3666667  -0.3000000   0.0000000), wk =   0.0011111
        k( 1335) = (   0.3666667  -0.2833333   0.0000000), wk =   0.0011111
        k( 1336) = (   0.3666667  -0.2666667   0.0000000), wk =   0.0011111
        k( 1337) = (   0.3666667  -0.2500000   0.0000000), wk =   0.0011111
        k( 1338) = (   0.3666667  -0.2333333   0.0000000), wk =   0.0011111
        k( 1339) = (   0.3666667  -0.2166667   0.0000000), wk =   0.0011111
        k( 1340) = (   0.3666667  -0.2000000   0.0000000), wk =   0.0011111
        k( 1341) = (   0.3666667  -0.1833333   0.0000000), wk =   0.0011111
        k( 1342) = (   0.3666667  -0.1666667   0.0000000), wk =   0.0011111
        k( 1343) = (   0.3666667  -0.1500000   0.0000000), wk =   0.0011111
        k( 1344) = (   0.3666667  -0.1333333   0.0000000), wk =   0.0011111
        k( 1345) = (   0.3666667  -0.1166667   0.0000000), wk =   0.0011111
        k( 1346) = (   0.3666667  -0.1000000   0.0000000), wk =   0.0011111
        k( 1347) = (   0.3666667  -0.0833333   0.0000000), wk =   0.0011111
        k( 1348) = (   0.3666667  -0.0666667   0.0000000), wk =   0.0011111
        k( 1349) = (   0.3666667  -0.0500000   0.0000000), wk =   0.0011111
        k( 1350) = (   0.3666667  -0.0333333   0.0000000), wk =   0.0011111
        k( 1351) = (   0.3666667  -0.0166667   0.0000000), wk =   0.0011111
        k( 1352) = (   0.3833333   0.0000000   0.0000000), wk =   0.0011111
        k( 1353) = (   0.3833333   0.0166667   0.0000000), wk =   0.0011111
        k( 1354) = (   0.3833333   0.0333333   0.0000000), wk =   0.0011111
        k( 1355) = (   0.3833333   0.0500000   0.0000000), wk =   0.0011111
        k( 1356) = (   0.3833333   0.0666667   0.0000000), wk =   0.0011111
        k( 1357) = (   0.3833333   0.0833333   0.0000000), wk =   0.0011111
        k( 1358) = (   0.3833333   0.1000000   0.0000000), wk =   0.0011111
        k( 1359) = (   0.3833333   0.1166667   0.0000000), wk =   0.0011111
        k( 1360) = (   0.3833333   0.1333333   0.0000000), wk =   0.0011111
        k( 1361) = (   0.3833333   0.1500000   0.0000000), wk =   0.0011111
        k( 1362) = (   0.3833333   0.1666667   0.0000000), wk =   0.0011111
        k( 1363) = (   0.3833333   0.1833333   0.0000000), wk =   0.0011111
        k( 1364) = (   0.3833333   0.2000000   0.0000000), wk =   0.0011111
        k( 1365) = (   0.3833333   0.2166667   0.0000000), wk =   0.0011111
        k( 1366) = (   0.3833333   0.2333333   0.0000000), wk =   0.0011111
        k( 1367) = (   0.3833333   0.2500000   0.0000000), wk =   0.0011111
        k( 1368) = (   0.3833333   0.2666667   0.0000000), wk =   0.0011111
        k( 1369) = (   0.3833333   0.2833333   0.0000000), wk =   0.0011111
        k( 1370) = (   0.3833333   0.3000000   0.0000000), wk =   0.0011111
        k( 1371) = (   0.3833333   0.3166667   0.0000000), wk =   0.0011111
        k( 1372) = (   0.3833333   0.3333333   0.0000000), wk =   0.0011111
        k( 1373) = (   0.3833333   0.3500000   0.0000000), wk =   0.0011111
        k( 1374) = (   0.3833333   0.3666667   0.0000000), wk =   0.0011111
        k( 1375) = (   0.3833333   0.3833333   0.0000000), wk =   0.0011111
        k( 1376) = (   0.3833333   0.4000000   0.0000000), wk =   0.0011111
        k( 1377) = (   0.3833333   0.4166667   0.0000000), wk =   0.0011111
        k( 1378) = (   0.3833333   0.4333333   0.0000000), wk =   0.0011111
        k( 1379) = (   0.3833333   0.4500000   0.0000000), wk =   0.0011111
        k( 1380) = (   0.3833333   0.4666667   0.0000000), wk =   0.0011111
        k( 1381) = (   0.3833333   0.4833333   0.0000000), wk =   0.0011111
        k( 1382) = (   0.3833333  -0.5000000   0.0000000), wk =   0.0011111
        k( 1383) = (   0.3833333  -0.4833333   0.0000000), wk =   0.0011111
        k( 1384) = (   0.3833333  -0.4666667   0.0000000), wk =   0.0011111
        k( 1385) = (   0.3833333  -0.4500000   0.0000000), wk =   0.0011111
        k( 1386) = (   0.3833333  -0.4333333   0.0000000), wk =   0.0011111
        k( 1387) = (   0.3833333  -0.4166667   0.0000000), wk =   0.0011111
        k( 1388) = (   0.3833333  -0.4000000   0.0000000), wk =   0.0011111
        k( 1389) = (   0.3833333  -0.3833333   0.0000000), wk =   0.0011111
        k( 1390) = (   0.3833333  -0.3666667   0.0000000), wk =   0.0011111
        k( 1391) = (   0.3833333  -0.3500000   0.0000000), wk =   0.0011111
        k( 1392) = (   0.3833333  -0.3333333   0.0000000), wk =   0.0011111
        k( 1393) = (   0.3833333  -0.3166667   0.0000000), wk =   0.0011111
        k( 1394) = (   0.3833333  -0.3000000   0.0000000), wk =   0.0011111
        k( 1395) = (   0.3833333  -0.2833333   0.0000000), wk =   0.0011111
        k( 1396) = (   0.3833333  -0.2666667   0.0000000), wk =   0.0011111
        k( 1397) = (   0.3833333  -0.2500000   0.0000000), wk =   0.0011111
        k( 1398) = (   0.3833333  -0.2333333   0.0000000), wk =   0.0011111
        k( 1399) = (   0.3833333  -0.2166667   0.0000000), wk =   0.0011111
        k( 1400) = (   0.3833333  -0.2000000   0.0000000), wk =   0.0011111
        k( 1401) = (   0.3833333  -0.1833333   0.0000000), wk =   0.0011111
        k( 1402) = (   0.3833333  -0.1666667   0.0000000), wk =   0.0011111
        k( 1403) = (   0.3833333  -0.1500000   0.0000000), wk =   0.0011111
        k( 1404) = (   0.3833333  -0.1333333   0.0000000), wk =   0.0011111
        k( 1405) = (   0.3833333  -0.1166667   0.0000000), wk =   0.0011111
        k( 1406) = (   0.3833333  -0.1000000   0.0000000), wk =   0.0011111
        k( 1407) = (   0.3833333  -0.0833333   0.0000000), wk =   0.0011111
        k( 1408) = (   0.3833333  -0.0666667   0.0000000), wk =   0.0011111
        k( 1409) = (   0.3833333  -0.0500000   0.0000000), wk =   0.0011111
        k( 1410) = (   0.3833333  -0.0333333   0.0000000), wk =   0.0011111
        k( 1411) = (   0.3833333  -0.0166667   0.0000000), wk =   0.0011111
        k( 1412) = (   0.4000000   0.0000000   0.0000000), wk =   0.0011111
        k( 1413) = (   0.4000000   0.0166667   0.0000000), wk =   0.0011111
        k( 1414) = (   0.4000000   0.0333333   0.0000000), wk =   0.0011111
        k( 1415) = (   0.4000000   0.0500000   0.0000000), wk =   0.0011111
        k( 1416) = (   0.4000000   0.0666667   0.0000000), wk =   0.0011111
        k( 1417) = (   0.4000000   0.0833333   0.0000000), wk =   0.0011111
        k( 1418) = (   0.4000000   0.1000000   0.0000000), wk =   0.0011111
        k( 1419) = (   0.4000000   0.1166667   0.0000000), wk =   0.0011111
        k( 1420) = (   0.4000000   0.1333333   0.0000000), wk =   0.0011111
        k( 1421) = (   0.4000000   0.1500000   0.0000000), wk =   0.0011111
        k( 1422) = (   0.4000000   0.1666667   0.0000000), wk =   0.0011111
        k( 1423) = (   0.4000000   0.1833333   0.0000000), wk =   0.0011111
        k( 1424) = (   0.4000000   0.2000000   0.0000000), wk =   0.0011111
        k( 1425) = (   0.4000000   0.2166667   0.0000000), wk =   0.0011111
        k( 1426) = (   0.4000000   0.2333333   0.0000000), wk =   0.0011111
        k( 1427) = (   0.4000000   0.2500000   0.0000000), wk =   0.0011111
        k( 1428) = (   0.4000000   0.2666667   0.0000000), wk =   0.0011111
        k( 1429) = (   0.4000000   0.2833333   0.0000000), wk =   0.0011111
        k( 1430) = (   0.4000000   0.3000000   0.0000000), wk =   0.0011111
        k( 1431) = (   0.4000000   0.3166667   0.0000000), wk =   0.0011111
        k( 1432) = (   0.4000000   0.3333333   0.0000000), wk =   0.0011111
        k( 1433) = (   0.4000000   0.3500000   0.0000000), wk =   0.0011111
        k( 1434) = (   0.4000000   0.3666667   0.0000000), wk =   0.0011111
        k( 1435) = (   0.4000000   0.3833333   0.0000000), wk =   0.0011111
        k( 1436) = (   0.4000000   0.4000000   0.0000000), wk =   0.0011111
        k( 1437) = (   0.4000000   0.4166667   0.0000000), wk =   0.0011111
        k( 1438) = (   0.4000000   0.4333333   0.0000000), wk =   0.0011111
        k( 1439) = (   0.4000000   0.4500000   0.0000000), wk =   0.0011111
        k( 1440) = (   0.4000000   0.4666667   0.0000000), wk =   0.0011111
        k( 1441) = (   0.4000000   0.4833333   0.0000000), wk =   0.0011111
        k( 1442) = (   0.4000000  -0.5000000   0.0000000), wk =   0.0011111
        k( 1443) = (   0.4000000  -0.4833333   0.0000000), wk =   0.0011111
        k( 1444) = (   0.4000000  -0.4666667   0.0000000), wk =   0.0011111
        k( 1445) = (   0.4000000  -0.4500000   0.0000000), wk =   0.0011111
        k( 1446) = (   0.4000000  -0.4333333   0.0000000), wk =   0.0011111
        k( 1447) = (   0.4000000  -0.4166667   0.0000000), wk =   0.0011111
        k( 1448) = (   0.4000000  -0.4000000   0.0000000), wk =   0.0011111
        k( 1449) = (   0.4000000  -0.3833333   0.0000000), wk =   0.0011111
        k( 1450) = (   0.4000000  -0.3666667   0.0000000), wk =   0.0011111
        k( 1451) = (   0.4000000  -0.3500000   0.0000000), wk =   0.0011111
        k( 1452) = (   0.4000000  -0.3333333   0.0000000), wk =   0.0011111
        k( 1453) = (   0.4000000  -0.3166667   0.0000000), wk =   0.0011111
        k( 1454) = (   0.4000000  -0.3000000   0.0000000), wk =   0.0011111
        k( 1455) = (   0.4000000  -0.2833333   0.0000000), wk =   0.0011111
        k( 1456) = (   0.4000000  -0.2666667   0.0000000), wk =   0.0011111
        k( 1457) = (   0.4000000  -0.2500000   0.0000000), wk =   0.0011111
        k( 1458) = (   0.4000000  -0.2333333   0.0000000), wk =   0.0011111
        k( 1459) = (   0.4000000  -0.2166667   0.0000000), wk =   0.0011111
        k( 1460) = (   0.4000000  -0.2000000   0.0000000), wk =   0.0011111
        k( 1461) = (   0.4000000  -0.1833333   0.0000000), wk =   0.0011111
        k( 1462) = (   0.4000000  -0.1666667   0.0000000), wk =   0.0011111
        k( 1463) = (   0.4000000  -0.1500000   0.0000000), wk =   0.0011111
        k( 1464) = (   0.4000000  -0.1333333   0.0000000), wk =   0.0011111
        k( 1465) = (   0.4000000  -0.1166667   0.0000000), wk =   0.0011111
        k( 1466) = (   0.4000000  -0.1000000   0.0000000), wk =   0.0011111
        k( 1467) = (   0.4000000  -0.0833333   0.0000000), wk =   0.0011111
        k( 1468) = (   0.4000000  -0.0666667   0.0000000), wk =   0.0011111
        k( 1469) = (   0.4000000  -0.0500000   0.0000000), wk =   0.0011111
        k( 1470) = (   0.4000000  -0.0333333   0.0000000), wk =   0.0011111
        k( 1471) = (   0.4000000  -0.0166667   0.0000000), wk =   0.0011111
        k( 1472) = (   0.4166667   0.0000000   0.0000000), wk =   0.0011111
        k( 1473) = (   0.4166667   0.0166667   0.0000000), wk =   0.0011111
        k( 1474) = (   0.4166667   0.0333333   0.0000000), wk =   0.0011111
        k( 1475) = (   0.4166667   0.0500000   0.0000000), wk =   0.0011111
        k( 1476) = (   0.4166667   0.0666667   0.0000000), wk =   0.0011111
        k( 1477) = (   0.4166667   0.0833333   0.0000000), wk =   0.0011111
        k( 1478) = (   0.4166667   0.1000000   0.0000000), wk =   0.0011111
        k( 1479) = (   0.4166667   0.1166667   0.0000000), wk =   0.0011111
        k( 1480) = (   0.4166667   0.1333333   0.0000000), wk =   0.0011111
        k( 1481) = (   0.4166667   0.1500000   0.0000000), wk =   0.0011111
        k( 1482) = (   0.4166667   0.1666667   0.0000000), wk =   0.0011111
        k( 1483) = (   0.4166667   0.1833333   0.0000000), wk =   0.0011111
        k( 1484) = (   0.4166667   0.2000000   0.0000000), wk =   0.0011111
        k( 1485) = (   0.4166667   0.2166667   0.0000000), wk =   0.0011111
        k( 1486) = (   0.4166667   0.2333333   0.0000000), wk =   0.0011111
        k( 1487) = (   0.4166667   0.2500000   0.0000000), wk =   0.0011111
        k( 1488) = (   0.4166667   0.2666667   0.0000000), wk =   0.0011111
        k( 1489) = (   0.4166667   0.2833333   0.0000000), wk =   0.0011111
        k( 1490) = (   0.4166667   0.3000000   0.0000000), wk =   0.0011111
        k( 1491) = (   0.4166667   0.3166667   0.0000000), wk =   0.0011111
        k( 1492) = (   0.4166667   0.3333333   0.0000000), wk =   0.0011111
        k( 1493) = (   0.4166667   0.3500000   0.0000000), wk =   0.0011111
        k( 1494) = (   0.4166667   0.3666667   0.0000000), wk =   0.0011111
        k( 1495) = (   0.4166667   0.3833333   0.0000000), wk =   0.0011111
        k( 1496) = (   0.4166667   0.4000000   0.0000000), wk =   0.0011111
        k( 1497) = (   0.4166667   0.4166667   0.0000000), wk =   0.0011111
        k( 1498) = (   0.4166667   0.4333333   0.0000000), wk =   0.0011111
        k( 1499) = (   0.4166667   0.4500000   0.0000000), wk =   0.0011111
        k( 1500) = (   0.4166667   0.4666667   0.0000000), wk =   0.0011111
        k( 1501) = (   0.4166667   0.4833333   0.0000000), wk =   0.0011111
        k( 1502) = (   0.4166667  -0.5000000   0.0000000), wk =   0.0011111
        k( 1503) = (   0.4166667  -0.4833333   0.0000000), wk =   0.0011111
        k( 1504) = (   0.4166667  -0.4666667   0.0000000), wk =   0.0011111
        k( 1505) = (   0.4166667  -0.4500000   0.0000000), wk =   0.0011111
        k( 1506) = (   0.4166667  -0.4333333   0.0000000), wk =   0.0011111
        k( 1507) = (   0.4166667  -0.4166667   0.0000000), wk =   0.0011111
        k( 1508) = (   0.4166667  -0.4000000   0.0000000), wk =   0.0011111
        k( 1509) = (   0.4166667  -0.3833333   0.0000000), wk =   0.0011111
        k( 1510) = (   0.4166667  -0.3666667   0.0000000), wk =   0.0011111
        k( 1511) = (   0.4166667  -0.3500000   0.0000000), wk =   0.0011111
        k( 1512) = (   0.4166667  -0.3333333   0.0000000), wk =   0.0011111
        k( 1513) = (   0.4166667  -0.3166667   0.0000000), wk =   0.0011111
        k( 1514) = (   0.4166667  -0.3000000   0.0000000), wk =   0.0011111
        k( 1515) = (   0.4166667  -0.2833333   0.0000000), wk =   0.0011111
        k( 1516) = (   0.4166667  -0.2666667   0.0000000), wk =   0.0011111
        k( 1517) = (   0.4166667  -0.2500000   0.0000000), wk =   0.0011111
        k( 1518) = (   0.4166667  -0.2333333   0.0000000), wk =   0.0011111
        k( 1519) = (   0.4166667  -0.2166667   0.0000000), wk =   0.0011111
        k( 1520) = (   0.4166667  -0.2000000   0.0000000), wk =   0.0011111
        k( 1521) = (   0.4166667  -0.1833333   0.0000000), wk =   0.0011111
        k( 1522) = (   0.4166667  -0.1666667   0.0000000), wk =   0.0011111
        k( 1523) = (   0.4166667  -0.1500000   0.0000000), wk =   0.0011111
        k( 1524) = (   0.4166667  -0.1333333   0.0000000), wk =   0.0011111
        k( 1525) = (   0.4166667  -0.1166667   0.0000000), wk =   0.0011111
        k( 1526) = (   0.4166667  -0.1000000   0.0000000), wk =   0.0011111
        k( 1527) = (   0.4166667  -0.0833333   0.0000000), wk =   0.0011111
        k( 1528) = (   0.4166667  -0.0666667   0.0000000), wk =   0.0011111
        k( 1529) = (   0.4166667  -0.0500000   0.0000000), wk =   0.0011111
        k( 1530) = (   0.4166667  -0.0333333   0.0000000), wk =   0.0011111
        k( 1531) = (   0.4166667  -0.0166667   0.0000000), wk =   0.0011111
        k( 1532) = (   0.4333333   0.0000000   0.0000000), wk =   0.0011111
        k( 1533) = (   0.4333333   0.0166667   0.0000000), wk =   0.0011111
        k( 1534) = (   0.4333333   0.0333333   0.0000000), wk =   0.0011111
        k( 1535) = (   0.4333333   0.0500000   0.0000000), wk =   0.0011111
        k( 1536) = (   0.4333333   0.0666667   0.0000000), wk =   0.0011111
        k( 1537) = (   0.4333333   0.0833333   0.0000000), wk =   0.0011111
        k( 1538) = (   0.4333333   0.1000000   0.0000000), wk =   0.0011111
        k( 1539) = (   0.4333333   0.1166667   0.0000000), wk =   0.0011111
        k( 1540) = (   0.4333333   0.1333333   0.0000000), wk =   0.0011111
        k( 1541) = (   0.4333333   0.1500000   0.0000000), wk =   0.0011111
        k( 1542) = (   0.4333333   0.1666667   0.0000000), wk =   0.0011111
        k( 1543) = (   0.4333333   0.1833333   0.0000000), wk =   0.0011111
        k( 1544) = (   0.4333333   0.2000000   0.0000000), wk =   0.0011111
        k( 1545) = (   0.4333333   0.2166667   0.0000000), wk =   0.0011111
        k( 1546) = (   0.4333333   0.2333333   0.0000000), wk =   0.0011111
        k( 1547) = (   0.4333333   0.2500000   0.0000000), wk =   0.0011111
        k( 1548) = (   0.4333333   0.2666667   0.0000000), wk =   0.0011111
        k( 1549) = (   0.4333333   0.2833333   0.0000000), wk =   0.0011111
        k( 1550) = (   0.4333333   0.3000000   0.0000000), wk =   0.0011111
        k( 1551) = (   0.4333333   0.3166667   0.0000000), wk =   0.0011111
        k( 1552) = (   0.4333333   0.3333333   0.0000000), wk =   0.0011111
        k( 1553) = (   0.4333333   0.3500000   0.0000000), wk =   0.0011111
        k( 1554) = (   0.4333333   0.3666667   0.0000000), wk =   0.0011111
        k( 1555) = (   0.4333333   0.3833333   0.0000000), wk =   0.0011111
        k( 1556) = (   0.4333333   0.4000000   0.0000000), wk =   0.0011111
        k( 1557) = (   0.4333333   0.4166667   0.0000000), wk =   0.0011111
        k( 1558) = (   0.4333333   0.4333333   0.0000000), wk =   0.0011111
        k( 1559) = (   0.4333333   0.4500000   0.0000000), wk =   0.0011111
        k( 1560) = (   0.4333333   0.4666667   0.0000000), wk =   0.0011111
        k( 1561) = (   0.4333333   0.4833333   0.0000000), wk =   0.0011111
        k( 1562) = (   0.4333333  -0.5000000   0.0000000), wk =   0.0011111
        k( 1563) = (   0.4333333  -0.4833333   0.0000000), wk =   0.0011111
        k( 1564) = (   0.4333333  -0.4666667   0.0000000), wk =   0.0011111
        k( 1565) = (   0.4333333  -0.4500000   0.0000000), wk =   0.0011111
        k( 1566) = (   0.4333333  -0.4333333   0.0000000), wk =   0.0011111
        k( 1567) = (   0.4333333  -0.4166667   0.0000000), wk =   0.0011111
        k( 1568) = (   0.4333333  -0.4000000   0.0000000), wk =   0.0011111
        k( 1569) = (   0.4333333  -0.3833333   0.0000000), wk =   0.0011111
        k( 1570) = (   0.4333333  -0.3666667   0.0000000), wk =   0.0011111
        k( 1571) = (   0.4333333  -0.3500000   0.0000000), wk =   0.0011111
        k( 1572) = (   0.4333333  -0.3333333   0.0000000), wk =   0.0011111
        k( 1573) = (   0.4333333  -0.3166667   0.0000000), wk =   0.0011111
        k( 1574) = (   0.4333333  -0.3000000   0.0000000), wk =   0.0011111
        k( 1575) = (   0.4333333  -0.2833333   0.0000000), wk =   0.0011111
        k( 1576) = (   0.4333333  -0.2666667   0.0000000), wk =   0.0011111
        k( 1577) = (   0.4333333  -0.2500000   0.0000000), wk =   0.0011111
        k( 1578) = (   0.4333333  -0.2333333   0.0000000), wk =   0.0011111
        k( 1579) = (   0.4333333  -0.2166667   0.0000000), wk =   0.0011111
        k( 1580) = (   0.4333333  -0.2000000   0.0000000), wk =   0.0011111
        k( 1581) = (   0.4333333  -0.1833333   0.0000000), wk =   0.0011111
        k( 1582) = (   0.4333333  -0.1666667   0.0000000), wk =   0.0011111
        k( 1583) = (   0.4333333  -0.1500000   0.0000000), wk =   0.0011111
        k( 1584) = (   0.4333333  -0.1333333   0.0000000), wk =   0.0011111
        k( 1585) = (   0.4333333  -0.1166667   0.0000000), wk =   0.0011111
        k( 1586) = (   0.4333333  -0.1000000   0.0000000), wk =   0.0011111
        k( 1587) = (   0.4333333  -0.0833333   0.0000000), wk =   0.0011111
        k( 1588) = (   0.4333333  -0.0666667   0.0000000), wk =   0.0011111
        k( 1589) = (   0.4333333  -0.0500000   0.0000000), wk =   0.0011111
        k( 1590) = (   0.4333333  -0.0333333   0.0000000), wk =   0.0011111
        k( 1591) = (   0.4333333  -0.0166667   0.0000000), wk =   0.0011111
        k( 1592) = (   0.4500000   0.0000000   0.0000000), wk =   0.0011111
        k( 1593) = (   0.4500000   0.0166667   0.0000000), wk =   0.0011111
        k( 1594) = (   0.4500000   0.0333333   0.0000000), wk =   0.0011111
        k( 1595) = (   0.4500000   0.0500000   0.0000000), wk =   0.0011111
        k( 1596) = (   0.4500000   0.0666667   0.0000000), wk =   0.0011111
        k( 1597) = (   0.4500000   0.0833333   0.0000000), wk =   0.0011111
        k( 1598) = (   0.4500000   0.1000000   0.0000000), wk =   0.0011111
        k( 1599) = (   0.4500000   0.1166667   0.0000000), wk =   0.0011111
        k( 1600) = (   0.4500000   0.1333333   0.0000000), wk =   0.0011111
        k( 1601) = (   0.4500000   0.1500000   0.0000000), wk =   0.0011111
        k( 1602) = (   0.4500000   0.1666667   0.0000000), wk =   0.0011111
        k( 1603) = (   0.4500000   0.1833333   0.0000000), wk =   0.0011111
        k( 1604) = (   0.4500000   0.2000000   0.0000000), wk =   0.0011111
        k( 1605) = (   0.4500000   0.2166667   0.0000000), wk =   0.0011111
        k( 1606) = (   0.4500000   0.2333333   0.0000000), wk =   0.0011111
        k( 1607) = (   0.4500000   0.2500000   0.0000000), wk =   0.0011111
        k( 1608) = (   0.4500000   0.2666667   0.0000000), wk =   0.0011111
        k( 1609) = (   0.4500000   0.2833333   0.0000000), wk =   0.0011111
        k( 1610) = (   0.4500000   0.3000000   0.0000000), wk =   0.0011111
        k( 1611) = (   0.4500000   0.3166667   0.0000000), wk =   0.0011111
        k( 1612) = (   0.4500000   0.3333333   0.0000000), wk =   0.0011111
        k( 1613) = (   0.4500000   0.3500000   0.0000000), wk =   0.0011111
        k( 1614) = (   0.4500000   0.3666667   0.0000000), wk =   0.0011111
        k( 1615) = (   0.4500000   0.3833333   0.0000000), wk =   0.0011111
        k( 1616) = (   0.4500000   0.4000000   0.0000000), wk =   0.0011111
        k( 1617) = (   0.4500000   0.4166667   0.0000000), wk =   0.0011111
        k( 1618) = (   0.4500000   0.4333333   0.0000000), wk =   0.0011111
        k( 1619) = (   0.4500000   0.4500000   0.0000000), wk =   0.0011111
        k( 1620) = (   0.4500000   0.4666667   0.0000000), wk =   0.0011111
        k( 1621) = (   0.4500000   0.4833333   0.0000000), wk =   0.0011111
        k( 1622) = (   0.4500000  -0.5000000   0.0000000), wk =   0.0011111
        k( 1623) = (   0.4500000  -0.4833333   0.0000000), wk =   0.0011111
        k( 1624) = (   0.4500000  -0.4666667   0.0000000), wk =   0.0011111
        k( 1625) = (   0.4500000  -0.4500000   0.0000000), wk =   0.0011111
        k( 1626) = (   0.4500000  -0.4333333   0.0000000), wk =   0.0011111
        k( 1627) = (   0.4500000  -0.4166667   0.0000000), wk =   0.0011111
        k( 1628) = (   0.4500000  -0.4000000   0.0000000), wk =   0.0011111
        k( 1629) = (   0.4500000  -0.3833333   0.0000000), wk =   0.0011111
        k( 1630) = (   0.4500000  -0.3666667   0.0000000), wk =   0.0011111
        k( 1631) = (   0.4500000  -0.3500000   0.0000000), wk =   0.0011111
        k( 1632) = (   0.4500000  -0.3333333   0.0000000), wk =   0.0011111
        k( 1633) = (   0.4500000  -0.3166667   0.0000000), wk =   0.0011111
        k( 1634) = (   0.4500000  -0.3000000   0.0000000), wk =   0.0011111
        k( 1635) = (   0.4500000  -0.2833333   0.0000000), wk =   0.0011111
        k( 1636) = (   0.4500000  -0.2666667   0.0000000), wk =   0.0011111
        k( 1637) = (   0.4500000  -0.2500000   0.0000000), wk =   0.0011111
        k( 1638) = (   0.4500000  -0.2333333   0.0000000), wk =   0.0011111
        k( 1639) = (   0.4500000  -0.2166667   0.0000000), wk =   0.0011111
        k( 1640) = (   0.4500000  -0.2000000   0.0000000), wk =   0.0011111
        k( 1641) = (   0.4500000  -0.1833333   0.0000000), wk =   0.0011111
        k( 1642) = (   0.4500000  -0.1666667   0.0000000), wk =   0.0011111
        k( 1643) = (   0.4500000  -0.1500000   0.0000000), wk =   0.0011111
        k( 1644) = (   0.4500000  -0.1333333   0.0000000), wk =   0.0011111
        k( 1645) = (   0.4500000  -0.1166667   0.0000000), wk =   0.0011111
        k( 1646) = (   0.4500000  -0.1000000   0.0000000), wk =   0.0011111
        k( 1647) = (   0.4500000  -0.0833333   0.0000000), wk =   0.0011111
        k( 1648) = (   0.4500000  -0.0666667   0.0000000), wk =   0.0011111
        k( 1649) = (   0.4500000  -0.0500000   0.0000000), wk =   0.0011111
        k( 1650) = (   0.4500000  -0.0333333   0.0000000), wk =   0.0011111
        k( 1651) = (   0.4500000  -0.0166667   0.0000000), wk =   0.0011111
        k( 1652) = (   0.4666667   0.0000000   0.0000000), wk =   0.0011111
        k( 1653) = (   0.4666667   0.0166667   0.0000000), wk =   0.0011111
        k( 1654) = (   0.4666667   0.0333333   0.0000000), wk =   0.0011111
        k( 1655) = (   0.4666667   0.0500000   0.0000000), wk =   0.0011111
        k( 1656) = (   0.4666667   0.0666667   0.0000000), wk =   0.0011111
        k( 1657) = (   0.4666667   0.0833333   0.0000000), wk =   0.0011111
        k( 1658) = (   0.4666667   0.1000000   0.0000000), wk =   0.0011111
        k( 1659) = (   0.4666667   0.1166667   0.0000000), wk =   0.0011111
        k( 1660) = (   0.4666667   0.1333333   0.0000000), wk =   0.0011111
        k( 1661) = (   0.4666667   0.1500000   0.0000000), wk =   0.0011111
        k( 1662) = (   0.4666667   0.1666667   0.0000000), wk =   0.0011111
        k( 1663) = (   0.4666667   0.1833333   0.0000000), wk =   0.0011111
        k( 1664) = (   0.4666667   0.2000000   0.0000000), wk =   0.0011111
        k( 1665) = (   0.4666667   0.2166667   0.0000000), wk =   0.0011111
        k( 1666) = (   0.4666667   0.2333333   0.0000000), wk =   0.0011111
        k( 1667) = (   0.4666667   0.2500000   0.0000000), wk =   0.0011111
        k( 1668) = (   0.4666667   0.2666667   0.0000000), wk =   0.0011111
        k( 1669) = (   0.4666667   0.2833333   0.0000000), wk =   0.0011111
        k( 1670) = (   0.4666667   0.3000000   0.0000000), wk =   0.0011111
        k( 1671) = (   0.4666667   0.3166667   0.0000000), wk =   0.0011111
        k( 1672) = (   0.4666667   0.3333333   0.0000000), wk =   0.0011111
        k( 1673) = (   0.4666667   0.3500000   0.0000000), wk =   0.0011111
        k( 1674) = (   0.4666667   0.3666667   0.0000000), wk =   0.0011111
        k( 1675) = (   0.4666667   0.3833333   0.0000000), wk =   0.0011111
        k( 1676) = (   0.4666667   0.4000000   0.0000000), wk =   0.0011111
        k( 1677) = (   0.4666667   0.4166667   0.0000000), wk =   0.0011111
        k( 1678) = (   0.4666667   0.4333333   0.0000000), wk =   0.0011111
        k( 1679) = (   0.4666667   0.4500000   0.0000000), wk =   0.0011111
        k( 1680) = (   0.4666667   0.4666667   0.0000000), wk =   0.0011111
        k( 1681) = (   0.4666667   0.4833333   0.0000000), wk =   0.0011111
        k( 1682) = (   0.4666667  -0.5000000   0.0000000), wk =   0.0011111
        k( 1683) = (   0.4666667  -0.4833333   0.0000000), wk =   0.0011111
        k( 1684) = (   0.4666667  -0.4666667   0.0000000), wk =   0.0011111
        k( 1685) = (   0.4666667  -0.4500000   0.0000000), wk =   0.0011111
        k( 1686) = (   0.4666667  -0.4333333   0.0000000), wk =   0.0011111
        k( 1687) = (   0.4666667  -0.4166667   0.0000000), wk =   0.0011111
        k( 1688) = (   0.4666667  -0.4000000   0.0000000), wk =   0.0011111
        k( 1689) = (   0.4666667  -0.3833333   0.0000000), wk =   0.0011111
        k( 1690) = (   0.4666667  -0.3666667   0.0000000), wk =   0.0011111
        k( 1691) = (   0.4666667  -0.3500000   0.0000000), wk =   0.0011111
        k( 1692) = (   0.4666667  -0.3333333   0.0000000), wk =   0.0011111
        k( 1693) = (   0.4666667  -0.3166667   0.0000000), wk =   0.0011111
        k( 1694) = (   0.4666667  -0.3000000   0.0000000), wk =   0.0011111
        k( 1695) = (   0.4666667  -0.2833333   0.0000000), wk =   0.0011111
        k( 1696) = (   0.4666667  -0.2666667   0.0000000), wk =   0.0011111
        k( 1697) = (   0.4666667  -0.2500000   0.0000000), wk =   0.0011111
        k( 1698) = (   0.4666667  -0.2333333   0.0000000), wk =   0.0011111
        k( 1699) = (   0.4666667  -0.2166667   0.0000000), wk =   0.0011111
        k( 1700) = (   0.4666667  -0.2000000   0.0000000), wk =   0.0011111
        k( 1701) = (   0.4666667  -0.1833333   0.0000000), wk =   0.0011111
        k( 1702) = (   0.4666667  -0.1666667   0.0000000), wk =   0.0011111
        k( 1703) = (   0.4666667  -0.1500000   0.0000000), wk =   0.0011111
        k( 1704) = (   0.4666667  -0.1333333   0.0000000), wk =   0.0011111
        k( 1705) = (   0.4666667  -0.1166667   0.0000000), wk =   0.0011111
        k( 1706) = (   0.4666667  -0.1000000   0.0000000), wk =   0.0011111
        k( 1707) = (   0.4666667  -0.0833333   0.0000000), wk =   0.0011111
        k( 1708) = (   0.4666667  -0.0666667   0.0000000), wk =   0.0011111
        k( 1709) = (   0.4666667  -0.0500000   0.0000000), wk =   0.0011111
        k( 1710) = (   0.4666667  -0.0333333   0.0000000), wk =   0.0011111
        k( 1711) = (   0.4666667  -0.0166667   0.0000000), wk =   0.0011111
        k( 1712) = (   0.4833333   0.0000000   0.0000000), wk =   0.0011111
        k( 1713) = (   0.4833333   0.0166667   0.0000000), wk =   0.0011111
        k( 1714) = (   0.4833333   0.0333333   0.0000000), wk =   0.0011111
        k( 1715) = (   0.4833333   0.0500000   0.0000000), wk =   0.0011111
        k( 1716) = (   0.4833333   0.0666667   0.0000000), wk =   0.0011111
        k( 1717) = (   0.4833333   0.0833333   0.0000000), wk =   0.0011111
        k( 1718) = (   0.4833333   0.1000000   0.0000000), wk =   0.0011111
        k( 1719) = (   0.4833333   0.1166667   0.0000000), wk =   0.0011111
        k( 1720) = (   0.4833333   0.1333333   0.0000000), wk =   0.0011111
        k( 1721) = (   0.4833333   0.1500000   0.0000000), wk =   0.0011111
        k( 1722) = (   0.4833333   0.1666667   0.0000000), wk =   0.0011111
        k( 1723) = (   0.4833333   0.1833333   0.0000000), wk =   0.0011111
        k( 1724) = (   0.4833333   0.2000000   0.0000000), wk =   0.0011111
        k( 1725) = (   0.4833333   0.2166667   0.0000000), wk =   0.0011111
        k( 1726) = (   0.4833333   0.2333333   0.0000000), wk =   0.0011111
        k( 1727) = (   0.4833333   0.2500000   0.0000000), wk =   0.0011111
        k( 1728) = (   0.4833333   0.2666667   0.0000000), wk =   0.0011111
        k( 1729) = (   0.4833333   0.2833333   0.0000000), wk =   0.0011111
        k( 1730) = (   0.4833333   0.3000000   0.0000000), wk =   0.0011111
        k( 1731) = (   0.4833333   0.3166667   0.0000000), wk =   0.0011111
        k( 1732) = (   0.4833333   0.3333333   0.0000000), wk =   0.0011111
        k( 1733) = (   0.4833333   0.3500000   0.0000000), wk =   0.0011111
        k( 1734) = (   0.4833333   0.3666667   0.0000000), wk =   0.0011111
        k( 1735) = (   0.4833333   0.3833333   0.0000000), wk =   0.0011111
        k( 1736) = (   0.4833333   0.4000000   0.0000000), wk =   0.0011111
        k( 1737) = (   0.4833333   0.4166667   0.0000000), wk =   0.0011111
        k( 1738) = (   0.4833333   0.4333333   0.0000000), wk =   0.0011111
        k( 1739) = (   0.4833333   0.4500000   0.0000000), wk =   0.0011111
        k( 1740) = (   0.4833333   0.4666667   0.0000000), wk =   0.0011111
        k( 1741) = (   0.4833333   0.4833333   0.0000000), wk =   0.0011111
        k( 1742) = (   0.4833333  -0.5000000   0.0000000), wk =   0.0011111
        k( 1743) = (   0.4833333  -0.4833333   0.0000000), wk =   0.0011111
        k( 1744) = (   0.4833333  -0.4666667   0.0000000), wk =   0.0011111
        k( 1745) = (   0.4833333  -0.4500000   0.0000000), wk =   0.0011111
        k( 1746) = (   0.4833333  -0.4333333   0.0000000), wk =   0.0011111
        k( 1747) = (   0.4833333  -0.4166667   0.0000000), wk =   0.0011111
        k( 1748) = (   0.4833333  -0.4000000   0.0000000), wk =   0.0011111
        k( 1749) = (   0.4833333  -0.3833333   0.0000000), wk =   0.0011111
        k( 1750) = (   0.4833333  -0.3666667   0.0000000), wk =   0.0011111
        k( 1751) = (   0.4833333  -0.3500000   0.0000000), wk =   0.0011111
        k( 1752) = (   0.4833333  -0.3333333   0.0000000), wk =   0.0011111
        k( 1753) = (   0.4833333  -0.3166667   0.0000000), wk =   0.0011111
        k( 1754) = (   0.4833333  -0.3000000   0.0000000), wk =   0.0011111
        k( 1755) = (   0.4833333  -0.2833333   0.0000000), wk =   0.0011111
        k( 1756) = (   0.4833333  -0.2666667   0.0000000), wk =   0.0011111
        k( 1757) = (   0.4833333  -0.2500000   0.0000000), wk =   0.0011111
        k( 1758) = (   0.4833333  -0.2333333   0.0000000), wk =   0.0011111
        k( 1759) = (   0.4833333  -0.2166667   0.0000000), wk =   0.0011111
        k( 1760) = (   0.4833333  -0.2000000   0.0000000), wk =   0.0011111
        k( 1761) = (   0.4833333  -0.1833333   0.0000000), wk =   0.0011111
        k( 1762) = (   0.4833333  -0.1666667   0.0000000), wk =   0.0011111
        k( 1763) = (   0.4833333  -0.1500000   0.0000000), wk =   0.0011111
        k( 1764) = (   0.4833333  -0.1333333   0.0000000), wk =   0.0011111
        k( 1765) = (   0.4833333  -0.1166667   0.0000000), wk =   0.0011111
        k( 1766) = (   0.4833333  -0.1000000   0.0000000), wk =   0.0011111
        k( 1767) = (   0.4833333  -0.0833333   0.0000000), wk =   0.0011111
        k( 1768) = (   0.4833333  -0.0666667   0.0000000), wk =   0.0011111
        k( 1769) = (   0.4833333  -0.0500000   0.0000000), wk =   0.0011111
        k( 1770) = (   0.4833333  -0.0333333   0.0000000), wk =   0.0011111
        k( 1771) = (   0.4833333  -0.0166667   0.0000000), wk =   0.0011111
        k( 1772) = (  -0.5000000   0.0000000   0.0000000), wk =   0.0005556
        k( 1773) = (  -0.5000000   0.0166667   0.0000000), wk =   0.0011111
        k( 1774) = (  -0.5000000   0.0333333   0.0000000), wk =   0.0011111
        k( 1775) = (  -0.5000000   0.0500000   0.0000000), wk =   0.0011111
        k( 1776) = (  -0.5000000   0.0666667   0.0000000), wk =   0.0011111
        k( 1777) = (  -0.5000000   0.0833333   0.0000000), wk =   0.0011111
        k( 1778) = (  -0.5000000   0.1000000   0.0000000), wk =   0.0011111
        k( 1779) = (  -0.5000000   0.1166667   0.0000000), wk =   0.0011111
        k( 1780) = (  -0.5000000   0.1333333   0.0000000), wk =   0.0011111
        k( 1781) = (  -0.5000000   0.1500000   0.0000000), wk =   0.0011111
        k( 1782) = (  -0.5000000   0.1666667   0.0000000), wk =   0.0011111
        k( 1783) = (  -0.5000000   0.1833333   0.0000000), wk =   0.0011111
        k( 1784) = (  -0.5000000   0.2000000   0.0000000), wk =   0.0011111
        k( 1785) = (  -0.5000000   0.2166667   0.0000000), wk =   0.0011111
        k( 1786) = (  -0.5000000   0.2333333   0.0000000), wk =   0.0011111
        k( 1787) = (  -0.5000000   0.2500000   0.0000000), wk =   0.0011111
        k( 1788) = (  -0.5000000   0.2666667   0.0000000), wk =   0.0011111
        k( 1789) = (  -0.5000000   0.2833333   0.0000000), wk =   0.0011111
        k( 1790) = (  -0.5000000   0.3000000   0.0000000), wk =   0.0011111
        k( 1791) = (  -0.5000000   0.3166667   0.0000000), wk =   0.0011111
        k( 1792) = (  -0.5000000   0.3333333   0.0000000), wk =   0.0011111
        k( 1793) = (  -0.5000000   0.3500000   0.0000000), wk =   0.0011111
        k( 1794) = (  -0.5000000   0.3666667   0.0000000), wk =   0.0011111
        k( 1795) = (  -0.5000000   0.3833333   0.0000000), wk =   0.0011111
        k( 1796) = (  -0.5000000   0.4000000   0.0000000), wk =   0.0011111
        k( 1797) = (  -0.5000000   0.4166667   0.0000000), wk =   0.0011111
        k( 1798) = (  -0.5000000   0.4333333   0.0000000), wk =   0.0011111
        k( 1799) = (  -0.5000000   0.4500000   0.0000000), wk =   0.0011111
        k( 1800) = (  -0.5000000   0.4666667   0.0000000), wk =   0.0011111
        k( 1801) = (  -0.5000000   0.4833333   0.0000000), wk =   0.0011111
        k( 1802) = (  -0.5000000  -0.5000000   0.0000000), wk =   0.0005556

     Dense  grid:   111671 G-vectors     FFT dimensions: (  30,  30, 288)

     Smooth grid:    52021 G-vectors     FFT dimensions: (  24,  24, 225)

     Dynamical RAM for                 wfc:       1.19 MB

     Dynamical RAM for     wfc (w. buffer):     536.39 MB

     Dynamical RAM for           str. fact:       1.70 MB

     Dynamical RAM for           local pot:       0.00 MB

     Dynamical RAM for          nlocal pot:       1.58 MB

     Dynamical RAM for                qrad:       0.46 MB

     Dynamical RAM for          rho,v,vnew:      11.04 MB

     Dynamical RAM for           G-vectors:       6.79 MB

     Dynamical RAM for          h,s,v(r/c):       0.03 MB

     Dynamical RAM for          <psi|beta>:       0.00 MB

     Dynamical RAM for                 psi:       2.37 MB

     Dynamical RAM for                hpsi:       2.37 MB

     Dynamical RAM for                spsi:       2.37 MB

     Dynamical RAM for      wfcinit/wfcrot:       2.38 MB

     Dynamical RAM for           addusdens:      20.45 MB

     Estimated static dynamical RAM per process >     571.26 MB

     Estimated max dynamical RAM per process >     591.71 MB

     Estimated total dynamical RAM >       2.31 GB
 ----2D----2D----2D----2D----2D----2D----2D----2D----2D----2D----2D----2D
  The code is running with the 2D cutoff
  Please refer to:
  Sohier, T., Calandra, M., & Mauri, F. (2017), 
  Density functional perturbation theory for gated two-dimensional heterostructures:
  Theoretical developments and application to flexural phonons in graphene.
  Physical Review B, 96(7), 75448. https://doi.org/10.1103/PhysRevB.96.075448
 ----2D----2D----2D----2D----2D----2D----2D----2D----2D----2D----2D----2D

     Adding external electric field
        E field amplitude [Ha a.u.]:  1.0000E-02
        Potential amp.        0.7943 Ry
        Total length         39.7126 bohr


     Check: negative core charge=   -0.000002

     The potential is recalculated from file :
     /home/ubuntu/projects/Graphene-Band-Structure-Quantum-Espresso/outputs/bilayer/field_0.01Ry/bottom/data/bottom.save/charge-density


     negative rho (up, down):  1.438E-04 0.000E+00
     Starting wfcs are    8 randomized atomic wfcs +    4 random wfcs
     Checking if some PAW data can be deallocated... 

     Band Structure Calculation
     Davidson diagonalization with overlap

     Computing kpt #:     1  of   451 on this pool
     total cpu time spent up to now is        5.8 secs

     Computing kpt #:     2  of   451 on this pool
     total cpu time spent up to now is        9.0 secs

     Computing kpt #:     3  of   451 on this pool
     total cpu time spent up to now is       12.4 secs

     Computing kpt #:     4  of   451 on this pool
     total cpu time spent up to now is       15.6 secs

     Computing kpt #:     5  of   451 on this pool
     c_bands:  1 eigenvalues not converged
     total cpu time spent up to now is       19.2 secs

     Computing kpt #:     6  of   451 on this pool
     c_bands:  1 eigenvalues not converged
     total cpu time spent up to now is       22.4 secs

     Computing kpt #:     7  of   451 on this pool
     total cpu time spent up to now is       25.3 secs

     Computing kpt #:     8  of   451 on this pool
     total cpu time spent up to now is       28.7 secs

     Computing kpt #:     9  of   451 on this pool
     total cpu time spent up to now is       31.8 secs

     Computing kpt #:    10  of   451 on this pool
     total cpu time spent up to now is       35.0 secs

     Computing kpt #:    11  of   451 on this pool
     total cpu time spent up to now is       38.0 secs

     Computing kpt #:    12  of   451 on this pool
     total cpu time spent up to now is       41.2 secs

     Computing kpt #:    13  of   451 on this pool
     total cpu time spent up to now is       44.2 secs

     Computing kpt #:    14  of   451 on this pool
     total cpu time spent up to now is       47.5 secs

     Computing kpt #:    15  of   451 on this pool
     total cpu time spent up to now is       50.8 secs

     Computing kpt #:    16  of   451 on this pool
     total cpu time spent up to now is       54.2 secs

     Computing kpt #:    17  of   451 on this pool
     total cpu time spent up to now is       57.2 secs

     Computing kpt #:    18  of   451 on this pool
     total cpu time spent up to now is       60.4 secs

     Computing kpt #:    19  of   451 on this pool
     total cpu time spent up to now is       63.6 secs

     Computing kpt #:    20  of   451 on this pool
     total cpu time spent up to now is       66.5 secs

     Computing kpt #:    21  of   451 on this pool
     total cpu time spent up to now is       69.6 secs

     Computing kpt #:    22  of   451 on this pool
     total cpu time spent up to now is       72.7 secs

     Computing kpt #:    23  of   451 on this pool
     total cpu time spent up to now is       75.8 secs

     Computing kpt #:    24  of   451 on this pool
     total cpu time spent up to now is       78.9 secs

     Computing kpt #:    25  of   451 on this pool
     total cpu time spent up to now is       82.6 secs

     Computing kpt #:    26  of   451 on this pool
     total cpu time spent up to now is       85.8 secs

     Computing kpt #:    27  of   451 on this pool
     total cpu time spent up to now is       88.3 secs

     Computing kpt #:    28  of   451 on this pool
     total cpu time spent up to now is       91.0 secs

     Computing kpt #:    29  of   451 on this pool
     total cpu time spent up to now is       93.8 secs

     Computing kpt #:    30  of   451 on this pool
     total cpu time spent up to now is       97.2 secs

     Computing kpt #:    31  of   451 on this pool
     total cpu time spent up to now is      100.4 secs

     Computing kpt #:    32  of   451 on this pool
     total cpu time spent up to now is      102.7 secs

     Computing kpt #:    33  of   451 on this pool
     total cpu time spent up to now is      105.4 secs

     Computing kpt #:    34  of   451 on this pool
     total cpu time spent up to now is      107.6 secs

     Computing kpt #:    35  of   451 on this pool
     total cpu time spent up to now is      109.9 secs

     Computing kpt #:    36  of   451 on this pool
     total cpu time spent up to now is      112.3 secs

     Computing kpt #:    37  of   451 on this pool
     total cpu time spent up to now is      114.3 secs

     Computing kpt #:    38  of   451 on this pool
     total cpu time spent up to now is      117.1 secs

     Computing kpt #:    39  of   451 on this pool
     total cpu time spent up to now is      120.2 secs

     Computing kpt #:    40  of   451 on this pool
     total cpu time spent up to now is      122.6 secs

     Computing kpt #:    41  of   451 on this pool
     c_bands:  1 eigenvalues not converged
     total cpu time spent up to now is      124.9 secs

     Computing kpt #:    42  of   451 on this pool
     total cpu time spent up to now is      127.3 secs

     Computing kpt #:    43  of   451 on this pool
     total cpu time spent up to now is      130.7 secs

     Computing kpt #:    44  of   451 on this pool
     total cpu time spent up to now is      132.7 secs

     Computing kpt #:    45  of   451 on this pool
     total cpu time spent up to now is      135.1 secs

     Computing kpt #:    46  of   451 on this pool
     total cpu time spent up to now is      137.1 secs

     Computing kpt #:    47  of   451 on this pool
     total cpu time spent up to now is      140.4 secs

     Computing kpt #:    48  of   451 on this pool
     total cpu time spent up to now is      143.0 secs

     Computing kpt #:    49  of   451 on this pool
     total cpu time spent up to now is      145.7 secs

     Computing kpt #:    50  of   451 on this pool
     total cpu time spent up to now is      149.3 secs

     Computing kpt #:    51  of   451 on this pool
     total cpu time spent up to now is      152.0 secs

     Computing kpt #:    52  of   451 on this pool
     total cpu time spent up to now is      156.3 secs

     Computing kpt #:    53  of   451 on this pool
     total cpu time spent up to now is      159.3 secs

     Computing kpt #:    54  of   451 on this pool
     total cpu time spent up to now is      162.3 secs

     Computing kpt #:    55  of   451 on this pool
     total cpu time spent up to now is      164.6 secs

     Computing kpt #:    56  of   451 on this pool
     total cpu time spent up to now is      167.8 secs

     Computing kpt #:    57  of   451 on this pool
     total cpu time spent up to now is      171.0 secs

     Computing kpt #:    58  of   451 on this pool
     total cpu time spent up to now is      174.1 secs

     Computing kpt #:    59  of   451 on this pool
     total cpu time spent up to now is      177.1 secs

     Computing kpt #:    60  of   451 on this pool
     total cpu time spent up to now is      179.9 secs

     Computing kpt #:    61  of   451 on this pool
     total cpu time spent up to now is      183.6 secs

     Computing kpt #:    62  of   451 on this pool
     total cpu time spent up to now is      187.5 secs

     Computing kpt #:    63  of   451 on this pool
     total cpu time spent up to now is      190.7 secs

     Computing kpt #:    64  of   451 on this pool
     total cpu time spent up to now is      193.3 secs

     Computing kpt #:    65  of   451 on this pool
     total cpu time spent up to now is      195.4 secs

     Computing kpt #:    66  of   451 on this pool
     total cpu time spent up to now is      197.9 secs

     Computing kpt #:    67  of   451 on this pool
     total cpu time spent up to now is      200.6 secs

     Computing kpt #:    68  of   451 on this pool
     total cpu time spent up to now is      203.7 secs

     Computing kpt #:    69  of   451 on this pool
     total cpu time spent up to now is      206.5 secs

     Computing kpt #:    70  of   451 on this pool
     total cpu time spent up to now is      209.2 secs

     Computing kpt #:    71  of   451 on this pool
     total cpu time spent up to now is      212.3 secs

     Computing kpt #:    72  of   451 on this pool
     total cpu time spent up to now is      215.6 secs

     Computing kpt #:    73  of   451 on this pool
     total cpu time spent up to now is      218.7 secs

     Computing kpt #:    74  of   451 on this pool
     total cpu time spent up to now is      221.6 secs

     Computing kpt #:    75  of   451 on this pool
     total cpu time spent up to now is      224.4 secs

     Computing kpt #:    76  of   451 on this pool
     total cpu time spent up to now is      227.7 secs

     Computing kpt #:    77  of   451 on this pool
     total cpu time spent up to now is      231.0 secs

     Computing kpt #:    78  of   451 on this pool
     total cpu time spent up to now is      235.0 secs

     Computing kpt #:    79  of   451 on this pool
     total cpu time spent up to now is      237.9 secs

     Computing kpt #:    80  of   451 on this pool
     total cpu time spent up to now is      241.3 secs

     Computing kpt #:    81  of   451 on this pool
     total cpu time spent up to now is      245.1 secs

     Computing kpt #:    82  of   451 on this pool
     total cpu time spent up to now is      248.1 secs

     Computing kpt #:    83  of   451 on this pool
     total cpu time spent up to now is      251.1 secs

     Computing kpt #:    84  of   451 on this pool
     total cpu time spent up to now is      254.1 secs

     Computing kpt #:    85  of   451 on this pool
     total cpu time spent up to now is      258.0 secs

     Computing kpt #:    86  of   451 on this pool
     total cpu time spent up to now is      261.5 secs

     Computing kpt #:    87  of   451 on this pool
     total cpu time spent up to now is      264.3 secs

     Computing kpt #:    88  of   451 on this pool
     total cpu time spent up to now is      267.3 secs

     Computing kpt #:    89  of   451 on this pool
     total cpu time spent up to now is      270.7 secs

     Computing kpt #:    90  of   451 on this pool
     total cpu time spent up to now is      273.3 secs

     Computing kpt #:    91  of   451 on this pool
     total cpu time spent up to now is      276.5 secs

     Computing kpt #:    92  of   451 on this pool
     total cpu time spent up to now is      279.7 secs

     Computing kpt #:    93  of   451 on this pool
     total cpu time spent up to now is      282.6 secs

     Computing kpt #:    94  of   451 on this pool
     total cpu time spent up to now is      285.4 secs

     Computing kpt #:    95  of   451 on this pool
     c_bands:  1 eigenvalues not converged
     total cpu time spent up to now is      288.4 secs

     Computing kpt #:    96  of   451 on this pool
     total cpu time spent up to now is      291.1 secs

     Computing kpt #:    97  of   451 on this pool
     total cpu time spent up to now is      293.6 secs

     Computing kpt #:    98  of   451 on this pool
     total cpu time spent up to now is      296.4 secs

     Computing kpt #:    99  of   451 on this pool
     total cpu time spent up to now is      299.5 secs

     Computing kpt #:   100  of   451 on this pool
     total cpu time spent up to now is      302.4 secs

     Computing kpt #:   101  of   451 on this pool
     total cpu time spent up to now is      305.6 secs

     Computing kpt #:   102  of   451 on this pool
     total cpu time spent up to now is      308.8 secs

     Computing kpt #:   103  of   451 on this pool
     total cpu time spent up to now is      312.0 secs

     Computing kpt #:   104  of   451 on this pool
     total cpu time spent up to now is      314.5 secs

     Computing kpt #:   105  of   451 on this pool
     total cpu time spent up to now is      317.2 secs

     Computing kpt #:   106  of   451 on this pool
     total cpu time spent up to now is      320.4 secs

     Computing kpt #:   107  of   451 on this pool
     total cpu time spent up to now is      323.3 secs

     Computing kpt #:   108  of   451 on this pool
     total cpu time spent up to now is      326.1 secs

     Computing kpt #:   109  of   451 on this pool
     total cpu time spent up to now is      329.6 secs

     Computing kpt #:   110  of   451 on this pool
     total cpu time spent up to now is      333.5 secs

     Computing kpt #:   111  of   451 on this pool
     total cpu time spent up to now is      336.6 secs

     Computing kpt #:   112  of   451 on this pool
     total cpu time spent up to now is      339.5 secs

     Computing kpt #:   113  of   451 on this pool
     total cpu time spent up to now is      342.7 secs

     Computing kpt #:   114  of   451 on this pool
     total cpu time spent up to now is      345.8 secs

     Computing kpt #:   115  of   451 on this pool
     total cpu time spent up to now is      348.8 secs

     Computing kpt #:   116  of   451 on this pool
     total cpu time spent up to now is      350.9 secs

     Computing kpt #:   117  of   451 on this pool
     total cpu time spent up to now is      353.6 secs

     Computing kpt #:   118  of   451 on this pool
     total cpu time spent up to now is      356.5 secs

     Computing kpt #:   119  of   451 on this pool
     total cpu time spent up to now is      358.6 secs

     Computing kpt #:   120  of   451 on this pool
     total cpu time spent up to now is      361.1 secs

     Computing kpt #:   121  of   451 on this pool
     total cpu time spent up to now is      363.5 secs

     Computing kpt #:   122  of   451 on this pool
     total cpu time spent up to now is      365.4 secs

     Computing kpt #:   123  of   451 on this pool
     total cpu time spent up to now is      368.0 secs

     Computing kpt #:   124  of   451 on this pool
     total cpu time spent up to now is      369.8 secs

     Computing kpt #:   125  of   451 on this pool
     total cpu time spent up to now is      372.1 secs

     Computing kpt #:   126  of   451 on this pool
     total cpu time spent up to now is      375.1 secs

     Computing kpt #:   127  of   451 on this pool
     total cpu time spent up to now is      378.3 secs

     Computing kpt #:   128  of   451 on this pool
     total cpu time spent up to now is      381.2 secs

     Computing kpt #:   129  of   451 on this pool
     total cpu time spent up to now is      384.3 secs

     Computing kpt #:   130  of   451 on this pool
     total cpu time spent up to now is      387.2 secs

     Computing kpt #:   131  of   451 on this pool
     total cpu time spent up to now is      389.6 secs

     Computing kpt #:   132  of   451 on this pool
     total cpu time spent up to now is      391.7 secs

     Computing kpt #:   133  of   451 on this pool
     total cpu time spent up to now is      394.7 secs

     Computing kpt #:   134  of   451 on this pool
     total cpu time spent up to now is      397.4 secs

     Computing kpt #:   135  of   451 on this pool
     total cpu time spent up to now is      399.6 secs

     Computing kpt #:   136  of   451 on this pool
     total cpu time spent up to now is      402.9 secs

     Computing kpt #:   137  of   451 on this pool
     total cpu time spent up to now is      406.4 secs

     Computing kpt #:   138  of   451 on this pool
     total cpu time spent up to now is      410.3 secs

     Computing kpt #:   139  of   451 on this pool
     total cpu time spent up to now is      414.7 secs

     Computing kpt #:   140  of   451 on this pool
     total cpu time spent up to now is      417.8 secs

     Computing kpt #:   141  of   451 on this pool
     total cpu time spent up to now is      420.8 secs

     Computing kpt #:   142  of   451 on this pool
     total cpu time spent up to now is      423.8 secs

     Computing kpt #:   143  of   451 on this pool
     total cpu time spent up to now is      427.7 secs

     Computing kpt #:   144  of   451 on this pool
     total cpu time spent up to now is      431.0 secs

     Computing kpt #:   145  of   451 on this pool
     total cpu time spent up to now is      434.0 secs

     Computing kpt #:   146  of   451 on this pool
     total cpu time spent up to now is      437.8 secs

     Computing kpt #:   147  of   451 on this pool
     total cpu time spent up to now is      441.3 secs

     Computing kpt #:   148  of   451 on this pool
     total cpu time spent up to now is      444.4 secs

     Computing kpt #:   149  of   451 on this pool
     total cpu time spent up to now is      447.4 secs

     Computing kpt #:   150  of   451 on this pool
     total cpu time spent up to now is      450.9 secs

     Computing kpt #:   151  of   451 on this pool
     total cpu time spent up to now is      453.5 secs

     Computing kpt #:   152  of   451 on this pool
     total cpu time spent up to now is      456.4 secs

     Computing kpt #:   153  of   451 on this pool
     total cpu time spent up to now is      459.3 secs

     Computing kpt #:   154  of   451 on this pool
     total cpu time spent up to now is      461.6 secs

     Computing kpt #:   155  of   451 on this pool
     total cpu time spent up to now is      463.8 secs

     Computing kpt #:   156  of   451 on this pool
     total cpu time spent up to now is      466.6 secs

     Computing kpt #:   157  of   451 on this pool
     total cpu time spent up to now is      469.7 secs

     Computing kpt #:   158  of   451 on this pool
     total cpu time spent up to now is      472.7 secs

     Computing kpt #:   159  of   451 on this pool
     total cpu time spent up to now is      475.8 secs

     Computing kpt #:   160  of   451 on this pool
     total cpu time spent up to now is      479.9 secs

     Computing kpt #:   161  of   451 on this pool
     total cpu time spent up to now is      483.1 secs

     Computing kpt #:   162  of   451 on this pool
     total cpu time spent up to now is      485.8 secs

     Computing kpt #:   163  of   451 on this pool
     total cpu time spent up to now is      489.0 secs

     Computing kpt #:   164  of   451 on this pool
     total cpu time spent up to now is      492.1 secs

     Computing kpt #:   165  of   451 on this pool
     total cpu time spent up to now is      494.7 secs

     Computing kpt #:   166  of   451 on this pool
     total cpu time spent up to now is      497.8 secs

     Computing kpt #:   167  of   451 on this pool
     total cpu time spent up to now is      502.3 secs

     Computing kpt #:   168  of   451 on this pool
     total cpu time spent up to now is      506.3 secs

     Computing kpt #:   169  of   451 on this pool
     total cpu time spent up to now is      510.4 secs

     Computing kpt #:   170  of   451 on this pool
     total cpu time spent up to now is      515.3 secs

     Computing kpt #:   171  of   451 on this pool
     total cpu time spent up to now is      519.4 secs

     Computing kpt #:   172  of   451 on this pool
     total cpu time spent up to now is      522.3 secs

     Computing kpt #:   173  of   451 on this pool
     total cpu time spent up to now is      525.5 secs

     Computing kpt #:   174  of   451 on this pool
     total cpu time spent up to now is      530.1 secs

     Computing kpt #:   175  of   451 on this pool
     total cpu time spent up to now is      533.3 secs

     Computing kpt #:   176  of   451 on this pool
     total cpu time spent up to now is      536.5 secs

     Computing kpt #:   177  of   451 on this pool
     total cpu time spent up to now is      538.9 secs

     Computing kpt #:   178  of   451 on this pool
     total cpu time spent up to now is      541.9 secs

     Computing kpt #:   179  of   451 on this pool
     total cpu time spent up to now is      545.2 secs

     Computing kpt #:   180  of   451 on this pool
     total cpu time spent up to now is      547.5 secs

     Computing kpt #:   181  of   451 on this pool
     total cpu time spent up to now is      549.7 secs

     Computing kpt #:   182  of   451 on this pool
     total cpu time spent up to now is      552.6 secs

     Computing kpt #:   183  of   451 on this pool
     total cpu time spent up to now is      555.3 secs

     Computing kpt #:   184  of   451 on this pool
     total cpu time spent up to now is      557.8 secs

     Computing kpt #:   185  of   451 on this pool
     total cpu time spent up to now is      559.8 secs

     Computing kpt #:   186  of   451 on this pool
     total cpu time spent up to now is      561.6 secs

     Computing kpt #:   187  of   451 on this pool
     total cpu time spent up to now is      565.3 secs

     Computing kpt #:   188  of   451 on this pool
     total cpu time spent up to now is      568.8 secs

     Computing kpt #:   189  of   451 on this pool
     total cpu time spent up to now is      571.8 secs

     Computing kpt #:   190  of   451 on this pool
     total cpu time spent up to now is      574.1 secs

     Computing kpt #:   191  of   451 on this pool
     total cpu time spent up to now is      577.8 secs

     Computing kpt #:   192  of   451 on this pool
     total cpu time spent up to now is      581.3 secs

     Computing kpt #:   193  of   451 on this pool
     total cpu time spent up to now is      584.2 secs

     Computing kpt #:   194  of   451 on this pool
     total cpu time spent up to now is      587.5 secs

     Computing kpt #:   195  of   451 on this pool
     total cpu time spent up to now is      589.8 secs

     Computing kpt #:   196  of   451 on this pool
     total cpu time spent up to now is      593.3 secs

     Computing kpt #:   197  of   451 on this pool
     total cpu time spent up to now is      596.0 secs

     Computing kpt #:   198  of   451 on this pool
     total cpu time spent up to now is      600.0 secs

     Computing kpt #:   199  of   451 on this pool
     total cpu time spent up to now is      603.0 secs

     Computing kpt #:   200  of   451 on this pool
     total cpu time spent up to now is      605.6 secs

     Computing kpt #:   201  of   451 on this pool
     total cpu time spent up to now is      609.4 secs

     Computing kpt #:   202  of   451 on this pool
     total cpu time spent up to now is      613.3 secs

     Computing kpt #:   203  of   451 on this pool
     total cpu time spent up to now is      616.9 secs

     Computing kpt #:   204  of   451 on this pool
     total cpu time spent up to now is      620.6 secs

     Computing kpt #:   205  of   451 on this pool
     total cpu time spent up to now is      623.6 secs

     Computing kpt #:   206  of   451 on this pool
     total cpu time spent up to now is      626.4 secs

     Computing kpt #:   207  of   451 on this pool
     total cpu time spent up to now is      629.6 secs

     Computing kpt #:   208  of   451 on this pool
     total cpu time spent up to now is      632.0 secs

     Computing kpt #:   209  of   451 on this pool
     total cpu time spent up to now is      635.0 secs

     Computing kpt #:   210  of   451 on this pool
     total cpu time spent up to now is      637.6 secs

     Computing kpt #:   211  of   451 on this pool
     total cpu time spent up to now is      640.4 secs

     Computing kpt #:   212  of   451 on this pool
     c_bands:  1 eigenvalues not converged
     total cpu time spent up to now is      644.4 secs

     Computing kpt #:   213  of   451 on this pool
     total cpu time spent up to now is      647.8 secs

     Computing kpt #:   214  of   451 on this pool
     total cpu time spent up to now is      650.4 secs

     Computing kpt #:   215  of   451 on this pool
     total cpu time spent up to now is      652.8 secs

     Computing kpt #:   216  of   451 on this pool
     total cpu time spent up to now is      655.2 secs

     Computing kpt #:   217  of   451 on this pool
     total cpu time spent up to now is      657.2 secs

     Computing kpt #:   218  of   451 on this pool
     total cpu time spent up to now is      660.0 secs

     Computing kpt #:   219  of   451 on this pool
     c_bands:  1 eigenvalues not converged
     total cpu time spent up to now is      662.8 secs

     Computing kpt #:   220  of   451 on this pool
     total cpu time spent up to now is      665.7 secs

     Computing kpt #:   221  of   451 on this pool
     total cpu time spent up to now is      668.3 secs

     Computing kpt #:   222  of   451 on this pool
     total cpu time spent up to now is      670.8 secs

     Computing kpt #:   223  of   451 on this pool
     total cpu time spent up to now is      672.8 secs

     Computing kpt #:   224  of   451 on this pool
     total cpu time spent up to now is      675.1 secs

     Computing kpt #:   225  of   451 on this pool
     total cpu time spent up to now is      677.5 secs

     Computing kpt #:   226  of   451 on this pool
     total cpu time spent up to now is      680.9 secs

     Computing kpt #:   227  of   451 on this pool
     total cpu time spent up to now is      683.9 secs

     Computing kpt #:   228  of   451 on this pool
     total cpu time spent up to now is      687.0 secs

     Computing kpt #:   229  of   451 on this pool
     total cpu time spent up to now is      689.8 secs

     Computing kpt #:   230  of   451 on this pool
     total cpu time spent up to now is      692.8 secs

     Computing kpt #:   231  of   451 on this pool
     total cpu time spent up to now is      695.3 secs

     Computing kpt #:   232  of   451 on this pool
     total cpu time spent up to now is      699.4 secs

     Computing kpt #:   233  of   451 on this pool
     total cpu time spent up to now is      703.9 secs

     Computing kpt #:   234  of   451 on this pool
     total cpu time spent up to now is      708.3 secs

     Computing kpt #:   235  of   451 on this pool
     total cpu time spent up to now is      712.5 secs

     Computing kpt #:   236  of   451 on this pool
     total cpu time spent up to now is      716.6 secs

     Computing kpt #:   237  of   451 on this pool
     total cpu time spent up to now is      720.0 secs

     Computing kpt #:   238  of   451 on this pool
     total cpu time spent up to now is      723.5 secs

     Computing kpt #:   239  of   451 on this pool
     total cpu time spent up to now is      726.6 secs

     Computing kpt #:   240  of   451 on this pool
     total cpu time spent up to now is      729.0 secs

     Computing kpt #:   241  of   451 on this pool
     total cpu time spent up to now is      732.5 secs

     Computing kpt #:   242  of   451 on this pool
     total cpu time spent up to now is      735.8 secs

     Computing kpt #:   243  of   451 on this pool
     total cpu time spent up to now is      738.8 secs

     Computing kpt #:   244  of   451 on this pool
     total cpu time spent up to now is      741.7 secs

     Computing kpt #:   245  of   451 on this pool
     total cpu time spent up to now is      744.1 secs

     Computing kpt #:   246  of   451 on this pool
     total cpu time spent up to now is      747.2 secs

     Computing kpt #:   247  of   451 on this pool
     total cpu time spent up to now is      750.1 secs

     Computing kpt #:   248  of   451 on this pool
     total cpu time spent up to now is      753.0 secs

     Computing kpt #:   249  of   451 on this pool
     total cpu time spent up to now is      755.9 secs

     Computing kpt #:   250  of   451 on this pool
     total cpu time spent up to now is      758.6 secs

     Computing kpt #:   251  of   451 on this pool
     total cpu time spent up to now is      761.3 secs

     Computing kpt #:   252  of   451 on this pool
     total cpu time spent up to now is      764.6 secs

     Computing kpt #:   253  of   451 on this pool
     total cpu time spent up to now is      767.8 secs

     Computing kpt #:   254  of   451 on this pool
     total cpu time spent up to now is      770.4 secs

     Computing kpt #:   255  of   451 on this pool
     total cpu time spent up to now is      772.6 secs

     Computing kpt #:   256  of   451 on this pool
     total cpu time spent up to now is      775.4 secs

     Computing kpt #:   257  of   451 on this pool
     total cpu time spent up to now is      778.7 secs

     Computing kpt #:   258  of   451 on this pool
     total cpu time spent up to now is      782.0 secs

     Computing kpt #:   259  of   451 on this pool
     total cpu time spent up to now is      785.4 secs

     Computing kpt #:   260  of   451 on this pool
     total cpu time spent up to now is      788.7 secs

     Computing kpt #:   261  of   451 on this pool
     c_bands:  1 eigenvalues not converged
     total cpu time spent up to now is      792.1 secs

     Computing kpt #:   262  of   451 on this pool
     total cpu time spent up to now is      795.0 secs

     Computing kpt #:   263  of   451 on this pool
     total cpu time spent up to now is      798.1 secs

     Computing kpt #:   264  of   451 on this pool
     total cpu time spent up to now is      801.6 secs

     Computing kpt #:   265  of   451 on this pool
     total cpu time spent up to now is      804.9 secs

     Computing kpt #:   266  of   451 on this pool
     total cpu time spent up to now is      807.4 secs

     Computing kpt #:   267  of   451 on this pool
     c_bands:  1 eigenvalues not converged
     total cpu time spent up to now is      810.5 secs

     Computing kpt #:   268  of   451 on this pool
     total cpu time spent up to now is      813.2 secs

     Computing kpt #:   269  of   451 on this pool
     total cpu time spent up to now is      815.9 secs

     Computing kpt #:   270  of   451 on this pool
     total cpu time spent up to now is      818.1 secs

     Computing kpt #:   271  of   451 on this pool
     total cpu time spent up to now is      820.9 secs

     Computing kpt #:   272  of   451 on this pool
     total cpu time spent up to now is      824.3 secs

     Computing kpt #:   273  of   451 on this pool
     total cpu time spent up to now is      827.6 secs

     Computing kpt #:   274  of   451 on this pool
     total cpu time spent up to now is      830.7 secs

     Computing kpt #:   275  of   451 on this pool
     total cpu time spent up to now is      833.2 secs

     Computing kpt #:   276  of   451 on this pool
     total cpu time spent up to now is      835.3 secs

     Computing kpt #:   277  of   451 on this pool
     total cpu time spent up to now is      838.1 secs

     Computing kpt #:   278  of   451 on this pool
     c_bands:  1 eigenvalues not converged
     total cpu time spent up to now is      841.5 secs

     Computing kpt #:   279  of   451 on this pool
     total cpu time spent up to now is      844.7 secs

     Computing kpt #:   280  of   451 on this pool
     total cpu time spent up to now is      847.8 secs

     Computing kpt #:   281  of   451 on this pool
     total cpu time spent up to now is      851.0 secs

     Computing kpt #:   282  of   451 on this pool
     total cpu time spent up to now is      853.5 secs

     Computing kpt #:   283  of   451 on this pool
     total cpu time spent up to now is      857.1 secs

     Computing kpt #:   284  of   451 on this pool
     total cpu time spent up to now is      860.1 secs

     Computing kpt #:   285  of   451 on this pool
     total cpu time spent up to now is      862.9 secs

     Computing kpt #:   286  of   451 on this pool
     total cpu time spent up to now is      866.3 secs

     Computing kpt #:   287  of   451 on this pool
     total cpu time spent up to now is      868.8 secs

     Computing kpt #:   288  of   451 on this pool
     total cpu time spent up to now is      871.9 secs

     Computing kpt #:   289  of   451 on this pool
     total cpu time spent up to now is      874.5 secs

     Computing kpt #:   290  of   451 on this pool
     total cpu time spent up to now is      878.0 secs

     Computing kpt #:   291  of   451 on this pool
     total cpu time spent up to now is      881.8 secs

     Computing kpt #:   292  of   451 on this pool
     total cpu time spent up to now is      886.6 secs

     Computing kpt #:   293  of   451 on this pool
     total cpu time spent up to now is      890.0 secs

     Computing kpt #:   294  of   451 on this pool
     total cpu time spent up to now is      893.1 secs

     Computing kpt #:   295  of   451 on this pool
     total cpu time spent up to now is      896.7 secs

     Computing kpt #:   296  of   451 on this pool
     total cpu time spent up to now is      899.9 secs

     Computing kpt #:   297  of   451 on this pool
     total cpu time spent up to now is      902.6 secs

     Computing kpt #:   298  of   451 on this pool
     total cpu time spent up to now is      905.6 secs

     Computing kpt #:   299  of   451 on this pool
     total cpu time spent up to now is      908.2 secs

     Computing kpt #:   300  of   451 on this pool
     total cpu time spent up to now is      911.2 secs

     Computing kpt #:   301  of   451 on this pool
     total cpu time spent up to now is      914.2 secs

     Computing kpt #:   302  of   451 on this pool
     total cpu time spent up to now is      917.4 secs

     Computing kpt #:   303  of   451 on this pool
     total cpu time spent up to now is      920.6 secs

     Computing kpt #:   304  of   451 on this pool
     total cpu time spent up to now is      922.7 secs

     Computing kpt #:   305  of   451 on this pool
     total cpu time spent up to now is      925.7 secs

     Computing kpt #:   306  of   451 on this pool
     total cpu time spent up to now is      927.8 secs

     Computing kpt #:   307  of   451 on this pool
     total cpu time spent up to now is      930.9 secs

     Computing kpt #:   308  of   451 on this pool
     total cpu time spent up to now is      933.0 secs

     Computing kpt #:   309  of   451 on this pool
     total cpu time spent up to now is      935.4 secs

     Computing kpt #:   310  of   451 on this pool
     total cpu time spent up to now is      938.2 secs

     Computing kpt #:   311  of   451 on this pool
     total cpu time spent up to now is      940.7 secs

     Computing kpt #:   312  of   451 on this pool
     total cpu time spent up to now is      942.8 secs

     Computing kpt #:   313  of   451 on this pool
     total cpu time spent up to now is      945.2 secs

     Computing kpt #:   314  of   451 on this pool
     total cpu time spent up to now is      947.9 secs

     Computing kpt #:   315  of   451 on this pool
     total cpu time spent up to now is      950.8 secs

     Computing kpt #:   316  of   451 on this pool
     total cpu time spent up to now is      953.8 secs

     Computing kpt #:   317  of   451 on this pool
     total cpu time spent up to now is      957.1 secs

     Computing kpt #:   318  of   451 on this pool
     total cpu time spent up to now is      960.4 secs

     Computing kpt #:   319  of   451 on this pool
     total cpu time spent up to now is      963.6 secs

     Computing kpt #:   320  of   451 on this pool
     total cpu time spent up to now is      967.1 secs

     Computing kpt #:   321  of   451 on this pool
     total cpu time spent up to now is      969.8 secs

     Computing kpt #:   322  of   451 on this pool
     total cpu time spent up to now is      972.2 secs

     Computing kpt #:   323  of   451 on this pool
     total cpu time spent up to now is      975.1 secs

     Computing kpt #:   324  of   451 on this pool
     total cpu time spent up to now is      978.5 secs

     Computing kpt #:   325  of   451 on this pool
     total cpu time spent up to now is      982.2 secs

     Computing kpt #:   326  of   451 on this pool
     total cpu time spent up to now is      985.2 secs

     Computing kpt #:   327  of   451 on this pool
     total cpu time spent up to now is      988.0 secs

     Computing kpt #:   328  of   451 on this pool
     total cpu time spent up to now is      990.1 secs

     Computing kpt #:   329  of   451 on this pool
     total cpu time spent up to now is      992.1 secs

     Computing kpt #:   330  of   451 on this pool
     c_bands:  1 eigenvalues not converged
     total cpu time spent up to now is      994.8 secs

     Computing kpt #:   331  of   451 on this pool
     total cpu time spent up to now is      997.6 secs

     Computing kpt #:   332  of   451 on this pool
     total cpu time spent up to now is     1001.2 secs

     Computing kpt #:   333  of   451 on this pool
     total cpu time spent up to now is     1004.0 secs

     Computing kpt #:   334  of   451 on this pool
     total cpu time spent up to now is     1006.3 secs

     Computing kpt #:   335  of   451 on this pool
     total cpu time spent up to now is     1009.4 secs

     Computing kpt #:   336  of   451 on this pool
     total cpu time spent up to now is     1011.4 secs

     Computing kpt #:   337  of   451 on this pool
     total cpu time spent up to now is     1015.4 secs

     Computing kpt #:   338  of   451 on this pool
     total cpu time spent up to now is     1018.8 secs

     Computing kpt #:   339  of   451 on this pool
     total cpu time spent up to now is     1021.9 secs

     Computing kpt #:   340  of   451 on this pool
     total cpu time spent up to now is     1025.2 secs

     Computing kpt #:   341  of   451 on this pool
     total cpu time spent up to now is     1028.8 secs

     Computing kpt #:   342  of   451 on this pool
     total cpu time spent up to now is     1032.8 secs

     Computing kpt #:   343  of   451 on this pool
     total cpu time spent up to now is     1036.0 secs

     Computing kpt #:   344  of   451 on this pool
     total cpu time spent up to now is     1038.8 secs

     Computing kpt #:   345  of   451 on this pool
     total cpu time spent up to now is     1041.7 secs

     Computing kpt #:   346  of   451 on this pool
     total cpu time spent up to now is     1044.7 secs

     Computing kpt #:   347  of   451 on this pool
     total cpu time spent up to now is     1047.6 secs

     Computing kpt #:   348  of   451 on this pool
     total cpu time spent up to now is     1050.8 secs

     Computing kpt #:   349  of   451 on this pool
     total cpu time spent up to now is     1053.7 secs

     Computing kpt #:   350  of   451 on this pool
     total cpu time spent up to now is     1057.1 secs

     Computing kpt #:   351  of   451 on this pool
     total cpu time spent up to now is     1060.7 secs

     Computing kpt #:   352  of   451 on this pool
     total cpu time spent up to now is     1063.2 secs

     Computing kpt #:   353  of   451 on this pool
     total cpu time spent up to now is     1067.2 secs

     Computing kpt #:   354  of   451 on this pool
     total cpu time spent up to now is     1071.1 secs

     Computing kpt #:   355  of   451 on this pool
     total cpu time spent up to now is     1074.4 secs

     Computing kpt #:   356  of   451 on this pool
     total cpu time spent up to now is     1077.5 secs

     Computing kpt #:   357  of   451 on this pool
     total cpu time spent up to now is     1081.3 secs

     Computing kpt #:   358  of   451 on this pool
     total cpu time spent up to now is     1083.9 secs

     Computing kpt #:   359  of   451 on this pool
     total cpu time spent up to now is     1087.2 secs

     Computing kpt #:   360  of   451 on this pool
     total cpu time spent up to now is     1090.2 secs

     Computing kpt #:   361  of   451 on this pool
     total cpu time spent up to now is     1093.9 secs

     Computing kpt #:   362  of   451 on this pool
     total cpu time spent up to now is     1097.1 secs

     Computing kpt #:   363  of   451 on this pool
     total cpu time spent up to now is     1100.0 secs

     Computing kpt #:   364  of   451 on this pool
     total cpu time spent up to now is     1102.9 secs

     Computing kpt #:   365  of   451 on this pool
     total cpu time spent up to now is     1105.2 secs

     Computing kpt #:   366  of   451 on this pool
     total cpu time spent up to now is     1108.2 secs

     Computing kpt #:   367  of   451 on this pool
     total cpu time spent up to now is     1110.6 secs

     Computing kpt #:   368  of   451 on this pool
     total cpu time spent up to now is     1113.5 secs

     Computing kpt #:   369  of   451 on this pool
     total cpu time spent up to now is     1116.2 secs

     Computing kpt #:   370  of   451 on this pool
     total cpu time spent up to now is     1119.5 secs

     Computing kpt #:   371  of   451 on this pool
     total cpu time spent up to now is     1121.7 secs

     Computing kpt #:   372  of   451 on this pool
     total cpu time spent up to now is     1124.7 secs

     Computing kpt #:   373  of   451 on this pool
     total cpu time spent up to now is     1128.0 secs

     Computing kpt #:   374  of   451 on this pool
     total cpu time spent up to now is     1131.0 secs

     Computing kpt #:   375  of   451 on this pool
     total cpu time spent up to now is     1133.9 secs

     Computing kpt #:   376  of   451 on this pool
     total cpu time spent up to now is     1136.9 secs

     Computing kpt #:   377  of   451 on this pool
     total cpu time spent up to now is     1139.5 secs

     Computing kpt #:   378  of   451 on this pool
     total cpu time spent up to now is     1142.1 secs

     Computing kpt #:   379  of   451 on this pool
     total cpu time spent up to now is     1144.9 secs

     Computing kpt #:   380  of   451 on this pool
     total cpu time spent up to now is     1147.5 secs

     Computing kpt #:   381  of   451 on this pool
     c_bands:  1 eigenvalues not converged
     total cpu time spent up to now is     1150.7 secs

     Computing kpt #:   382  of   451 on this pool
     total cpu time spent up to now is     1153.5 secs

     Computing kpt #:   383  of   451 on this pool
     total cpu time spent up to now is     1157.7 secs

     Computing kpt #:   384  of   451 on this pool
     total cpu time spent up to now is     1160.5 secs

     Computing kpt #:   385  of   451 on this pool
     total cpu time spent up to now is     1163.8 secs

     Computing kpt #:   386  of   451 on this pool
     total cpu time spent up to now is     1167.3 secs

     Computing kpt #:   387  of   451 on this pool
     total cpu time spent up to now is     1171.4 secs

     Computing kpt #:   388  of   451 on this pool
     total cpu time spent up to now is     1175.2 secs

     Computing kpt #:   389  of   451 on this pool
     total cpu time spent up to now is     1177.9 secs

     Computing kpt #:   390  of   451 on this pool
     total cpu time spent up to now is     1180.6 secs

     Computing kpt #:   391  of   451 on this pool
     total cpu time spent up to now is     1183.0 secs

     Computing kpt #:   392  of   451 on this pool
     total cpu time spent up to now is     1186.6 secs

     Computing kpt #:   393  of   451 on this pool
     total cpu time spent up to now is     1189.5 secs

     Computing kpt #:   394  of   451 on this pool
     total cpu time spent up to now is     1193.3 secs

     Computing kpt #:   395  of   451 on this pool
     total cpu time spent up to now is     1196.7 secs

     Computing kpt #:   396  of   451 on this pool
     c_bands:  1 eigenvalues not converged
     total cpu time spent up to now is     1200.7 secs

     Computing kpt #:   397  of   451 on this pool
     total cpu time spent up to now is     1204.1 secs

     Computing kpt #:   398  of   451 on this pool
     total cpu time spent up to now is     1207.5 secs

     Computing kpt #:   399  of   451 on this pool
     total cpu time spent up to now is     1209.9 secs

     Computing kpt #:   400  of   451 on this pool
     total cpu time spent up to now is     1213.5 secs

     Computing kpt #:   401  of   451 on this pool
     total cpu time spent up to now is     1217.2 secs

     Computing kpt #:   402  of   451 on this pool
     total cpu time spent up to now is     1220.9 secs

     Computing kpt #:   403  of   451 on this pool
     total cpu time spent up to now is     1224.2 secs

     Computing kpt #:   404  of   451 on this pool
     total cpu time spent up to now is     1227.7 secs

     Computing kpt #:   405  of   451 on this pool
     total cpu time spent up to now is     1230.6 secs

     Computing kpt #:   406  of   451 on this pool
     total cpu time spent up to now is     1234.4 secs

     Computing kpt #:   407  of   451 on this pool
     total cpu time spent up to now is     1237.0 secs

     Computing kpt #:   408  of   451 on this pool
     total cpu time spent up to now is     1240.2 secs

     Computing kpt #:   409  of   451 on this pool
     total cpu time spent up to now is     1244.5 secs

     Computing kpt #:   410  of   451 on this pool
     total cpu time spent up to now is     1248.1 secs

     Computing kpt #:   411  of   451 on this pool
     total cpu time spent up to now is     1251.6 secs

     Computing kpt #:   412  of   451 on this pool
     total cpu time spent up to now is     1255.5 secs

     Computing kpt #:   413  of   451 on this pool
     total cpu time spent up to now is     1259.5 secs

     Computing kpt #:   414  of   451 on this pool
     total cpu time spent up to now is     1262.9 secs

     Computing kpt #:   415  of   451 on this pool
     total cpu time spent up to now is     1265.9 secs

     Computing kpt #:   416  of   451 on this pool
     total cpu time spent up to now is     1269.0 secs

     Computing kpt #:   417  of   451 on this pool
     total cpu time spent up to now is     1272.3 secs

     Computing kpt #:   418  of   451 on this pool
     total cpu time spent up to now is     1276.4 secs

     Computing kpt #:   419  of   451 on this pool
     total cpu time spent up to now is     1279.9 secs

     Computing kpt #:   420  of   451 on this pool
     total cpu time spent up to now is     1282.7 secs

     Computing kpt #:   421  of   451 on this pool
     total cpu time spent up to now is     1285.0 secs

     Computing kpt #:   422  of   451 on this pool
     total cpu time spent up to now is     1288.4 secs

     Computing kpt #:   423  of   451 on this pool
     total cpu time spent up to now is     1291.7 secs

     Computing kpt #:   424  of   451 on this pool
     total cpu time spent up to now is     1295.1 secs

     Computing kpt #:   425  of   451 on this pool
     total cpu time spent up to now is     1297.2 secs

     Computing kpt #:   426  of   451 on this pool
     total cpu time spent up to now is     1299.0 secs

     Computing kpt #:   427  of   451 on this pool
     total cpu time spent up to now is     1301.0 secs

     Computing kpt #:   428  of   451 on this pool
     total cpu time spent up to now is     1303.1 secs

     Computing kpt #:   429  of   451 on this pool
     total cpu time spent up to now is     1306.1 secs

     Computing kpt #:   430  of   451 on this pool
     total cpu time spent up to now is     1309.0 secs

     Computing kpt #:   431  of   451 on this pool
     total cpu time spent up to now is     1312.3 secs

     Computing kpt #:   432  of   451 on this pool
     total cpu time spent up to now is     1315.4 secs

     Computing kpt #:   433  of   451 on this pool
     total cpu time spent up to now is     1318.6 secs

     Computing kpt #:   434  of   451 on this pool
     total cpu time spent up to now is     1321.8 secs

     Computing kpt #:   435  of   451 on this pool
     total cpu time spent up to now is     1324.4 secs

     Computing kpt #:   436  of   451 on this pool
     total cpu time spent up to now is     1327.4 secs

     Computing kpt #:   437  of   451 on this pool
     total cpu time spent up to now is     1330.0 secs

     Computing kpt #:   438  of   451 on this pool
     total cpu time spent up to now is     1333.1 secs

     Computing kpt #:   439  of   451 on this pool
     total cpu time spent up to now is     1335.8 secs

     Computing kpt #:   440  of   451 on this pool
     total cpu time spent up to now is     1338.6 secs

     Computing kpt #:   441  of   451 on this pool
     c_bands:  1 eigenvalues not converged
     total cpu time spent up to now is     1341.3 secs

     Computing kpt #:   442  of   451 on this pool
     total cpu time spent up to now is     1345.0 secs

     Computing kpt #:   443  of   451 on this pool
     total cpu time spent up to now is     1348.6 secs

     Computing kpt #:   444  of   451 on this pool
     total cpu time spent up to now is     1352.4 secs

     Computing kpt #:   445  of   451 on this pool
     total cpu time spent up to now is     1355.9 secs

     Computing kpt #:   446  of   451 on this pool
     total cpu time spent up to now is     1359.9 secs

     Computing kpt #:   447  of   451 on this pool
     total cpu time spent up to now is     1363.3 secs

     Computing kpt #:   448  of   451 on this pool
     total cpu time spent up to now is     1366.2 secs

     Computing kpt #:   449  of   451 on this pool
     total cpu time spent up to now is     1368.3 secs

     Computing kpt #:   450  of   451 on this pool
     total cpu time spent up to now is     1371.2 secs

     Computing kpt #:   451  of   451 on this pool
     total cpu time spent up to now is     1374.4 secs

     ethr =  1.25E-10,  avg # of iterations = 64.6

     total cpu time spent up to now is     1374.4 secs

     End of band structure calculation

          k = 0.0000 0.0000 0.0000 (  6469 PWs)   bands (ev):

   -24.2910 -12.3753  -7.7592  -7.7490  -3.6359  -2.2600  -1.0479   0.0159
     1.5017   2.4541   3.6664   3.6798

     occupation numbers 
     1.0000   1.0000   1.0000   1.0000   0.0000   0.0000   0.0000   0.0000
     0.0000   0.0000   0.0000   0.0000

          k = 0.0000 0.0192 0.0000 (  6467 PWs)   bands (ev):

   -24.2844 -12.3674  -7.7849  -7.7654  -3.6267  -2.2509  -1.0389   0.0249
     1.5107   2.4631   3.6778   3.7009

     occupation numbers 
     1.0000   1.0000   1.0000   1.0000   0.0000   0.0000   0.0000   0.0000
     0.0000   0.0000   0.0000   0.0000

          k = 0.0000 0.0385 0.0000 (  6459 PWs)   bands (ev):

   -24.2647 -12.3437  -7.8658  -7.8095  -3.5990  -2.2236  -1.0118   0.0517
     1.5377   2.4902   3.6892   3.7862

     occupation numbers 
     1.0000   1.0000   1.0000   1.0000   0.0000   0.0000   0.0000   0.0000
     0.0000   0.0000   0.0000   0.0000

          k = 0.0000 0.0577 0.0000 (  6458 PWs)   bands (ev):

   -24.2317 -12.3042  -7.9993  -7.8803  -3.5530  -2.1780  -0.9667   0.0965
     1.5828   2.5354   3.7040   3.9284

     occupation numbers 
     1.0000   1.0000   1.0000   1.0000   0.0000   0.0000   0.0000   0.0000
     0.0000   0.0000   0.0000   0.0000

          k = 0.0000 0.0770 0.0000 (  6464 PWs)   bands (ev):

   -24.1856 -12.2490  -8.1818  -7.9758  -3.4886  -2.1143  -0.9036   0.1592
     1.6458   2.5987   3.7207   4.0980

     occupation numbers 
     1.0000   1.0000   1.0000   1.0000   0.0000   0.0000   0.0000   0.0000
     0.0000   0.0000   0.0000   0.0000

          k = 0.0000 0.0962 0.0000 (  6478 PWs)   bands (ev):

   -24.1264 -12.1781  -8.4090  -8.0932  -3.4058  -2.0323  -0.8225   0.2398
     1.7269   2.6800   3.7358   4.1818

     occupation numbers 
     1.0000   1.0000   1.0000   1.0000   0.0000   0.0000   0.0000   0.0000
     0.0000   0.0000   0.0000   0.0000

          k = 0.0000 0.1155 0.0000 (  6488 PWs)   bands (ev):

   -24.0541 -12.0917  -8.6764  -8.2293  -3.3045  -1.9321  -0.7233   0.3383
     1.8259   2.7793   3.7461   4.2829

     occupation numbers 
     1.0000   1.0000   1.0000   1.0000   0.0000   0.0000   0.0000   0.0000
     0.0000   0.0000   0.0000   0.0000

          k = 0.0000 0.1347 0.0000 (  6486 PWs)   bands (ev):

   -23.9687 -11.9897  -8.9792  -8.3805  -3.1849  -1.8137  -0.6060   0.4546
     1.9428   2.8964   3.7488   4.4014

     occupation numbers 
     1.0000   1.0000   1.0000   1.0000   0.0000   0.0000   0.0000   0.0000
     0.0000   0.0000   0.0000   0.0000

          k = 0.0000 0.1540 0.0000 (  6496 PWs)   bands (ev):

   -23.8702 -11.8723  -9.3124  -8.5435  -3.0468  -1.6771  -0.4707   0.5886
     2.0777   3.0314   3.7419   4.5374

     occupation numbers 
     1.0000   1.0000   1.0000   1.0000   0.0000   0.0000   0.0000   0.0000
     0.0000   0.0000   0.0000   0.0000

          k = 0.0000 0.1732 0.0000 (  6500 PWs)   bands (ev):

   -23.7587 -11.7396  -9.6716  -8.7151  -2.8903  -1.5224  -0.3175   0.7405
     2.2303   3.1836   3.7249   4.6910

     occupation numbers 
     1.0000   1.0000   1.0000   1.0000   0.0000   0.0000   0.0000   0.0000
     0.0000   0.0000   0.0000   0.0000

          k = 0.0000 0.1925 0.0000 (  6486 PWs)   bands (ev):

   -23.6343 -11.5919 -10.0525  -8.8923  -2.7154  -1.3494  -0.1462   0.9099
     2.4005   3.3516   3.6991   4.7172

     occupation numbers 
     1.0000   1.0000   1.0000   1.0000   0.0000   0.0000   0.0000   0.0000
     0.0000   0.0000   0.0000   0.0000

          k = 0.0000 0.2117 0.0000 (  6496 PWs)   bands (ev):

   -23.4971 -11.4293 -10.4512  -9.0724  -2.5222  -1.1583   0.0431   1.0967
     2.5878   3.5251   3.6750   4.3343

     occupation numbers 
     1.0000   1.0000   1.0000   1.0000   0.0000   0.0000   0.0000   0.0000
     0.0000   0.0000   0.0000   0.0000

          k = 0.0000 0.2309 0.0000 (  6474 PWs)   bands (ev):

   -23.3469 -11.2521 -10.8642  -9.2531  -2.3105  -0.9491   0.2503   1.3007
     2.7910   3.5883   3.7545   3.9494

     occupation numbers 
     1.0000   1.0000   1.0000   1.0000   0.0000   0.0000   0.0000   0.0000
     0.0000   0.0000   0.0000   0.0000

          k = 0.0000 0.2502 0.0000 (  6488 PWs)   bands (ev):

   -23.1841 -11.2884 -11.0605  -9.4322  -2.0804  -0.7219   0.4754   1.5209
     3.0037   3.5002   3.5497   4.0037

     occupation numbers 
     1.0000   1.0000   1.0000   1.0000   0.0000   0.0000   0.0000   0.0000
     0.0000   0.0000   0.0000   0.0000

          k = 0.0000 0.2694 0.0000 (  6494 PWs)   bands (ev):

   -23.0086 -11.7209 -10.8549  -9.6080  -1.8319  -0.4766   0.7184   1.7552
     3.0266   3.2758   3.5090   4.2400

     occupation numbers 
     1.0000   1.0000   1.0000   1.0000   0.0000   0.0000   0.0000   0.0000
     0.0000   0.0000   0.0000   0.0000

          k = 0.0000 0.2887 0.0000 (  6494 PWs)   bands (ev):

   -22.8206 -12.1593 -10.6358  -9.7789  -1.5650  -0.2135   0.9790   1.9911
     2.6222   3.3782   3.5830   4.4994

     occupation numbers 
     1.0000   1.0000   1.0000   1.0000   0.0000   0.0000   0.0000   0.0000
     0.0000   0.0000   0.0000   0.0000

          k = 0.0000 0.3079 0.0000 (  6492 PWs)   bands (ev):

   -22.6201 -12.6015 -10.4036  -9.9435  -1.2796   0.0671   1.2568   2.0353
     2.3981   3.3410   3.8328   4.7779

     occupation numbers 
     1.0000   1.0000   1.0000   1.0000   0.0000   0.0000   0.0000   0.0000
     0.0000   0.0000   0.0000   0.0000

          k = 0.0000 0.3272 0.0000 (  6490 PWs)   bands (ev):

   -22.4073 -13.0455 -10.1591 -10.1005  -0.9759   0.3642   1.5410   1.6493
     2.6242   3.2854   4.1222   5.0747

     occupation numbers 
     1.0000   1.0000   1.0000   1.0000   0.0000   0.0000   0.0000   0.0000
     0.0000   0.0000   0.0000   0.0000

          k = 0.0000 0.3464 0.0000 (  6492 PWs)   bands (ev):

   -22.1824 -13.4896 -10.2492  -9.9029  -0.6538   0.6706   1.1877   1.8695
     2.9128   3.2361   4.4333   5.3895

     occupation numbers 
     1.0000   1.0000   1.0000   1.0000   0.0000   0.0000   0.0000   0.0000
     0.0000   0.0000   0.0000   0.0000

          k = 0.0000 0.3657 0.0000 (  6488 PWs)   bands (ev):

   -21.9456 -13.9322 -10.3885  -9.6362  -0.3134   0.6773   1.0527   2.1978
     3.1114   3.3033   4.7634   5.7219

     occupation numbers 
     1.0000   1.0000   1.0000   1.0000   0.0000   0.0000   0.0000   0.0000
     0.0000   0.0000   0.0000   0.0000

          k = 0.0000 0.3849 0.0000 (  6484 PWs)   bands (ev):

   -21.6971 -14.3720 -10.5177  -9.3602   0.0442   0.2332   1.3873   2.5392
     3.0924   3.6152   5.1115   6.0719

     occupation numbers 
     1.0000   1.0000   1.0000   1.0000   0.0000   0.0000   0.0000   0.0000
     0.0000   0.0000   0.0000   0.0000

          k = 0.0000 0.4041 0.0000 (  6490 PWs)   bands (ev):

   -21.4372 -14.8076 -10.6363  -9.0766  -0.2248   0.4236   1.7551   2.8593
     3.0900   3.9710   5.4771   6.4391

     occupation numbers 
     1.0000   1.0000   1.0000   1.0000   0.0000   0.0000   0.0000   0.0000
     0.0000   0.0000   0.0000   0.0000

          k = 0.0000 0.4234 0.0000 (  6498 PWs)   bands (ev):

   -21.1663 -15.2378 -10.7436  -8.7879  -0.6733   0.8191   2.1419   2.9425
     3.3439   4.3473   5.8600   6.8233

     occupation numbers 
     1.0000   1.0000   1.0000   1.0000   0.0000   0.0000   0.0000   0.0000
     0.0000   0.0000   0.0000   0.0000

          k = 0.0000 0.4426 0.0000 (  6490 PWs)   bands (ev):

   -20.8849 -15.6613 -10.8392  -8.4970  -1.1088   1.2332   2.5435   2.9173
     3.7310   4.7412   6.2598   7.2240

     occupation numbers 
     1.0000   1.0000   1.0000   1.0000   0.0000   0.0000   0.0000   0.0000
     0.0000   0.0000   0.0000   0.0000

          k = 0.0000 0.4619 0.0000 (  6490 PWs)   bands (ev):

   -20.5938 -16.0766 -10.9228  -8.2085  -1.5252   1.6657   2.8457   3.0033
     4.1466   5.1518   6.6760   7.6403

     occupation numbers 
     1.0000   1.0000   1.0000   1.0000   0.0000   0.0000   0.0000   0.0000
     0.0000   0.0000   0.0000   0.0000

          k = 0.0000 0.4811 0.0000 (  6486 PWs)   bands (ev):

   -20.2945 -16.4820 -10.9940  -7.9284  -1.9151   2.1167   2.8322   3.4255
     4.5819   5.5780   7.1078   7.6373

     occupation numbers 
     1.0000   1.0000   1.0000   1.0000   0.0000   0.0000   0.0000   0.0000
     0.0000   0.0000   0.0000   0.0000

          k = 0.0000 0.5004 0.0000 (  6488 PWs)   bands (ev):

   -19.9891 -16.8748 -11.0526  -7.6656  -2.2689   2.5860   2.8063   3.8825
     5.0353   6.0189   7.0028   7.5539

     occupation numbers 
     1.0000   1.0000   1.0000   1.0000   0.0000   0.0000   0.0000   0.0000
     0.0000   0.0000   0.0000   0.0000

          k = 0.0000 0.5196 0.0000 (  6508 PWs)   bands (ev):

   -19.6824 -17.2497 -11.0984  -7.4323  -2.5736   2.7844   3.0739   4.3582
     5.5058   6.3860   6.4731   7.5548

     occupation numbers 
     1.0000   1.0000   1.0000   1.0000   0.0000   0.0000   0.0000   0.0000
     0.0000   0.0000   0.0000   0.0000

          k = 0.0000 0.5389 0.0000 (  6524 PWs)   bands (ev):

   -19.3858 -17.5952 -11.1312  -7.2446  -2.8128   2.7685   3.5800   4.8512
     5.7883   5.9925   6.9038   7.0246

     occupation numbers 
     1.0000   1.0000   1.0000   1.0000   0.0000   0.0000   0.0000   0.0000
     0.0000   0.0000   0.0000   0.0000

          k = 0.0000 0.5581 0.0000 (  6512 PWs)   bands (ev):

   -19.1328 -17.8776 -11.1510  -7.1209  -2.9675   2.7587   4.1045   5.2086
     5.3606   6.4131   6.5104   7.4119

     occupation numbers 
     1.0000   1.0000   1.0000   1.0000   0.0000   0.0000   0.0000   0.0000
     0.0000   0.0000   0.0000   0.0000

          k = 0.0000-0.5774 0.0000 (  6508 PWs)   bands (ev):

   -19.0179 -18.0024 -11.1575  -7.0775  -3.0212   2.7554   4.6436   4.6512
     5.8626   5.9093   6.9787   7.0566

     occupation numbers 
     1.0000   1.0000   1.0000   1.0000   0.0000   0.0000   0.0000   0.0000
     0.0000   0.0000   0.0000   0.0000

          k = 0.0167 0.0096 0.0000 (  6467 PWs)   bands (ev):

   -24.2844 -12.3674  -7.7854  -7.7649  -3.6267  -2.2509  -1.0389   0.0249
     1.5107   2.4631   3.6788   3.6999

     occupation numbers 
     1.0000   1.0000   1.0000   1.0000   0.0000   0.0000   0.0000   0.0000
     0.0000   0.0000   0.0000   0.0000

          k = 0.0167 0.0289 0.0000 (  6465 PWs)   bands (ev):

   -24.2713 -12.3516  -7.8409  -7.7929  -3.6083  -2.2327  -1.0208   0.0428
     1.5287   2.4812   3.6909   3.7524

     occupation numbers 
     1.0000   1.0000   1.0000   1.0000   0.0000   0.0000   0.0000   0.0000
     0.0000   0.0000   0.0000   0.0000

          k = 0.0167 0.0481 0.0000 (  6456 PWs)   bands (ev):

   -24.2449 -12.3200  -7.9474  -7.8511  -3.5714  -2.1962  -0.9848   0.0786
     1.5648   2.5174   3.7045   3.8655

     occupation numbers 
     1.0000   1.0000   1.0000   1.0000   0.0000   0.0000   0.0000   0.0000
     0.0000   0.0000   0.0000   0.0000

          k = 0.0167 0.0674 0.0000 (  6473 PWs)   bands (ev):

   -24.2054 -12.2727  -8.1039  -7.9357  -3.5162  -2.1416  -0.9307   0.1324
     1.6188   2.5716   3.7221   4.0322

     occupation numbers 
     1.0000   1.0000   1.0000   1.0000   0.0000   0.0000   0.0000   0.0000
     0.0000   0.0000   0.0000   0.0000

          k = 0.0167 0.0866 0.0000 (  6475 PWs)   bands (ev):

   -24.1527 -12.2096  -8.3072  -8.0437  -3.4426  -2.0687  -0.8585   0.2040
     1.6908   2.6439   3.7406   4.1449

     occupation numbers 
     1.0000   1.0000   1.0000   1.0000   0.0000   0.0000   0.0000   0.0000
     0.0000   0.0000   0.0000   0.0000

          k = 0.0167 0.1058 0.0000 (  6485 PWs)   bands (ev):

   -24.0870 -12.1310  -8.5529  -8.1721  -3.3505  -1.9776  -0.7683   0.2935
     1.7809   2.7342   3.7562   4.2373

     occupation numbers 
     1.0000   1.0000   1.0000   1.0000   0.0000   0.0000   0.0000   0.0000
     0.0000   0.0000   0.0000   0.0000

          k = 0.0167 0.1251 0.0000 (  6490 PWs)   bands (ev):

   -24.0081 -12.0367  -8.8364  -8.3173  -3.2401  -1.8683  -0.6601   0.4009
     1.8889   2.8424   3.7656   4.3471

     occupation numbers 
     1.0000   1.0000   1.0000   1.0000   0.0000   0.0000   0.0000   0.0000
     0.0000   0.0000   0.0000   0.0000

          k = 0.0167 0.1443 0.0000 (  6490 PWs)   bands (ev):

   -23.9161 -11.9270  -9.1529  -8.4760  -3.1112  -1.7409  -0.5339   0.5261
     2.0148   2.9685   3.7660   4.4742

     occupation numbers 
     1.0000   1.0000   1.0000   1.0000   0.0000   0.0000   0.0000   0.0000
     0.0000   0.0000   0.0000   0.0000

          k = 0.0167 0.1636 0.0000 (  6496 PWs)   bands (ev):

   -23.8112 -11.8020  -9.4978  -8.6447  -2.9640  -1.5952  -0.3896   0.6691
     2.1585   3.1122   3.7562   4.6190

     occupation numbers 
     1.0000   1.0000   1.0000   1.0000   0.0000   0.0000   0.0000   0.0000
     0.0000   0.0000   0.0000   0.0000

          k = 0.0167 0.1828 0.0000 (  6494 PWs)   bands (ev):

   -23.6933 -11.6618  -9.8666  -8.8203  -2.7983  -1.4313  -0.2273   0.8297
     2.3200   3.2728   3.7362   4.7814

     occupation numbers 
     1.0000   1.0000   1.0000   1.0000   0.0000   0.0000   0.0000   0.0000
     0.0000   0.0000   0.0000   0.0000

          k = 0.0167 0.2021 0.0000 (  6492 PWs)   bands (ev):

   -23.5624 -11.5066 -10.2553  -9.0001  -2.6142  -1.2493  -0.0470   1.0079
     2.4989   3.4472   3.7092   4.5157

     occupation numbers 
     1.0000   1.0000   1.0000   1.0000   0.0000   0.0000   0.0000   0.0000
     0.0000   0.0000   0.0000   0.0000

          k = 0.0167 0.2213 0.0000 (  6496 PWs)   bands (ev):

   -23.4187 -11.3367 -10.6602  -9.1815  -2.4117  -1.0492   0.1513   1.2033
     2.6945   3.6010   3.7080   4.1263

     occupation numbers 
     1.0000   1.0000   1.0000   1.0000   0.0000   0.0000   0.0000   0.0000
     0.0000   0.0000   0.0000   0.0000

          k = 0.0167 0.2406 0.0000 (  6488 PWs)   bands (ev):

   -23.2622 -11.1524 -11.0778  -9.3623  -2.1908  -0.8309   0.3674   1.4156
     2.9043   3.5973   3.6863   3.9106

     occupation numbers 
     1.0000   1.0000   1.0000   1.0000   0.0000   0.0000   0.0000   0.0000
     0.0000   0.0000   0.0000   0.0000

          k = 0.0167 0.2598 0.0000 (  6490 PWs)   bands (ev):

   -23.0931 -11.5055 -10.9537  -9.5405  -1.9515  -0.5947   0.6015   1.6434
     3.0995   3.3050   3.5537   4.1248

     occupation numbers 
     1.0000   1.0000   1.0000   1.0000   0.0000   0.0000   0.0000   0.0000
     0.0000   0.0000   0.0000   0.0000

          k = 0.0167 0.2791 0.0000 (  6496 PWs)   bands (ev):

   -22.9113 -11.9404 -10.7413  -9.7145  -1.6938  -0.3405   0.8533   1.8818
     2.8207   3.3642   3.5346   4.3738

     occupation numbers 
     1.0000   1.0000   1.0000   1.0000   0.0000   0.0000   0.0000   0.0000
     0.0000   0.0000   0.0000   0.0000

          k = 0.0167 0.2983 0.0000 (  6494 PWs)   bands (ev):

   -22.7170 -12.3802 -10.5156  -9.8827  -1.4177  -0.0685   1.1226   2.0836
     2.4382   3.3927   3.7074   4.6429

     occupation numbers 
     1.0000   1.0000   1.0000   1.0000   0.0000   0.0000   0.0000   0.0000
     0.0000   0.0000   0.0000   0.0000

          k = 0.0167 0.3175 0.0000 (  6483 PWs)   bands (ev):

   -22.5104 -12.8228 -10.2772 -10.0440  -1.1232   0.2206   1.4082   1.8499
     2.4976   3.3423   3.9812   4.9306

     occupation numbers 
     1.0000   1.0000   1.0000   1.0000   0.0000   0.0000   0.0000   0.0000
     0.0000   0.0000   0.0000   0.0000

          k = 0.0167 0.3368 0.0000 (  6488 PWs)   bands (ev):

   -22.2916 -13.2665 -10.1973 -10.0267  -0.8103   0.5245   1.4028   1.7198
     2.7734   3.2873   4.2819   5.2363

     occupation numbers 
     1.0000   1.0000   1.0000   1.0000   0.0000   0.0000   0.0000   0.0000
     0.0000   0.0000   0.0000   0.0000

          k = 0.0167 0.3560 0.0000 (  6488 PWs)   bands (ev):

   -22.0607 -13.7095 -10.3415  -9.7651  -0.4790   0.7944   1.0001   2.0385
     3.0583   3.2560   4.6026   5.5599

     occupation numbers 
     1.0000   1.0000   1.0000   1.0000   0.0000   0.0000   0.0000   0.0000
     0.0000   0.0000   0.0000   0.0000

          k = 0.0167 0.3753 0.0000 (  6482 PWs)   bands (ev):

   -21.8180 -14.1505 -10.4761  -9.4936  -0.1296   0.4557   1.2193   2.3747
     3.1365   3.4563   4.9416   5.9011

     occupation numbers 
     1.0000   1.0000   1.0000   1.0000   0.0000   0.0000   0.0000   0.0000
     0.0000   0.0000   0.0000   0.0000

          k = 0.0167 0.3945 0.0000 (  6486 PWs)   bands (ev):

   -21.5638 -14.5879 -10.6002  -9.2136  -0.0015   0.2403   1.5752   2.7178
     3.1072   3.7964   5.2985   6.2597

     occupation numbers 
     1.0000   1.0000   1.0000   1.0000   0.0000   0.0000   0.0000   0.0000
     0.0000   0.0000   0.0000   0.0000

          k = 0.0167 0.4138 0.0000 (  6500 PWs)   bands (ev):

   -21.2984 -15.0207 -10.7133  -8.9271  -0.4533   0.6259   1.9531   2.9596
     3.1922   4.1628   5.6727   6.6353

     occupation numbers 
     1.0000   1.0000   1.0000   1.0000   0.0000   0.0000   0.0000   0.0000
     0.0000   0.0000   0.0000   0.0000

          k = 0.0167 0.4330 0.0000 (  6500 PWs)   bands (ev):

   -21.0222 -15.4474 -10.8149  -8.6368  -0.8956   1.0308   2.3484   2.9605
     3.5397   4.5480   6.0640   7.0277

     occupation numbers 
     1.0000   1.0000   1.0000   1.0000   0.0000   0.0000   0.0000   0.0000
     0.0000   0.0000   0.0000   0.0000

          k = 0.0167 0.4523 0.0000 (  6494 PWs)   bands (ev):

   -20.7359 -15.8668 -10.9047  -8.3465  -1.3219   1.4541   2.7497   2.9395
     3.9429   4.9501   6.4719   7.4361

     occupation numbers 
     1.0000   1.0000   1.0000   1.0000   0.0000   0.0000   0.0000   0.0000
     0.0000   0.0000   0.0000   0.0000

          k = 0.0167 0.4715 0.0000 (  6494 PWs)   bands (ev):

   -20.4405 -16.2772 -10.9822  -8.0612  -1.7258   1.8958   2.8741   3.2132
     4.3686   5.3684   6.8958   7.8588

     occupation numbers 
     1.0000   1.0000   1.0000   1.0000   0.0000   0.0000   0.0000   0.0000
     0.0000   0.0000   0.0000   0.0000

          k = 0.0167 0.4907 0.0000 (  6490 PWs)   bands (ev):

   -20.1378 -16.6765 -11.0471  -7.7885  -2.0988   2.3559   2.8490   3.6581
     4.8131   5.8019   7.3236   7.3359

     occupation numbers 
     1.0000   1.0000   1.0000   1.0000   0.0000   0.0000   0.0000   0.0000
     0.0000   0.0000   0.0000   0.0000

          k = 0.0167 0.5100 0.0000 (  6501 PWs)   bands (ev):

   -19.8309 -17.0611 -11.0994  -7.5386  -2.4298   2.8235   2.8359   4.1247
     5.2750   6.2491   6.6993   7.7816

     occupation numbers 
     1.0000   1.0000   1.0000   1.0000   0.0000   0.0000   0.0000   0.0000
     0.0000   0.0000   0.0000   0.0000

          k = 0.0167 0.5292 0.0000 (  6507 PWs)   bands (ev):

   -19.5272 -17.4234 -11.1387  -7.3257  -2.7040   2.8059   3.3315   4.6091
     5.7536   6.0920   6.7063   7.2793

     occupation numbers 
     1.0000   1.0000   1.0000   1.0000   0.0000   0.0000   0.0000   0.0000
     0.0000   0.0000   0.0000   0.0000

          k = 0.0167 0.5485 0.0000 (  6520 PWs)   bands (ev):

   -19.2457 -17.7441 -11.1650  -7.1676  -2.9032   2.7929   3.8468   5.1102
     5.5032   6.2471   6.7074   7.1885

     occupation numbers 
     1.0000   1.0000   1.0000   1.0000   0.0000   0.0000   0.0000   0.0000
     0.0000   0.0000   0.0000   0.0000

          k = 0.0167 0.5677 0.0000 (  6508 PWs)   bands (ev):

   -19.0449 -17.9645 -11.1782  -7.0824  -3.0090   2.7864   4.3805   4.9327
     5.6269   6.1603   6.7608   7.2899

     occupation numbers 
     1.0000   1.0000   1.0000   1.0000   0.0000   0.0000   0.0000   0.0000
     0.0000   0.0000   0.0000   0.0000

          k = 0.0167-0.5677 0.0000 (  6508 PWs)   bands (ev):

   -19.0449 -17.9645 -11.1782  -7.0824  -3.0090   2.7864   4.3805   4.9327
     5.6269   6.1603   6.7608   7.2899

     occupation numbers 
     1.0000   1.0000   1.0000   1.0000   0.0000   0.0000   0.0000   0.0000
     0.0000   0.0000   0.0000   0.0000

          k = 0.0167-0.5485 0.0000 (  6520 PWs)   bands (ev):

   -19.2457 -17.7441 -11.1651  -7.1676  -2.9032   2.7929   3.8468   5.1102
     5.5032   6.2471   6.7074   7.1885

     occupation numbers 
     1.0000   1.0000   1.0000   1.0000   0.0000   0.0000   0.0000   0.0000
     0.0000   0.0000   0.0000   0.0000

          k = 0.0167-0.5292 0.0000 (  6507 PWs)   bands (ev):

   -19.5272 -17.4234 -11.1388  -7.3258  -2.7039   2.8058   3.3315   4.6091
     5.7536   6.0920   6.7062   7.2793

     occupation numbers 
     1.0000   1.0000   1.0000   1.0000   0.0000   0.0000   0.0000   0.0000
     0.0000   0.0000   0.0000   0.0000

          k = 0.0167-0.5100 0.0000 (  6501 PWs)   bands (ev):

   -19.8309 -17.0611 -11.0994  -7.5386  -2.4297   2.8234   2.8359   4.1247
     5.2750   6.2491   6.6993   7.7816

     occupation numbers 
     1.0000   1.0000   1.0000   1.0000   0.0000   0.0000   0.0000   0.0000
     0.0000   0.0000   0.0000   0.0000

          k = 0.0167-0.4907 0.0000 (  6490 PWs)   bands (ev):

   -20.1378 -16.6765 -11.0472  -7.7885  -2.0987   2.3559   2.8489   3.6581
     4.8131   5.8018   7.3236   7.3359

     occupation numbers 
     1.0000   1.0000   1.0000   1.0000   0.0000   0.0000   0.0000   0.0000
     0.0000   0.0000   0.0000   0.0000

          k = 0.0167-0.4715 0.0000 (  6494 PWs)   bands (ev):

   -20.4405 -16.2772 -10.9822  -8.0613  -1.7257   1.8958   2.8740   3.2133
     4.3686   5.3684   6.8958   7.8587

     occupation numbers 
     1.0000   1.0000   1.0000   1.0000   0.0000   0.0000   0.0000   0.0000
     0.0000   0.0000   0.0000   0.0000

          k = 0.0167-0.4523 0.0000 (  6494 PWs)   bands (ev):

   -20.7359 -15.8667 -10.9047  -8.3466  -1.3218   1.4541   2.7497   2.9394
     3.9429   4.9501   6.4719   7.4361

     occupation numbers 
     1.0000   1.0000   1.0000   1.0000   0.0000   0.0000   0.0000   0.0000
     0.0000   0.0000   0.0000   0.0000

          k = 0.0167-0.4330 0.0000 (  6500 PWs)   bands (ev):

   -21.0222 -15.4474 -10.8150  -8.6369  -0.8954   1.0308   2.3483   2.9603
     3.5397   4.5480   6.0640   7.0277

     occupation numbers 
     1.0000   1.0000   1.0000   1.0000   0.0000   0.0000   0.0000   0.0000
     0.0000   0.0000   0.0000   0.0000

          k = 0.0167-0.4138 0.0000 (  6500 PWs)   bands (ev):

   -21.2984 -15.0206 -10.7134  -8.9272  -0.4531   0.6259   1.9531   2.9594
     3.1922   4.1628   5.6727   6.6353

     occupation numbers 
     1.0000   1.0000   1.0000   1.0000   0.0000   0.0000   0.0000   0.0000
     0.0000   0.0000   0.0000   0.0000

          k = 0.0167-0.3945 0.0000 (  6486 PWs)   bands (ev):

   -21.5638 -14.5879 -10.6003  -9.2137  -0.0013   0.2403   1.5752   2.7177
     3.1070   3.7964   5.2985   6.2597

     occupation numbers 
     1.0000   1.0000   1.0000   1.0000   0.0000   0.0000   0.0000   0.0000
     0.0000   0.0000   0.0000   0.0000

          k = 0.0167-0.3753 0.0000 (  6482 PWs)   bands (ev):

   -21.8180 -14.1504 -10.4762  -9.4937  -0.1296   0.4559   1.2193   2.3747
     3.1362   3.4563   4.9416   5.9011

     occupation numbers 
     1.0000   1.0000   1.0000   1.0000   0.0000   0.0000   0.0000   0.0000
     0.0000   0.0000   0.0000   0.0000

          k = 0.0167-0.3560 0.0000 (  6488 PWs)   bands (ev):

   -22.0607 -13.7094 -10.3417  -9.7652  -0.4790   0.7945   1.0002   2.0385
     3.0582   3.2558   4.6025   5.5599

     occupation numbers 
     1.0000   1.0000   1.0000   1.0000   0.0000   0.0000   0.0000   0.0000
     0.0000   0.0000   0.0000   0.0000

          k = 0.0167-0.3368 0.0000 (  6488 PWs)   bands (ev):

   -22.2916 -13.2663 -10.1974 -10.0268  -0.8103   0.5245   1.4031   1.7198
     2.7734   3.2869   4.2819   5.2363

     occupation numbers 
     1.0000   1.0000   1.0000   1.0000   0.0000   0.0000   0.0000   0.0000
     0.0000   0.0000   0.0000   0.0000

          k = 0.0167-0.3175 0.0000 (  6483 PWs)   bands (ev):

   -22.5104 -12.8226 -10.2772 -10.0442  -1.1232   0.2206   1.4082   1.8501
     2.4975   3.3419   3.9812   4.9306

     occupation numbers 
     1.0000   1.0000   1.0000   1.0000   0.0000   0.0000   0.0000   0.0000
     0.0000   0.0000   0.0000   0.0000

          k = 0.0167-0.2983 0.0000 (  6494 PWs)   bands (ev):

   -22.7170 -12.3799 -10.5157  -9.8830  -1.4177  -0.0685   1.1226   2.0837
     2.4384   3.3922   3.7074   4.6429

     occupation numbers 
     1.0000   1.0000   1.0000   1.0000   0.0000   0.0000   0.0000   0.0000
     0.0000   0.0000   0.0000   0.0000

          k = 0.0167-0.2791 0.0000 (  6496 PWs)   bands (ev):

   -22.9113 -11.9401 -10.7413  -9.7148  -1.6938  -0.3405   0.8533   1.8818
     2.8209   3.3640   3.5343   4.3738

     occupation numbers 
     1.0000   1.0000   1.0000   1.0000   0.0000   0.0000   0.0000   0.0000
     0.0000   0.0000   0.0000   0.0000

          k = 0.0167-0.2598 0.0000 (  6490 PWs)   bands (ev):

   -23.0931 -11.5051 -10.9537  -9.5409  -1.9515  -0.5947   0.6015   1.6434
     3.0995   3.3051   3.5531   4.1248

     occupation numbers 
     1.0000   1.0000   1.0000   1.0000   0.0000   0.0000   0.0000   0.0000
     0.0000   0.0000   0.0000   0.0000

          k = 0.0167-0.2406 0.0000 (  6488 PWs)   bands (ev):

   -23.2622 -11.1524 -11.0773  -9.3628  -2.1908  -0.8309   0.3674   1.4156
     2.9043   3.5965   3.6865   3.9106

     occupation numbers 
     1.0000   1.0000   1.0000   1.0000   0.0000   0.0000   0.0000   0.0000
     0.0000   0.0000   0.0000   0.0000

          k = 0.0167-0.2213 0.0000 (  6496 PWs)   bands (ev):

   -23.4187 -11.3367 -10.6596  -9.1822  -2.4117  -1.0492   0.1513   1.2033
     2.6944   3.6005   3.7075   4.1266

     occupation numbers 
     1.0000   1.0000   1.0000   1.0000   0.0000   0.0000   0.0000   0.0000
     0.0000   0.0000   0.0000   0.0000

          k = 0.0167-0.2021 0.0000 (  6492 PWs)   bands (ev):

   -23.5624 -11.5067 -10.2546  -9.0009  -2.6142  -1.2493  -0.0470   1.0079
     2.4989   3.4471   3.7081   4.5159

     occupation numbers 
     1.0000   1.0000   1.0000   1.0000   0.0000   0.0000   0.0000   0.0000
     0.0000   0.0000   0.0000   0.0000

          k = 0.0167-0.1828 0.0000 (  6494 PWs)   bands (ev):

   -23.6932 -11.6618  -9.8657  -8.8213  -2.7983  -1.4313  -0.2273   0.8297
     2.3200   3.2727   3.7349   4.7814

     occupation numbers 
     1.0000   1.0000   1.0000   1.0000   0.0000   0.0000   0.0000   0.0000
     0.0000   0.0000   0.0000   0.0000

          k = 0.0167-0.1636 0.0000 (  6496 PWs)   bands (ev):

   -23.8112 -11.8020  -9.4967  -8.6458  -2.9640  -1.5952  -0.3896   0.6691
     2.1585   3.1122   3.7545   4.6190

     occupation numbers 
     1.0000   1.0000   1.0000   1.0000   0.0000   0.0000   0.0000   0.0000
     0.0000   0.0000   0.0000   0.0000

          k = 0.0167-0.1443 0.0000 (  6490 PWs)   bands (ev):

   -23.9161 -11.9270  -9.1515  -8.4774  -3.1112  -1.7409  -0.5339   0.5261
     2.0148   2.9685   3.7640   4.4742

     occupation numbers 
     1.0000   1.0000   1.0000   1.0000   0.0000   0.0000   0.0000   0.0000
     0.0000   0.0000   0.0000   0.0000

          k = 0.0167-0.1251 0.0000 (  6490 PWs)   bands (ev):

   -24.0081 -12.0367  -8.8347  -8.3192  -3.2401  -1.8683  -0.6601   0.4009
     1.8889   2.8424   3.7630   4.3470

     occupation numbers 
     1.0000   1.0000   1.0000   1.0000   0.0000   0.0000   0.0000   0.0000
     0.0000   0.0000   0.0000   0.0000

          k = 0.0167-0.1058 0.0000 (  6485 PWs)   bands (ev):

   -24.0870 -12.1310  -8.5507  -8.1744  -3.3505  -1.9776  -0.7683   0.2935
     1.7809   2.7341   3.7530   4.2373

     occupation numbers 
     1.0000   1.0000   1.0000   1.0000   0.0000   0.0000   0.0000   0.0000
     0.0000   0.0000   0.0000   0.0000

          k = 0.0167-0.0866 0.0000 (  6475 PWs)   bands (ev):

   -24.1527 -12.2096  -8.3043  -8.0467  -3.4426  -2.0687  -0.8585   0.2040
     1.6908   2.6438   3.7365   4.1448

     occupation numbers 
     1.0000   1.0000   1.0000   1.0000   0.0000   0.0000   0.0000   0.0000
     0.0000   0.0000   0.0000   0.0000

          k = 0.0167-0.0674 0.0000 (  6473 PWs)   bands (ev):

   -24.2054 -12.2727  -8.1001  -7.9396  -3.5162  -2.1416  -0.9307   0.1324
     1.6188   2.5716   3.7167   4.0381

     occupation numbers 
     1.0000   1.0000   1.0000   1.0000   0.0000   0.0000   0.0000   0.0000
     0.0000   0.0000   0.0000   0.0000

          k = 0.0167-0.0481 0.0000 (  6456 PWs)   bands (ev):

   -24.2449 -12.3200  -7.9421  -7.8564  -3.5714  -2.1962  -0.9848   0.0786
     1.5648   2.5174   3.6969   3.8733

     occupation numbers 
     1.0000   1.0000   1.0000   1.0000   0.0000   0.0000   0.0000   0.0000
     0.0000   0.0000   0.0000   0.0000

          k = 0.0167-0.0289 0.0000 (  6465 PWs)   bands (ev):

   -24.2713 -12.3516  -7.8335  -7.8003  -3.6083  -2.2327  -1.0208   0.0428
     1.5287   2.4812   3.6801   3.7634

     occupation numbers 
     1.0000   1.0000   1.0000   1.0000   0.0000   0.0000   0.0000   0.0000
     0.0000   0.0000   0.0000   0.0000

          k = 0.0167-0.0096 0.0000 (  6467 PWs)   bands (ev):

   -24.2844 -12.3674  -7.7766  -7.7737  -3.6267  -2.2509  -1.0389   0.0249
     1.5107   2.4631   3.6700   3.7088

     occupation numbers 
     1.0000   1.0000   1.0000   1.0000   0.0000   0.0000   0.0000   0.0000
     0.0000   0.0000   0.0000   0.0000

          k = 0.0333 0.0192 0.0000 (  6459 PWs)   bands (ev):

   -24.2647 -12.3437  -7.8664  -7.8089  -3.5990  -2.2236  -1.0118   0.0517
     1.5377   2.4902   3.6901   3.7852

     occupation numbers 
     1.0000   1.0000   1.0000   1.0000   0.0000   0.0000   0.0000   0.0000
     0.0000   0.0000   0.0000   0.0000

          k = 0.0333 0.0385 0.0000 (  6456 PWs)   bands (ev):

   -24.2449 -12.3200  -7.9476  -7.8508  -3.5714  -2.1962  -0.9848   0.0786
     1.5648   2.5174   3.7049   3.8651

     occupation numbers 
     1.0000   1.0000   1.0000   1.0000   0.0000   0.0000   0.0000   0.0000
     0.0000   0.0000   0.0000   0.0000

          k = 0.0333 0.0577 0.0000 (  6475 PWs)   bands (ev):

   -24.2120 -12.2806  -8.0769  -7.9230  -3.5254  -2.1507  -0.9397   0.1234
     1.6098   2.5625   3.7267   3.9969

     occupation numbers 
     1.0000   1.0000   1.0000   1.0000   0.0000   0.0000   0.0000   0.0000
     0.0000   0.0000   0.0000   0.0000

          k = 0.0333 0.0770 0.0000 (  6485 PWs)   bands (ev):

   -24.1659 -12.2254  -8.2527  -8.0217  -3.4610  -2.0869  -0.8766   0.1861
     1.6728   2.6258   3.7532   4.1267

     occupation numbers 
     1.0000   1.0000   1.0000   1.0000   0.0000   0.0000   0.0000   0.0000
     0.0000   0.0000   0.0000   0.0000

          k = 0.0333 0.0962 0.0000 (  6479 PWs)   bands (ev):

   -24.1067 -12.1545  -8.4721  -8.1432  -3.3781  -2.0050  -0.7954   0.2667
     1.7539   2.7071   3.7797   4.2104

     occupation numbers 
     1.0000   1.0000   1.0000   1.0000   0.0000   0.0000   0.0000   0.0000
     0.0000   0.0000   0.0000   0.0000

          k = 0.0333 0.1155 0.0000 (  6487 PWs)   bands (ev):

   -24.0344 -12.0681  -8.7311  -8.2835  -3.2769  -1.9048  -0.6962   0.3651
     1.8529   2.8064   3.8019   4.3114

     occupation numbers 
     1.0000   1.0000   1.0000   1.0000   0.0000   0.0000   0.0000   0.0000
     0.0000   0.0000   0.0000   0.0000

          k = 0.0333 0.1347 0.0000 (  6491 PWs)   bands (ev):

   -23.9490 -11.9662  -9.0255  -8.4391  -3.1572  -1.7864  -0.5789   0.4814
     1.9699   2.9236   3.8160   4.4298

     occupation numbers 
     1.0000   1.0000   1.0000   1.0000   0.0000   0.0000   0.0000   0.0000
     0.0000   0.0000   0.0000   0.0000

          k = 0.0333 0.1540 0.0000 (  6490 PWs)   bands (ev):

   -23.8505 -11.8488  -9.3509  -8.6062  -3.0192  -1.6498  -0.4436   0.6155
     2.1048   3.0587   3.8195   4.5656

     occupation numbers 
     1.0000   1.0000   1.0000   1.0000   0.0000   0.0000   0.0000   0.0000
     0.0000   0.0000   0.0000   0.0000

          k = 0.0333 0.1732 0.0000 (  6490 PWs)   bands (ev):

   -23.7391 -11.7162  -9.7028  -8.7816  -2.8627  -1.4950  -0.2903   0.7673
     2.2574   3.2111   3.8113   4.7191

     occupation numbers 
     1.0000   1.0000   1.0000   1.0000   0.0000   0.0000   0.0000   0.0000
     0.0000   0.0000   0.0000   0.0000

          k = 0.0333 0.1925 0.0000 (  6494 PWs)   bands (ev):

   -23.6147 -11.5686 -10.0771  -8.9622  -2.6878  -1.3221  -0.1190   0.9368
     2.4277   3.3799   3.7923   4.6662

     occupation numbers 
     1.0000   1.0000   1.0000   1.0000   0.0000   0.0000   0.0000   0.0000
     0.0000   0.0000   0.0000   0.0000

          k = 0.0333 0.2117 0.0000 (  6502 PWs)   bands (ev):

   -23.4775 -11.4061 -10.4700  -9.1454  -2.4945  -1.1310   0.0702   1.1236
     2.6152   3.5597   3.7678   4.2865

     occupation numbers 
     1.0000   1.0000   1.0000   1.0000   0.0000   0.0000   0.0000   0.0000
     0.0000   0.0000   0.0000   0.0000

          k = 0.0333 0.2309 0.0000 (  6490 PWs)   bands (ev):

   -23.3274 -11.2289 -10.8778  -9.3287  -2.2829  -0.9218   0.2775   1.3276
     2.8188   3.6795   3.7848   3.9154

     occupation numbers 
     1.0000   1.0000   1.0000   1.0000   0.0000   0.0000   0.0000   0.0000
     0.0000   0.0000   0.0000   0.0000

          k = 0.0333 0.2502 0.0000 (  6482 PWs)   bands (ev):

   -23.1646 -11.2975 -11.0374  -9.5101  -2.0528  -0.6946   0.5026   1.5480
     3.0319   3.4629   3.6552   4.0298

     occupation numbers 
     1.0000   1.0000   1.0000   1.0000   0.0000   0.0000   0.0000   0.0000
     0.0000   0.0000   0.0000   0.0000

          k = 0.0333 0.2694 0.0000 (  6490 PWs)   bands (ev):

   -22.9892 -11.7261 -10.8320  -9.6879  -1.8042  -0.4493   0.7456   1.7823
     3.0004   3.3005   3.6128   4.2664

     occupation numbers 
     1.0000   1.0000   1.0000   1.0000   0.0000   0.0000   0.0000   0.0000
     0.0000   0.0000   0.0000   0.0000

          k = 0.0333 0.2887 0.0000 (  6484 PWs)   bands (ev):

   -22.8012 -12.1612 -10.6129  -9.8604  -1.5373  -0.1862   1.0062   2.0171
     2.5923   3.4666   3.6334   4.5257

     occupation numbers 
     1.0000   1.0000   1.0000   1.0000   0.0000   0.0000   0.0000   0.0000
     0.0000   0.0000   0.0000   0.0000

          k = 0.0333 0.3079 0.0000 (  6493 PWs)   bands (ev):

   -22.6008 -12.6005 -10.3809 -10.0263  -1.2520   0.0945   1.2841   2.0255
     2.4066   3.4531   3.8615   4.8041

     occupation numbers 
     1.0000   1.0000   1.0000   1.0000   0.0000   0.0000   0.0000   0.0000
     0.0000   0.0000   0.0000   0.0000

          k = 0.0333 0.3272 0.0000 (  6487 PWs)   bands (ev):

   -22.3881 -13.0420 -10.1846 -10.1364  -0.9483   0.3916   1.5601   1.6364
     2.6477   3.4000   4.1489   5.1008

     occupation numbers 
     1.0000   1.0000   1.0000   1.0000   0.0000   0.0000   0.0000   0.0000
     0.0000   0.0000   0.0000   0.0000

          k = 0.0333 0.3464 0.0000 (  6484 PWs)   bands (ev):

   -22.1633 -13.4840 -10.3342  -9.8803  -0.6262   0.6971   1.1688   1.8969
     2.9417   3.3481   4.4595   5.4153

     occupation numbers 
     1.0000   1.0000   1.0000   1.0000   0.0000   0.0000   0.0000   0.0000
     0.0000   0.0000   0.0000   0.0000

          k = 0.0333 0.3657 0.0000 (  6486 PWs)   bands (ev):

   -21.9266 -13.9247 -10.4742  -9.6137  -0.2858   0.6641   1.0755   2.2260
     3.1977   3.3584   4.7892   5.7476

     occupation numbers 
     1.0000   1.0000   1.0000   1.0000   0.0000   0.0000   0.0000   0.0000
     0.0000   0.0000   0.0000   0.0000

          k = 0.0333 0.3849 0.0000 (  6488 PWs)   bands (ev):

   -21.6781 -14.3629 -10.6041  -9.3377   0.0715   0.2191   1.4137   2.5694
     3.2057   3.6417   5.1370   6.0972

     occupation numbers 
     1.0000   1.0000   1.0000   1.0000   0.0000   0.0000   0.0000   0.0000
     0.0000   0.0000   0.0000   0.0000

          k = 0.0333 0.4041 0.0000 (  6497 PWs)   bands (ev):

   -21.4183 -14.7972 -10.7232  -9.0543  -0.2375   0.4512   1.7819   2.9082
     3.1867   3.9954   5.5024   6.4641

     occupation numbers 
     1.0000   1.0000   1.0000   1.0000   0.0000   0.0000   0.0000   0.0000
     0.0000   0.0000   0.0000   0.0000

          k = 0.0333 0.4234 0.0000 (  6500 PWs)   bands (ev):

   -21.1476 -15.2262 -10.8309  -8.7655  -0.6842   0.8467   2.1691   3.0538
     3.3784   4.3709   5.8849   6.8478

     occupation numbers 
     1.0000   1.0000   1.0000   1.0000   0.0000   0.0000   0.0000   0.0000
     0.0000   0.0000   0.0000   0.0000

          k = 0.0333 0.4426 0.0000 (  6493 PWs)   bands (ev):

   -20.8663 -15.6486 -10.9269  -8.4746  -1.1181   1.2608   2.5722   3.0337
     3.7590   4.7642   6.2841   7.2477

     occupation numbers 
     1.0000   1.0000   1.0000   1.0000   0.0000   0.0000   0.0000   0.0000
     0.0000   0.0000   0.0000   0.0000

          k = 0.0333 0.4619 0.0000 (  6506 PWs)   bands (ev):

   -20.5755 -16.0631 -11.0108  -8.1860  -1.5331   1.6933   2.9398   3.0552
     4.1736   5.1739   6.6996   7.6630

     occupation numbers 
     1.0000   1.0000   1.0000   1.0000   0.0000   0.0000   0.0000   0.0000
     0.0000   0.0000   0.0000   0.0000

          k = 0.0333 0.4811 0.0000 (  6498 PWs)   bands (ev):

   -20.2763 -16.4677 -11.0822  -7.9058  -1.9220   2.1443   2.9512   3.4527
     4.6086   5.5992   7.1304   7.6648

     occupation numbers 
     1.0000   1.0000   1.0000   1.0000   0.0000   0.0000   0.0000   0.0000
     0.0000   0.0000   0.0000   0.0000

          k = 0.0333 0.5004 0.0000 (  6503 PWs)   bands (ev):

   -19.9711 -16.8597 -11.1410  -7.6427  -2.2750   2.6136   2.9260   3.9089
     5.0617   6.0387   7.0303   7.5750

     occupation numbers 
     1.0000   1.0000   1.0000   1.0000   0.0000   0.0000   0.0000   0.0000
     0.0000   0.0000   0.0000   0.0000

          k = 0.0333 0.5196 0.0000 (  6505 PWs)   bands (ev):

   -19.6646 -17.2341 -11.1869  -7.4090  -2.5794   2.9043   3.1015   4.3843
     5.5319   6.4134   6.4910   7.5768

     occupation numbers 
     1.0000   1.0000   1.0000   1.0000   0.0000   0.0000   0.0000   0.0000
     0.0000   0.0000   0.0000   0.0000

          k = 0.0333 0.5389 0.0000 (  6503 PWs)   bands (ev):

   -19.3684 -17.5790 -11.2198  -7.2209  -2.8184   2.8883   3.6076   4.8769
     5.8159   6.0183   6.9170   7.0503

     occupation numbers 
     1.0000   1.0000   1.0000   1.0000   0.0000   0.0000   0.0000   0.0000
     0.0000   0.0000   0.0000   0.0000

          k = 0.0333 0.5581 0.0000 (  6512 PWs)   bands (ev):

   -19.1157 -17.8610 -11.2396  -7.0969  -2.9730   2.8786   4.1321   5.2362
     5.3859   6.4370   6.5355   7.4236

     occupation numbers 
     1.0000   1.0000   1.0000   1.0000   0.0000   0.0000   0.0000   0.0000
     0.0000   0.0000   0.0000   0.0000

          k = 0.0333 0.5774 0.0000 (  6510 PWs)   bands (ev):

   -19.0009 -17.9855 -11.2462  -7.0533  -3.0268   2.8753   4.6711   4.6789
     5.8886   5.9326   7.0034   7.0818

     occupation numbers 
     1.0000   1.0000   1.0000   1.0000   0.0000   0.0000   0.0000   0.0000
     0.0000   0.0000   0.0000   0.0000

          k = 0.0333-0.5581 0.0000 (  6512 PWs)   bands (ev):

   -19.1157 -17.8610 -11.2396  -7.0969  -2.9729   2.8786   4.1321   5.2362
     5.3859   6.4370   6.5355   7.4235

     occupation numbers 
     1.0000   1.0000   1.0000   1.0000   0.0000   0.0000   0.0000   0.0000
     0.0000   0.0000   0.0000   0.0000

          k = 0.0333-0.5389 0.0000 (  6503 PWs)   bands (ev):

   -19.3684 -17.5790 -11.2198  -7.2209  -2.8182   2.8883   3.6076   4.8769
     5.8159   6.0183   6.9169   7.0502

     occupation numbers 
     1.0000   1.0000   1.0000   1.0000   0.0000   0.0000   0.0000   0.0000
     0.0000   0.0000   0.0000   0.0000

          k = 0.0333-0.5196 0.0000 (  6505 PWs)   bands (ev):

   -19.6646 -17.2341 -11.1869  -7.4091  -2.5792   2.9041   3.1015   4.3843
     5.5319   6.4134   6.4909   7.5768

     occupation numbers 
     1.0000   1.0000   1.0000   1.0000   0.0000   0.0000   0.0000   0.0000
     0.0000   0.0000   0.0000   0.0000

          k = 0.0333-0.5004 0.0000 (  6503 PWs)   bands (ev):

   -19.9711 -16.8597 -11.1411  -7.6428  -2.2748   2.6136   2.9258   3.9089
     5.0617   6.0387   7.0303   7.5749

     occupation numbers 
     1.0000   1.0000   1.0000   1.0000   0.0000   0.0000   0.0000   0.0000
     0.0000   0.0000   0.0000   0.0000

          k = 0.0333-0.4811 0.0000 (  6498 PWs)   bands (ev):

   -20.2763 -16.4677 -11.0823  -7.9059  -1.9217   2.1443   2.9509   3.4527
     4.6086   5.5991   7.1304   7.6648

     occupation numbers 
     1.0000   1.0000   1.0000   1.0000   0.0000   0.0000   0.0000   0.0000
     0.0000   0.0000   0.0000   0.0000

          k = 0.0333-0.4619 0.0000 (  6506 PWs)   bands (ev):

   -20.5754 -16.0630 -11.0109  -8.1861  -1.5328   1.6933   2.9395   3.0552
     4.1736   5.1739   6.6995   7.6629

     occupation numbers 
     1.0000   1.0000   1.0000   1.0000   0.0000   0.0000   0.0000   0.0000
     0.0000   0.0000   0.0000   0.0000

          k = 0.0333-0.4426 0.0000 (  6493 PWs)   bands (ev):

   -20.8663 -15.6485 -10.9271  -8.4748  -1.1177   1.2608   2.5721   3.0334
     3.7590   4.7642   6.2841   7.2477

     occupation numbers 
     1.0000   1.0000   1.0000   1.0000   0.0000   0.0000   0.0000   0.0000
     0.0000   0.0000   0.0000   0.0000

          k = 0.0333-0.4234 0.0000 (  6500 PWs)   bands (ev):

   -21.1475 -15.2261 -10.8311  -8.7656  -0.6838   0.8467   2.1690   3.0534
     3.3784   4.3709   5.8848   6.8477

     occupation numbers 
     1.0000   1.0000   1.0000   1.0000   0.0000   0.0000   0.0000   0.0000
     0.0000   0.0000   0.0000   0.0000

          k = 0.0333-0.4041 0.0000 (  6497 PWs)   bands (ev):

   -21.4183 -14.7970 -10.7234  -9.0544  -0.2371   0.4512   1.7819   2.9080
     3.1865   3.9954   5.5023   6.4641

     occupation numbers 
     1.0000   1.0000   1.0000   1.0000   0.0000   0.0000   0.0000   0.0000
     0.0000   0.0000   0.0000   0.0000

          k = 0.0333-0.3849 0.0000 (  6488 PWs)   bands (ev):

   -21.6781 -14.3627 -10.6044  -9.3379   0.0715   0.2195   1.4137   2.5694
     3.2052   3.6417   5.1370   6.0972

     occupation numbers 
     1.0000   1.0000   1.0000   1.0000   0.0000   0.0000   0.0000   0.0000
     0.0000   0.0000   0.0000   0.0000

          k = 0.0333-0.3657 0.0000 (  6486 PWs)   bands (ev):

   -21.9265 -13.9245 -10.4745  -9.6138  -0.2858   0.6646   1.0755   2.2259
     3.1973   3.3583   4.7892   5.7475

     occupation numbers 
     1.0000   1.0000   1.0000   1.0000   0.0000   0.0000   0.0000   0.0000
     0.0000   0.0000   0.0000   0.0000

          k = 0.0333-0.3464 0.0000 (  6484 PWs)   bands (ev):

   -22.1633 -13.4837 -10.3345  -9.8804  -0.6262   0.6971   1.1692   1.8969
     2.9416   3.3475   4.4595   5.4153

     occupation numbers 
     1.0000   1.0000   1.0000   1.0000   0.0000   0.0000   0.0000   0.0000
     0.0000   0.0000   0.0000   0.0000

          k = 0.0333-0.3272 0.0000 (  6487 PWs)   bands (ev):

   -22.3881 -13.0416 -10.1850 -10.1365  -0.9483   0.3916   1.5603   1.6367
     2.6477   3.3993   4.1489   5.1007

     occupation numbers 
     1.0000   1.0000   1.0000   1.0000   0.0000   0.0000   0.0000   0.0000
     0.0000   0.0000   0.0000   0.0000

          k = 0.0333-0.3079 0.0000 (  6493 PWs)   bands (ev):

   -22.6008 -12.6001 -10.3810 -10.0269  -1.2520   0.0944   1.2841   2.0259
     2.4067   3.4522   3.8615   4.8041

     occupation numbers 
     1.0000   1.0000   1.0000   1.0000   0.0000   0.0000   0.0000   0.0000
     0.0000   0.0000   0.0000   0.0000

          k = 0.0333-0.2887 0.0000 (  6484 PWs)   bands (ev):

   -22.8012 -12.1607 -10.6130  -9.8610  -1.5373  -0.1862   1.0062   2.0171
     2.5927   3.4658   3.6331   4.5257

     occupation numbers 
     1.0000   1.0000   1.0000   1.0000   0.0000   0.0000   0.0000   0.0000
     0.0000   0.0000   0.0000   0.0000

          k = 0.0333-0.2694 0.0000 (  6490 PWs)   bands (ev):

   -22.9891 -11.7254 -10.8320  -9.6887  -1.8042  -0.4493   0.7456   1.7823
     3.0009   3.3004   3.6116   4.2664

     occupation numbers 
     1.0000   1.0000   1.0000   1.0000   0.0000   0.0000   0.0000   0.0000
     0.0000   0.0000   0.0000   0.0000

          k = 0.0333-0.2502 0.0000 (  6482 PWs)   bands (ev):

   -23.1646 -11.2967 -11.0375  -9.5111  -2.0528  -0.6946   0.5026   1.5480
     3.0318   3.4634   3.6537   4.0297

     occupation numbers 
     1.0000   1.0000   1.0000   1.0000   0.0000   0.0000   0.0000   0.0000
     0.0000   0.0000   0.0000   0.0000

          k = 0.0333-0.2309 0.0000 (  6490 PWs)   bands (ev):

   -23.3274 -11.2290 -10.8767  -9.3299  -2.2829  -0.9218   0.2775   1.3276
     2.8188   3.6781   3.7846   3.9157

     occupation numbers 
     1.0000   1.0000   1.0000   1.0000   0.0000   0.0000   0.0000   0.0000
     0.0000   0.0000   0.0000   0.0000

          k = 0.0333-0.2117 0.0000 (  6502 PWs)   bands (ev):

   -23.4775 -11.4061 -10.4687  -9.1468  -2.4945  -1.1310   0.0702   1.1236
     2.6152   3.5595   3.7658   4.2870

     occupation numbers 
     1.0000   1.0000   1.0000   1.0000   0.0000   0.0000   0.0000   0.0000
     0.0000   0.0000   0.0000   0.0000

          k = 0.0333-0.1925 0.0000 (  6494 PWs)   bands (ev):

   -23.6147 -11.5686 -10.0755  -8.9640  -2.6878  -1.3221  -0.1190   0.9368
     2.4277   3.3799   3.7897   4.6667

     occupation numbers 
     1.0000   1.0000   1.0000   1.0000   0.0000   0.0000   0.0000   0.0000
     0.0000   0.0000   0.0000   0.0000

          k = 0.0333-0.1732 0.0000 (  6490 PWs)   bands (ev):

   -23.7391 -11.7163  -9.7008  -8.7838  -2.8627  -1.4950  -0.2903   0.7673
     2.2574   3.2111   3.8081   4.7191

     occupation numbers 
     1.0000   1.0000   1.0000   1.0000   0.0000   0.0000   0.0000   0.0000
     0.0000   0.0000   0.0000   0.0000

          k = 0.0333-0.1540 0.0000 (  6490 PWs)   bands (ev):

   -23.8505 -11.8489  -9.3484  -8.6089  -3.0192  -1.6498  -0.4437   0.6155
     2.1047   3.0586   3.8156   4.5656

     occupation numbers 
     1.0000   1.0000   1.0000   1.0000   0.0000   0.0000   0.0000   0.0000
     0.0000   0.0000   0.0000   0.0000

          k = 0.0333-0.1347 0.0000 (  6491 PWs)   bands (ev):

   -23.9490 -11.9662  -9.0224  -8.4424  -3.1572  -1.7864  -0.5789   0.4814
     1.9699   2.9236   3.8113   4.4298

     occupation numbers 
     1.0000   1.0000   1.0000   1.0000   0.0000   0.0000   0.0000   0.0000
     0.0000   0.0000   0.0000   0.0000

          k = 0.0333-0.1155 0.0000 (  6487 PWs)   bands (ev):

   -24.0344 -12.0681  -8.7272  -8.2876  -3.2769  -1.9048  -0.6962   0.3651
     1.8529   2.8064   3.7961   4.3114

     occupation numbers 
     1.0000   1.0000   1.0000   1.0000   0.0000   0.0000   0.0000   0.0000
     0.0000   0.0000   0.0000   0.0000

          k = 0.0333-0.0962 0.0000 (  6479 PWs)   bands (ev):

   -24.1067 -12.1546  -8.4671  -8.1482  -3.3781  -2.0050  -0.7954   0.2667
     1.7539   2.7071   3.7726   4.2103

     occupation numbers 
     1.0000   1.0000   1.0000   1.0000   0.0000   0.0000   0.0000   0.0000
     0.0000   0.0000   0.0000   0.0000

          k = 0.0333-0.0770 0.0000 (  6485 PWs)   bands (ev):

   -24.1659 -12.2254  -8.2466  -8.0280  -3.4610  -2.0869  -0.8766   0.1861
     1.6728   2.6258   3.7445   4.1265

     occupation numbers 
     1.0000   1.0000   1.0000   1.0000   0.0000   0.0000   0.0000   0.0000
     0.0000   0.0000   0.0000   0.0000

          k = 0.0333-0.0577 0.0000 (  6475 PWs)   bands (ev):

   -24.2120 -12.2806  -8.0694  -7.9307  -3.5254  -2.1507  -0.9397   0.1234
     1.6098   2.5625   3.7163   4.0081

     occupation numbers 
     1.0000   1.0000   1.0000   1.0000   0.0000   0.0000   0.0000   0.0000
     0.0000   0.0000   0.0000   0.0000

          k = 0.0333-0.0385 0.0000 (  6456 PWs)   bands (ev):

   -24.2449 -12.3200  -7.9388  -7.8597  -3.5714  -2.1962  -0.9848   0.0786
     1.5648   2.5173   3.6932   3.8773

     occupation numbers 
     1.0000   1.0000   1.0000   1.0000   0.0000   0.0000   0.0000   0.0000
     0.0000   0.0000   0.0000   0.0000

          k = 0.0333-0.0192 0.0000 (  6459 PWs)   bands (ev):

   -24.2647 -12.3437  -7.8582  -7.8171  -3.5990  -2.2236  -1.0118   0.0517
     1.5377   2.4902   3.6803   3.7953

     occupation numbers 
     1.0000   1.0000   1.0000   1.0000   0.0000   0.0000   0.0000   0.0000
     0.0000   0.0000   0.0000   0.0000

          k = 0.0333-0.0000 0.0000 (  6465 PWs)   bands (ev):

   -24.2713 -12.3516  -7.8343  -7.7996  -3.6083  -2.2327  -1.0208   0.0428
     1.5287   2.4812   3.6809   3.7625

     occupation numbers 
     1.0000   1.0000   1.0000   1.0000   0.0000   0.0000   0.0000   0.0000
     0.0000   0.0000   0.0000   0.0000

          k = 0.0500 0.0289 0.0000 (  6458 PWs)   bands (ev):

   -24.2317 -12.3042  -7.9999  -7.8796  -3.5530  -2.1780  -0.9667   0.0965
     1.5828   2.5354   3.7049   3.9275

     occupation numbers 
     1.0000   1.0000   1.0000   1.0000   0.0000   0.0000   0.0000   0.0000
     0.0000   0.0000   0.0000   0.0000

          k = 0.0500 0.0481 0.0000 (  6473 PWs)   bands (ev):

   -24.2054 -12.2727  -8.1043  -7.9353  -3.5162  -2.1416  -0.9307   0.1324
     1.6188   2.5716   3.7226   4.0316

     occupation numbers 
     1.0000   1.0000   1.0000   1.0000   0.0000   0.0000   0.0000   0.0000
     0.0000   0.0000   0.0000   0.0000

          k = 0.0500 0.0674 0.0000 (  6485 PWs)   bands (ev):

   -24.1659 -12.2254  -8.2529  -8.0216  -3.4610  -2.0869  -0.8766   0.1861
     1.6728   2.6258   3.7534   4.1267

     occupation numbers 
     1.0000   1.0000   1.0000   1.0000   0.0000   0.0000   0.0000   0.0000
     0.0000   0.0000   0.0000   0.0000

          k = 0.0500 0.0866 0.0000 (  6491 PWs)   bands (ev):

   -24.1133 -12.1624  -8.4435  -8.1349  -3.3873  -2.0141  -0.8044   0.2577
     1.7449   2.6981   3.7927   4.2016

     occupation numbers 
     1.0000   1.0000   1.0000   1.0000   0.0000   0.0000   0.0000   0.0000
     0.0000   0.0000   0.0000   0.0000

          k = 0.0500 0.1058 0.0000 (  6491 PWs)   bands (ev):

   -24.0475 -12.0838  -8.6738  -8.2707  -3.2953  -1.9230  -0.7142   0.3472
     1.8349   2.7884   3.8337   4.2942

     occupation numbers 
     1.0000   1.0000   1.0000   1.0000   0.0000   0.0000   0.0000   0.0000
     0.0000   0.0000   0.0000   0.0000

          k = 0.0500 0.1251 0.0000 (  6489 PWs)   bands (ev):

   -23.9687 -11.9896  -8.9407  -8.4245  -3.1849  -1.8137  -0.6060   0.4546
     1.9430   2.8967   3.8697   4.4040

     occupation numbers 
     1.0000   1.0000   1.0000   1.0000   0.0000   0.0000   0.0000   0.0000
     0.0000   0.0000   0.0000   0.0000

          k = 0.0500 0.1443 0.0000 (  6485 PWs)   bands (ev):

   -23.8768 -11.8801  -9.2407  -8.5918  -3.0560  -1.6862  -0.4797   0.5798
     2.0689   3.0229   3.8955   4.5310

     occupation numbers 
     1.0000   1.0000   1.0000   1.0000   0.0000   0.0000   0.0000   0.0000
     0.0000   0.0000   0.0000   0.0000

          k = 0.0500 0.1636 0.0000 (  6491 PWs)   bands (ev):

   -23.7719 -11.7552  -9.5699  -8.7689  -2.9087  -1.5405  -0.3354   0.7228
     2.2128   3.1669   3.9081   4.6754

     occupation numbers 
     1.0000   1.0000   1.0000   1.0000   0.0000   0.0000   0.0000   0.0000
     0.0000   0.0000   0.0000   0.0000

          k = 0.0500 0.1828 0.0000 (  6484 PWs)   bands (ev):

   -23.6540 -11.6151  -9.9244  -8.9523  -2.7431  -1.3767  -0.1731   0.8834
     2.3743   3.3281   3.9067   4.7824

     occupation numbers 
     1.0000   1.0000   1.0000   1.0000   0.0000   0.0000   0.0000   0.0000
     0.0000   0.0000   0.0000   0.0000

          k = 0.0500 0.2021 0.0000 (  6498 PWs)   bands (ev):

   -23.5232 -11.4601 -10.3003  -9.1390  -2.5590  -1.1947   0.0073   1.0616
     2.5535   3.5051   3.8926   4.4167

     occupation numbers 
     1.0000   1.0000   1.0000   1.0000   0.0000   0.0000   0.0000   0.0000
     0.0000   0.0000   0.0000   0.0000

          k = 0.0500 0.2213 0.0000 (  6498 PWs)   bands (ev):

   -23.3796 -11.2903 -10.6938  -9.3264  -2.3565  -0.9945   0.2055   1.2572
     2.7495   3.6888   3.8715   4.0360

     occupation numbers 
     1.0000   1.0000   1.0000   1.0000   0.0000   0.0000   0.0000   0.0000
     0.0000   0.0000   0.0000   0.0000

          k = 0.0500 0.2406 0.0000 (  6492 PWs)   bands (ev):

   -23.2232 -11.1074 -11.1003  -9.5124  -2.1356  -0.7763   0.4218   1.4695
     2.9601   3.6126   3.7943   3.9638

     occupation numbers 
     1.0000   1.0000   1.0000   1.0000   0.0000   0.0000   0.0000   0.0000
     0.0000   0.0000   0.0000   0.0000

          k = 0.0500 0.2598 0.0000 (  6484 PWs)   bands (ev):

   -23.0541 -11.5207 -10.9077  -9.6950  -1.8963  -0.5400   0.6559   1.6975
     3.1228   3.2649   3.7632   4.1785

     occupation numbers 
     1.0000   1.0000   1.0000   1.0000   0.0000   0.0000   0.0000   0.0000
     0.0000   0.0000   0.0000   0.0000

          k = 0.0500 0.2791 0.0000 (  6482 PWs)   bands (ev):

   -22.8725 -11.9481 -10.6955  -9.8727  -1.6386  -0.2858   0.9077   1.9358
     2.7569   3.4436   3.7249   4.4268

     occupation numbers 
     1.0000   1.0000   1.0000   1.0000   0.0000   0.0000   0.0000   0.0000
     0.0000   0.0000   0.0000   0.0000

          k = 0.0500 0.2983 0.0000 (  6483 PWs)   bands (ev):

   -22.6783 -12.3815 -10.4700 -10.0441  -1.3625  -0.0139   1.1772   2.1142
     2.4015   3.5939   3.7829   4.6955

     occupation numbers 
     1.0000   1.0000   1.0000   1.0000   0.0000   0.0000   0.0000   0.0000
     0.0000   0.0000   0.0000   0.0000

          k = 0.0500 0.3175 0.0000 (  6483 PWs)   bands (ev):

   -22.4719 -12.8187 -10.2319 -10.2080  -1.0680   0.2753   1.4626   1.8090
     2.5389   3.5662   4.0368   4.9829

     occupation numbers 
     1.0000   1.0000   1.0000   1.0000   0.0000   0.0000   0.0000   0.0000
     0.0000   0.0000   0.0000   0.0000

          k = 0.0500 0.3368 0.0000 (  6489 PWs)   bands (ev):

   -22.2532 -13.2577 -10.3635  -9.9815  -0.7551   0.5789   1.3620   1.7733
     2.8238   3.5136   4.3349   5.2883

     occupation numbers 
     1.0000   1.0000   1.0000   1.0000   0.0000   0.0000   0.0000   0.0000
     0.0000   0.0000   0.0000   0.0000

          k = 0.0500 0.3560 0.0000 (  6494 PWs)   bands (ev):

   -22.0225 -13.6967 -10.5096  -9.7202  -0.4238   0.8144   0.9966   2.0938
     3.1282   3.4658   4.6546   5.6115

     occupation numbers 
     1.0000   1.0000   1.0000   1.0000   0.0000   0.0000   0.0000   0.0000
     0.0000   0.0000   0.0000   0.0000

          k = 0.0500 0.3753 0.0000 (  6494 PWs)   bands (ev):

   -21.7800 -14.1341 -10.6456  -9.4488  -0.0744   0.4252   1.2708   2.4317
     3.3443   3.5280   4.9930   5.9521

     occupation numbers 
     1.0000   1.0000   1.0000   1.0000   0.0000   0.0000   0.0000   0.0000
     0.0000   0.0000   0.0000   0.0000

          k = 0.0500 0.3945 0.0000 (  6485 PWs)   bands (ev):

   -21.5260 -14.5686 -10.7709  -9.1689  -0.0287   0.2951   1.6285   2.7823
     3.3290   3.8471   5.3492   6.3099

     occupation numbers 
     1.0000   1.0000   1.0000   1.0000   0.0000   0.0000   0.0000   0.0000
     0.0000   0.0000   0.0000   0.0000

          k = 0.0500 0.4138 0.0000 (  6497 PWs)   bands (ev):

   -21.2608 -14.9988 -10.8850  -8.8825  -0.4772   0.6811   2.0068   3.1098
     3.3305   4.2109   5.7227   6.6846

     occupation numbers 
     1.0000   1.0000   1.0000   1.0000   0.0000   0.0000   0.0000   0.0000
     0.0000   0.0000   0.0000   0.0000

          k = 0.0500 0.4330 0.0000 (  6490 PWs)   bands (ev):

   -20.9849 -15.4232 -10.9874  -8.5923  -0.9160   1.0860   2.4030   3.1880
     3.6005   4.5945   6.1130   7.0757

     occupation numbers 
     1.0000   1.0000   1.0000   1.0000   0.0000   0.0000   0.0000   0.0000
     0.0000   0.0000   0.0000   0.0000

          k = 0.0500 0.4523 0.0000 (  6495 PWs)   bands (ev):

   -20.6989 -15.8407 -11.0778  -8.3018  -1.3394   1.5093   2.8133   3.1641
     3.9978   4.9952   6.5197   7.4824

     occupation numbers 
     1.0000   1.0000   1.0000   1.0000   0.0000   0.0000   0.0000   0.0000
     0.0000   0.0000   0.0000   0.0000

          k = 0.0500 0.4715 0.0000 (  6497 PWs)   bands (ev):

   -20.4039 -16.2494 -11.1558  -8.0163  -1.7409   1.9510   3.1005   3.2761
     4.4222   5.4116   6.9419   7.9020

     occupation numbers 
     1.0000   1.0000   1.0000   1.0000   0.0000   0.0000   0.0000   0.0000
     0.0000   0.0000   0.0000   0.0000

          k = 0.0500 0.4907 0.0000 (  6511 PWs)   bands (ev):

   -20.1016 -16.6473 -11.2212  -7.7430  -2.1121   2.4111   3.0850   3.7115
     4.8661   5.8426   7.3743   7.3836

     occupation numbers 
     1.0000   1.0000   1.0000   1.0000   0.0000   0.0000   0.0000   0.0000
     0.0000   0.0000   0.0000   0.0000

          k = 0.0500 0.5100 0.0000 (  6499 PWs)   bands (ev):

   -19.7953 -17.0305 -11.2737  -7.4925  -2.4419   2.8896   3.0617   4.1771
     5.3275   6.2863   6.7544   7.8168

     occupation numbers 
     1.0000   1.0000   1.0000   1.0000   0.0000   0.0000   0.0000   0.0000
     0.0000   0.0000   0.0000   0.0000

          k = 0.0500 0.5292 0.0000 (  6503 PWs)   bands (ev):

   -19.4921 -17.3917 -11.3132  -7.2788  -2.7156   3.0428   3.3867   4.6608
     5.8056   6.1471   6.7375   7.3261

     occupation numbers 
     1.0000   1.0000   1.0000   1.0000   0.0000   0.0000   0.0000   0.0000
     0.0000   0.0000   0.0000   0.0000

          k = 0.0500 0.5485 0.0000 (  6505 PWs)   bands (ev):

   -19.2112 -17.7113 -11.3397  -7.1199  -2.9147   3.0299   3.9020   5.1612
     5.5583   6.2984   6.7516   7.2177

     occupation numbers 
     1.0000   1.0000   1.0000   1.0000   0.0000   0.0000   0.0000   0.0000
     0.0000   0.0000   0.0000   0.0000

          k = 0.0500 0.5677 0.0000 (  6514 PWs)   bands (ev):

   -19.0109 -17.9310 -11.3529  -7.0342  -3.0206   3.0234   4.4357   4.9878
     5.6770   6.2084   6.8112   7.3389

     occupation numbers 
     1.0000   1.0000   1.0000   1.0000   0.0000   0.0000   0.0000   0.0000
     0.0000   0.0000   0.0000   0.0000

          k = 0.0500 0.5870 0.0000 (  6514 PWs)   bands (ev):

   -19.0109 -17.9310 -11.3529  -7.0342  -3.0205   3.0234   4.4357   4.9878
     5.6770   6.2084   6.8113   7.3389

     occupation numbers 
     1.0000   1.0000   1.0000   1.0000   0.0000   0.0000   0.0000   0.0000
     0.0000   0.0000   0.0000   0.0000

          k = 0.0500-0.5485 0.0000 (  6505 PWs)   bands (ev):

   -19.2112 -17.7113 -11.3397  -7.1200  -2.9145   3.0298   3.9020   5.1612
     5.5583   6.2985   6.7516   7.2175

     occupation numbers 
     1.0000   1.0000   1.0000   1.0000   0.0000   0.0000   0.0000   0.0000
     0.0000   0.0000   0.0000   0.0000

          k = 0.0500-0.5292 0.0000 (  6503 PWs)   bands (ev):

   -19.4920 -17.3916 -11.3133  -7.2790  -2.7153   3.0426   3.3867   4.6608
     5.8057   6.1471   6.7374   7.3261

     occupation numbers 
     1.0000   1.0000   1.0000   1.0000   0.0000   0.0000   0.0000   0.0000
     0.0000   0.0000   0.0000   0.0000

          k = 0.0500-0.5100 0.0000 (  6499 PWs)   bands (ev):

   -19.7952 -17.0305 -11.2738  -7.4927  -2.4416   2.8896   3.0615   4.1771
     5.3276   6.2862   6.7544   7.8167

     occupation numbers 
     1.0000   1.0000   1.0000   1.0000   0.0000   0.0000   0.0000   0.0000
     0.0000   0.0000   0.0000   0.0000

          k = 0.0500-0.4907 0.0000 (  6511 PWs)   bands (ev):

   -20.1016 -16.6472 -11.2213  -7.7432  -2.1117   2.4111   3.0847   3.7116
     4.8661   5.8425   7.3742   7.3836

     occupation numbers 
     1.0000   1.0000   1.0000   1.0000   0.0000   0.0000   0.0000   0.0000
     0.0000   0.0000   0.0000   0.0000

          k = 0.0500-0.4715 0.0000 (  6497 PWs)   bands (ev):

   -20.4039 -16.2493 -11.1559  -8.0165  -1.7404   1.9510   3.1000   3.2762
     4.4223   5.4115   6.9418   7.9019

     occupation numbers 
     1.0000   1.0000   1.0000   1.0000   0.0000   0.0000   0.0000   0.0000
     0.0000   0.0000   0.0000   0.0000

          k = 0.0500-0.4523 0.0000 (  6495 PWs)   bands (ev):

   -20.6989 -15.8405 -11.0780  -8.3020  -1.3389   1.5093   2.8133   3.1637
     3.9979   4.9951   6.5196   7.4823

     occupation numbers 
     1.0000   1.0000   1.0000   1.0000   0.0000   0.0000   0.0000   0.0000
     0.0000   0.0000   0.0000   0.0000

          k = 0.0500-0.4330 0.0000 (  6490 PWs)   bands (ev):

   -20.9849 -15.4231 -10.9876  -8.5925  -0.9155   1.0860   2.4030   3.1874
     3.6006   4.5945   6.1130   7.0757

     occupation numbers 
     1.0000   1.0000   1.0000   1.0000   0.0000   0.0000   0.0000   0.0000
     0.0000   0.0000   0.0000   0.0000

          k = 0.0500-0.4138 0.0000 (  6497 PWs)   bands (ev):

   -21.2608 -14.9985 -10.8853  -8.8827  -0.4766   0.6811   2.0068   3.1094
     3.3303   4.2108   5.7227   6.6846

     occupation numbers 
     1.0000   1.0000   1.0000   1.0000   0.0000   0.0000   0.0000   0.0000
     0.0000   0.0000   0.0000   0.0000

          k = 0.0500-0.3945 0.0000 (  6485 PWs)   bands (ev):

   -21.5260 -14.5683 -10.7713  -9.1691  -0.0281   0.2951   1.6284   2.7822
     3.3284   3.8470   5.3492   6.3099

     occupation numbers 
     1.0000   1.0000   1.0000   1.0000   0.0000   0.0000   0.0000   0.0000
     0.0000   0.0000   0.0000   0.0000

          k = 0.0500-0.3753 0.0000 (  6494 PWs)   bands (ev):

   -21.7800 -14.1338 -10.6460  -9.4490  -0.0744   0.4259   1.2708   2.4316
     3.3436   3.5279   4.9930   5.9521

     occupation numbers 
     1.0000   1.0000   1.0000   1.0000   0.0000   0.0000   0.0000   0.0000
     0.0000   0.0000   0.0000   0.0000

          k = 0.0500-0.3560 0.0000 (  6494 PWs)   bands (ev):

   -22.0225 -13.6962 -10.5101  -9.7203  -0.4238   0.8148   0.9969   2.0937
     3.1280   3.4651   4.6546   5.6114

     occupation numbers 
     1.0000   1.0000   1.0000   1.0000   0.0000   0.0000   0.0000   0.0000
     0.0000   0.0000   0.0000   0.0000

          k = 0.0500-0.3368 0.0000 (  6489 PWs)   bands (ev):

   -22.2532 -13.2571 -10.3641  -9.9817  -0.7551   0.5789   1.3628   1.7733
     2.8237   3.5126   4.3349   5.2883

     occupation numbers 
     1.0000   1.0000   1.0000   1.0000   0.0000   0.0000   0.0000   0.0000
     0.0000   0.0000   0.0000   0.0000

          k = 0.0500-0.3175 0.0000 (  6483 PWs)   bands (ev):

   -22.4718 -12.8181 -10.2320 -10.2087  -1.0680   0.2753   1.4626   1.8098
     2.5388   3.5650   4.0368   4.9829

     occupation numbers 
     1.0000   1.0000   1.0000   1.0000   0.0000   0.0000   0.0000   0.0000
     0.0000   0.0000   0.0000   0.0000

          k = 0.0500-0.2983 0.0000 (  6483 PWs)   bands (ev):

   -22.6783 -12.3808 -10.4701 -10.0451  -1.3625  -0.0139   1.1772   2.1146
     2.4019   3.5926   3.7826   4.6955

     occupation numbers 
     1.0000   1.0000   1.0000   1.0000   0.0000   0.0000   0.0000   0.0000
     0.0000   0.0000   0.0000   0.0000

          k = 0.0500-0.2791 0.0000 (  6482 PWs)   bands (ev):

   -22.8724 -11.9472 -10.6956  -9.8739  -1.6386  -0.2858   0.9077   1.9358
     2.7576   3.4433   3.7233   4.4268

     occupation numbers 
     1.0000   1.0000   1.0000   1.0000   0.0000   0.0000   0.0000   0.0000
     0.0000   0.0000   0.0000   0.0000

          k = 0.0500-0.2598 0.0000 (  6484 PWs)   bands (ev):

   -23.0541 -11.5195 -10.9078  -9.6964  -1.8963  -0.5400   0.6558   1.6975
     3.1233   3.2652   3.7611   4.1785

     occupation numbers 
     1.0000   1.0000   1.0000   1.0000   0.0000   0.0000   0.0000   0.0000
     0.0000   0.0000   0.0000   0.0000

          k = 0.0500-0.2406 0.0000 (  6492 PWs)   bands (ev):

   -23.2232 -11.1073 -11.0991  -9.5141  -2.1356  -0.7763   0.4217   1.4695
     2.9601   3.6134   3.7920   3.9635

     occupation numbers 
     1.0000   1.0000   1.0000   1.0000   0.0000   0.0000   0.0000   0.0000
     0.0000   0.0000   0.0000   0.0000

          k = 0.0500-0.2213 0.0000 (  6498 PWs)   bands (ev):

   -23.3796 -11.2904 -10.6920  -9.3284  -2.3565  -0.9945   0.2055   1.2571
     2.7495   3.6884   3.8688   4.0367

     occupation numbers 
     1.0000   1.0000   1.0000   1.0000   0.0000   0.0000   0.0000   0.0000
     0.0000   0.0000   0.0000   0.0000

          k = 0.0500-0.2021 0.0000 (  6498 PWs)   bands (ev):

   -23.5232 -11.4602 -10.2980  -9.1415  -2.5590  -1.1947   0.0073   1.0616
     2.5534   3.5050   3.8889   4.4174

     occupation numbers 
     1.0000   1.0000   1.0000   1.0000   0.0000   0.0000   0.0000   0.0000
     0.0000   0.0000   0.0000   0.0000

          k = 0.0500-0.1828 0.0000 (  6484 PWs)   bands (ev):

   -23.6540 -11.6152  -9.9216  -8.9553  -2.7431  -1.3767  -0.1731   0.8834
     2.3743   3.3280   3.9022   4.7831

     occupation numbers 
     1.0000   1.0000   1.0000   1.0000   0.0000   0.0000   0.0000   0.0000
     0.0000   0.0000   0.0000   0.0000

          k = 0.0500-0.1636 0.0000 (  6491 PWs)   bands (ev):

   -23.7718 -11.7552  -9.5665  -8.7726  -2.9087  -1.5405  -0.3354   0.7228
     2.2127   3.1668   3.9026   4.6754

     occupation numbers 
     1.0000   1.0000   1.0000   1.0000   0.0000   0.0000   0.0000   0.0000
     0.0000   0.0000   0.0000   0.0000

          k = 0.0500-0.1443 0.0000 (  6485 PWs)   bands (ev):

   -23.8768 -11.8801  -9.2365  -8.5963  -3.0560  -1.6862  -0.4797   0.5798
     2.0689   3.0229   3.8888   4.5310

     occupation numbers 
     1.0000   1.0000   1.0000   1.0000   0.0000   0.0000   0.0000   0.0000
     0.0000   0.0000   0.0000   0.0000

          k = 0.0500-0.1251 0.0000 (  6489 PWs)   bands (ev):

   -23.9687 -11.9897  -8.9355  -8.4299  -3.1849  -1.8137  -0.6060   0.4546
     1.9429   2.8967   3.8617   4.4039

     occupation numbers 
     1.0000   1.0000   1.0000   1.0000   0.0000   0.0000   0.0000   0.0000
     0.0000   0.0000   0.0000   0.0000

          k = 0.0500-0.1058 0.0000 (  6491 PWs)   bands (ev):

   -24.0475 -12.0838  -8.6676  -8.2772  -3.2953  -1.9230  -0.7142   0.3472
     1.8349   2.7884   3.8245   4.2940

     occupation numbers 
     1.0000   1.0000   1.0000   1.0000   0.0000   0.0000   0.0000   0.0000
     0.0000   0.0000   0.0000   0.0000

          k = 0.0500-0.0866 0.0000 (  6491 PWs)   bands (ev):

   -24.1133 -12.1624  -8.4362  -8.1424  -3.3873  -2.0141  -0.8044   0.2577
     1.7449   2.6981   3.7823   4.2014

     occupation numbers 
     1.0000   1.0000   1.0000   1.0000   0.0000   0.0000   0.0000   0.0000
     0.0000   0.0000   0.0000   0.0000

          k = 0.0500-0.0674 0.0000 (  6485 PWs)   bands (ev):

   -24.1659 -12.2254  -8.2446  -8.0300  -3.4610  -2.0869  -0.8766   0.1861
     1.6728   2.6258   3.7422   4.1264

     occupation numbers 
     1.0000   1.0000   1.0000   1.0000   0.0000   0.0000   0.0000   0.0000
     0.0000   0.0000   0.0000   0.0000

          k = 0.0500-0.0481 0.0000 (  6473 PWs)   bands (ev):

   -24.2054 -12.2727  -8.0956  -7.9441  -3.5162  -2.1416  -0.9307   0.1324
     1.6188   2.5716   3.7114   4.0437

     occupation numbers 
     1.0000   1.0000   1.0000   1.0000   0.0000   0.0000   0.0000   0.0000
     0.0000   0.0000   0.0000   0.0000

          k = 0.0500-0.0289 0.0000 (  6458 PWs)   bands (ev):

   -24.2317 -12.3042  -7.9921  -7.8875  -3.5530  -2.1780  -0.9667   0.0965
     1.5828   2.5354   3.6954   3.9376

     occupation numbers 
     1.0000   1.0000   1.0000   1.0000   0.0000   0.0000   0.0000   0.0000
     0.0000   0.0000   0.0000   0.0000

          k = 0.0500-0.0096 0.0000 (  6456 PWs)   bands (ev):

   -24.2449 -12.3200  -7.9393  -7.8592  -3.5714  -2.1962  -0.9848   0.0786
     1.5648   2.5173   3.6938   3.8767

     occupation numbers 
     1.0000   1.0000   1.0000   1.0000   0.0000   0.0000   0.0000   0.0000
     0.0000   0.0000   0.0000   0.0000

          k = 0.0500 0.0096 0.0000 (  6456 PWs)   bands (ev):

   -24.2449 -12.3200  -7.9429  -7.8556  -3.5714  -2.1962  -0.9848   0.0786
     1.5648   2.5174   3.6979   3.8723

     occupation numbers 
     1.0000   1.0000   1.0000   1.0000   0.0000   0.0000   0.0000   0.0000
     0.0000   0.0000   0.0000   0.0000

          k = 0.0667 0.0385 0.0000 (  6464 PWs)   bands (ev):

   -24.1856 -12.2490  -8.1824  -7.9752  -3.4886  -2.1143  -0.9036   0.1592
     1.6458   2.5987   3.7214   4.0980

     occupation numbers 
     1.0000   1.0000   1.0000   1.0000   0.0000   0.0000   0.0000   0.0000
     0.0000   0.0000   0.0000   0.0000

          k = 0.0667 0.0577 0.0000 (  6475 PWs)   bands (ev):

   -24.1527 -12.2096  -8.3077  -8.0433  -3.4426  -2.0687  -0.8585   0.2040
     1.6908   2.6439   3.7412   4.1449

     occupation numbers 
     1.0000   1.0000   1.0000   1.0000   0.0000   0.0000   0.0000   0.0000
     0.0000   0.0000   0.0000   0.0000

          k = 0.0667 0.0770 0.0000 (  6479 PWs)   bands (ev):

   -24.1067 -12.1545  -8.4723  -8.1429  -3.3781  -2.0050  -0.7954   0.2667
     1.7539   2.7071   3.7800   4.2104

     occupation numbers 
     1.0000   1.0000   1.0000   1.0000   0.0000   0.0000   0.0000   0.0000
     0.0000   0.0000   0.0000   0.0000

          k = 0.0667 0.0962 0.0000 (  6491 PWs)   bands (ev):

   -24.0475 -12.0838  -8.6739  -8.2706  -3.2953  -1.9230  -0.7142   0.3472
     1.8349   2.7884   3.8338   4.2942

     occupation numbers 
     1.0000   1.0000   1.0000   1.0000   0.0000   0.0000   0.0000   0.0000
     0.0000   0.0000   0.0000   0.0000

          k = 0.0667 0.1155 0.0000 (  6499 PWs)   bands (ev):

   -23.9752 -11.9975  -8.9105  -8.4214  -3.1941  -1.8228  -0.6150   0.4457
     1.9340   2.8877   3.8941   4.3959

     occupation numbers 
     1.0000   1.0000   1.0000   1.0000   0.0000   0.0000   0.0000   0.0000
     0.0000   0.0000   0.0000   0.0000

          k = 0.0667 0.1347 0.0000 (  6491 PWs)   bands (ev):

   -23.8899 -11.8957  -9.1802  -8.5899  -3.0744  -1.7044  -0.4977   0.5620
     2.0510   3.0050   3.9512   4.5147

     occupation numbers 
     1.0000   1.0000   1.0000   1.0000   0.0000   0.0000   0.0000   0.0000
     0.0000   0.0000   0.0000   0.0000

          k = 0.0667 0.1540 0.0000 (  6481 PWs)   bands (ev):

   -23.7915 -11.7785  -9.4805  -8.7708  -2.9363  -1.5678  -0.3624   0.6960
     2.1860   3.1403   3.9971   4.6506

     occupation numbers 
     1.0000   1.0000   1.0000   1.0000   0.0000   0.0000   0.0000   0.0000
     0.0000   0.0000   0.0000   0.0000

          k = 0.0667 0.1732 0.0000 (  6489 PWs)   bands (ev):

   -23.6802 -11.6461  -9.8086  -8.9596  -2.7799  -1.4131  -0.2091   0.8479
     2.3388   3.2931   4.0267   4.8035

     occupation numbers 
     1.0000   1.0000   1.0000   1.0000   0.0000   0.0000   0.0000   0.0000
     0.0000   0.0000   0.0000   0.0000

          k = 0.0667 0.1925 0.0000 (  6491 PWs)   bands (ev):

   -23.5559 -11.4987 -10.1610  -9.1526  -2.6050  -1.2401  -0.0377   1.0173
     2.5093   3.4632   4.0384   4.5126

     occupation numbers 
     1.0000   1.0000   1.0000   1.0000   0.0000   0.0000   0.0000   0.0000
     0.0000   0.0000   0.0000   0.0000

          k = 0.0667 0.2117 0.0000 (  6484 PWs)   bands (ev):

   -23.4188 -11.3364 -10.5344  -9.3468  -2.4117  -1.0490   0.1516   1.2043
     2.6972   3.6482   4.0328   4.1435

     occupation numbers 
     1.0000   1.0000   1.0000   1.0000   0.0000   0.0000   0.0000   0.0000
     0.0000   0.0000   0.0000   0.0000

          k = 0.0667 0.2309 0.0000 (  6488 PWs)   bands (ev):

   -23.2688 -11.1596 -10.9251  -9.5397  -2.2000  -0.8399   0.3589   1.4084
     2.9015   3.7323   3.8599   4.0271

     occupation numbers 
     1.0000   1.0000   1.0000   1.0000   0.0000   0.0000   0.0000   0.0000
     0.0000   0.0000   0.0000   0.0000

          k = 0.0667 0.2502 0.0000 (  6492 PWs)   bands (ev):

   -23.1062 -11.3300 -10.9683  -9.7292  -1.9699  -0.6126   0.5841   1.6289
     3.1120   3.3482   3.9472   4.1196

     occupation numbers 
     1.0000   1.0000   1.0000   1.0000   0.0000   0.0000   0.0000   0.0000
     0.0000   0.0000   0.0000   0.0000

          k = 0.0667 0.2694 0.0000 (  6480 PWs)   bands (ev):

   -22.9309 -11.7459 -10.7632  -9.9139  -1.7214  -0.3673   0.8271   1.8635
     2.9045   3.3760   3.9203   4.3476

     occupation numbers 
     1.0000   1.0000   1.0000   1.0000   0.0000   0.0000   0.0000   0.0000
     0.0000   0.0000   0.0000   0.0000

          k = 0.0667 0.2887 0.0000 (  6493 PWs)   bands (ev):

   -22.7431 -12.1701 -10.5445 -10.0921  -1.4545  -0.1042   1.0879   2.0928
     2.5013   3.6169   3.8862   4.6054

     occupation numbers 
     1.0000   1.0000   1.0000   1.0000   0.0000   0.0000   0.0000   0.0000
     0.0000   0.0000   0.0000   0.0000

          k = 0.0667 0.3079 0.0000 (  6479 PWs)   bands (ev):

   -22.5429 -12.6000 -10.3128 -10.2627  -1.1692   0.1765   1.3659   1.9758
     2.4497   3.7613   3.9634   4.8831

     occupation numbers 
     1.0000   1.0000   1.0000   1.0000   0.0000   0.0000   0.0000   0.0000
     0.0000   0.0000   0.0000   0.0000

          k = 0.0667 0.3272 0.0000 (  6487 PWs)   bands (ev):

   -22.3304 -13.0336 -10.4251 -10.0686  -0.8655   0.4735   1.5397   1.6712
     2.7186   3.7314   4.2311   5.1791

     occupation numbers 
     1.0000   1.0000   1.0000   1.0000   0.0000   0.0000   0.0000   0.0000
     0.0000   0.0000   0.0000   0.0000

          k = 0.0667 0.3464 0.0000 (  6491 PWs)   bands (ev):

   -22.1058 -13.4687 -10.5779  -9.8128  -0.5434   0.7750   1.1107   1.9787
     3.0204   3.6806   4.5385   5.4930

     occupation numbers 
     1.0000   1.0000   1.0000   1.0000   0.0000   0.0000   0.0000   0.0000
     0.0000   0.0000   0.0000   0.0000

          k = 0.0667 0.3657 0.0000 (  6486 PWs)   bands (ev):

   -21.8694 -13.9036 -10.7206  -9.5465  -0.2030   0.6183   1.1478   2.3091
     3.3333   3.6366   4.8669   5.8245

     occupation numbers 
     1.0000   1.0000   1.0000   1.0000   0.0000   0.0000   0.0000   0.0000
     0.0000   0.0000   0.0000   0.0000

          k = 0.0667 0.3849 0.0000 (  6493 PWs)   bands (ev):

   -21.6213 -14.3368 -10.8527  -9.2708   0.1466   0.1811   1.4929   2.6558
     3.5256   3.7338   5.2136   6.1731

     occupation numbers 
     1.0000   1.0000   1.0000   1.0000   0.0000   0.0000   0.0000   0.0000
     0.0000   0.0000   0.0000   0.0000

          k = 0.0667 0.4041 0.0000 (  6499 PWs)   bands (ev):

   -21.3618 -14.7667 -10.9735  -8.9875  -0.2774   0.5339   1.8621   3.0139
     3.5052   4.0697   5.5779   6.5387

     occupation numbers 
     1.0000   1.0000   1.0000   1.0000   0.0000   0.0000   0.0000   0.0000
     0.0000   0.0000   0.0000   0.0000

          k = 0.0667 0.4234 0.0000 (  6487 PWs)   bands (ev):

   -21.0915 -15.1920 -11.0827  -8.6988  -0.7187   0.9295   2.2499   3.3287
     3.5297   4.4418   5.9590   6.9206

     occupation numbers 
     1.0000   1.0000   1.0000   1.0000   0.0000   0.0000   0.0000   0.0000
     0.0000   0.0000   0.0000   0.0000

          k = 0.0667 0.4426 0.0000 (  6489 PWs)   bands (ev):

   -20.8107 -15.6112 -11.1798  -8.4079  -1.1476   1.3436   2.6548   3.3720
     3.8458   4.8327   6.3565   7.3181

     occupation numbers 
     1.0000   1.0000   1.0000   1.0000   0.0000   0.0000   0.0000   0.0000
     0.0000   0.0000   0.0000   0.0000

          k = 0.0667 0.4619 0.0000 (  6487 PWs)   bands (ev):

   -20.5203 -16.0229 -11.2646  -8.1189  -1.5585   1.7761   3.0721   3.3491
     4.2550   5.2398   6.7696   7.7296

     occupation numbers 
     1.0000   1.0000   1.0000   1.0000   0.0000   0.0000   0.0000   0.0000
     0.0000   0.0000   0.0000   0.0000

          k = 0.0667 0.4811 0.0000 (  6505 PWs)   bands (ev):

   -20.2217 -16.4251 -11.3368  -7.8382  -1.9441   2.2271   3.2932   3.5379
     4.6886   5.6615   7.1969   7.7472

     occupation numbers 
     1.0000   1.0000   1.0000   1.0000   0.0000   0.0000   0.0000   0.0000
     0.0000   0.0000   0.0000   0.0000

          k = 0.0667 0.5004 0.0000 (  6503 PWs)   bands (ev):

   -19.9172 -16.8150 -11.3961  -7.5742  -2.2949   2.6964   3.2738   3.9882
     5.1408   6.0963   7.1128   7.6355

     occupation numbers 
     1.0000   1.0000   1.0000   1.0000   0.0000   0.0000   0.0000   0.0000
     0.0000   0.0000   0.0000   0.0000

          k = 0.0667 0.5196 0.0000 (  6503 PWs)   bands (ev):

   -19.6116 -17.1875 -11.4424  -7.3394  -2.5981   3.1840   3.2531   4.4623
     5.6103   6.4949   6.5424   7.6412

     occupation numbers 
     1.0000   1.0000   1.0000   1.0000   0.0000   0.0000   0.0000   0.0000
     0.0000   0.0000   0.0000   0.0000

          k = 0.0667 0.5389 0.0000 (  6509 PWs)   bands (ev):

   -19.3162 -17.5308 -11.4755  -7.1500  -2.8366   3.2371   3.6903   4.9538
     5.8985   6.0959   6.9517   7.1271

     occupation numbers 
     1.0000   1.0000   1.0000   1.0000   0.0000   0.0000   0.0000   0.0000
     0.0000   0.0000   0.0000   0.0000

          k = 0.0667 0.5581 0.0000 (  6501 PWs)   bands (ev):

   -19.0645 -17.8114 -11.4955  -7.0249  -2.9913   3.2275   4.2148   5.3189
     5.4615   6.5076   6.6107   7.4518

     occupation numbers 
     1.0000   1.0000   1.0000   1.0000   0.0000   0.0000   0.0000   0.0000
     0.0000   0.0000   0.0000   0.0000

          k = 0.0667 0.5774 0.0000 (  6480 PWs)   bands (ev):

   -18.9502 -17.9352 -11.5021  -6.9809  -3.0452   3.2242   4.7538   4.7617
     5.9664   6.0016   7.0774   7.1574

     occupation numbers 
     1.0000   1.0000   1.0000   1.0000   0.0000   0.0000   0.0000   0.0000
     0.0000   0.0000   0.0000   0.0000

          k = 0.0667 0.5966 0.0000 (  6501 PWs)   bands (ev):

   -19.0644 -17.8113 -11.4955  -7.0250  -2.9912   3.2274   4.2148   5.3189
     5.4615   6.5076   6.6107   7.4516

     occupation numbers 
     1.0000   1.0000   1.0000   1.0000   0.0000   0.0000   0.0000   0.0000
     0.0000   0.0000   0.0000   0.0000

          k = 0.0667-0.5389 0.0000 (  6509 PWs)   bands (ev):

   -19.3162 -17.5308 -11.4756  -7.1501  -2.8363   3.2370   3.6903   4.9538
     5.8985   6.0959   6.9515   7.1271

     occupation numbers 
     1.0000   1.0000   1.0000   1.0000   0.0000   0.0000   0.0000   0.0000
     0.0000   0.0000   0.0000   0.0000

          k = 0.0667-0.5196 0.0000 (  6503 PWs)   bands (ev):

   -19.6115 -17.1875 -11.4425  -7.3396  -2.5976   3.1840   3.2529   4.4623
     5.6103   6.4949   6.5423   7.6412

     occupation numbers 
     1.0000   1.0000   1.0000   1.0000   0.0000   0.0000   0.0000   0.0000
     0.0000   0.0000   0.0000   0.0000

          k = 0.0667-0.5004 0.0000 (  6503 PWs)   bands (ev):

   -19.9172 -16.8150 -11.3962  -7.5745  -2.2944   2.6964   3.2735   3.9882
     5.1409   6.0961   7.1128   7.6355

     occupation numbers 
     1.0000   1.0000   1.0000   1.0000   0.0000   0.0000   0.0000   0.0000
     0.0000   0.0000   0.0000   0.0000

          k = 0.0667-0.4811 0.0000 (  6505 PWs)   bands (ev):

   -20.2217 -16.4250 -11.3369  -7.8384  -1.9435   2.2271   3.2927   3.5379
     4.6886   5.6614   7.1968   7.7472

     occupation numbers 
     1.0000   1.0000   1.0000   1.0000   0.0000   0.0000   0.0000   0.0000
     0.0000   0.0000   0.0000   0.0000

          k = 0.0667-0.4619 0.0000 (  6487 PWs)   bands (ev):

   -20.5203 -16.0227 -11.2648  -8.1192  -1.5578   1.7761   3.0720   3.3487
     4.2551   5.2397   6.7695   7.7295

     occupation numbers 
     1.0000   1.0000   1.0000   1.0000   0.0000   0.0000   0.0000   0.0000
     0.0000   0.0000   0.0000   0.0000

          k = 0.0667-0.4426 0.0000 (  6489 PWs)   bands (ev):

   -20.8106 -15.6110 -11.1801  -8.4081  -1.1469   1.3436   2.6548   3.3713
     3.8460   4.8326   6.3565   7.3181

     occupation numbers 
     1.0000   1.0000   1.0000   1.0000   0.0000   0.0000   0.0000   0.0000
     0.0000   0.0000   0.0000   0.0000

          k = 0.0667-0.4234 0.0000 (  6487 PWs)   bands (ev):

   -21.0914 -15.1917 -11.0831  -8.6991  -0.7179   0.9295   2.2498   3.3281
     3.5297   4.4418   5.9590   6.9205

     occupation numbers 
     1.0000   1.0000   1.0000   1.0000   0.0000   0.0000   0.0000   0.0000
     0.0000   0.0000   0.0000   0.0000

          k = 0.0667-0.4041 0.0000 (  6499 PWs)   bands (ev):

   -21.3618 -14.7664 -10.9740  -8.9877  -0.2766   0.5339   1.8621   3.0137
     3.5045   4.0696   5.5778   6.5386

     occupation numbers 
     1.0000   1.0000   1.0000   1.0000   0.0000   0.0000   0.0000   0.0000
     0.0000   0.0000   0.0000   0.0000

          k = 0.0667-0.3849 0.0000 (  6493 PWs)   bands (ev):

   -21.6212 -14.3364 -10.8532  -9.2710   0.1468   0.1817   1.4929   2.6557
     3.5246   3.7337   5.2136   6.1731

     occupation numbers 
     1.0000   1.0000   1.0000   1.0000   0.0000   0.0000   0.0000   0.0000
     0.0000   0.0000   0.0000   0.0000

          k = 0.0667-0.3657 0.0000 (  6486 PWs)   bands (ev):

   -21.8693 -13.9031 -10.7213  -9.5467  -0.2030   0.6192   1.1478   2.3091
     3.3331   3.6356   4.8669   5.8244

     occupation numbers 
     1.0000   1.0000   1.0000   1.0000   0.0000   0.0000   0.0000   0.0000
     0.0000   0.0000   0.0000   0.0000

          k = 0.0667-0.3464 0.0000 (  6491 PWs)   bands (ev):

   -22.1058 -13.4680 -10.5787  -9.8131  -0.5434   0.7751   1.1116   1.9787
     3.0202   3.6792   4.5385   5.4930

     occupation numbers 
     1.0000   1.0000   1.0000   1.0000   0.0000   0.0000   0.0000   0.0000
     0.0000   0.0000   0.0000   0.0000

          k = 0.0667-0.3272 0.0000 (  6487 PWs)   bands (ev):

   -22.3303 -13.0327 -10.4260 -10.0688  -0.8655   0.4735   1.5406   1.6713
     2.7185   3.7298   4.2311   5.1791

     occupation numbers 
     1.0000   1.0000   1.0000   1.0000   0.0000   0.0000   0.0000   0.0000
     0.0000   0.0000   0.0000   0.0000

          k = 0.0667-0.3079 0.0000 (  6479 PWs)   bands (ev):

   -22.5428 -12.5990 -10.3130 -10.2639  -1.1692   0.1765   1.3658   1.9768
     2.4497   3.7596   3.9632   4.8830

     occupation numbers 
     1.0000   1.0000   1.0000   1.0000   0.0000   0.0000   0.0000   0.0000
     0.0000   0.0000   0.0000   0.0000

          k = 0.0667-0.2887 0.0000 (  6493 PWs)   bands (ev):

   -22.7430 -12.1688 -10.5447 -10.0935  -1.4545  -0.1042   1.0879   2.0929
     2.5022   3.6165   3.8842   4.6054

     occupation numbers 
     1.0000   1.0000   1.0000   1.0000   0.0000   0.0000   0.0000   0.0000
     0.0000   0.0000   0.0000   0.0000

          k = 0.0667-0.2694 0.0000 (  6480 PWs)   bands (ev):

   -22.9308 -11.7444 -10.7633  -9.9156  -1.7214  -0.3673   0.8271   1.8635
     2.9055   3.3759   3.9176   4.3476

     occupation numbers 
     1.0000   1.0000   1.0000   1.0000   0.0000   0.0000   0.0000   0.0000
     0.0000   0.0000   0.0000   0.0000

          k = 0.0667-0.2502 0.0000 (  6492 PWs)   bands (ev):

   -23.1061 -11.3281 -10.9685  -9.7314  -1.9699  -0.6126   0.5841   1.6289
     3.1120   3.3491   3.9442   4.1192

     occupation numbers 
     1.0000   1.0000   1.0000   1.0000   0.0000   0.0000   0.0000   0.0000
     0.0000   0.0000   0.0000   0.0000

          k = 0.0667-0.2309 0.0000 (  6488 PWs)   bands (ev):

   -23.2688 -11.1597 -10.9228  -9.5423  -2.2000  -0.8399   0.3589   1.4083
     2.9014   3.7333   3.8593   4.0236

     occupation numbers 
     1.0000   1.0000   1.0000   1.0000   0.0000   0.0000   0.0000   0.0000
     0.0000   0.0000   0.0000   0.0000

          k = 0.0667-0.2117 0.0000 (  6484 PWs)   bands (ev):

   -23.4187 -11.3366 -10.5315  -9.3499  -2.4117  -1.0491   0.1516   1.2042
     2.6971   3.6480   4.0281   4.1444

     occupation numbers 
     1.0000   1.0000   1.0000   1.0000   0.0000   0.0000   0.0000   0.0000
     0.0000   0.0000   0.0000   0.0000

          k = 0.0667-0.1925 0.0000 (  6491 PWs)   bands (ev):

   -23.5559 -11.4988 -10.1575  -9.1564  -2.6050  -1.2401  -0.0377   1.0173
     2.5092   3.4631   4.0325   4.5136

     occupation numbers 
     1.0000   1.0000   1.0000   1.0000   0.0000   0.0000   0.0000   0.0000
     0.0000   0.0000   0.0000   0.0000

          k = 0.0667-0.1732 0.0000 (  6489 PWs)   bands (ev):

   -23.6802 -11.6462  -9.8043  -8.9642  -2.7799  -1.4131  -0.2091   0.8478
     2.3387   3.2931   4.0196   4.8035

     occupation numbers 
     1.0000   1.0000   1.0000   1.0000   0.0000   0.0000   0.0000   0.0000
     0.0000   0.0000   0.0000   0.0000

          k = 0.0667-0.1540 0.0000 (  6481 PWs)   bands (ev):

   -23.7915 -11.7786  -9.4753  -8.7762  -2.9363  -1.5678  -0.3624   0.6960
     2.1859   3.1402   3.9887   4.6505

     occupation numbers 
     1.0000   1.0000   1.0000   1.0000   0.0000   0.0000   0.0000   0.0000
     0.0000   0.0000   0.0000   0.0000

          k = 0.0667-0.1347 0.0000 (  6491 PWs)   bands (ev):

   -23.8899 -11.8958  -9.1741  -8.5963  -3.0744  -1.7044  -0.4977   0.5619
     2.0510   3.0050   3.9417   4.5145

     occupation numbers 
     1.0000   1.0000   1.0000   1.0000   0.0000   0.0000   0.0000   0.0000
     0.0000   0.0000   0.0000   0.0000

          k = 0.0667-0.1155 0.0000 (  6499 PWs)   bands (ev):

   -23.9752 -11.9976  -8.9035  -8.4287  -3.1941  -1.8228  -0.6150   0.4457
     1.9340   2.8877   3.8836   4.3956

     occupation numbers 
     1.0000   1.0000   1.0000   1.0000   0.0000   0.0000   0.0000   0.0000
     0.0000   0.0000   0.0000   0.0000

          k = 0.0667-0.0962 0.0000 (  6491 PWs)   bands (ev):

   -24.0475 -12.0839  -8.6661  -8.2787  -3.2953  -1.9230  -0.7142   0.3472
     1.8349   2.7884   3.8228   4.2939

     occupation numbers 
     1.0000   1.0000   1.0000   1.0000   0.0000   0.0000   0.0000   0.0000
     0.0000   0.0000   0.0000   0.0000

          k = 0.0667-0.0770 0.0000 (  6479 PWs)   bands (ev):

   -24.1067 -12.1546  -8.4640  -8.1514  -3.3781  -2.0050  -0.7954   0.2667
     1.7539   2.7071   3.7690   4.2101

     occupation numbers 
     1.0000   1.0000   1.0000   1.0000   0.0000   0.0000   0.0000   0.0000
     0.0000   0.0000   0.0000   0.0000

          k = 0.0667-0.0577 0.0000 (  6475 PWs)   bands (ev):

   -24.1527 -12.2097  -8.2993  -8.0518  -3.4426  -2.0687  -0.8585   0.2040
     1.6908   2.6438   3.7307   4.1447

     occupation numbers 
     1.0000   1.0000   1.0000   1.0000   0.0000   0.0000   0.0000   0.0000
     0.0000   0.0000   0.0000   0.0000

          k = 0.0667-0.0385 0.0000 (  6464 PWs)   bands (ev):

   -24.1856 -12.2490  -8.1749  -7.9828  -3.4886  -2.1143  -0.9036   0.1592
     1.6458   2.5987   3.7124   4.0979

     occupation numbers 
     1.0000   1.0000   1.0000   1.0000   0.0000   0.0000   0.0000   0.0000
     0.0000   0.0000   0.0000   0.0000

          k = 0.0667-0.0192 0.0000 (  6473 PWs)   bands (ev):

   -24.2054 -12.2727  -8.0960  -7.9438  -3.5162  -2.1416  -0.9307   0.1324
     1.6188   2.5716   3.7118   4.0433

     occupation numbers 
     1.0000   1.0000   1.0000   1.0000   0.0000   0.0000   0.0000   0.0000
     0.0000   0.0000   0.0000   0.0000

          k = 0.0667 0.0000 0.0000 (  6475 PWs)   bands (ev):

   -24.2120 -12.2806  -8.0700  -7.9300  -3.5254  -2.1507  -0.9397   0.1234
     1.6098   2.5625   3.7171   4.0072

     occupation numbers 
     1.0000   1.0000   1.0000   1.0000   0.0000   0.0000   0.0000   0.0000
     0.0000   0.0000   0.0000   0.0000

          k = 0.0667 0.0192 0.0000 (  6473 PWs)   bands (ev):

   -24.2054 -12.2727  -8.1008  -7.9388  -3.5162  -2.1416  -0.9307   0.1324
     1.6188   2.5716   3.7176   4.0371

     occupation numbers 
     1.0000   1.0000   1.0000   1.0000   0.0000   0.0000   0.0000   0.0000
     0.0000   0.0000   0.0000   0.0000

          k = 0.0833 0.0481 0.0000 (  6478 PWs)   bands (ev):

   -24.1264 -12.1781  -8.4096  -8.0926  -3.4058  -2.0323  -0.8225   0.2398
     1.7269   2.6800   3.7365   4.1818

     occupation numbers 
     1.0000   1.0000   1.0000   1.0000   0.0000   0.0000   0.0000   0.0000
     0.0000   0.0000   0.0000   0.0000

          k = 0.0833 0.0674 0.0000 (  6485 PWs)   bands (ev):

   -24.0870 -12.1310  -8.5534  -8.1716  -3.3505  -1.9776  -0.7683   0.2935
     1.7809   2.7342   3.7568   4.2373

     occupation numbers 
     1.0000   1.0000   1.0000   1.0000   0.0000   0.0000   0.0000   0.0000
     0.0000   0.0000   0.0000   0.0000

          k = 0.0833 0.0866 0.0000 (  6487 PWs)   bands (ev):

   -24.0344 -12.0681  -8.7314  -8.2832  -3.2769  -1.9048  -0.6962   0.3651
     1.8529   2.8064   3.8023   4.3114

     occupation numbers 
     1.0000   1.0000   1.0000   1.0000   0.0000   0.0000   0.0000   0.0000
     0.0000   0.0000   0.0000   0.0000

          k = 0.0833 0.1058 0.0000 (  6489 PWs)   bands (ev):

   -23.9687 -11.9896  -8.9409  -8.4242  -3.1849  -1.8137  -0.6060   0.4546
     1.9430   2.8967   3.8699   4.4040

     occupation numbers 
     1.0000   1.0000   1.0000   1.0000   0.0000   0.0000   0.0000   0.0000
     0.0000   0.0000   0.0000   0.0000

          k = 0.0833 0.1251 0.0000 (  6491 PWs)   bands (ev):

   -23.8899 -11.8957  -9.1803  -8.5898  -3.0744  -1.7044  -0.4977   0.5620
     2.0510   3.0050   3.9513   4.5148

     occupation numbers 
     1.0000   1.0000   1.0000   1.0000   0.0000   0.0000   0.0000   0.0000
     0.0000   0.0000   0.0000   0.0000

          k = 0.0833 0.1443 0.0000 (  6487 PWs)   bands (ev):

   -23.7981 -11.7863  -9.4484  -8.7736  -2.9455  -1.5769  -0.3714   0.6871
     2.1770   3.1314   4.0352   4.6430

     occupation numbers 
     1.0000   1.0000   1.0000   1.0000   0.0000   0.0000   0.0000   0.0000
     0.0000   0.0000   0.0000   0.0000

          k = 0.0833 0.1636 0.0000 (  6487 PWs)   bands (ev):

   -23.6933 -11.6617  -9.7444  -8.9695  -2.7983  -1.4312  -0.2271   0.8301
     2.3210   3.2756   4.1096   4.7882

     occupation numbers 
     1.0000   1.0000   1.0000   1.0000   0.0000   0.0000   0.0000   0.0000
     0.0000   0.0000   0.0000   0.0000

          k = 0.0833 0.1828 0.0000 (  6487 PWs)   bands (ev):

   -23.5755 -11.5219 -10.0664  -9.1720  -2.6326  -1.2674  -0.0647   0.9907
     2.4827   3.4374   4.1656   4.5713

     occupation numbers 
     1.0000   1.0000   1.0000   1.0000   0.0000   0.0000   0.0000   0.0000
     0.0000   0.0000   0.0000   0.0000

          k = 0.0833 0.2021 0.0000 (  6483 PWs)   bands (ev):

   -23.4449 -11.3672 -10.4122  -9.3767  -2.4485  -1.0854   0.1157   1.1690
     2.6622   3.6162   4.1953   4.2209

     occupation numbers 
     1.0000   1.0000   1.0000   1.0000   0.0000   0.0000   0.0000   0.0000
     0.0000   0.0000   0.0000   0.0000

          k = 0.0833 0.2213 0.0000 (  6469 PWs)   bands (ev):

   -23.3014 -11.1978 -10.7788  -9.5803  -2.2460  -0.8853   0.3140   1.3646
     2.8588   3.7935   3.8597   4.2123

     occupation numbers 
     1.0000   1.0000   1.0000   1.0000   0.0000   0.0000   0.0000   0.0000
     0.0000   0.0000   0.0000   0.0000

          k = 0.0833 0.2406 0.0000 (  6474 PWs)   bands (ev):

   -23.1452 -11.1633 -11.0139  -9.7802  -2.0251  -0.6670   0.5303   1.5772
     3.0698   3.4484   4.0206   4.2132

     occupation numbers 
     1.0000   1.0000   1.0000   1.0000   0.0000   0.0000   0.0000   0.0000
     0.0000   0.0000   0.0000   0.0000

          k = 0.0833 0.2598 0.0000 (  6478 PWs)   bands (ev):

   -22.9763 -11.5621 -10.8159  -9.9747  -1.7858  -0.4308   0.7644   1.8055
     3.0266   3.3170   4.1408   4.3010

     occupation numbers 
     1.0000   1.0000   1.0000   1.0000   0.0000   0.0000   0.0000   0.0000
     0.0000   0.0000   0.0000   0.0000

          k = 0.0833 0.2791 0.0000 (  6477 PWs)   bands (ev):

   -22.7949 -11.9723 -10.6042 -10.1622  -1.5281  -0.1765   1.0164   2.0429
     2.6208   3.5586   4.1227   4.5356

     occupation numbers 
     1.0000   1.0000   1.0000   1.0000   0.0000   0.0000   0.0000   0.0000
     0.0000   0.0000   0.0000   0.0000

          k = 0.0833 0.2983 0.0000 (  6485 PWs)   bands (ev):

   -22.6010 -12.3911 -10.3793 -10.3416  -1.2520   0.0954   1.2860   2.1108
     2.3866   3.8128   4.0924   4.8019

     occupation numbers 
     1.0000   1.0000   1.0000   1.0000   0.0000   0.0000   0.0000   0.0000
     0.0000   0.0000   0.0000   0.0000

          k = 0.0833 0.3175 0.0000 (  6481 PWs)   bands (ev):

   -22.3948 -12.8158 -10.5125 -10.1413  -0.9575   0.3846   1.5693   1.7158
     2.6284   3.9712   4.1686   5.0881

     occupation numbers 
     1.0000   1.0000   1.0000   1.0000   0.0000   0.0000   0.0000   0.0000
     0.0000   0.0000   0.0000   0.0000

          k = 0.0833 0.3368 0.0000 (  6487 PWs)   bands (ev):

   -22.1764 -13.2442 -10.6734  -9.8915  -0.6446   0.6874   1.2728   1.8811
     2.9225   3.9455   4.4436   5.3925

     occupation numbers 
     1.0000   1.0000   1.0000   1.0000   0.0000   0.0000   0.0000   0.0000
     0.0000   0.0000   0.0000   0.0000

          k = 0.0833 0.3560 0.0000 (  6481 PWs)   bands (ev):

   -21.9461 -13.6742 -10.8239  -9.6306  -0.3133   0.7883   1.0503   2.2031
     3.2355   3.8972   4.7594   5.7146

     occupation numbers 
     1.0000   1.0000   1.0000   1.0000   0.0000   0.0000   0.0000   0.0000
     0.0000   0.0000   0.0000   0.0000

          k = 0.0833 0.3753 0.0000 (  6487 PWs)   bands (ev):

   -21.7040 -14.1041 -10.9636  -9.3596   0.0359   0.3581   1.3752   2.5427
     3.5574   3.8556   5.0960   6.0539

     occupation numbers 
     1.0000   1.0000   1.0000   1.0000   0.0000   0.0000   0.0000   0.0000
     0.0000   0.0000   0.0000   0.0000

          k = 0.0833 0.3945 0.0000 (  6489 PWs)   bands (ev):

   -21.4505 -14.5320 -11.0918  -9.0800  -0.0884   0.4052   1.7350   2.8982
     3.7500   3.9630   5.4506   6.4101

     occupation numbers 
     1.0000   1.0000   1.0000   1.0000   0.0000   0.0000   0.0000   0.0000
     0.0000   0.0000   0.0000   0.0000

          k = 0.0833 0.4138 0.0000 (  6495 PWs)   bands (ev):

   -21.1858 -14.9566 -11.2083  -8.7938  -0.5293   0.7914   2.1139   3.2646
     3.7305   4.3081   5.8223   6.7826

     occupation numbers 
     1.0000   1.0000   1.0000   1.0000   0.0000   0.0000   0.0000   0.0000
     0.0000   0.0000   0.0000   0.0000

          k = 0.0833 0.4330 0.0000 (  6482 PWs)   bands (ev):

   -20.9104 -15.3762 -11.3126  -8.5036  -0.9609   1.1963   2.5108   3.5750
     3.7704   4.6873   6.2104   7.1707

     occupation numbers 
     1.0000   1.0000   1.0000   1.0000   0.0000   0.0000   0.0000   0.0000
     0.0000   0.0000   0.0000   0.0000

          k = 0.0833 0.4523 0.0000 (  6488 PWs)   bands (ev):

   -20.6251 -15.7896 -11.4045  -8.2129  -1.3781   1.6197   2.9244   3.6050
     4.1109   5.0842   6.6140   7.5728

     occupation numbers 
     1.0000   1.0000   1.0000   1.0000   0.0000   0.0000   0.0000   0.0000
     0.0000   0.0000   0.0000   0.0000

          k = 0.0833 0.4715 0.0000 (  6489 PWs)   bands (ev):

   -20.3309 -16.1947 -11.4837  -7.9268  -1.7745   2.0614   3.3489   3.5846
     4.5301   5.4961   7.0318   7.9845

     occupation numbers 
     1.0000   1.0000   1.0000   1.0000   0.0000   0.0000   0.0000   0.0000
     0.0000   0.0000   0.0000   0.0000

          k = 0.0833 0.4907 0.0000 (  6501 PWs)   bands (ev):

   -20.0294 -16.5895 -11.5500  -7.6526  -2.1420   2.5215   3.5329   3.8213
     4.9722   5.9210   7.4595   7.4914

     occupation numbers 
     1.0000   1.0000   1.0000   1.0000   0.0000   0.0000   0.0000   0.0000
     0.0000   0.0000   0.0000   0.0000

          k = 0.0833 0.5100 0.0000 (  6503 PWs)   bands (ev):

   -19.7240 -16.9700 -11.6033  -7.4007  -2.4695   3.0001   3.5141   4.2819
     5.4325   6.3558   6.8645   7.8772

     occupation numbers 
     1.0000   1.0000   1.0000   1.0000   0.0000   0.0000   0.0000   0.0000
     0.0000   0.0000   0.0000   0.0000

          k = 0.0833 0.5292 0.0000 (  6501 PWs)   bands (ev):

   -19.4219 -17.3288 -11.6433  -7.1853  -2.7421   3.4932   3.4998   4.7639
     5.9095   6.2571   6.7918   7.4188

     occupation numbers 
     1.0000   1.0000   1.0000   1.0000   0.0000   0.0000   0.0000   0.0000
     0.0000   0.0000   0.0000   0.0000

          k = 0.0833 0.5485 0.0000 (  6499 PWs)   bands (ev):

   -19.1422 -17.6464 -11.6700  -7.0247  -2.9410   3.4833   4.0123   5.2625
     5.6685   6.4010   6.8341   7.2688

     occupation numbers 
     1.0000   1.0000   1.0000   1.0000   0.0000   0.0000   0.0000   0.0000
     0.0000   0.0000   0.0000   0.0000

          k = 0.0833 0.5677 0.0000 (  6498 PWs)   bands (ev):

   -18.9431 -17.8645 -11.6834  -6.9378  -3.0471   3.4768   4.5460   5.0981
     5.7761   6.3026   6.9117   7.4351

     occupation numbers 
     1.0000   1.0000   1.0000   1.0000   0.0000   0.0000   0.0000   0.0000
     0.0000   0.0000   0.0000   0.0000

          k = 0.0833 0.5870 0.0000 (  6498 PWs)   bands (ev):

   -18.9431 -17.8645 -11.6835  -6.9379  -3.0470   3.4768   4.5460   5.0981
     5.7761   6.3026   6.9118   7.4350

     occupation numbers 
     1.0000   1.0000   1.0000   1.0000   0.0000   0.0000   0.0000   0.0000
     0.0000   0.0000   0.0000   0.0000

          k = 0.0833 0.6062 0.0000 (  6499 PWs)   bands (ev):

   -19.1422 -17.6464 -11.6701  -7.0248  -2.9408   3.4831   4.0123   5.2625
     5.6685   6.4011   6.8341   7.2686

     occupation numbers 
     1.0000   1.0000   1.0000   1.0000   0.0000   0.0000   0.0000   0.0000
     0.0000   0.0000   0.0000   0.0000

          k = 0.0833-0.5292 0.0000 (  6501 PWs)   bands (ev):

   -19.4218 -17.3288 -11.6434  -7.1855  -2.7416   3.4930   3.4998   4.7639
     5.9096   6.2571   6.7916   7.4188

     occupation numbers 
     1.0000   1.0000   1.0000   1.0000   0.0000   0.0000   0.0000   0.0000
     0.0000   0.0000   0.0000   0.0000

          k = 0.0833-0.5100 0.0000 (  6503 PWs)   bands (ev):

   -19.7239 -16.9699 -11.6034  -7.4010  -2.4689   3.0001   3.5137   4.2819
     5.4326   6.3556   6.8646   7.8771

     occupation numbers 
     1.0000   1.0000   1.0000   1.0000   0.0000   0.0000   0.0000   0.0000
     0.0000   0.0000   0.0000   0.0000

          k = 0.0833-0.4907 0.0000 (  6501 PWs)   bands (ev):

   -20.0293 -16.5894 -11.5502  -7.6530  -2.1413   2.5215   3.5323   3.8213
     4.9723   5.9209   7.4594   7.4914

     occupation numbers 
     1.0000   1.0000   1.0000   1.0000   0.0000   0.0000   0.0000   0.0000
     0.0000   0.0000   0.0000   0.0000

          k = 0.0833-0.4715 0.0000 (  6489 PWs)   bands (ev):

   -20.3308 -16.1946 -11.4840  -7.9271  -1.7737   2.0614   3.3487   3.5842
     4.5302   5.4960   7.0317   7.9844

     occupation numbers 
     1.0000   1.0000   1.0000   1.0000   0.0000   0.0000   0.0000   0.0000
     0.0000   0.0000   0.0000   0.0000

          k = 0.0833-0.4523 0.0000 (  6488 PWs)   bands (ev):

   -20.6251 -15.7893 -11.4049  -8.2132  -1.3772   1.6197   2.9244   3.6042
     4.1111   5.0841   6.6139   7.5727

     occupation numbers 
     1.0000   1.0000   1.0000   1.0000   0.0000   0.0000   0.0000   0.0000
     0.0000   0.0000   0.0000   0.0000

          k = 0.0833-0.4330 0.0000 (  6482 PWs)   bands (ev):

   -20.9104 -15.3759 -11.3131  -8.5039  -0.9600   1.1963   2.5107   3.5741
     3.7704   4.6872   6.2103   7.1706

     occupation numbers 
     1.0000   1.0000   1.0000   1.0000   0.0000   0.0000   0.0000   0.0000
     0.0000   0.0000   0.0000   0.0000

          k = 0.0833-0.4138 0.0000 (  6495 PWs)   bands (ev):

   -21.1857 -14.9562 -11.2088  -8.7942  -0.5283   0.7914   2.1139   3.2644
     3.7297   4.3081   5.8223   6.7826

     occupation numbers 
     1.0000   1.0000   1.0000   1.0000   0.0000   0.0000   0.0000   0.0000
     0.0000   0.0000   0.0000   0.0000

          k = 0.0833-0.3945 0.0000 (  6489 PWs)   bands (ev):

   -21.4504 -14.5315 -11.0925  -9.0803  -0.0873   0.4052   1.7349   2.8981
     3.7489   3.9629   5.4506   6.4101

     occupation numbers 
     1.0000   1.0000   1.0000   1.0000   0.0000   0.0000   0.0000   0.0000
     0.0000   0.0000   0.0000   0.0000

          k = 0.0833-0.3753 0.0000 (  6487 PWs)   bands (ev):

   -21.7040 -14.1034 -10.9644  -9.3599   0.0359   0.3592   1.3752   2.5426
     3.5571   3.8545   5.0959   6.0539

     occupation numbers 
     1.0000   1.0000   1.0000   1.0000   0.0000   0.0000   0.0000   0.0000
     0.0000   0.0000   0.0000   0.0000

          k = 0.0833-0.3560 0.0000 (  6481 PWs)   bands (ev):

   -21.9460 -13.6734 -10.8249  -9.6309  -0.3133   0.7894   1.0503   2.2031
     3.2353   3.8956   4.7594   5.7146

     occupation numbers 
     1.0000   1.0000   1.0000   1.0000   0.0000   0.0000   0.0000   0.0000
     0.0000   0.0000   0.0000   0.0000

          k = 0.0833-0.3368 0.0000 (  6487 PWs)   bands (ev):

   -22.1764 -13.2432 -10.6745  -9.8918  -0.6446   0.6874   1.2740   1.8810
     2.9223   3.9435   4.4436   5.3925

     occupation numbers 
     1.0000   1.0000   1.0000   1.0000   0.0000   0.0000   0.0000   0.0000
     0.0000   0.0000   0.0000   0.0000

          k = 0.0833-0.3175 0.0000 (  6481 PWs)   bands (ev):

   -22.3947 -12.8146 -10.5139 -10.1416  -0.9575   0.3846   1.5693   1.7171
     2.6283   3.9691   4.1683   5.0881

     occupation numbers 
     1.0000   1.0000   1.0000   1.0000   0.0000   0.0000   0.0000   0.0000
     0.0000   0.0000   0.0000   0.0000

          k = 0.0833-0.2983 0.0000 (  6485 PWs)   bands (ev):

   -22.6009 -12.3896 -10.3795 -10.3434  -1.2520   0.0954   1.2860   2.1119
     2.3867   3.8123   4.0899   4.8019

     occupation numbers 
     1.0000   1.0000   1.0000   1.0000   0.0000   0.0000   0.0000   0.0000
     0.0000   0.0000   0.0000   0.0000

          k = 0.0833-0.2791 0.0000 (  6477 PWs)   bands (ev):

   -22.7948 -11.9704 -10.6044 -10.1644  -1.5281  -0.1765   1.0164   2.0429
     2.6220   3.5585   4.1193   4.5356

     occupation numbers 
     1.0000   1.0000   1.0000   1.0000   0.0000   0.0000   0.0000   0.0000
     0.0000   0.0000   0.0000   0.0000

          k = 0.0833-0.2598 0.0000 (  6478 PWs)   bands (ev):

   -22.9763 -11.5598 -10.8161  -9.9773  -1.7858  -0.4308   0.7644   1.8055
     3.0279   3.3169   4.1372   4.3004

     occupation numbers 
     1.0000   1.0000   1.0000   1.0000   0.0000   0.0000   0.0000   0.0000
     0.0000   0.0000   0.0000   0.0000

          k = 0.0833-0.2406 0.0000 (  6474 PWs)   bands (ev):

   -23.1451 -11.1604 -11.0141  -9.7834  -2.0251  -0.6670   0.5303   1.5772
     3.0698   3.4496   4.0199   4.2087

     occupation numbers 
     1.0000   1.0000   1.0000   1.0000   0.0000   0.0000   0.0000   0.0000
     0.0000   0.0000   0.0000   0.0000

          k = 0.0833-0.2213 0.0000 (  6469 PWs)   bands (ev):

   -23.3014 -11.1980 -10.7754  -9.5841  -2.2460  -0.8853   0.3140   1.3646
     2.8587   3.7938   3.8604   4.2062

     occupation numbers 
     1.0000   1.0000   1.0000   1.0000   0.0000   0.0000   0.0000   0.0000
     0.0000   0.0000   0.0000   0.0000

          k = 0.0833-0.2021 0.0000 (  6483 PWs)   bands (ev):

   -23.4448 -11.3674 -10.4080  -9.3813  -2.4485  -1.0854   0.1156   1.1689
     2.6621   3.6161   4.1890   4.2210

     occupation numbers 
     1.0000   1.0000   1.0000   1.0000   0.0000   0.0000   0.0000   0.0000
     0.0000   0.0000   0.0000   0.0000

          k = 0.0833-0.1828 0.0000 (  6487 PWs)   bands (ev):

   -23.5755 -11.5220 -10.0614  -9.1774  -2.6326  -1.2674  -0.0647   0.9907
     2.4827   3.4373   4.1569   4.5725

     occupation numbers 
     1.0000   1.0000   1.0000   1.0000   0.0000   0.0000   0.0000   0.0000
     0.0000   0.0000   0.0000   0.0000

          k = 0.0833-0.1636 0.0000 (  6487 PWs)   bands (ev):

   -23.6932 -11.6618  -9.7385  -8.9757  -2.7983  -1.4313  -0.2271   0.8301
     2.3209   3.2755   4.0998   4.7880

     occupation numbers 
     1.0000   1.0000   1.0000   1.0000   0.0000   0.0000   0.0000   0.0000
     0.0000   0.0000   0.0000   0.0000

          k = 0.0833-0.1443 0.0000 (  6487 PWs)   bands (ev):

   -23.7981 -11.7864  -9.4418  -8.7806  -2.9455  -1.5769  -0.3714   0.6871
     2.1770   3.1313   4.0246   4.6428

     occupation numbers 
     1.0000   1.0000   1.0000   1.0000   0.0000   0.0000   0.0000   0.0000
     0.0000   0.0000   0.0000   0.0000

          k = 0.0833-0.1251 0.0000 (  6491 PWs)   bands (ev):

   -23.8899 -11.8958  -9.1730  -8.5974  -3.0744  -1.7044  -0.4977   0.5619
     2.0510   3.0050   3.9404   4.5145

     occupation numbers 
     1.0000   1.0000   1.0000   1.0000   0.0000   0.0000   0.0000   0.0000
     0.0000   0.0000   0.0000   0.0000

          k = 0.0833-0.1058 0.0000 (  6489 PWs)   bands (ev):

   -23.9686 -11.9897  -8.9332  -8.4324  -3.1849  -1.8137  -0.6060   0.4546
     1.9429   2.8967   3.8591   4.4038

     occupation numbers 
     1.0000   1.0000   1.0000   1.0000   0.0000   0.0000   0.0000   0.0000
     0.0000   0.0000   0.0000   0.0000

          k = 0.0833-0.0866 0.0000 (  6487 PWs)   bands (ev):

   -24.0343 -12.0682  -8.7234  -8.2915  -3.2769  -1.9048  -0.6962   0.3651
     1.8529   2.8064   3.7919   4.3112

     occupation numbers 
     1.0000   1.0000   1.0000   1.0000   0.0000   0.0000   0.0000   0.0000
     0.0000   0.0000   0.0000   0.0000

          k = 0.0833-0.0674 0.0000 (  6485 PWs)   bands (ev):

   -24.0869 -12.1310  -8.5456  -8.1797  -3.3505  -1.9776  -0.7683   0.2935
     1.7809   2.7341   3.7471   4.2371

     occupation numbers 
     1.0000   1.0000   1.0000   1.0000   0.0000   0.0000   0.0000   0.0000
     0.0000   0.0000   0.0000   0.0000

          k = 0.0833-0.0481 0.0000 (  6478 PWs)   bands (ev):

   -24.1264 -12.1782  -8.4025  -8.1000  -3.4058  -2.0323  -0.8225   0.2398
     1.7268   2.6800   3.7281   4.1816

     occupation numbers 
     1.0000   1.0000   1.0000   1.0000   0.0000   0.0000   0.0000   0.0000
     0.0000   0.0000   0.0000   0.0000

          k = 0.0833-0.0289 0.0000 (  6475 PWs)   bands (ev):

   -24.1527 -12.2097  -8.2996  -8.0515  -3.4426  -2.0687  -0.8585   0.2040
     1.6908   2.6438   3.7310   4.1447

     occupation numbers 
     1.0000   1.0000   1.0000   1.0000   0.0000   0.0000   0.0000   0.0000
     0.0000   0.0000   0.0000   0.0000

          k = 0.0833-0.0096 0.0000 (  6485 PWs)   bands (ev):

   -24.1659 -12.2254  -8.2452  -8.0295  -3.4610  -2.0869  -0.8766   0.1861
     1.6728   2.6258   3.7429   4.1264

     occupation numbers 
     1.0000   1.0000   1.0000   1.0000   0.0000   0.0000   0.0000   0.0000
     0.0000   0.0000   0.0000   0.0000

          k = 0.0833 0.0096 0.0000 (  6485 PWs)   bands (ev):

   -24.1659 -12.2254  -8.2473  -8.0273  -3.4610  -2.0869  -0.8766   0.1861
     1.6728   2.6258   3.7454   4.1265

     occupation numbers 
     1.0000   1.0000   1.0000   1.0000   0.0000   0.0000   0.0000   0.0000
     0.0000   0.0000   0.0000   0.0000

          k = 0.0833 0.0289 0.0000 (  6475 PWs)   bands (ev):

   -24.1527 -12.2096  -8.3050  -8.0460  -3.4426  -2.0687  -0.8585   0.2040
     1.6908   2.6438   3.7374   4.1449

     occupation numbers 
     1.0000   1.0000   1.0000   1.0000   0.0000   0.0000   0.0000   0.0000
     0.0000   0.0000   0.0000   0.0000

          k = 0.1000 0.0577 0.0000 (  6488 PWs)   bands (ev):

   -24.0541 -12.0917  -8.6770  -8.2287  -3.3045  -1.9321  -0.7233   0.3383
     1.8259   2.7793   3.7468   4.2829

     occupation numbers 
     1.0000   1.0000   1.0000   1.0000   0.0000   0.0000   0.0000   0.0000
     0.0000   0.0000   0.0000   0.0000

          k = 0.1000 0.0770 0.0000 (  6490 PWs)   bands (ev):

   -24.0081 -12.0367  -8.8369  -8.3168  -3.2401  -1.8683  -0.6601   0.4009
     1.8889   2.8424   3.7661   4.3471

     occupation numbers 
     1.0000   1.0000   1.0000   1.0000   0.0000   0.0000   0.0000   0.0000
     0.0000   0.0000   0.0000   0.0000

          k = 0.1000 0.0962 0.0000 (  6491 PWs)   bands (ev):

   -23.9490 -11.9661  -9.0259  -8.4387  -3.1572  -1.7864  -0.5789   0.4814
     1.9699   2.9236   3.8164   4.4298

     occupation numbers 
     1.0000   1.0000   1.0000   1.0000   0.0000   0.0000   0.0000   0.0000
     0.0000   0.0000   0.0000   0.0000

          k = 0.1000 0.1155 0.0000 (  6485 PWs)   bands (ev):

   -23.8768 -11.8800  -9.2410  -8.5916  -3.0560  -1.6862  -0.4797   0.5798
     2.0689   3.0229   3.8958   4.5310

     occupation numbers 
     1.0000   1.0000   1.0000   1.0000   0.0000   0.0000   0.0000   0.0000
     0.0000   0.0000   0.0000   0.0000

          k = 0.1000 0.1347 0.0000 (  6481 PWs)   bands (ev):

   -23.7915 -11.7785  -9.4807  -8.7706  -2.9363  -1.5678  -0.3624   0.6960
     2.1860   3.1403   3.9973   4.6506

     occupation numbers 
     1.0000   1.0000   1.0000   1.0000   0.0000   0.0000   0.0000   0.0000
     0.0000   0.0000   0.0000   0.0000

          k = 0.1000 0.1540 0.0000 (  6487 PWs)   bands (ev):

   -23.6933 -11.6617  -9.7444  -8.9694  -2.7983  -1.4312  -0.2271   0.8301
     2.3210   3.2756   4.1097   4.7882

     occupation numbers 
     1.0000   1.0000   1.0000   1.0000   0.0000   0.0000   0.0000   0.0000
     0.0000   0.0000   0.0000   0.0000

          k = 0.1000 0.1732 0.0000 (  6479 PWs)   bands (ev):

   -23.5821 -11.5296 -10.0323  -9.1811  -2.6418  -1.2765  -0.0737   0.9819
     2.4739   3.4288   4.2189   4.5910

     occupation numbers 
     1.0000   1.0000   1.0000   1.0000   0.0000   0.0000   0.0000   0.0000
     0.0000   0.0000   0.0000   0.0000

          k = 0.1000 0.1925 0.0000 (  6473 PWs)   bands (ev):

   -23.4579 -11.3826 -10.3439  -9.3990  -2.4669  -1.1036   0.0977   1.1513
     2.6446   3.5996   4.2548   4.3117

     occupation numbers 
     1.0000   1.0000   1.0000   1.0000   0.0000   0.0000   0.0000   0.0000
     0.0000   0.0000   0.0000   0.0000

          k = 0.1000 0.2117 0.0000 (  6475 PWs)   bands (ev):

   -23.3210 -11.2208 -10.6786  -9.6177  -2.2736  -0.9125   0.2871   1.3383
     2.8330   3.7858   3.8999   4.3777

     occupation numbers 
     1.0000   1.0000   1.0000   1.0000   0.0000   0.0000   0.0000   0.0000
     0.0000   0.0000   0.0000   0.0000

          k = 0.1000 0.2309 0.0000 (  6475 PWs)   bands (ev):

   -23.1712 -11.0446 -11.0339  -9.8329  -2.0620  -0.7033   0.4944   1.5426
     3.0380   3.5213   3.9941   4.4158

     occupation numbers 
     1.0000   1.0000   1.0000   1.0000   0.0000   0.0000   0.0000   0.0000
     0.0000   0.0000   0.0000   0.0000

          k = 0.1000 0.2502 0.0000 (  6481 PWs)   bands (ev):

   -23.0088 -11.4084 -10.8536 -10.0420  -1.8319  -0.4761   0.7197   1.7635
     3.1185   3.2726   4.2102   4.4333

     occupation numbers 
     1.0000   1.0000   1.0000   1.0000   0.0000   0.0000   0.0000   0.0000
     0.0000   0.0000   0.0000   0.0000

          k = 0.1000 0.2694 0.0000 (  6476 PWs)   bands (ev):

   -22.8338 -11.7979 -10.6490 -10.2431  -1.5834  -0.2308   0.9628   1.9984
     2.7222   3.5069   4.3675   4.5065

     occupation numbers 
     1.0000   1.0000   1.0000   1.0000   0.0000   0.0000   0.0000   0.0000
     0.0000   0.0000   0.0000   0.0000

          k = 0.1000 0.2887 0.0000 (  6477 PWs)   bands (ev):

   -22.6463 -12.1997 -10.4368 -10.4291  -1.3164   0.0323   1.2237   2.1889
     2.3700   3.7630   4.3657   4.7421

     occupation numbers 
     1.0000   1.0000   1.0000   1.0000   0.0000   0.0000   0.0000   0.0000
     0.0000   0.0000   0.0000   0.0000

          k = 0.1000 0.3079 0.0000 (  6473 PWs)   bands (ev):

   -22.4464 -12.6108 -10.6170 -10.1996  -1.0311   0.3131   1.5015   1.8520
     2.5538   4.0290   4.3400   5.0162

     occupation numbers 
     1.0000   1.0000   1.0000   1.0000   0.0000   0.0000   0.0000   0.0000
     0.0000   0.0000   0.0000   0.0000

          k = 0.1000 0.3272 0.0000 (  6487 PWs)   bands (ev):

   -22.2343 -13.0284 -10.7883  -9.9561  -0.7274   0.6100   1.4205   1.8011
     2.8395   4.2190   4.3981   5.3104

     occupation numbers 
     1.0000   1.0000   1.0000   1.0000   0.0000   0.0000   0.0000   0.0000
     0.0000   0.0000   0.0000   0.0000

          k = 0.1000 0.3464 0.0000 (  6487 PWs)   bands (ev):

   -22.0102 -13.4502 -10.9485  -9.7009  -0.4053   0.8825   1.0265   2.1143
     3.1457   4.2044   4.6739   5.6228

     occupation numbers 
     1.0000   1.0000   1.0000   1.0000   0.0000   0.0000   0.0000   0.0000
     0.0000   0.0000   0.0000   0.0000

          k = 0.1000 0.3657 0.0000 (  6475 PWs)   bands (ev):

   -21.7742 -13.8739 -11.0972  -9.4351  -0.0650   0.5264   1.2755   2.4457
     3.4680   4.1594   4.9973   5.9526

     occupation numbers 
     1.0000   1.0000   1.0000   1.0000   0.0000   0.0000   0.0000   0.0000
     0.0000   0.0000   0.0000   0.0000

          k = 0.1000 0.3849 0.0000 (  6493 PWs)   bands (ev):

   -21.5266 -14.2975 -11.2340  -9.1599   0.0859   0.2951   1.6256   2.7942
     3.7994   4.1189   5.3414   6.2992

     occupation numbers 
     1.0000   1.0000   1.0000   1.0000   0.0000   0.0000   0.0000   0.0000
     0.0000   0.0000   0.0000   0.0000

          k = 0.1000 0.4041 0.0000 (  6485 PWs)   bands (ev):

   -21.2678 -14.7193 -11.3587  -8.8769  -0.3516   0.6718   1.9956   3.1587
     4.0156   4.2122   5.7033   6.6621

     occupation numbers 
     1.0000   1.0000   1.0000   1.0000   0.0000   0.0000   0.0000   0.0000
     0.0000   0.0000   0.0000   0.0000

          k = 0.1000 0.4234 0.0000 (  6490 PWs)   bands (ev):

   -20.9981 -15.1378 -11.4710  -8.5884  -0.7830   1.0675   2.3837   3.5343
     4.0007   4.5613   6.0816   7.0404

     occupation numbers 
     1.0000   1.0000   1.0000   1.0000   0.0000   0.0000   0.0000   0.0000
     0.0000   0.0000   0.0000   0.0000

          k = 0.1000 0.4426 0.0000 (  6490 PWs)   bands (ev):

   -20.7181 -15.5511 -11.5705  -8.2973  -1.2032   1.4816   2.7893   3.8535
     4.0430   4.9459   6.4754   7.4326

     occupation numbers 
     1.0000   1.0000   1.0000   1.0000   0.0000   0.0000   0.0000   0.0000
     0.0000   0.0000   0.0000   0.0000

          k = 0.1000 0.4619 0.0000 (  6492 PWs)   bands (ev):

   -20.4286 -15.9578 -11.6572  -8.0079  -1.6069   1.9141   3.2116   3.8835
     4.3946   5.3470   6.8832   7.8355

     occupation numbers 
     1.0000   1.0000   1.0000   1.0000   0.0000   0.0000   0.0000   0.0000
     0.0000   0.0000   0.0000   0.0000

          k = 0.1000 0.4811 0.0000 (  6491 PWs)   bands (ev):

   -20.1310 -16.3556 -11.7309  -7.7262  -1.9869   2.3651   3.6442   3.8653
     4.8226   5.7613   7.3024   7.8841

     occupation numbers 
     1.0000   1.0000   1.0000   1.0000   0.0000   0.0000   0.0000   0.0000
     0.0000   0.0000   0.0000   0.0000

          k = 0.1000 0.5004 0.0000 (  6501 PWs)   bands (ev):

   -19.8276 -16.7418 -11.7914  -7.4608  -2.3339   2.8344   3.8180   4.1228
     5.2728   6.1854   7.2503   7.7260

     occupation numbers 
     1.0000   1.0000   1.0000   1.0000   0.0000   0.0000   0.0000   0.0000
     0.0000   0.0000   0.0000   0.0000

          k = 0.1000 0.5196 0.0000 (  6503 PWs)   bands (ev):

   -19.5232 -17.1110 -11.8385  -7.2239  -2.6348   3.3221   3.8012   4.5920
     5.7408   6.6066   6.6407   7.7420

     occupation numbers 
     1.0000   1.0000   1.0000   1.0000   0.0000   0.0000   0.0000   0.0000
     0.0000   0.0000   0.0000   0.0000

          k = 0.1000 0.5389 0.0000 (  6491 PWs)   bands (ev):

   -19.2293 -17.4515 -11.8723  -7.0322  -2.8727   3.7858   3.8284   5.0810
     6.0362   6.2248   6.9909   7.2545

     occupation numbers 
     1.0000   1.0000   1.0000   1.0000   0.0000   0.0000   0.0000   0.0000
     0.0000   0.0000   0.0000   0.0000

          k = 0.1000 0.5581 0.0000 (  6500 PWs)   bands (ev):

   -18.9791 -17.7297 -11.8926  -6.9051  -3.0276   3.7765   4.3527   5.4567
     5.5857   6.6201   6.7347   7.4737

     occupation numbers 
     1.0000   1.0000   1.0000   1.0000   0.0000   0.0000   0.0000   0.0000
     0.0000   0.0000   0.0000   0.0000

          k = 0.1000 0.5774 0.0000 (  6500 PWs)   bands (ev):

   -18.8657 -17.8524 -11.8993  -6.8604  -3.0816   3.7732   4.8915   4.8997
     6.0954   6.1115   7.2000   7.2814

     occupation numbers 
     1.0000   1.0000   1.0000   1.0000   0.0000   0.0000   0.0000   0.0000
     0.0000   0.0000   0.0000   0.0000

          k = 0.1000 0.5966 0.0000 (  6500 PWs)   bands (ev):

   -18.9791 -17.7297 -11.8926  -6.9053  -3.0274   3.7764   4.3527   5.4567
     5.5857   6.6202   6.7348   7.4734

     occupation numbers 
     1.0000   1.0000   1.0000   1.0000   0.0000   0.0000   0.0000   0.0000
     0.0000   0.0000   0.0000   0.0000

          k = 0.1000 0.6158 0.0000 (  6491 PWs)   bands (ev):

   -19.2293 -17.4514 -11.8724  -7.0324  -2.8723   3.7856   3.8284   5.0810
     6.0362   6.2249   6.9907   7.2544

     occupation numbers 
     1.0000   1.0000   1.0000   1.0000   0.0000   0.0000   0.0000   0.0000
     0.0000   0.0000   0.0000   0.0000

          k = 0.1000-0.5196 0.0000 (  6503 PWs)   bands (ev):

   -19.5232 -17.1109 -11.8387  -7.2243  -2.6342   3.3221   3.8008   4.5920
     5.7409   6.6064   6.6407   7.7420

     occupation numbers 
     1.0000   1.0000   1.0000   1.0000   0.0000   0.0000   0.0000   0.0000
     0.0000   0.0000   0.0000   0.0000

          k = 0.1000-0.5004 0.0000 (  6501 PWs)   bands (ev):

   -19.8275 -16.7417 -11.7916  -7.4612  -2.3331   2.8344   3.8173   4.1229
     5.2729   6.1851   7.2503   7.7259

     occupation numbers 
     1.0000   1.0000   1.0000   1.0000   0.0000   0.0000   0.0000   0.0000
     0.0000   0.0000   0.0000   0.0000

          k = 0.1000-0.4811 0.0000 (  6491 PWs)   bands (ev):

   -20.1309 -16.3554 -11.7312  -7.7266  -1.9860   2.3651   3.6440   3.8648
     4.8227   5.7611   7.3022   7.8841

     occupation numbers 
     1.0000   1.0000   1.0000   1.0000   0.0000   0.0000   0.0000   0.0000
     0.0000   0.0000   0.0000   0.0000

          k = 0.1000-0.4619 0.0000 (  6492 PWs)   bands (ev):

   -20.4285 -15.9575 -11.6576  -8.0083  -1.6059   1.9141   3.2115   3.8826
     4.3948   5.3469   6.8831   7.8353

     occupation numbers 
     1.0000   1.0000   1.0000   1.0000   0.0000   0.0000   0.0000   0.0000
     0.0000   0.0000   0.0000   0.0000

          k = 0.1000-0.4426 0.0000 (  6490 PWs)   bands (ev):

   -20.7180 -15.5508 -11.5710  -8.2977  -1.2021   1.4816   2.7893   3.8525
     4.0431   4.9458   6.4753   7.4325

     occupation numbers 
     1.0000   1.0000   1.0000   1.0000   0.0000   0.0000   0.0000   0.0000
     0.0000   0.0000   0.0000   0.0000

          k = 0.1000-0.4234 0.0000 (  6490 PWs)   bands (ev):

   -20.9980 -15.1373 -11.4716  -8.5888  -0.7818   1.0675   2.3837   3.5340
     3.9998   4.5612   6.0815   7.0403

     occupation numbers 
     1.0000   1.0000   1.0000   1.0000   0.0000   0.0000   0.0000   0.0000
     0.0000   0.0000   0.0000   0.0000

          k = 0.1000-0.4041 0.0000 (  6485 PWs)   bands (ev):

   -21.2677 -14.7188 -11.3595  -8.8773  -0.3503   0.6718   1.9956   3.1585
     4.0143   4.2122   5.7032   6.6621

     occupation numbers 
     1.0000   1.0000   1.0000   1.0000   0.0000   0.0000   0.0000   0.0000
     0.0000   0.0000   0.0000   0.0000

          k = 0.1000-0.3849 0.0000 (  6493 PWs)   bands (ev):

   -21.5265 -14.2968 -11.2350  -9.1602   0.0872   0.2951   1.6255   2.7941
     3.7991   4.1175   5.3414   6.2992

     occupation numbers 
     1.0000   1.0000   1.0000   1.0000   0.0000   0.0000   0.0000   0.0000
     0.0000   0.0000   0.0000   0.0000

          k = 0.1000-0.3657 0.0000 (  6475 PWs)   bands (ev):

   -21.7741 -13.8729 -11.0983  -9.4355  -0.0650   0.5278   1.2754   2.4456
     3.4678   4.1575   4.9972   5.9526

     occupation numbers 
     1.0000   1.0000   1.0000   1.0000   0.0000   0.0000   0.0000   0.0000
     0.0000   0.0000   0.0000   0.0000

          k = 0.1000-0.3464 0.0000 (  6487 PWs)   bands (ev):

   -22.0101 -13.4490 -10.9499  -9.7013  -0.4053   0.8831   1.0274   2.1143
     3.1455   4.2020   4.6739   5.6228

     occupation numbers 
     1.0000   1.0000   1.0000   1.0000   0.0000   0.0000   0.0000   0.0000
     0.0000   0.0000   0.0000   0.0000

          k = 0.1000-0.3272 0.0000 (  6487 PWs)   bands (ev):

   -22.2342 -13.0270 -10.7900  -9.9564  -0.7274   0.6100   1.4219   1.8011
     2.8394   4.2167   4.3975   5.3104

     occupation numbers 
     1.0000   1.0000   1.0000   1.0000   0.0000   0.0000   0.0000   0.0000
     0.0000   0.0000   0.0000   0.0000

          k = 0.1000-0.3079 0.0000 (  6473 PWs)   bands (ev):

   -22.4463 -12.6090 -10.6190 -10.1999  -1.0311   0.3131   1.5015   1.8535
     2.5537   4.0285   4.3370   5.0161

     occupation numbers 
     1.0000   1.0000   1.0000   1.0000   0.0000   0.0000   0.0000   0.0000
     0.0000   0.0000   0.0000   0.0000

          k = 0.1000-0.2887 0.0000 (  6477 PWs)   bands (ev):

   -22.6462 -12.1974 -10.4388 -10.4298  -1.3164   0.0323   1.2236   2.1897
     2.3707   3.7628   4.3617   4.7421

     occupation numbers 
     1.0000   1.0000   1.0000   1.0000   0.0000   0.0000   0.0000   0.0000
     0.0000   0.0000   0.0000   0.0000

          k = 0.1000-0.2694 0.0000 (  6476 PWs)   bands (ev):

   -22.8337 -11.7951 -10.6493 -10.2461  -1.5834  -0.2308   0.9628   1.9984
     2.7237   3.5068   4.3635   4.5054

     occupation numbers 
     1.0000   1.0000   1.0000   1.0000   0.0000   0.0000   0.0000   0.0000
     0.0000   0.0000   0.0000   0.0000

          k = 0.1000-0.2502 0.0000 (  6481 PWs)   bands (ev):

   -23.0087 -11.4050 -10.8539 -10.0457  -1.8319  -0.4761   0.7196   1.7635
     3.1200   3.2726   4.2096   4.4276

     occupation numbers 
     1.0000   1.0000   1.0000   1.0000   0.0000   0.0000   0.0000   0.0000
     0.0000   0.0000   0.0000   0.0000

          k = 0.1000-0.2309 0.0000 (  6475 PWs)   bands (ev):

   -23.1712 -11.0448 -11.0300  -9.8373  -2.0620  -0.7033   0.4944   1.5425
     3.0380   3.5228   3.9939   4.4084

     occupation numbers 
     1.0000   1.0000   1.0000   1.0000   0.0000   0.0000   0.0000   0.0000
     0.0000   0.0000   0.0000   0.0000

          k = 0.1000-0.2117 0.0000 (  6475 PWs)   bands (ev):

   -23.3209 -11.2209 -10.6738  -9.6228  -2.2736  -0.9125   0.2870   1.3383
     2.8329   3.7858   3.9013   4.3689

     occupation numbers 
     1.0000   1.0000   1.0000   1.0000   0.0000   0.0000   0.0000   0.0000
     0.0000   0.0000   0.0000   0.0000

          k = 0.1000-0.1925 0.0000 (  6473 PWs)   bands (ev):

   -23.4579 -11.3828 -10.3384  -9.4050  -2.4669  -1.1036   0.0977   1.1513
     2.6446   3.5995   4.2562   4.3018

     occupation numbers 
     1.0000   1.0000   1.0000   1.0000   0.0000   0.0000   0.0000   0.0000
     0.0000   0.0000   0.0000   0.0000

          k = 0.1000-0.1732 0.0000 (  6479 PWs)   bands (ev):

   -23.5820 -11.5298 -10.0260  -9.1878  -2.6418  -1.2765  -0.0737   0.9818
     2.4738   3.4287   4.2083   4.5924

     occupation numbers 
     1.0000   1.0000   1.0000   1.0000   0.0000   0.0000   0.0000   0.0000
     0.0000   0.0000   0.0000   0.0000

          k = 0.1000-0.1540 0.0000 (  6487 PWs)   bands (ev):

   -23.6932 -11.6618  -9.7376  -8.9767  -2.7983  -1.4313  -0.2271   0.8301
     2.3209   3.2755   4.0988   4.7880

     occupation numbers 
     1.0000   1.0000   1.0000   1.0000   0.0000   0.0000   0.0000   0.0000
     0.0000   0.0000   0.0000   0.0000

          k = 0.1000-0.1347 0.0000 (  6481 PWs)   bands (ev):

   -23.7915 -11.7786  -9.4734  -8.7783  -2.9363  -1.5678  -0.3624   0.6960
     2.1859   3.1402   3.9866   4.6505

     occupation numbers 
     1.0000   1.0000   1.0000   1.0000   0.0000   0.0000   0.0000   0.0000
     0.0000   0.0000   0.0000   0.0000

          k = 0.1000-0.1155 0.0000 (  6485 PWs)   bands (ev):

   -23.8767 -11.8802  -9.2335  -8.5995  -3.0560  -1.6862  -0.4797   0.5798
     2.0689   3.0229   3.8856   4.5309

     occupation numbers 
     1.0000   1.0000   1.0000   1.0000   0.0000   0.0000   0.0000   0.0000
     0.0000   0.0000   0.0000   0.0000

          k = 0.1000-0.0962 0.0000 (  6491 PWs)   bands (ev):

   -23.9489 -11.9662  -9.0183  -8.4466  -3.1572  -1.7864  -0.5789   0.4814
     1.9699   2.9236   3.8069   4.4297

     occupation numbers 
     1.0000   1.0000   1.0000   1.0000   0.0000   0.0000   0.0000   0.0000
     0.0000   0.0000   0.0000   0.0000

          k = 0.1000-0.0770 0.0000 (  6490 PWs)   bands (ev):

   -24.0081 -12.0368  -8.8296  -8.3245  -3.2401  -1.8683  -0.6601   0.4009
     1.8889   2.8424   3.7573   4.3469

     occupation numbers 
     1.0000   1.0000   1.0000   1.0000   0.0000   0.0000   0.0000   0.0000
     0.0000   0.0000   0.0000   0.0000

          k = 0.1000-0.0577 0.0000 (  6488 PWs)   bands (ev):

   -24.0541 -12.0917  -8.6703  -8.2357  -3.3045  -1.9321  -0.7233   0.3383
     1.8259   2.7792   3.7389   4.2828

     occupation numbers 
     1.0000   1.0000   1.0000   1.0000   0.0000   0.0000   0.0000   0.0000
     0.0000   0.0000   0.0000   0.0000

          k = 0.1000-0.0385 0.0000 (  6485 PWs)   bands (ev):

   -24.0869 -12.1310  -8.5458  -8.1795  -3.3505  -1.9776  -0.7683   0.2935
     1.7809   2.7341   3.7474   4.2371

     occupation numbers 
     1.0000   1.0000   1.0000   1.0000   0.0000   0.0000   0.0000   0.0000
     0.0000   0.0000   0.0000   0.0000

          k = 0.1000-0.0192 0.0000 (  6479 PWs)   bands (ev):

   -24.1067 -12.1546  -8.4645  -8.1510  -3.3781  -2.0050  -0.7954   0.2667
     1.7539   2.7071   3.7696   4.2102

     occupation numbers 
     1.0000   1.0000   1.0000   1.0000   0.0000   0.0000   0.0000   0.0000
     0.0000   0.0000   0.0000   0.0000

          k = 0.1000-0.0000 0.0000 (  6491 PWs)   bands (ev):

   -24.1133 -12.1624  -8.4368  -8.1418  -3.3873  -2.0141  -0.8044   0.2577
     1.7449   2.6981   3.7832   4.2014

     occupation numbers 
     1.0000   1.0000   1.0000   1.0000   0.0000   0.0000   0.0000   0.0000
     0.0000   0.0000   0.0000   0.0000

          k = 0.1000 0.0192 0.0000 (  6479 PWs)   bands (ev):

   -24.1067 -12.1546  -8.4679  -8.1475  -3.3781  -2.0050  -0.7954   0.2667
     1.7539   2.7071   3.7735   4.2103

     occupation numbers 
     1.0000   1.0000   1.0000   1.0000   0.0000   0.0000   0.0000   0.0000
     0.0000   0.0000   0.0000   0.0000

          k = 0.1000 0.0385 0.0000 (  6485 PWs)   bands (ev):

   -24.0870 -12.1310  -8.5514  -8.1737  -3.3505  -1.9776  -0.7683   0.2935
     1.7809   2.7341   3.7538   4.2373

     occupation numbers 
     1.0000   1.0000   1.0000   1.0000   0.0000   0.0000   0.0000   0.0000
     0.0000   0.0000   0.0000   0.0000

          k = 0.1167 0.0674 0.0000 (  6486 PWs)   bands (ev):

   -23.9687 -11.9897  -8.9797  -8.3799  -3.1849  -1.8137  -0.6060   0.4546
     1.9428   2.8964   3.7494   4.4014

     occupation numbers 
     1.0000   1.0000   1.0000   1.0000   0.0000   0.0000   0.0000   0.0000
     0.0000   0.0000   0.0000   0.0000

          k = 0.1167 0.0866 0.0000 (  6490 PWs)   bands (ev):

   -23.9161 -11.9270  -9.1534  -8.4755  -3.1112  -1.7409  -0.5339   0.5261
     2.0148   2.9685   3.7666   4.4742

     occupation numbers 
     1.0000   1.0000   1.0000   1.0000   0.0000   0.0000   0.0000   0.0000
     0.0000   0.0000   0.0000   0.0000

          k = 0.1167 0.1058 0.0000 (  6490 PWs)   bands (ev):

   -23.8505 -11.8488  -9.3513  -8.6058  -3.0192  -1.6498  -0.4436   0.6155
     2.1048   3.0587   3.8199   4.5656

     occupation numbers 
     1.0000   1.0000   1.0000   1.0000   0.0000   0.0000   0.0000   0.0000
     0.0000   0.0000   0.0000   0.0000

          k = 0.1167 0.1251 0.0000 (  6491 PWs)   bands (ev):

   -23.7719 -11.7552  -9.5702  -8.7686  -2.9087  -1.5405  -0.3354   0.7228
     2.2128   3.1669   3.9085   4.6755

     occupation numbers 
     1.0000   1.0000   1.0000   1.0000   0.0000   0.0000   0.0000   0.0000
     0.0000   0.0000   0.0000   0.0000

          k = 0.1167 0.1443 0.0000 (  6489 PWs)   bands (ev):

   -23.6802 -11.6461  -9.8088  -8.9594  -2.7799  -1.4131  -0.2091   0.8479
     2.3388   3.2931   4.0269   4.8035

     occupation numbers 
     1.0000   1.0000   1.0000   1.0000   0.0000   0.0000   0.0000   0.0000
     0.0000   0.0000   0.0000   0.0000

          k = 0.1167 0.1636 0.0000 (  6487 PWs)   bands (ev):

   -23.5755 -11.5219 -10.0665  -9.1719  -2.6326  -1.2674  -0.0647   0.9907
     2.4827   3.4374   4.1658   4.5712

     occupation numbers 
     1.0000   1.0000   1.0000   1.0000   0.0000   0.0000   0.0000   0.0000
     0.0000   0.0000   0.0000   0.0000

          k = 0.1167 0.1828 0.0000 (  6473 PWs)   bands (ev):

   -23.4579 -11.3826 -10.3440  -9.3989  -2.4669  -1.1036   0.0977   1.1513
     2.6446   3.5996   4.2548   4.3118

     occupation numbers 
     1.0000   1.0000   1.0000   1.0000   0.0000   0.0000   0.0000   0.0000
     0.0000   0.0000   0.0000   0.0000

          k = 0.1167 0.2021 0.0000 (  6469 PWs)   bands (ev):

   -23.3275 -11.2284 -10.6422  -9.6331  -2.2829  -0.9216   0.2781   1.3295
     2.8243   3.7795   3.9169   4.4473

     occupation numbers 
     1.0000   1.0000   1.0000   1.0000   0.0000   0.0000   0.0000   0.0000
     0.0000   0.0000   0.0000   0.0000

          k = 0.1167 0.2213 0.0000 (  6473 PWs)   bands (ev):

   -23.1843 -11.0596 -10.9617  -9.8676  -2.0804  -0.7215   0.4765   1.5253
     3.0216   3.5592   3.9770   4.5578

     occupation numbers 
     1.0000   1.0000   1.0000   1.0000   0.0000   0.0000   0.0000   0.0000
     0.0000   0.0000   0.0000   0.0000

          k = 0.1167 0.2406 0.0000 (  6473 PWs)   bands (ev):

   -23.0283 -11.3021 -10.8763 -10.0971  -1.8595  -0.5033   0.6928   1.7381
     3.1780   3.2430   4.1910   4.6339

     occupation numbers 
     1.0000   1.0000   1.0000   1.0000   0.0000   0.0000   0.0000   0.0000
     0.0000   0.0000   0.0000   0.0000

          k = 0.1167 0.2598 0.0000 (  6480 PWs)   bands (ev):

   -22.8597 -11.6618 -10.6790 -10.3179  -1.6202  -0.2670   0.9270   1.9671
     2.7943   3.4706   4.4182   4.6783

     occupation numbers 
     1.0000   1.0000   1.0000   1.0000   0.0000   0.0000   0.0000   0.0000
     0.0000   0.0000   0.0000   0.0000

          k = 0.1167 0.2791 0.0000 (  6480 PWs)   bands (ev):

   -22.6786 -12.0382 -10.5282 -10.4676  -1.3625  -0.0128   1.1791   2.1981
     2.4083   3.7201   4.6153   4.7402

     occupation numbers 
     1.0000   1.0000   1.0000   1.0000   0.0000   0.0000   0.0000   0.0000
     0.0000   0.0000   0.0000   0.0000

          k = 0.1167 0.2983 0.0000 (  6474 PWs)   bands (ev):

   -22.4851 -12.4285 -10.7262 -10.2435  -1.0863   0.2593   1.4487   1.9633
     2.4949   3.9859   4.6434   4.9672

     occupation numbers 
     1.0000   1.0000   1.0000   1.0000   0.0000   0.0000   0.0000   0.0000
     0.0000   0.0000   0.0000   0.0000

          k = 0.1167 0.3175 0.0000 (  6473 PWs)   bands (ev):

   -22.2793 -12.8293 -10.9120 -10.0064  -0.7918   0.5484   1.5434   1.7390
     2.7730   4.2633   4.6253   5.2479

     occupation numbers 
     1.0000   1.0000   1.0000   1.0000   0.0000   0.0000   0.0000   0.0000
     0.0000   0.0000   0.0000   0.0000

          k = 0.1167 0.3368 0.0000 (  6479 PWs)   bands (ev):

   -22.0615 -13.2379 -11.0851  -9.7574  -0.4789   0.8477   1.1257   2.0430
     3.0712   4.4951   4.6563   5.5497

     occupation numbers 
     1.0000   1.0000   1.0000   1.0000   0.0000   0.0000   0.0000   0.0000
     0.0000   0.0000   0.0000   0.0000

          k = 0.1167 0.3560 0.0000 (  6479 PWs)   bands (ev):

   -21.8317 -13.6513 -11.2454  -9.4971  -0.1477   0.6735   1.1935   2.3658
     3.3863   4.5032   4.9219   5.8696

     occupation numbers 
     1.0000   1.0000   1.0000   1.0000   0.0000   0.0000   0.0000   0.0000
     0.0000   0.0000   0.0000   0.0000

          k = 0.1167 0.3753 0.0000 (  6480 PWs)   bands (ev):

   -21.5902 -14.0673 -11.3929  -9.2268   0.1991   0.2458   1.5339   2.7062
     3.7167   4.4624   5.2515   6.2064

     occupation numbers 
     1.0000   1.0000   1.0000   1.0000   0.0000   0.0000   0.0000   0.0000
     0.0000   0.0000   0.0000   0.0000

          k = 0.1167 0.3945 0.0000 (  6481 PWs)   bands (ev):

   -21.3373 -14.4837 -11.5274  -8.9477  -0.1898   0.5705   1.8950   3.0636
     4.0574   4.4227   5.6025   6.5595

     occupation numbers 
     1.0000   1.0000   1.0000   1.0000   0.0000   0.0000   0.0000   0.0000
     0.0000   0.0000   0.0000   0.0000

          k = 0.1167 0.4138 0.0000 (  6494 PWs)   bands (ev):

   -21.0734 -14.8985 -11.6488  -8.6618  -0.6180   0.9570   2.2742   3.4370
     4.3155   4.4827   5.9706   6.9277

     occupation numbers 
     1.0000   1.0000   1.0000   1.0000   0.0000   0.0000   0.0000   0.0000
     0.0000   0.0000   0.0000   0.0000

          k = 0.1167 0.4330 0.0000 (  6489 PWs)   bands (ev):

   -20.7990 -15.3099 -11.7570  -8.3716  -1.0381   1.3619   2.6711   3.8224
     4.3112   4.8276   6.3542   7.3095

     occupation numbers 
     1.0000   1.0000   1.0000   1.0000   0.0000   0.0000   0.0000   0.0000
     0.0000   0.0000   0.0000   0.0000

          k = 0.1167 0.4523 0.0000 (  6492 PWs)   bands (ev):

   -20.5146 -15.7163 -11.8520  -8.0806  -1.4453   1.7852   3.0852   4.1622
     4.3443   5.2153   6.7515   7.7019

     occupation numbers 
     1.0000   1.0000   1.0000   1.0000   0.0000   0.0000   0.0000   0.0000
     0.0000   0.0000   0.0000   0.0000

          k = 0.1167 0.4715 0.0000 (  6497 PWs)   bands (ev):

   -20.2215 -16.1155 -11.9336  -7.7937  -1.8338   2.2270   3.5158   4.2028
     4.6961   5.6178   7.1598   8.0957

     occupation numbers 
     1.0000   1.0000   1.0000   1.0000   0.0000   0.0000   0.0000   0.0000
     0.0000   0.0000   0.0000   0.0000

          k = 0.1167 0.4907 0.0000 (  6499 PWs)   bands (ev):

   -19.9213 -16.5051 -12.0018  -7.5181  -2.1955   2.6871   3.9575   4.1863
     5.1321   6.0300   7.5712   7.6562

     occupation numbers 
     1.0000   1.0000   1.0000   1.0000   0.0000   0.0000   0.0000   0.0000
     0.0000   0.0000   0.0000   0.0000

          k = 0.1167 0.5100 0.0000 (  6501 PWs)   bands (ev):

   -19.6173 -16.8813 -12.0564  -7.2639  -2.5193   3.1656   4.1441   4.4412
     5.5901   6.4454   7.0297   7.9411

     occupation numbers 
     1.0000   1.0000   1.0000   1.0000   0.0000   0.0000   0.0000   0.0000
     0.0000   0.0000   0.0000   0.0000

          k = 0.1167 0.5292 0.0000 (  6492 PWs)   bands (ev):

   -19.3168 -17.2363 -12.0974  -7.0458  -2.7902   3.6625   4.1301   4.9174
     6.0651   6.4219   6.8476   7.5552

     occupation numbers 
     1.0000   1.0000   1.0000   1.0000   0.0000   0.0000   0.0000   0.0000
     0.0000   0.0000   0.0000   0.0000

          k = 0.1167 0.5485 0.0000 (  6494 PWs)   bands (ev):

   -19.0390 -17.5507 -12.1248  -6.8823  -2.9891   4.1179   4.1779   5.4123
     5.8337   6.5543   6.9330   7.3311

     occupation numbers 
     1.0000   1.0000   1.0000   1.0000   0.0000   0.0000   0.0000   0.0000
     0.0000   0.0000   0.0000   0.0000

          k = 0.1167 0.5677 0.0000 (  6506 PWs)   bands (ev):

   -18.8415 -17.7665 -12.1386  -6.7936  -3.0955   4.1116   4.7114   5.2635
     5.9208   6.4373   7.0610   7.5514

     occupation numbers 
     1.0000   1.0000   1.0000   1.0000   0.0000   0.0000   0.0000   0.0000
     0.0000   0.0000   0.0000   0.0000

          k = 0.1167 0.5870 0.0000 (  6506 PWs)   bands (ev):

   -18.8414 -17.7665 -12.1386  -6.7937  -3.0954   4.1116   4.7114   5.2635
     5.9208   6.4373   7.0610   7.5513

     occupation numbers 
     1.0000   1.0000   1.0000   1.0000   0.0000   0.0000   0.0000   0.0000
     0.0000   0.0000   0.0000   0.0000

          k = 0.1167 0.6062 0.0000 (  6494 PWs)   bands (ev):

   -19.0389 -17.5506 -12.1249  -6.8825  -2.9887   4.1176   4.1779   5.4123
     5.8337   6.5544   6.9330   7.3307

     occupation numbers 
     1.0000   1.0000   1.0000   1.0000   0.0000   0.0000   0.0000   0.0000
     0.0000   0.0000   0.0000   0.0000

          k = 0.1167 0.6255 0.0000 (  6492 PWs)   bands (ev):

   -19.3168 -17.2362 -12.0976  -7.0461  -2.7896   3.6625   4.1297   4.9175
     6.0652   6.4219   6.8472   7.5552

     occupation numbers 
     1.0000   1.0000   1.0000   1.0000   0.0000   0.0000   0.0000   0.0000
     0.0000   0.0000   0.0000   0.0000

          k = 0.1167-0.5100 0.0000 (  6501 PWs)   bands (ev):

   -19.6173 -16.8811 -12.0567  -7.2644  -2.5184   3.1656   4.1435   4.4414
     5.5902   6.4451   7.0297   7.9410

     occupation numbers 
     1.0000   1.0000   1.0000   1.0000   0.0000   0.0000   0.0000   0.0000
     0.0000   0.0000   0.0000   0.0000

          k = 0.1167-0.4907 0.0000 (  6499 PWs)   bands (ev):

   -19.9212 -16.5049 -12.0021  -7.5186  -2.1944   2.6871   3.9572   4.1858
     5.1323   6.0297   7.5710   7.6562

     occupation numbers 
     1.0000   1.0000   1.0000   1.0000   0.0000   0.0000   0.0000   0.0000
     0.0000   0.0000   0.0000   0.0000

          k = 0.1167-0.4715 0.0000 (  6497 PWs)   bands (ev):

   -20.2214 -16.1152 -11.9341  -7.7943  -1.8327   2.2270   3.5157   4.2019
     4.6964   5.6176   7.1597   8.0955

     occupation numbers 
     1.0000   1.0000   1.0000   1.0000   0.0000   0.0000   0.0000   0.0000
     0.0000   0.0000   0.0000   0.0000

          k = 0.1167-0.4523 0.0000 (  6492 PWs)   bands (ev):

   -20.5145 -15.7158 -11.8526  -8.0811  -1.4441   1.7852   3.0852   4.1611
     4.3445   5.2151   6.7514   7.7018

     occupation numbers 
     1.0000   1.0000   1.0000   1.0000   0.0000   0.0000   0.0000   0.0000
     0.0000   0.0000   0.0000   0.0000

          k = 0.1167-0.4330 0.0000 (  6489 PWs)   bands (ev):

   -20.7989 -15.3094 -11.7577  -8.3721  -1.0367   1.3619   2.6711   3.8221
     4.3102   4.8275   6.3541   7.3094

     occupation numbers 
     1.0000   1.0000   1.0000   1.0000   0.0000   0.0000   0.0000   0.0000
     0.0000   0.0000   0.0000   0.0000

          k = 0.1167-0.4138 0.0000 (  6494 PWs)   bands (ev):

   -21.0733 -14.8978 -11.6497  -8.6623  -0.6165   0.9570   2.2742   3.4369
     4.3141   4.4825   5.9705   6.9276

     occupation numbers 
     1.0000   1.0000   1.0000   1.0000   0.0000   0.0000   0.0000   0.0000
     0.0000   0.0000   0.0000   0.0000

          k = 0.1167-0.3945 0.0000 (  6481 PWs)   bands (ev):

   -21.3372 -14.4828 -11.5284  -8.9482  -0.1882   0.5705   1.8949   3.0635
     4.0570   4.4212   5.6024   6.5594

     occupation numbers 
     1.0000   1.0000   1.0000   1.0000   0.0000   0.0000   0.0000   0.0000
     0.0000   0.0000   0.0000   0.0000

          k = 0.1167-0.3753 0.0000 (  6480 PWs)   bands (ev):

   -21.5901 -14.0662 -11.3942  -9.2272   0.1993   0.2473   1.5339   2.7061
     3.7165   4.4603   5.2515   6.2064

     occupation numbers 
     1.0000   1.0000   1.0000   1.0000   0.0000   0.0000   0.0000   0.0000
     0.0000   0.0000   0.0000   0.0000

          k = 0.1167-0.3560 0.0000 (  6479 PWs)   bands (ev):

   -21.8316 -13.6500 -11.2470  -9.4975  -0.1477   0.6752   1.1935   2.3658
     3.3861   4.5005   4.9219   5.8695

     occupation numbers 
     1.0000   1.0000   1.0000   1.0000   0.0000   0.0000   0.0000   0.0000
     0.0000   0.0000   0.0000   0.0000

          k = 0.1167-0.3368 0.0000 (  6479 PWs)   bands (ev):

   -22.0614 -13.2362 -11.0871  -9.7578  -0.4789   0.8478   1.1273   2.0429
     3.0710   4.4929   4.6553   5.5497

     occupation numbers 
     1.0000   1.0000   1.0000   1.0000   0.0000   0.0000   0.0000   0.0000
     0.0000   0.0000   0.0000   0.0000

          k = 0.1167-0.3175 0.0000 (  6473 PWs)   bands (ev):

   -22.2792 -12.8272 -10.9144 -10.0068  -0.7918   0.5484   1.5451   1.7390
     2.7729   4.2628   4.6217   5.2478

     occupation numbers 
     1.0000   1.0000   1.0000   1.0000   0.0000   0.0000   0.0000   0.0000
     0.0000   0.0000   0.0000   0.0000

          k = 0.1167-0.2983 0.0000 (  6474 PWs)   bands (ev):

   -22.4850 -12.4259 -10.7292 -10.2438  -1.0863   0.2592   1.4487   1.9652
     2.4947   3.9857   4.6386   4.9671

     occupation numbers 
     1.0000   1.0000   1.0000   1.0000   0.0000   0.0000   0.0000   0.0000
     0.0000   0.0000   0.0000   0.0000

          k = 0.1167-0.2791 0.0000 (  6480 PWs)   bands (ev):

   -22.6785 -12.0351 -10.5317 -10.4680  -1.3625  -0.0128   1.1791   2.1983
     2.4098   3.7200   4.6116   4.7378

     occupation numbers 
     1.0000   1.0000   1.0000   1.0000   0.0000   0.0000   0.0000   0.0000
     0.0000   0.0000   0.0000   0.0000

          k = 0.1167-0.2598 0.0000 (  6480 PWs)   bands (ev):

   -22.8596 -11.6580 -10.6793 -10.3221  -1.6202  -0.2670   0.9270   1.9671
     2.7960   3.4705   4.4176   4.6714

     occupation numbers 
     1.0000   1.0000   1.0000   1.0000   0.0000   0.0000   0.0000   0.0000
     0.0000   0.0000   0.0000   0.0000

          k = 0.1167-0.2406 0.0000 (  6473 PWs)   bands (ev):

   -23.0282 -11.2976 -10.8766 -10.1020  -1.8595  -0.5033   0.6928   1.7381
     3.1797   3.2429   4.1907   4.6251

     occupation numbers 
     1.0000   1.0000   1.0000   1.0000   0.0000   0.0000   0.0000   0.0000
     0.0000   0.0000   0.0000   0.0000

          k = 0.1167-0.2213 0.0000 (  6473 PWs)   bands (ev):

   -23.1842 -11.0598 -10.9565  -9.8732  -2.0804  -0.7215   0.4764   1.5252
     3.0215   3.5609   3.9768   4.5477

     occupation numbers 
     1.0000   1.0000   1.0000   1.0000   0.0000   0.0000   0.0000   0.0000
     0.0000   0.0000   0.0000   0.0000

          k = 0.1167-0.2021 0.0000 (  6469 PWs)   bands (ev):

   -23.3274 -11.2286 -10.6363  -9.6394  -2.2829  -0.9216   0.2781   1.3295
     2.8242   3.7794   3.9186   4.4365

     occupation numbers 
     1.0000   1.0000   1.0000   1.0000   0.0000   0.0000   0.0000   0.0000
     0.0000   0.0000   0.0000   0.0000

          k = 0.1167-0.1828 0.0000 (  6473 PWs)   bands (ev):

   -23.4579 -11.3828 -10.3376  -9.4058  -2.4669  -1.1036   0.0977   1.1513
     2.6445   3.5995   4.2563   4.3010

     occupation numbers 
     1.0000   1.0000   1.0000   1.0000   0.0000   0.0000   0.0000   0.0000
     0.0000   0.0000   0.0000   0.0000

          k = 0.1167-0.1636 0.0000 (  6487 PWs)   bands (ev):

   -23.5755 -11.5221 -10.0597  -9.1792  -2.6326  -1.2674  -0.0647   0.9907
     2.4827   3.4373   4.1552   4.5728

     occupation numbers 
     1.0000   1.0000   1.0000   1.0000   0.0000   0.0000   0.0000   0.0000
     0.0000   0.0000   0.0000   0.0000

          k = 0.1167-0.1443 0.0000 (  6489 PWs)   bands (ev):

   -23.6801 -11.6463  -9.8018  -8.9669  -2.7799  -1.4131  -0.2091   0.8478
     2.3387   3.2931   4.0170   4.8034

     occupation numbers 
     1.0000   1.0000   1.0000   1.0000   0.0000   0.0000   0.0000   0.0000
     0.0000   0.0000   0.0000   0.0000

          k = 0.1167-0.1251 0.0000 (  6491 PWs)   bands (ev):

   -23.7718 -11.7553  -9.5632  -8.7762  -2.9087  -1.5405  -0.3354   0.7227
     2.2127   3.1668   3.8992   4.6754

     occupation numbers 
     1.0000   1.0000   1.0000   1.0000   0.0000   0.0000   0.0000   0.0000
     0.0000   0.0000   0.0000   0.0000

          k = 0.1167-0.1058 0.0000 (  6490 PWs)   bands (ev):

   -23.8505 -11.8489  -9.3442  -8.6133  -3.0192  -1.6498  -0.4437   0.6155
     2.1047   3.0586   3.8113   4.5655

     occupation numbers 
     1.0000   1.0000   1.0000   1.0000   0.0000   0.0000   0.0000   0.0000
     0.0000   0.0000   0.0000   0.0000

          k = 0.1167-0.0866 0.0000 (  6490 PWs)   bands (ev):

   -23.9161 -11.9271  -9.1465  -8.4828  -3.1112  -1.7409  -0.5339   0.5261
     2.0148   2.9685   3.7586   4.4741

     occupation numbers 
     1.0000   1.0000   1.0000   1.0000   0.0000   0.0000   0.0000   0.0000
     0.0000   0.0000   0.0000   0.0000

          k = 0.1167-0.0674 0.0000 (  6486 PWs)   bands (ev):

   -23.9686 -11.9897  -8.9733  -8.3867  -3.1849  -1.8137  -0.6060   0.4545
     1.9428   2.8964   3.7422   4.4013

     occupation numbers 
     1.0000   1.0000   1.0000   1.0000   0.0000   0.0000   0.0000   0.0000
     0.0000   0.0000   0.0000   0.0000

          k = 0.1167-0.0481 0.0000 (  6490 PWs)   bands (ev):

   -24.0081 -12.0368  -8.8297  -8.3244  -3.2401  -1.8683  -0.6601   0.4009
     1.8889   2.8424   3.7576   4.3469

     occupation numbers 
     1.0000   1.0000   1.0000   1.0000   0.0000   0.0000   0.0000   0.0000
     0.0000   0.0000   0.0000   0.0000

          k = 0.1167-0.0289 0.0000 (  6487 PWs)   bands (ev):

   -24.0343 -12.0682  -8.7238  -8.2911  -3.2769  -1.9048  -0.6962   0.3651
     1.8529   2.8064   3.7924   4.3113

     occupation numbers 
     1.0000   1.0000   1.0000   1.0000   0.0000   0.0000   0.0000   0.0000
     0.0000   0.0000   0.0000   0.0000

          k = 0.1167-0.0096 0.0000 (  6491 PWs)   bands (ev):

   -24.0475 -12.0839  -8.6667  -8.2781  -3.2953  -1.9230  -0.7142   0.3472
     1.8349   2.7884   3.8236   4.2940

     occupation numbers 
     1.0000   1.0000   1.0000   1.0000   0.0000   0.0000   0.0000   0.0000
     0.0000   0.0000   0.0000   0.0000

          k = 0.1167 0.0096 0.0000 (  6491 PWs)   bands (ev):

   -24.0475 -12.0838  -8.6682  -8.2765  -3.2953  -1.9230  -0.7142   0.3472
     1.8349   2.7884   3.8254   4.2940

     occupation numbers 
     1.0000   1.0000   1.0000   1.0000   0.0000   0.0000   0.0000   0.0000
     0.0000   0.0000   0.0000   0.0000

          k = 0.1167 0.0289 0.0000 (  6487 PWs)   bands (ev):

   -24.0344 -12.0681  -8.7278  -8.2869  -3.2769  -1.9048  -0.6962   0.3651
     1.8529   2.8064   3.7970   4.3114

     occupation numbers 
     1.0000   1.0000   1.0000   1.0000   0.0000   0.0000   0.0000   0.0000
     0.0000   0.0000   0.0000   0.0000

          k = 0.1167 0.0481 0.0000 (  6490 PWs)   bands (ev):

   -24.0081 -12.0367  -8.8353  -8.3185  -3.2401  -1.8683  -0.6601   0.4009
     1.8889   2.8424   3.7638   4.3471

     occupation numbers 
     1.0000   1.0000   1.0000   1.0000   0.0000   0.0000   0.0000   0.0000
     0.0000   0.0000   0.0000   0.0000

          k = 0.1333 0.0770 0.0000 (  6496 PWs)   bands (ev):

   -23.8702 -11.8723  -9.3129  -8.5429  -3.0468  -1.6771  -0.4707   0.5886
     2.0777   3.0314   3.7424   4.5374

     occupation numbers 
     1.0000   1.0000   1.0000   1.0000   0.0000   0.0000   0.0000   0.0000
     0.0000   0.0000   0.0000   0.0000

          k = 0.1333 0.0962 0.0000 (  6496 PWs)   bands (ev):

   -23.8112 -11.8020  -9.4982  -8.6442  -2.9640  -1.5952  -0.3896   0.6691
     2.1585   3.1122   3.7567   4.6190

     occupation numbers 
     1.0000   1.0000   1.0000   1.0000   0.0000   0.0000   0.0000   0.0000
     0.0000   0.0000   0.0000   0.0000

          k = 0.1333 0.1155 0.0000 (  6490 PWs)   bands (ev):

   -23.7391 -11.7162  -9.7032  -8.7812  -2.8627  -1.4950  -0.2903   0.7673
     2.2574   3.2111   3.8117   4.7191

     occupation numbers 
     1.0000   1.0000   1.0000   1.0000   0.0000   0.0000   0.0000   0.0000
     0.0000   0.0000   0.0000   0.0000

          k = 0.1333 0.1347 0.0000 (  6484 PWs)   bands (ev):

   -23.6540 -11.6151  -9.9247  -8.9519  -2.7431  -1.3767  -0.1731   0.8834
     2.3743   3.3281   3.9071   4.7823

     occupation numbers 
     1.0000   1.0000   1.0000   1.0000   0.0000   0.0000   0.0000   0.0000
     0.0000   0.0000   0.0000   0.0000

          k = 0.1333 0.1540 0.0000 (  6491 PWs)   bands (ev):

   -23.5559 -11.4987 -10.1613  -9.1523  -2.6050  -1.2401  -0.0377   1.0173
     2.5093   3.4632   4.0387   4.5125

     occupation numbers 
     1.0000   1.0000   1.0000   1.0000   0.0000   0.0000   0.0000   0.0000
     0.0000   0.0000   0.0000   0.0000

          k = 0.1333 0.1732 0.0000 (  6483 PWs)   bands (ev):

   -23.4449 -11.3672 -10.4124  -9.3765  -2.4485  -1.0854   0.1157   1.1690
     2.6622   3.6162   4.1955   4.2209

     occupation numbers 
     1.0000   1.0000   1.0000   1.0000   0.0000   0.0000   0.0000   0.0000
     0.0000   0.0000   0.0000   0.0000

          k = 0.1333 0.1925 0.0000 (  6475 PWs)   bands (ev):

   -23.3210 -11.2207 -10.6787  -9.6175  -2.2736  -0.9125   0.2871   1.3383
     2.8330   3.7858   3.8998   4.3778

     occupation numbers 
     1.0000   1.0000   1.0000   1.0000   0.0000   0.0000   0.0000   0.0000
     0.0000   0.0000   0.0000   0.0000

          k = 0.1333 0.2117 0.0000 (  6473 PWs)   bands (ev):

   -23.1843 -11.0596 -10.9618  -9.8675  -2.0804  -0.7215   0.4765   1.5253
     3.0216   3.5591   3.9770   4.5578

     occupation numbers 
     1.0000   1.0000   1.0000   1.0000   0.0000   0.0000   0.0000   0.0000
     0.0000   0.0000   0.0000   0.0000

          k = 0.1333 0.2309 0.0000 (  6457 PWs)   bands (ev):

   -23.0348 -11.2634 -10.8838 -10.1188  -1.8687  -0.5123   0.6838   1.7296
     3.2028   3.2283   4.1830   4.7208

     occupation numbers 
     1.0000   1.0000   1.0000   1.0000   0.0000   0.0000   0.0000   0.0000
     0.0000   0.0000   0.0000   0.0000

          k = 0.1333 0.2502 0.0000 (  6486 PWs)   bands (ev):

   -22.8727 -11.5847 -10.6939 -10.3647  -1.6386  -0.2851   0.9091   1.9511
     2.8316   3.4520   4.4059   4.8491

     occupation numbers 
     1.0000   1.0000   1.0000   1.0000   0.0000   0.0000   0.0000   0.0000
     0.0000   0.0000   0.0000   0.0000

          k = 0.1333 0.2694 0.0000 (  6490 PWs)   bands (ev):

   -22.6980 -11.9257 -10.6003 -10.4899  -1.3901  -0.0398   1.1523   2.1867
     2.4496   3.6934   4.6430   4.9355

     occupation numbers 
     1.0000   1.0000   1.0000   1.0000   0.0000   0.0000   0.0000   0.0000
     0.0000   0.0000   0.0000   0.0000

          k = 0.1333 0.2887 0.0000 (  6480 PWs)   bands (ev):

   -22.5109 -12.2850 -10.8222 -10.2727  -1.1232   0.2233   1.4132   2.0432
     2.4524   3.9518   4.8714   5.0053

     occupation numbers 
     1.0000   1.0000   1.0000   1.0000   0.0000   0.0000   0.0000   0.0000
     0.0000   0.0000   0.0000   0.0000

          k = 0.1333 0.3079 0.0000 (  6480 PWs)   bands (ev):

   -22.3115 -12.6601 -11.0292 -10.0425  -0.8378   0.5041   1.6350   1.6957
     2.7240   4.2264   4.9482   5.2114

     occupation numbers 
     1.0000   1.0000   1.0000   1.0000   0.0000   0.0000   0.0000   0.0000
     0.0000   0.0000   0.0000   0.0000

          k = 0.1333 0.3272 0.0000 (  6474 PWs)   bands (ev):

   -22.1000 -13.0477 -11.2209  -9.7998  -0.5341   0.8005   1.2265   1.9893
     3.0139   4.5143   4.9434   5.4969

     occupation numbers 
     1.0000   1.0000   1.0000   1.0000   0.0000   0.0000   0.0000   0.0000
     0.0000   0.0000   0.0000   0.0000

          k = 0.1333 0.3464 0.0000 (  6479 PWs)   bands (ev):

   -21.8764 -13.4447 -11.3974  -9.5455  -0.2120   0.7948   1.1292   2.3035
     3.3205   4.7849   4.9523   5.8056

     occupation numbers 
     1.0000   1.0000   1.0000   1.0000   0.0000   0.0000   0.0000   0.0000
     0.0000   0.0000   0.0000   0.0000

          k = 0.1333 0.3657 0.0000 (  6480 PWs)   bands (ev):

   -21.6411 -13.8479 -11.5591  -9.2805   0.1282   0.3759   1.4600   2.6352
     3.6431   4.8364   5.1873   6.1322

     occupation numbers 
     1.0000   1.0000   1.0000   1.0000   0.0000   0.0000   0.0000   0.0000
     0.0000   0.0000   0.0000   0.0000

          k = 0.1333 0.3849 0.0000 (  6474 PWs)   bands (ev):

   -21.3943 -14.2547 -11.7061  -9.0060  -0.0483   0.4877   1.8122   2.9844
     3.9805   4.8016   5.5215   6.4751

     occupation numbers 
     1.0000   1.0000   1.0000   1.0000   0.0000   0.0000   0.0000   0.0000
     0.0000   0.0000   0.0000   0.0000

          k = 0.1333 0.4041 0.0000 (  6488 PWs)   bands (ev):

   -21.1364 -14.6625 -11.8389  -8.7236  -0.4702   0.8649   2.1825   3.3505
     4.3291   4.7632   5.8781   6.8330

     occupation numbers 
     1.0000   1.0000   1.0000   1.0000   0.0000   0.0000   0.0000   0.0000
     0.0000   0.0000   0.0000   0.0000

          k = 0.1333 0.4234 0.0000 (  6485 PWs)   bands (ev):

   -20.8676 -15.0693 -11.9574  -8.4354  -0.8869   1.2606   2.5705   3.7328
     4.6356   4.7817   6.2509   7.2042

     occupation numbers 
     1.0000   1.0000   1.0000   1.0000   0.0000   0.0000   0.0000   0.0000
     0.0000   0.0000   0.0000   0.0000

          k = 0.1333 0.4426 0.0000 (  6491 PWs)   bands (ev):

   -20.5887 -15.4729 -12.0620  -8.1442  -1.2942   1.6748   2.9758   4.1281
     4.6572   5.1048   6.6373   7.5854

     occupation numbers 
     1.0000   1.0000   1.0000   1.0000   0.0000   0.0000   0.0000   0.0000
     0.0000   0.0000   0.0000   0.0000

          k = 0.1333 0.4619 0.0000 (  6494 PWs)   bands (ev):

   -20.3005 -15.8714 -12.1525  -7.8542  -1.6871   2.1073   3.3981   4.4944
     4.6757   5.4919   7.0341   7.9694

     occupation numbers 
     1.0000   1.0000   1.0000   1.0000   0.0000   0.0000   0.0000   0.0000
     0.0000   0.0000   0.0000   0.0000

          k = 0.1333 0.4811 0.0000 (  6497 PWs)   bands (ev):

   -20.0043 -16.2623 -12.2292  -7.5711  -2.0588   2.5582   3.8367   4.5579
     5.0152   5.8906   7.4347   8.0746

     occupation numbers 
     1.0000   1.0000   1.0000   1.0000   0.0000   0.0000   0.0000   0.0000
     0.0000   0.0000   0.0000   0.0000

          k = 0.1333 0.5004 0.0000 (  6495 PWs)   bands (ev):

   -19.7025 -16.6426 -12.2919  -7.3035  -2.4000   3.0275   4.2873   4.5430
     5.4583   6.2923   7.4422   7.8218

     occupation numbers 
     1.0000   1.0000   1.0000   1.0000   0.0000   0.0000   0.0000   0.0000
     0.0000   0.0000   0.0000   0.0000

          k = 0.1333 0.5196 0.0000 (  6492 PWs)   bands (ev):

   -19.3999 -17.0068 -12.3407  -7.0635  -2.6979   3.5152   4.5062   4.7752
     5.9233   6.6803   6.8300   7.8643

     occupation numbers 
     1.0000   1.0000   1.0000   1.0000   0.0000   0.0000   0.0000   0.0000
     0.0000   0.0000   0.0000   0.0000

          k = 0.1333 0.5389 0.0000 (  6490 PWs)   bands (ev):

   -19.1080 -17.3431 -12.3756  -6.8681  -2.9350   4.0213   4.4954   5.2566
     6.2286   6.4047   6.9990   7.4307

     occupation numbers 
     1.0000   1.0000   1.0000   1.0000   0.0000   0.0000   0.0000   0.0000
     0.0000   0.0000   0.0000   0.0000

          k = 0.1333 0.5581 0.0000 (  6492 PWs)   bands (ev):

   -18.8597 -17.6180 -12.3965  -6.7380  -3.0903   4.4863   4.5458   5.6496
     5.7548   6.7573   6.9054   7.4551

     occupation numbers 
     1.0000   1.0000   1.0000   1.0000   0.0000   0.0000   0.0000   0.0000
     0.0000   0.0000   0.0000   0.0000

          k = 0.1333 0.5774 0.0000 (  6486 PWs)   bands (ev):

   -18.7475 -17.7392 -12.4035  -6.6920  -3.1447   4.4833   5.0842   5.0929
     6.2496   6.2750   7.3701   7.4386

     occupation numbers 
     1.0000   1.0000   1.0000   1.0000   0.0000   0.0000   0.0000   0.0000
     0.0000   0.0000   0.0000   0.0000

          k = 0.1333 0.5966 0.0000 (  6492 PWs)   bands (ev):

   -18.8597 -17.6180 -12.3966  -6.7382  -3.0900   4.4862   4.5458   5.6496
     5.7548   6.7573   6.9055   7.4547

     occupation numbers 
     1.0000   1.0000   1.0000   1.0000   0.0000   0.0000   0.0000   0.0000
     0.0000   0.0000   0.0000   0.0000

          k = 0.1333 0.6158 0.0000 (  6490 PWs)   bands (ev):

   -19.1079 -17.3430 -12.3757  -6.8685  -2.9344   4.0213   4.4950   5.2567
     6.2286   6.4048   6.9987   7.4306

     occupation numbers 
     1.0000   1.0000   1.0000   1.0000   0.0000   0.0000   0.0000   0.0000
     0.0000   0.0000   0.0000   0.0000

          k = 0.1333 0.6351 0.0000 (  6492 PWs)   bands (ev):

   -19.3998 -17.0067 -12.3410  -7.0640  -2.6970   3.5152   4.5055   4.7754
     5.9235   6.6800   6.8300   7.8644

     occupation numbers 
     1.0000   1.0000   1.0000   1.0000   0.0000   0.0000   0.0000   0.0000
     0.0000   0.0000   0.0000   0.0000

          k = 0.1333-0.5004 0.0000 (  6495 PWs)   bands (ev):

   -19.7024 -16.6423 -12.2923  -7.3040  -2.3989   3.0275   4.2870   4.5425
     5.4585   6.2920   7.4422   7.8216

     occupation numbers 
     1.0000   1.0000   1.0000   1.0000   0.0000   0.0000   0.0000   0.0000
     0.0000   0.0000   0.0000   0.0000

          k = 0.1333-0.4811 0.0000 (  6497 PWs)   bands (ev):

   -20.0042 -16.2620 -12.2297  -7.5717  -2.0575   2.5582   3.8366   4.5568
     5.0155   5.8904   7.4345   8.0746

     occupation numbers 
     1.0000   1.0000   1.0000   1.0000   0.0000   0.0000   0.0000   0.0000
     0.0000   0.0000   0.0000   0.0000

          k = 0.1333-0.4619 0.0000 (  6494 PWs)   bands (ev):

   -20.3004 -15.8709 -12.1532  -7.8548  -1.6857   2.1073   3.3980   4.4933
     4.6757   5.4917   7.0339   7.9692

     occupation numbers 
     1.0000   1.0000   1.0000   1.0000   0.0000   0.0000   0.0000   0.0000
     0.0000   0.0000   0.0000   0.0000

          k = 0.1333-0.4426 0.0000 (  6491 PWs)   bands (ev):

   -20.5886 -15.4723 -12.0628  -8.1448  -1.2927   1.6748   2.9758   4.1278
     4.6561   5.1047   6.6372   7.5852

     occupation numbers 
     1.0000   1.0000   1.0000   1.0000   0.0000   0.0000   0.0000   0.0000
     0.0000   0.0000   0.0000   0.0000

          k = 0.1333-0.4234 0.0000 (  6485 PWs)   bands (ev):

   -20.8675 -15.0685 -11.9584  -8.4359  -0.8853   1.2606   2.5704   3.7327
     4.6343   4.7814   6.2508   7.2040

     occupation numbers 
     1.0000   1.0000   1.0000   1.0000   0.0000   0.0000   0.0000   0.0000
     0.0000   0.0000   0.0000   0.0000

          k = 0.1333-0.4041 0.0000 (  6488 PWs)   bands (ev):

   -21.1363 -14.6616 -11.8401  -8.7241  -0.4685   0.8649   2.1825   3.3504
     4.3287   4.7615   5.8780   6.8329

     occupation numbers 
     1.0000   1.0000   1.0000   1.0000   0.0000   0.0000   0.0000   0.0000
     0.0000   0.0000   0.0000   0.0000

          k = 0.1333-0.3849 0.0000 (  6474 PWs)   bands (ev):

   -21.3942 -14.2534 -11.7076  -9.0065  -0.0465   0.4877   1.8122   2.9843
     3.9803   4.7992   5.5215   6.4750

     occupation numbers 
     1.0000   1.0000   1.0000   1.0000   0.0000   0.0000   0.0000   0.0000
     0.0000   0.0000   0.0000   0.0000

          k = 0.1333-0.3657 0.0000 (  6480 PWs)   bands (ev):

   -21.6410 -13.8463 -11.5609  -9.2810   0.1282   0.3777   1.4600   2.6352
     3.6429   4.8334   5.1873   6.1321

     occupation numbers 
     1.0000   1.0000   1.0000   1.0000   0.0000   0.0000   0.0000   0.0000
     0.0000   0.0000   0.0000   0.0000

          k = 0.1333-0.3464 0.0000 (  6479 PWs)   bands (ev):

   -21.8763 -13.4427 -11.3997  -9.5460  -0.2120   0.7968   1.1292   2.3034
     3.3204   4.7831   4.9502   5.8055

     occupation numbers 
     1.0000   1.0000   1.0000   1.0000   0.0000   0.0000   0.0000   0.0000
     0.0000   0.0000   0.0000   0.0000

          k = 0.1333-0.3272 0.0000 (  6474 PWs)   bands (ev):

   -22.0999 -13.0453 -11.2237  -9.8002  -0.5341   0.8005   1.2285   1.9893
     3.0137   4.5139   4.9391   5.4969

     occupation numbers 
     1.0000   1.0000   1.0000   1.0000   0.0000   0.0000   0.0000   0.0000
     0.0000   0.0000   0.0000   0.0000

          k = 0.1333-0.3079 0.0000 (  6480 PWs)   bands (ev):

   -22.3114 -12.6571 -11.0325 -10.0429  -0.8378   0.5041   1.6370   1.6957
     2.7238   4.2262   4.9427   5.2111

     occupation numbers 
     1.0000   1.0000   1.0000   1.0000   0.0000   0.0000   0.0000   0.0000
     0.0000   0.0000   0.0000   0.0000

          k = 0.1333-0.2887 0.0000 (  6480 PWs)   bands (ev):

   -22.5108 -12.2815 -10.8262 -10.2731  -1.1232   0.2233   1.4132   2.0453
     2.4523   3.9516   4.8685   5.0008

     occupation numbers 
     1.0000   1.0000   1.0000   1.0000   0.0000   0.0000   0.0000   0.0000
     0.0000   0.0000   0.0000   0.0000

          k = 0.1333-0.2694 0.0000 (  6490 PWs)   bands (ev):

   -22.6979 -11.9215 -10.6050 -10.4903  -1.3901  -0.0399   1.1523   2.1867
     2.4516   3.6932   4.6424   4.9272

     occupation numbers 
     1.0000   1.0000   1.0000   1.0000   0.0000   0.0000   0.0000   0.0000
     0.0000   0.0000   0.0000   0.0000

          k = 0.1333-0.2502 0.0000 (  6486 PWs)   bands (ev):

   -22.8726 -11.5798 -10.6943 -10.3700  -1.6386  -0.2851   0.9091   1.9511
     2.8336   3.4519   4.4055   4.8391

     occupation numbers 
     1.0000   1.0000   1.0000   1.0000   0.0000   0.0000   0.0000   0.0000
     0.0000   0.0000   0.0000   0.0000

          k = 0.1333-0.2309 0.0000 (  6457 PWs)   bands (ev):

   -23.0347 -11.2579 -10.8841 -10.1248  -1.8687  -0.5123   0.6838   1.7296
     3.2048   3.2283   4.1827   4.7100

     occupation numbers 
     1.0000   1.0000   1.0000   1.0000   0.0000   0.0000   0.0000   0.0000
     0.0000   0.0000   0.0000   0.0000

          k = 0.1333-0.2117 0.0000 (  6473 PWs)   bands (ev):

   -23.1842 -11.0598 -10.9558  -9.8740  -2.0804  -0.7215   0.4764   1.5252
     3.0215   3.5611   3.9768   4.5470

     occupation numbers 
     1.0000   1.0000   1.0000   1.0000   0.0000   0.0000   0.0000   0.0000
     0.0000   0.0000   0.0000   0.0000

          k = 0.1333-0.1925 0.0000 (  6475 PWs)   bands (ev):

   -23.3209 -11.2210 -10.6724  -9.6244  -2.2736  -0.9125   0.2870   1.3383
     2.8329   3.7857   3.9017   4.3674

     occupation numbers 
     1.0000   1.0000   1.0000   1.0000   0.0000   0.0000   0.0000   0.0000
     0.0000   0.0000   0.0000   0.0000

          k = 0.1333-0.1732 0.0000 (  6483 PWs)   bands (ev):

   -23.4448 -11.3674 -10.4058  -9.3836  -2.4485  -1.0854   0.1156   1.1689
     2.6621   3.6160   4.1871   4.2213

     occupation numbers 
     1.0000   1.0000   1.0000   1.0000   0.0000   0.0000   0.0000   0.0000
     0.0000   0.0000   0.0000   0.0000

          k = 0.1333-0.1540 0.0000 (  6491 PWs)   bands (ev):

   -23.5559 -11.4989 -10.1547  -9.1595  -2.6050  -1.2401  -0.0377   1.0173
     2.5092   3.4630   4.0297   4.5142

     occupation numbers 
     1.0000   1.0000   1.0000   1.0000   0.0000   0.0000   0.0000   0.0000
     0.0000   0.0000   0.0000   0.0000

          k = 0.1333-0.1347 0.0000 (  6484 PWs)   bands (ev):

   -23.6540 -11.6153  -9.9181  -8.9592  -2.7431  -1.3767  -0.1731   0.8834
     2.3743   3.3280   3.8988   4.7838

     occupation numbers 
     1.0000   1.0000   1.0000   1.0000   0.0000   0.0000   0.0000   0.0000
     0.0000   0.0000   0.0000   0.0000

          k = 0.1333-0.1155 0.0000 (  6490 PWs)   bands (ev):

   -23.7391 -11.7164  -9.6966  -8.7883  -2.8627  -1.4950  -0.2904   0.7673
     2.2574   3.2110   3.8040   4.7190

     occupation numbers 
     1.0000   1.0000   1.0000   1.0000   0.0000   0.0000   0.0000   0.0000
     0.0000   0.0000   0.0000   0.0000

          k = 0.1333-0.0962 0.0000 (  6496 PWs)   bands (ev):

   -23.8112 -11.8021  -9.4919  -8.6511  -2.9640  -1.5952  -0.3896   0.6690
     2.1585   3.1121   3.7495   4.6189

     occupation numbers 
     1.0000   1.0000   1.0000   1.0000   0.0000   0.0000   0.0000   0.0000
     0.0000   0.0000   0.0000   0.0000

          k = 0.1333-0.0770 0.0000 (  6496 PWs)   bands (ev):

   -23.8702 -11.8724  -9.3069  -8.5494  -3.0468  -1.6771  -0.4707   0.5886
     2.0776   3.0313   3.7359   4.5373

     occupation numbers 
     1.0000   1.0000   1.0000   1.0000   0.0000   0.0000   0.0000   0.0000
     0.0000   0.0000   0.0000   0.0000

          k = 0.1333-0.0577 0.0000 (  6490 PWs)   bands (ev):

   -23.9161 -11.9271  -9.1467  -8.4826  -3.1112  -1.7409  -0.5339   0.5261
     2.0148   2.9685   3.7588   4.4741

     occupation numbers 
     1.0000   1.0000   1.0000   1.0000   0.0000   0.0000   0.0000   0.0000
     0.0000   0.0000   0.0000   0.0000

          k = 0.1333-0.0385 0.0000 (  6491 PWs)   bands (ev):

   -23.9489 -11.9662  -9.0186  -8.4463  -3.1572  -1.7864  -0.5789   0.4814
     1.9699   2.9236   3.8073   4.4297

     occupation numbers 
     1.0000   1.0000   1.0000   1.0000   0.0000   0.0000   0.0000   0.0000
     0.0000   0.0000   0.0000   0.0000

          k = 0.1333-0.0192 0.0000 (  6489 PWs)   bands (ev):

   -23.9687 -11.9897  -8.9336  -8.4319  -3.1849  -1.8137  -0.6060   0.4546
     1.9429   2.8967   3.8598   4.4038

     occupation numbers 
     1.0000   1.0000   1.0000   1.0000   0.0000   0.0000   0.0000   0.0000
     0.0000   0.0000   0.0000   0.0000

          k = 0.1333 0.0000 0.0000 (  6499 PWs)   bands (ev):

   -23.9752 -11.9975  -8.9041  -8.4281  -3.1941  -1.8228  -0.6150   0.4457
     1.9340   2.8877   3.8845   4.3956

     occupation numbers 
     1.0000   1.0000   1.0000   1.0000   0.0000   0.0000   0.0000   0.0000
     0.0000   0.0000   0.0000   0.0000

          k = 0.1333 0.0192 0.0000 (  6489 PWs)   bands (ev):

   -23.9687 -11.9897  -8.9362  -8.4292  -3.1849  -1.8137  -0.6060   0.4546
     1.9429   2.8967   3.8627   4.4039

     occupation numbers 
     1.0000   1.0000   1.0000   1.0000   0.0000   0.0000   0.0000   0.0000
     0.0000   0.0000   0.0000   0.0000

          k = 0.1333 0.0385 0.0000 (  6491 PWs)   bands (ev):

   -23.9490 -11.9662  -9.0230  -8.4417  -3.1572  -1.7864  -0.5789   0.4814
     1.9699   2.9236   3.8121   4.4298

     occupation numbers 
     1.0000   1.0000   1.0000   1.0000   0.0000   0.0000   0.0000   0.0000
     0.0000   0.0000   0.0000   0.0000

          k = 0.1333 0.0577 0.0000 (  6490 PWs)   bands (ev):

   -23.9161 -11.9270  -9.1521  -8.4768  -3.1112  -1.7409  -0.5339   0.5261
     2.0148   2.9685   3.7647   4.4742

     occupation numbers 
     1.0000   1.0000   1.0000   1.0000   0.0000   0.0000   0.0000   0.0000
     0.0000   0.0000   0.0000   0.0000

          k = 0.1500 0.0866 0.0000 (  6500 PWs)   bands (ev):

   -23.7588 -11.7396  -9.6721  -8.7145  -2.8903  -1.5224  -0.3175   0.7405
     2.2303   3.1836   3.7254   4.6910

     occupation numbers 
     1.0000   1.0000   1.0000   1.0000   0.0000   0.0000   0.0000   0.0000
     0.0000   0.0000   0.0000   0.0000

          k = 0.1500 0.1058 0.0000 (  6494 PWs)   bands (ev):

   -23.6933 -11.6618  -9.8670  -8.8199  -2.7983  -1.4313  -0.2273   0.8297
     2.3200   3.2728   3.7367   4.7814

     occupation numbers 
     1.0000   1.0000   1.0000   1.0000   0.0000   0.0000   0.0000   0.0000
     0.0000   0.0000   0.0000   0.0000

          k = 0.1500 0.1251 0.0000 (  6494 PWs)   bands (ev):

   -23.6147 -11.5686 -10.0775  -8.9618  -2.6878  -1.3221  -0.1190   0.9368
     2.4277   3.3799   3.7926   4.6661

     occupation numbers 
     1.0000   1.0000   1.0000   1.0000   0.0000   0.0000   0.0000   0.0000
     0.0000   0.0000   0.0000   0.0000

          k = 0.1500 0.1443 0.0000 (  6498 PWs)   bands (ev):

   -23.5232 -11.4601 -10.3006  -9.1386  -2.5590  -1.1947   0.0073   1.0616
     2.5535   3.5052   3.8929   4.4166

     occupation numbers 
     1.0000   1.0000   1.0000   1.0000   0.0000   0.0000   0.0000   0.0000
     0.0000   0.0000   0.0000   0.0000

          k = 0.1500 0.1636 0.0000 (  6484 PWs)   bands (ev):

   -23.4188 -11.3364 -10.5347  -9.3465  -2.4117  -1.0490   0.1516   1.2043
     2.6972   3.6482   4.0331   4.1434

     occupation numbers 
     1.0000   1.0000   1.0000   1.0000   0.0000   0.0000   0.0000   0.0000
     0.0000   0.0000   0.0000   0.0000

          k = 0.1500 0.1828 0.0000 (  6469 PWs)   bands (ev):

   -23.3014 -11.1978 -10.7791  -9.5800  -2.2460  -0.8853   0.3140   1.3646
     2.8588   3.7935   3.8597   4.2125

     occupation numbers 
     1.0000   1.0000   1.0000   1.0000   0.0000   0.0000   0.0000   0.0000
     0.0000   0.0000   0.0000   0.0000

          k = 0.1500 0.2021 0.0000 (  6475 PWs)   bands (ev):

   -23.1712 -11.0446 -11.0341  -9.8327  -2.0620  -0.7033   0.4944   1.5426
     3.0380   3.5212   3.9941   4.4159

     occupation numbers 
     1.0000   1.0000   1.0000   1.0000   0.0000   0.0000   0.0000   0.0000
     0.0000   0.0000   0.0000   0.0000

          k = 0.1500 0.2213 0.0000 (  6473 PWs)   bands (ev):

   -23.0283 -11.3022 -10.8763 -10.0969  -1.8595  -0.5033   0.6928   1.7381
     3.1780   3.2429   4.1910   4.6340

     occupation numbers 
     1.0000   1.0000   1.0000   1.0000   0.0000   0.0000   0.0000   0.0000
     0.0000   0.0000   0.0000   0.0000

          k = 0.1500 0.2406 0.0000 (  6486 PWs)   bands (ev):

   -22.8727 -11.5848 -10.6939 -10.3646  -1.6386  -0.2851   0.9091   1.9511
     2.8316   3.4520   4.4059   4.8492

     occupation numbers 
     1.0000   1.0000   1.0000   1.0000   0.0000   0.0000   0.0000   0.0000
     0.0000   0.0000   0.0000   0.0000

          k = 0.1500 0.2598 0.0000 (  6482 PWs)   bands (ev):

   -22.7045 -11.8845 -10.6282 -10.4974  -1.3993  -0.0489   1.1434   2.1813
     2.4652   3.6843   4.6375   5.0397

     occupation numbers 
     1.0000   1.0000   1.0000   1.0000   0.0000   0.0000   0.0000   0.0000
     0.0000   0.0000   0.0000   0.0000

          k = 0.1500 0.2791 0.0000 (  6486 PWs)   bands (ev):

   -22.5239 -12.2033 -10.8806 -10.2874  -1.1416   0.2054   1.3955   2.0859
     2.4293   3.9341   4.8839   5.1859

     occupation numbers 
     1.0000   1.0000   1.0000   1.0000   0.0000   0.0000   0.0000   0.0000
     0.0000   0.0000   0.0000   0.0000

          k = 0.1500 0.2983 0.0000 (  6484 PWs)   bands (ev):

   -22.3309 -12.5412 -11.1176 -10.0641  -0.8655   0.4774   1.6636   1.6984
     2.6937   4.2009   5.1322   5.2914

     occupation numbers 
     1.0000   1.0000   1.0000   1.0000   0.0000   0.0000   0.0000   0.0000
     0.0000   0.0000   0.0000   0.0000

          k = 0.1500 0.3175 0.0000 (  6470 PWs)   bands (ev):

   -22.1257 -12.8969 -11.3367  -9.8281  -0.5709   0.7667   1.2990   1.9534
     2.9749   4.4841   5.2697   5.4756

     occupation numbers 
     1.0000   1.0000   1.0000   1.0000   0.0000   0.0000   0.0000   0.0000
     0.0000   0.0000   0.0000   0.0000

          k = 0.1500 0.3368 0.0000 (  6466 PWs)   bands (ev):

   -21.9084 -13.2676 -11.5371  -9.5801  -0.2580   0.8865   1.0822   2.2588
     3.2726   4.7814   5.2877   5.7631

     occupation numbers 
     1.0000   1.0000   1.0000   1.0000   0.0000   0.0000   0.0000   0.0000
     0.0000   0.0000   0.0000   0.0000

          k = 0.1500 0.3560 0.0000 (  6469 PWs)   bands (ev):

   -21.6794 -13.6500 -11.7193  -9.3209   0.0732   0.4807   1.4041   2.5818
     3.5862   5.0783   5.2898   6.0775

     occupation numbers 
     1.0000   1.0000   1.0000   1.0000   0.0000   0.0000   0.0000   0.0000
     0.0000   0.0000   0.0000   0.0000

          k = 0.1500 0.3753 0.0000 (  6477 PWs)   bands (ev):

   -21.4387 -14.0407 -11.8839  -9.0515   0.0682   0.4232   1.7475   2.9223
     3.9151   5.1976   5.4707   6.4096

     occupation numbers 
     1.0000   1.0000   1.0000   1.0000   0.0000   0.0000   0.0000   0.0000
     0.0000   0.0000   0.0000   0.0000

          k = 0.1500 0.3945 0.0000 (  6477 PWs)   bands (ev):

   -21.1868 -14.4364 -12.0318  -8.7733  -0.3444   0.7913   2.1088   3.2801
     4.2581   5.1717   5.8061   6.7569

     occupation numbers 
     1.0000   1.0000   1.0000   1.0000   0.0000   0.0000   0.0000   0.0000
     0.0000   0.0000   0.0000   0.0000

          k = 0.1500 0.4138 0.0000 (  6478 PWs)   bands (ev):

   -20.9240 -14.8343 -12.1637  -8.4880  -0.7543   1.1778   2.4878   3.6549
     4.6122   5.1355   6.1664   7.1171

     occupation numbers 
     1.0000   1.0000   1.0000   1.0000   0.0000   0.0000   0.0000   0.0000
     0.0000   0.0000   0.0000   0.0000

          k = 0.1500 0.4330 0.0000 (  6491 PWs)   bands (ev):

   -20.6507 -15.2319 -12.2800  -8.1980  -1.1581   1.5827   2.8841   4.0459
     4.9534   5.1242   6.5412   7.4866

     occupation numbers 
     1.0000   1.0000   1.0000   1.0000   0.0000   0.0000   0.0000   0.0000
     0.0000   0.0000   0.0000   0.0000

          k = 0.1500 0.4523 0.0000 (  6487 PWs)   bands (ev):

   -20.3677 -15.6267 -12.3813  -7.9067  -1.5515   2.0060   3.2974   4.4507
     5.0328   5.3900   6.9257   7.8585

     occupation numbers 
     1.0000   1.0000   1.0000   1.0000   0.0000   0.0000   0.0000   0.0000
     0.0000   0.0000   0.0000   0.0000

          k = 0.1500 0.4715 0.0000 (  6483 PWs)   bands (ev):

   -20.0761 -16.0164 -12.4677  -7.6187  -1.9287   2.4477   3.7274   4.8422
     5.0389   5.7695   7.3131   8.2134

     occupation numbers 
     1.0000   1.0000   1.0000   1.0000   0.0000   0.0000   0.0000   0.0000
     0.0000   0.0000   0.0000   0.0000

          k = 0.1500 0.4907 0.0000 (  6488 PWs)   bands (ev):

   -19.7776 -16.3981 -12.5395  -7.3409  -2.2820   2.9078   4.1733   4.9431
     5.3515   6.1550   7.6855   7.8760

     occupation numbers 
     1.0000   1.0000   1.0000   1.0000   0.0000   0.0000   0.0000   0.0000
     0.0000   0.0000   0.0000   0.0000

          k = 0.1500 0.5100 0.0000 (  6498 PWs)   bands (ev):

   -19.4756 -16.7675 -12.5969  -7.0836  -2.6008   3.3863   4.6318   4.9305
     5.8007   6.5291   7.2498   7.9792

     occupation numbers 
     1.0000   1.0000   1.0000   1.0000   0.0000   0.0000   0.0000   0.0000
     0.0000   0.0000   0.0000   0.0000

          k = 0.1500 0.5292 0.0000 (  6488 PWs)   bands (ev):

   -19.1773 -17.1170 -12.6398  -6.8612  -2.8697   3.8832   4.8986   5.1229
     6.2719   6.6392   6.8648   7.7328

     occupation numbers 
     1.0000   1.0000   1.0000   1.0000   0.0000   0.0000   0.0000   0.0000
     0.0000   0.0000   0.0000   0.0000

          k = 0.1500 0.5485 0.0000 (  6488 PWs)   bands (ev):

   -18.9017 -17.4269 -12.6684  -6.6933  -3.0687   4.3984   4.8915   5.6062
     6.0536   6.7576   6.9764   7.4227

     occupation numbers 
     1.0000   1.0000   1.0000   1.0000   0.0000   0.0000   0.0000   0.0000
     0.0000   0.0000   0.0000   0.0000

          k = 0.1500 0.5677 0.0000 (  6492 PWs)   bands (ev):

   -18.7060 -17.6398 -12.6828  -6.6017  -3.1760   4.8856   4.9320   5.4838
     6.1012   6.5958   7.2532   7.4745

     occupation numbers 
     1.0000   1.0000   1.0000   1.0000   0.0000   0.0000   0.0000   0.0000
     0.0000   0.0000   0.0000   0.0000

          k = 0.1500 0.5870 0.0000 (  6492 PWs)   bands (ev):

   -18.7060 -17.6397 -12.6828  -6.6019  -3.1758   4.8855   4.9320   5.4838
     6.1011   6.5959   7.2533   7.4743

     occupation numbers 
     1.0000   1.0000   1.0000   1.0000   0.0000   0.0000   0.0000   0.0000
     0.0000   0.0000   0.0000   0.0000

          k = 0.1500 0.6062 0.0000 (  6488 PWs)   bands (ev):

   -18.9017 -17.4268 -12.6686  -6.6937  -3.0681   4.3984   4.8912   5.6062
     6.0536   6.7577   6.9763   7.4224

     occupation numbers 
     1.0000   1.0000   1.0000   1.0000   0.0000   0.0000   0.0000   0.0000
     0.0000   0.0000   0.0000   0.0000

          k = 0.1500 0.6255 0.0000 (  6488 PWs)   bands (ev):

   -19.1773 -17.1168 -12.6401  -6.8617  -2.8688   3.8832   4.8979   5.1231
     6.2720   6.6391   6.8643   7.7328

     occupation numbers 
     1.0000   1.0000   1.0000   1.0000   0.0000   0.0000   0.0000   0.0000
     0.0000   0.0000   0.0000   0.0000

          k = 0.1500 0.6447 0.0000 (  6498 PWs)   bands (ev):

   -19.4756 -16.7673 -12.5973  -7.0842  -2.5996   3.3863   4.6315   4.9300
     5.8009   6.5286   7.2498   7.9791

     occupation numbers 
     1.0000   1.0000   1.0000   1.0000   0.0000   0.0000   0.0000   0.0000
     0.0000   0.0000   0.0000   0.0000

          k = 0.1500-0.4907 0.0000 (  6488 PWs)   bands (ev):

   -19.7776 -16.3977 -12.5401  -7.3416  -2.2807   2.9078   4.1731   4.9420
     5.3518   6.1546   7.6853   7.8760

     occupation numbers 
     1.0000   1.0000   1.0000   1.0000   0.0000   0.0000   0.0000   0.0000
     0.0000   0.0000   0.0000   0.0000

          k = 0.1500-0.4715 0.0000 (  6483 PWs)   bands (ev):

   -20.0760 -16.0159 -12.4684  -7.6194  -1.9271   2.4477   3.7273   4.8412
     5.0388   5.7692   7.3128   8.2132

     occupation numbers 
     1.0000   1.0000   1.0000   1.0000   0.0000   0.0000   0.0000   0.0000
     0.0000   0.0000   0.0000   0.0000

          k = 0.1500-0.4523 0.0000 (  6487 PWs)   bands (ev):

   -20.3676 -15.6261 -12.3822  -7.9074  -1.5498   2.0060   3.2974   4.4504
     5.0316   5.3898   6.9256   7.8583

     occupation numbers 
     1.0000   1.0000   1.0000   1.0000   0.0000   0.0000   0.0000   0.0000
     0.0000   0.0000   0.0000   0.0000

          k = 0.1500-0.4330 0.0000 (  6491 PWs)   bands (ev):

   -20.6506 -15.2310 -12.2812  -8.1987  -1.1563   1.5827   2.8840   4.0458
     4.9524   5.1233   6.5411   7.4865

     occupation numbers 
     1.0000   1.0000   1.0000   1.0000   0.0000   0.0000   0.0000   0.0000
     0.0000   0.0000   0.0000   0.0000

          k = 0.1500-0.4138 0.0000 (  6478 PWs)   bands (ev):

   -20.9238 -14.8332 -12.1651  -8.4887  -0.7524   1.1778   2.4877   3.6548
     4.6118   5.1336   6.1664   7.1169

     occupation numbers 
     1.0000   1.0000   1.0000   1.0000   0.0000   0.0000   0.0000   0.0000
     0.0000   0.0000   0.0000   0.0000

          k = 0.1500-0.3945 0.0000 (  6477 PWs)   bands (ev):

   -21.1867 -14.4350 -12.0336  -8.7739  -0.3424   0.7913   2.1088   3.2801
     4.2578   5.1690   5.8061   6.7567

     occupation numbers 
     1.0000   1.0000   1.0000   1.0000   0.0000   0.0000   0.0000   0.0000
     0.0000   0.0000   0.0000   0.0000

          k = 0.1500-0.3753 0.0000 (  6477 PWs)   bands (ev):

   -21.4386 -14.0389 -11.8860  -9.0521   0.0702   0.4232   1.7474   2.9223
     3.9149   5.1943   5.4706   6.4095

     occupation numbers 
     1.0000   1.0000   1.0000   1.0000   0.0000   0.0000   0.0000   0.0000
     0.0000   0.0000   0.0000   0.0000

          k = 0.1500-0.3560 0.0000 (  6469 PWs)   bands (ev):

   -21.6793 -13.6478 -11.7219  -9.3215   0.0732   0.4829   1.4041   2.5818
     3.5860   5.0771   5.2866   6.0774

     occupation numbers 
     1.0000   1.0000   1.0000   1.0000   0.0000   0.0000   0.0000   0.0000
     0.0000   0.0000   0.0000   0.0000

          k = 0.1500-0.3368 0.0000 (  6466 PWs)   bands (ev):

   -21.9083 -13.2649 -11.5403  -9.5807  -0.2580   0.8887   1.0822   2.2587
     3.2724   4.7811   5.2825   5.7630

     occupation numbers 
     1.0000   1.0000   1.0000   1.0000   0.0000   0.0000   0.0000   0.0000
     0.0000   0.0000   0.0000   0.0000

          k = 0.1500-0.3175 0.0000 (  6470 PWs)   bands (ev):

   -22.1256 -12.8935 -11.3404  -9.8286  -0.5709   0.7667   1.3012   1.9534
     2.9748   4.4838   5.2634   5.4750

     occupation numbers 
     1.0000   1.0000   1.0000   1.0000   0.0000   0.0000   0.0000   0.0000
     0.0000   0.0000   0.0000   0.0000

          k = 0.1500-0.2983 0.0000 (  6484 PWs)   bands (ev):

   -22.3308 -12.5372 -11.1220 -10.0646  -0.8655   0.4774   1.6637   1.7005
     2.6935   4.2007   5.1299   5.2849

     occupation numbers 
     1.0000   1.0000   1.0000   1.0000   0.0000   0.0000   0.0000   0.0000
     0.0000   0.0000   0.0000   0.0000

          k = 0.1500-0.2791 0.0000 (  6486 PWs)   bands (ev):

   -22.5238 -12.1986 -10.8857 -10.2878  -1.1416   0.2053   1.3955   2.0882
     2.4291   3.9339   4.8833   5.1763

     occupation numbers 
     1.0000   1.0000   1.0000   1.0000   0.0000   0.0000   0.0000   0.0000
     0.0000   0.0000   0.0000   0.0000

          k = 0.1500-0.2598 0.0000 (  6482 PWs)   bands (ev):

   -22.7044 -11.8793 -10.6339 -10.4978  -1.3993  -0.0489   1.1434   2.1812
     2.4675   3.6842   4.6371   5.0289

     occupation numbers 
     1.0000   1.0000   1.0000   1.0000   0.0000   0.0000   0.0000   0.0000
     0.0000   0.0000   0.0000   0.0000

          k = 0.1500-0.2406 0.0000 (  6486 PWs)   bands (ev):

   -22.8726 -11.5791 -10.6943 -10.3708  -1.6386  -0.2851   0.9091   1.9510
     2.8338   3.4519   4.4055   4.8384

     occupation numbers 
     1.0000   1.0000   1.0000   1.0000   0.0000   0.0000   0.0000   0.0000
     0.0000   0.0000   0.0000   0.0000

          k = 0.1500-0.2213 0.0000 (  6473 PWs)   bands (ev):

   -23.0282 -11.2963 -10.8766 -10.1034  -1.8595  -0.5033   0.6928   1.7381
     3.1798   3.2432   4.1907   4.6238

     occupation numbers 
     1.0000   1.0000   1.0000   1.0000   0.0000   0.0000   0.0000   0.0000
     0.0000   0.0000   0.0000   0.0000

          k = 0.1500-0.2021 0.0000 (  6475 PWs)   bands (ev):

   -23.1712 -11.0448 -11.0281  -9.8394  -2.0620  -0.7033   0.4944   1.5425
     3.0379   3.5233   3.9939   4.4066

     occupation numbers 
     1.0000   1.0000   1.0000   1.0000   0.0000   0.0000   0.0000   0.0000
     0.0000   0.0000   0.0000   0.0000

          k = 0.1500-0.1828 0.0000 (  6469 PWs)   bands (ev):

   -23.3013 -11.1981 -10.7729  -9.5869  -2.2460  -0.8853   0.3140   1.3645
     2.8587   3.7936   3.8613   4.2039

     occupation numbers 
     1.0000   1.0000   1.0000   1.0000   0.0000   0.0000   0.0000   0.0000
     0.0000   0.0000   0.0000   0.0000

          k = 0.1500-0.1636 0.0000 (  6484 PWs)   bands (ev):

   -23.4187 -11.3367 -10.5285  -9.3533  -2.4117  -1.0491   0.1516   1.2042
     2.6971   3.6479   4.0254   4.1452

     occupation numbers 
     1.0000   1.0000   1.0000   1.0000   0.0000   0.0000   0.0000   0.0000
     0.0000   0.0000   0.0000   0.0000

          k = 0.1500-0.1443 0.0000 (  6498 PWs)   bands (ev):

   -23.5232 -11.4603 -10.2945  -9.1454  -2.5590  -1.1947   0.0072   1.0616
     2.5534   3.5049   3.8857   4.4183

     occupation numbers 
     1.0000   1.0000   1.0000   1.0000   0.0000   0.0000   0.0000   0.0000
     0.0000   0.0000   0.0000   0.0000

          k = 0.1500-0.1251 0.0000 (  6494 PWs)   bands (ev):

   -23.6147 -11.5688 -10.0714  -8.9685  -2.6878  -1.3221  -0.1191   0.9367
     2.4277   3.3798   3.7859   4.6676

     occupation numbers 
     1.0000   1.0000   1.0000   1.0000   0.0000   0.0000   0.0000   0.0000
     0.0000   0.0000   0.0000   0.0000

          k = 0.1500-0.1058 0.0000 (  6494 PWs)   bands (ev):

   -23.6932 -11.6619  -9.8611  -8.8264  -2.7983  -1.4313  -0.2273   0.8297
     2.3200   3.2727   3.7303   4.7813

     occupation numbers 
     1.0000   1.0000   1.0000   1.0000   0.0000   0.0000   0.0000   0.0000
     0.0000   0.0000   0.0000   0.0000

          k = 0.1500-0.0866 0.0000 (  6500 PWs)   bands (ev):

   -23.7587 -11.7398  -9.6664  -8.7208  -2.8903  -1.5224  -0.3175   0.7404
     2.2302   3.1835   3.7194   4.6910

     occupation numbers 
     1.0000   1.0000   1.0000   1.0000   0.0000   0.0000   0.0000   0.0000
     0.0000   0.0000   0.0000   0.0000

          k = 0.1500-0.0674 0.0000 (  6496 PWs)   bands (ev):

   -23.8112 -11.8021  -9.4920  -8.6510  -2.9640  -1.5952  -0.3896   0.6690
     2.1585   3.1121   3.7497   4.6189

     occupation numbers 
     1.0000   1.0000   1.0000   1.0000   0.0000   0.0000   0.0000   0.0000
     0.0000   0.0000   0.0000   0.0000

          k = 0.1500-0.0481 0.0000 (  6490 PWs)   bands (ev):

   -23.8505 -11.8489  -9.3444  -8.6131  -3.0192  -1.6498  -0.4437   0.6155
     2.1047   3.0586   3.8116   4.5655

     occupation numbers 
     1.0000   1.0000   1.0000   1.0000   0.0000   0.0000   0.0000   0.0000
     0.0000   0.0000   0.0000   0.0000

          k = 0.1500-0.0289 0.0000 (  6485 PWs)   bands (ev):

   -23.8767 -11.8801  -9.2339  -8.5991  -3.0560  -1.6862  -0.4797   0.5798
     2.0689   3.0229   3.8862   4.5309

     occupation numbers 
     1.0000   1.0000   1.0000   1.0000   0.0000   0.0000   0.0000   0.0000
     0.0000   0.0000   0.0000   0.0000

          k = 0.1500-0.0096 0.0000 (  6491 PWs)   bands (ev):

   -23.8899 -11.8958  -9.1735  -8.5969  -3.0744  -1.7044  -0.4977   0.5619
     2.0510   3.0050   3.9413   4.5145

     occupation numbers 
     1.0000   1.0000   1.0000   1.0000   0.0000   0.0000   0.0000   0.0000
     0.0000   0.0000   0.0000   0.0000

          k = 0.1500 0.0096 0.0000 (  6491 PWs)   bands (ev):

   -23.8899 -11.8958  -9.1747  -8.5956  -3.0744  -1.7044  -0.4977   0.5619
     2.0510   3.0050   3.9426   4.5146

     occupation numbers 
     1.0000   1.0000   1.0000   1.0000   0.0000   0.0000   0.0000   0.0000
     0.0000   0.0000   0.0000   0.0000

          k = 0.1500 0.0289 0.0000 (  6485 PWs)   bands (ev):

   -23.8768 -11.8801  -9.2371  -8.5957  -3.0560  -1.6862  -0.4797   0.5798
     2.0689   3.0229   3.8897   4.5310

     occupation numbers 
     1.0000   1.0000   1.0000   1.0000   0.0000   0.0000   0.0000   0.0000
     0.0000   0.0000   0.0000   0.0000

          k = 0.1500 0.0481 0.0000 (  6490 PWs)   bands (ev):

   -23.8505 -11.8488  -9.3490  -8.6082  -3.0192  -1.6498  -0.4437   0.6155
     2.1047   3.0586   3.8163   4.5656

     occupation numbers 
     1.0000   1.0000   1.0000   1.0000   0.0000   0.0000   0.0000   0.0000
     0.0000   0.0000   0.0000   0.0000

          k = 0.1500 0.0674 0.0000 (  6496 PWs)   bands (ev):

   -23.8112 -11.8020  -9.4972  -8.6453  -2.9640  -1.5952  -0.3896   0.6691
     2.1585   3.1122   3.7551   4.6190

     occupation numbers 
     1.0000   1.0000   1.0000   1.0000   0.0000   0.0000   0.0000   0.0000
     0.0000   0.0000   0.0000   0.0000

          k = 0.1667 0.0962 0.0000 (  6486 PWs)   bands (ev):

   -23.6343 -11.5919 -10.0530  -8.8918  -2.7154  -1.3494  -0.1462   0.9099
     2.4005   3.3516   3.6996   4.7170

     occupation numbers 
     1.0000   1.0000   1.0000   1.0000   0.0000   0.0000   0.0000   0.0000
     0.0000   0.0000   0.0000   0.0000

          k = 0.1667 0.1155 0.0000 (  6492 PWs)   bands (ev):

   -23.5624 -11.5066 -10.2557  -8.9997  -2.6142  -1.2493  -0.0470   1.0079
     2.4989   3.4472   3.7096   4.5156

     occupation numbers 
     1.0000   1.0000   1.0000   1.0000   0.0000   0.0000   0.0000   0.0000
     0.0000   0.0000   0.0000   0.0000

          k = 0.1667 0.1347 0.0000 (  6502 PWs)   bands (ev):

   -23.4775 -11.4061 -10.4703  -9.1450  -2.4945  -1.1310   0.0702   1.1236
     2.6152   3.5597   3.7681   4.2864

     occupation numbers 
     1.0000   1.0000   1.0000   1.0000   0.0000   0.0000   0.0000   0.0000
     0.0000   0.0000   0.0000   0.0000

          k = 0.1667 0.1540 0.0000 (  6498 PWs)   bands (ev):

   -23.3796 -11.2903 -10.6941  -9.3260  -2.3565  -0.9945   0.2055   1.2572
     2.7495   3.6888   3.8717   4.0359

     occupation numbers 
     1.0000   1.0000   1.0000   1.0000   0.0000   0.0000   0.0000   0.0000
     0.0000   0.0000   0.0000   0.0000

          k = 0.1667 0.1732 0.0000 (  6488 PWs)   bands (ev):

   -23.2688 -11.1596 -10.9254  -9.5393  -2.2000  -0.8399   0.3589   1.4084
     2.9015   3.7323   3.8599   4.0273

     occupation numbers 
     1.0000   1.0000   1.0000   1.0000   0.0000   0.0000   0.0000   0.0000
     0.0000   0.0000   0.0000   0.0000

          k = 0.1667 0.1925 0.0000 (  6474 PWs)   bands (ev):

   -23.1452 -11.1635 -11.0139  -9.7799  -2.0251  -0.6670   0.5303   1.5772
     3.0698   3.4483   4.0206   4.2134

     occupation numbers 
     1.0000   1.0000   1.0000   1.0000   0.0000   0.0000   0.0000   0.0000
     0.0000   0.0000   0.0000   0.0000

          k = 0.1667 0.2117 0.0000 (  6481 PWs)   bands (ev):

   -23.0088 -11.4086 -10.8536 -10.0418  -1.8319  -0.4761   0.7197   1.7635
     3.1184   3.2726   4.2103   4.4335

     occupation numbers 
     1.0000   1.0000   1.0000   1.0000   0.0000   0.0000   0.0000   0.0000
     0.0000   0.0000   0.0000   0.0000

          k = 0.1667 0.2309 0.0000 (  6480 PWs)   bands (ev):

   -22.8597 -11.6619 -10.6790 -10.3177  -1.6202  -0.2670   0.9270   1.9671
     2.7942   3.4706   4.4182   4.6785

     occupation numbers 
     1.0000   1.0000   1.0000   1.0000   0.0000   0.0000   0.0000   0.0000
     0.0000   0.0000   0.0000   0.0000

          k = 0.1667 0.2502 0.0000 (  6490 PWs)   bands (ev):

   -22.6980 -11.9258 -10.6002 -10.4899  -1.3901  -0.0398   1.1523   2.1867
     2.4496   3.6933   4.6430   4.9356

     occupation numbers 
     1.0000   1.0000   1.0000   1.0000   0.0000   0.0000   0.0000   0.0000
     0.0000   0.0000   0.0000   0.0000

          k = 0.1667 0.2694 0.0000 (  6486 PWs)   bands (ev):

   -22.5239 -12.2033 -10.8805 -10.2874  -1.1416   0.2054   1.3955   2.0859
     2.4293   3.9341   4.8839   5.1860

     occupation numbers 
     1.0000   1.0000   1.0000   1.0000   0.0000   0.0000   0.0000   0.0000
     0.0000   0.0000   0.0000   0.0000

          k = 0.1667 0.2887 0.0000 (  6494 PWs)   bands (ev):

   -22.3373 -12.4974 -11.1513 -10.0713  -0.8747   0.4685   1.6563   1.7166
     2.6834   4.1922   5.1393   5.4047

     occupation numbers 
     1.0000   1.0000   1.0000   1.0000   0.0000   0.0000   0.0000   0.0000
     0.0000   0.0000   0.0000   0.0000

          k = 0.1667 0.3079 0.0000 (  6472 PWs)   bands (ev):

   -22.1385 -12.8102 -11.4062  -9.8423  -0.5893   0.7495   1.3365   1.9354
     2.9552   4.4671   5.4004   5.5746

     occupation numbers 
     1.0000   1.0000   1.0000   1.0000   0.0000   0.0000   0.0000   0.0000
     0.0000   0.0000   0.0000   0.0000

          k = 0.1667 0.3272 0.0000 (  6476 PWs)   bands (ev):

   -21.9277 -13.1422 -11.6408  -9.6010  -0.2856   0.9456   1.0516   2.2319
     3.2434   4.7582   5.5933   5.7609

     occupation numbers 
     1.0000   1.0000   1.0000   1.0000   0.0000   0.0000   0.0000   0.0000
     0.0000   0.0000   0.0000   0.0000

          k = 0.1667 0.3464 0.0000 (  6469 PWs)   bands (ev):

   -21.7049 -13.4918 -11.8535  -9.3479   0.0365   0.5537   1.3664   2.5461
     3.5476   5.0640   5.6491   6.0461

     occupation numbers 
     1.0000   1.0000   1.0000   1.0000   0.0000   0.0000   0.0000   0.0000
     0.0000   0.0000   0.0000   0.0000

          k = 0.1667 0.3657 0.0000 (  6476 PWs)   bands (ev):

   -21.4705 -13.8561 -12.0444  -9.0842   0.1553   0.3772   1.7010   2.8778
     3.8670   5.3769   5.6600   6.3644

     occupation numbers 
     1.0000   1.0000   1.0000   1.0000   0.0000   0.0000   0.0000   0.0000
     0.0000   0.0000   0.0000   0.0000

          k = 0.1667 0.3849 0.0000 (  6484 PWs)   bands (ev):

   -21.2247 -14.2312 -12.2143  -8.8108  -0.2450   0.7360   2.0533   3.2269
     4.2009   5.5777   5.7745   6.7002

     occupation numbers 
     1.0000   1.0000   1.0000   1.0000   0.0000   0.0000   0.0000   0.0000
     0.0000   0.0000   0.0000   0.0000

          k = 0.1667 0.4041 0.0000 (  6474 PWs)   bands (ev):

   -20.9679 -14.6135 -12.3648  -8.5293  -0.6450   1.1133   2.4231   3.5933
     4.5475   5.5671   6.1036   7.0490

     occupation numbers 
     1.0000   1.0000   1.0000   1.0000   0.0000   0.0000   0.0000   0.0000
     0.0000   0.0000   0.0000   0.0000

          k = 0.1667 0.4234 0.0000 (  6475 PWs)   bands (ev):

   -20.7004 -14.9997 -12.4970  -8.2416  -1.0418   1.5090   2.8103   3.9765
     4.9042   5.5343   6.4643   7.4065

     occupation numbers 
     1.0000   1.0000   1.0000   1.0000   0.0000   0.0000   0.0000   0.0000
     0.0000   0.0000   0.0000   0.0000

          k = 0.1667 0.4426 0.0000 (  6475 PWs)   bands (ev):

   -20.4230 -15.3867 -12.6120  -7.9505  -1.4317   1.9232   3.2145   4.3759
     5.2587   5.5104   6.8358   7.7655

     occupation numbers 
     1.0000   1.0000   1.0000   1.0000   0.0000   0.0000   0.0000   0.0000
     0.0000   0.0000   0.0000   0.0000

          k = 0.1667 0.4619 0.0000 (  6479 PWs)   bands (ev):

   -20.1364 -15.7716 -12.7106  -7.6598  -1.8099   2.3557   3.6354   4.7897
     5.4296   5.6792   7.2089   8.1103

     occupation numbers 
     1.0000   1.0000   1.0000   1.0000   0.0000   0.0000   0.0000   0.0000
     0.0000   0.0000   0.0000   0.0000

          k = 0.1667 0.4811 0.0000 (  6474 PWs)   bands (ev):

   -19.8420 -16.1514 -12.7932  -7.3749  -2.1703   2.8066   4.0723   5.2010
     5.4320   6.0368   7.5680   8.3098

     occupation numbers 
     1.0000   1.0000   1.0000   1.0000   0.0000   0.0000   0.0000   0.0000
     0.0000   0.0000   0.0000   0.0000

          k = 0.1667 0.5004 0.0000 (  6494 PWs)   bands (ev):

   -19.5423 -16.5225 -12.8604  -7.1042  -2.5039   3.2758   4.5243   5.3523
     5.7044   6.3909   7.6860   7.8859

     occupation numbers 
     1.0000   1.0000   1.0000   1.0000   0.0000   0.0000   0.0000   0.0000
     0.0000   0.0000   0.0000   0.0000

          k = 0.1667 0.5196 0.0000 (  6492 PWs)   bands (ev):

   -19.2421 -16.8792 -12.9124  -6.8597  -2.7979   3.7635   4.9886   5.3432
     6.1581   6.7054   7.0777   7.9835

     occupation numbers 
     1.0000   1.0000   1.0000   1.0000   0.0000   0.0000   0.0000   0.0000
     0.0000   0.0000   0.0000   0.0000

          k = 0.1667 0.5389 0.0000 (  6486 PWs)   bands (ev):

   -18.9526 -17.2094 -12.9495  -6.6589  -3.0343   4.2695   5.3150   5.4806
     6.4745   6.6340   6.9303   7.6520

     occupation numbers 
     1.0000   1.0000   1.0000   1.0000   0.0000   0.0000   0.0000   0.0000
     0.0000   0.0000   0.0000   0.0000

          k = 0.1667 0.5581 0.0000 (  6496 PWs)   bands (ev):

   -18.7067 -17.4799 -12.9717  -6.5239  -3.1908   4.7938   5.3126   5.8965
     5.9580   6.8520   7.1197   7.4296

     occupation numbers 
     1.0000   1.0000   1.0000   1.0000   0.0000   0.0000   0.0000   0.0000
     0.0000   0.0000   0.0000   0.0000

          k = 0.1667 0.5774 0.0000 (  6478 PWs)   bands (ev):

   -18.5955 -17.5993 -12.9791  -6.4760  -3.2459   5.3096   5.3317   5.3412
     6.3775   6.5032   7.3922   7.5857

     occupation numbers 
     1.0000   1.0000   1.0000   1.0000   0.0000   0.0000   0.0000   0.0000
     0.0000   0.0000   0.0000   0.0000

          k = 0.1667 0.5966 0.0000 (  6496 PWs)   bands (ev):

   -18.7067 -17.4798 -12.9718  -6.5242  -3.1904   4.7938   5.3123   5.8966
     5.9580   6.8520   7.1198   7.4292

     occupation numbers 
     1.0000   1.0000   1.0000   1.0000   0.0000   0.0000   0.0000   0.0000
     0.0000   0.0000   0.0000   0.0000

          k = 0.1667 0.6158 0.0000 (  6486 PWs)   bands (ev):

   -18.9526 -17.2092 -12.9498  -6.6594  -3.0335   4.2695   5.3142   5.4809
     6.4745   6.6341   6.9299   7.6518

     occupation numbers 
     1.0000   1.0000   1.0000   1.0000   0.0000   0.0000   0.0000   0.0000
     0.0000   0.0000   0.0000   0.0000

          k = 0.1667 0.6351 0.0000 (  6492 PWs)   bands (ev):

   -19.2420 -16.8789 -12.9129  -6.8604  -2.7967   3.7635   4.9883   5.3426
     6.1584   6.7049   7.0776   7.9836

     occupation numbers 
     1.0000   1.0000   1.0000   1.0000   0.0000   0.0000   0.0000   0.0000
     0.0000   0.0000   0.0000   0.0000

          k = 0.1667 0.6543 0.0000 (  6494 PWs)   bands (ev):

   -19.5423 -16.5220 -12.8610  -7.1049  -2.5025   3.2758   4.5242   5.3512
     5.7049   6.3904   7.6860   7.8857

     occupation numbers 
     1.0000   1.0000   1.0000   1.0000   0.0000   0.0000   0.0000   0.0000
     0.0000   0.0000   0.0000   0.0000

          k = 0.1667-0.4811 0.0000 (  6474 PWs)   bands (ev):

   -19.8420 -16.1508 -12.7940  -7.3757  -2.1687   2.8066   4.0722   5.2002
     5.4318   6.0365   7.5677   8.3098

     occupation numbers 
     1.0000   1.0000   1.0000   1.0000   0.0000   0.0000   0.0000   0.0000
     0.0000   0.0000   0.0000   0.0000

          k = 0.1667-0.4619 0.0000 (  6479 PWs)   bands (ev):

   -20.1363 -15.7708 -12.7116  -7.6606  -1.8081   2.3557   3.6353   4.7894
     5.4282   5.6791   7.2086   8.1101

     occupation numbers 
     1.0000   1.0000   1.0000   1.0000   0.0000   0.0000   0.0000   0.0000
     0.0000   0.0000   0.0000   0.0000

          k = 0.1667-0.4426 0.0000 (  6475 PWs)   bands (ev):

   -20.4229 -15.3857 -12.6133  -7.9513  -1.4297   1.9231   3.2145   4.3758
     5.2579   5.5092   6.8356   7.7652

     occupation numbers 
     1.0000   1.0000   1.0000   1.0000   0.0000   0.0000   0.0000   0.0000
     0.0000   0.0000   0.0000   0.0000

          k = 0.1667-0.4234 0.0000 (  6475 PWs)   bands (ev):

   -20.7003 -14.9985 -12.4986  -8.2424  -1.0397   1.5090   2.8103   3.9764
     4.9037   5.5322   6.4642   7.4064

     occupation numbers 
     1.0000   1.0000   1.0000   1.0000   0.0000   0.0000   0.0000   0.0000
     0.0000   0.0000   0.0000   0.0000

          k = 0.1667-0.4041 0.0000 (  6474 PWs)   bands (ev):

   -20.9677 -14.6119 -12.3668  -8.5300  -0.6428   1.1133   2.4231   3.5932
     4.5472   5.5642   6.1035   7.0488

     occupation numbers 
     1.0000   1.0000   1.0000   1.0000   0.0000   0.0000   0.0000   0.0000
     0.0000   0.0000   0.0000   0.0000

          k = 0.1667-0.3849 0.0000 (  6484 PWs)   bands (ev):

   -21.2246 -14.2291 -12.2168  -8.8115  -0.2427   0.7360   2.0533   3.2269
     4.2006   5.5741   5.7742   6.7001

     occupation numbers 
     1.0000   1.0000   1.0000   1.0000   0.0000   0.0000   0.0000   0.0000
     0.0000   0.0000   0.0000   0.0000

          k = 0.1667-0.3657 0.0000 (  6476 PWs)   bands (ev):

   -21.4704 -13.8535 -12.0473  -9.0848   0.1577   0.3772   1.7009   2.8778
     3.8668   5.3760   5.6557   6.3643

     occupation numbers 
     1.0000   1.0000   1.0000   1.0000   0.0000   0.0000   0.0000   0.0000
     0.0000   0.0000   0.0000   0.0000

          k = 0.1667-0.3464 0.0000 (  6469 PWs)   bands (ev):

   -21.7048 -13.4887 -11.8571  -9.3486   0.0365   0.5561   1.3664   2.5461
     3.5474   5.0637   5.6429   6.0460

     occupation numbers 
     1.0000   1.0000   1.0000   1.0000   0.0000   0.0000   0.0000   0.0000
     0.0000   0.0000   0.0000   0.0000

          k = 0.1667-0.3272 0.0000 (  6476 PWs)   bands (ev):

   -21.9275 -13.1385 -11.6450  -9.6015  -0.2856   0.9480   1.0516   2.2319
     3.2432   4.7580   5.5863   5.7595

     occupation numbers 
     1.0000   1.0000   1.0000   1.0000   0.0000   0.0000   0.0000   0.0000
     0.0000   0.0000   0.0000   0.0000

          k = 0.1667-0.3079 0.0000 (  6472 PWs)   bands (ev):

   -22.1384 -12.8059 -11.4110  -9.8429  -0.5893   0.7495   1.3390   1.9354
     2.9550   4.4669   5.3980   5.5667

     occupation numbers 
     1.0000   1.0000   1.0000   1.0000   0.0000   0.0000   0.0000   0.0000
     0.0000   0.0000   0.0000   0.0000

          k = 0.1667-0.2887 0.0000 (  6494 PWs)   bands (ev):

   -22.3372 -12.4925 -11.1567 -10.0718  -0.8747   0.4685   1.6563   1.7190
     2.6833   4.1920   5.1383   5.3945

     occupation numbers 
     1.0000   1.0000   1.0000   1.0000   0.0000   0.0000   0.0000   0.0000
     0.0000   0.0000   0.0000   0.0000

          k = 0.1667-0.2694 0.0000 (  6486 PWs)   bands (ev):

   -22.5237 -12.1980 -10.8863 -10.2878  -1.1416   0.2053   1.3955   2.0883
     2.4292   3.9340   4.8832   5.1756

     occupation numbers 
     1.0000   1.0000   1.0000   1.0000   0.0000   0.0000   0.0000   0.0000
     0.0000   0.0000   0.0000   0.0000

          k = 0.1667-0.2502 0.0000 (  6490 PWs)   bands (ev):

   -22.6979 -11.9203 -10.6063 -10.4904  -1.3901  -0.0399   1.1523   2.1865
     2.4521   3.6932   4.6423   4.9260

     occupation numbers 
     1.0000   1.0000   1.0000   1.0000   0.0000   0.0000   0.0000   0.0000
     0.0000   0.0000   0.0000   0.0000

          k = 0.1667-0.2309 0.0000 (  6480 PWs)   bands (ev):

   -22.8596 -11.6563 -10.6793 -10.3240  -1.6202  -0.2670   0.9270   1.9670
     2.7966   3.4705   4.4175   4.6698

     occupation numbers 
     1.0000   1.0000   1.0000   1.0000   0.0000   0.0000   0.0000   0.0000
     0.0000   0.0000   0.0000   0.0000

          k = 0.1667-0.2117 0.0000 (  6481 PWs)   bands (ev):

   -23.0087 -11.4028 -10.8540 -10.0482  -1.8319  -0.4761   0.7196   1.7634
     3.1204   3.2728   4.2095   4.4258

     occupation numbers 
     1.0000   1.0000   1.0000   1.0000   0.0000   0.0000   0.0000   0.0000
     0.0000   0.0000   0.0000   0.0000

          k = 0.1667-0.1925 0.0000 (  6474 PWs)   bands (ev):

   -23.1451 -11.1578 -11.0142  -9.7864  -2.0251  -0.6670   0.5303   1.5771
     3.0697   3.4505   4.0197   4.2066

     occupation numbers 
     1.0000   1.0000   1.0000   1.0000   0.0000   0.0000   0.0000   0.0000
     0.0000   0.0000   0.0000   0.0000

          k = 0.1667-0.1732 0.0000 (  6488 PWs)   bands (ev):

   -23.2687 -11.1598 -10.9197  -9.5458  -2.2000  -0.8399   0.3589   1.4083
     2.9014   3.7339   3.8593   4.0213

     occupation numbers 
     1.0000   1.0000   1.0000   1.0000   0.0000   0.0000   0.0000   0.0000
     0.0000   0.0000   0.0000   0.0000

          k = 0.1667-0.1540 0.0000 (  6498 PWs)   bands (ev):

   -23.3795 -11.2906 -10.6885  -9.3325  -2.3565  -0.9945   0.2055   1.2571
     2.7494   3.6880   3.8660   4.0378

     occupation numbers 
     1.0000   1.0000   1.0000   1.0000   0.0000   0.0000   0.0000   0.0000
     0.0000   0.0000   0.0000   0.0000

          k = 0.1667-0.1347 0.0000 (  6502 PWs)   bands (ev):

   -23.4774 -11.4063 -10.4647  -9.1513  -2.4945  -1.1310   0.0702   1.1236
     2.6151   3.5591   3.7625   4.2881

     occupation numbers 
     1.0000   1.0000   1.0000   1.0000   0.0000   0.0000   0.0000   0.0000
     0.0000   0.0000   0.0000   0.0000

          k = 0.1667-0.1155 0.0000 (  6492 PWs)   bands (ev):

   -23.5624 -11.5068 -10.2502  -9.0059  -2.6142  -1.2493  -0.0470   1.0078
     2.4988   3.4469   3.7041   4.5171

     occupation numbers 
     1.0000   1.0000   1.0000   1.0000   0.0000   0.0000   0.0000   0.0000
     0.0000   0.0000   0.0000   0.0000

          k = 0.1667-0.0962 0.0000 (  6486 PWs)   bands (ev):

   -23.6343 -11.5921 -10.0476  -8.8977  -2.7154  -1.3494  -0.1462   0.9098
     2.4004   3.3514   3.6943   4.7184

     occupation numbers 
     1.0000   1.0000   1.0000   1.0000   0.0000   0.0000   0.0000   0.0000
     0.0000   0.0000   0.0000   0.0000

          k = 0.1667-0.0770 0.0000 (  6494 PWs)   bands (ev):

   -23.6932 -11.6619  -9.8612  -8.8263  -2.7983  -1.4313  -0.2273   0.8297
     2.3200   3.2727   3.7304   4.7813

     occupation numbers 
     1.0000   1.0000   1.0000   1.0000   0.0000   0.0000   0.0000   0.0000
     0.0000   0.0000   0.0000   0.0000

          k = 0.1667-0.0577 0.0000 (  6490 PWs)   bands (ev):

   -23.7391 -11.7164  -9.6968  -8.7881  -2.8627  -1.4950  -0.2904   0.7673
     2.2574   3.2110   3.8043   4.7190

     occupation numbers 
     1.0000   1.0000   1.0000   1.0000   0.0000   0.0000   0.0000   0.0000
     0.0000   0.0000   0.0000   0.0000

          k = 0.1667-0.0385 0.0000 (  6491 PWs)   bands (ev):

   -23.7718 -11.7553  -9.5635  -8.7759  -2.9087  -1.5405  -0.3354   0.7227
     2.2127   3.1668   3.8997   4.6754

     occupation numbers 
     1.0000   1.0000   1.0000   1.0000   0.0000   0.0000   0.0000   0.0000
     0.0000   0.0000   0.0000   0.0000

          k = 0.1667-0.0192 0.0000 (  6481 PWs)   bands (ev):

   -23.7915 -11.7786  -9.4738  -8.7778  -2.9363  -1.5678  -0.3624   0.6960
     2.1859   3.1402   3.9874   4.6505

     occupation numbers 
     1.0000   1.0000   1.0000   1.0000   0.0000   0.0000   0.0000   0.0000
     0.0000   0.0000   0.0000   0.0000

          k = 0.1667-0.0000 0.0000 (  6487 PWs)   bands (ev):

   -23.7981 -11.7864  -9.4424  -8.7800  -2.9455  -1.5769  -0.3714   0.6871
     2.1770   3.1313   4.0255   4.6428

     occupation numbers 
     1.0000   1.0000   1.0000   1.0000   0.0000   0.0000   0.0000   0.0000
     0.0000   0.0000   0.0000   0.0000

          k = 0.1667 0.0192 0.0000 (  6481 PWs)   bands (ev):

   -23.7915 -11.7786  -9.4759  -8.7756  -2.9363  -1.5678  -0.3624   0.6960
     2.1859   3.1402   3.9896   4.6505

     occupation numbers 
     1.0000   1.0000   1.0000   1.0000   0.0000   0.0000   0.0000   0.0000
     0.0000   0.0000   0.0000   0.0000

          k = 0.1667 0.0385 0.0000 (  6491 PWs)   bands (ev):

   -23.7719 -11.7552  -9.5671  -8.7720  -2.9087  -1.5405  -0.3354   0.7228
     2.2127   3.1668   3.9034   4.6754

     occupation numbers 
     1.0000   1.0000   1.0000   1.0000   0.0000   0.0000   0.0000   0.0000
     0.0000   0.0000   0.0000   0.0000

          k = 0.1667 0.0577 0.0000 (  6490 PWs)   bands (ev):

   -23.7391 -11.7163  -9.7013  -8.7832  -2.8627  -1.4950  -0.2903   0.7673
     2.2574   3.2111   3.8088   4.7191

     occupation numbers 
     1.0000   1.0000   1.0000   1.0000   0.0000   0.0000   0.0000   0.0000
     0.0000   0.0000   0.0000   0.0000

          k = 0.1667 0.0770 0.0000 (  6494 PWs)   bands (ev):

   -23.6933 -11.6618  -9.8662  -8.8207  -2.7983  -1.4313  -0.2273   0.8297
     2.3200   3.2727   3.7354   4.7814

     occupation numbers 
     1.0000   1.0000   1.0000   1.0000   0.0000   0.0000   0.0000   0.0000
     0.0000   0.0000   0.0000   0.0000

          k = 0.1833 0.1058 0.0000 (  6496 PWs)   bands (ev):

   -23.4971 -11.4293 -10.4516  -9.0719  -2.5222  -1.1583   0.0431   1.0967
     2.5878   3.5251   3.6753   4.3341

     occupation numbers 
     1.0000   1.0000   1.0000   1.0000   0.0000   0.0000   0.0000   0.0000
     0.0000   0.0000   0.0000   0.0000

          k = 0.1833 0.1251 0.0000 (  6496 PWs)   bands (ev):

   -23.4187 -11.3367 -10.6605  -9.1811  -2.4117  -1.0492   0.1513   1.2033
     2.6945   3.6012   3.7082   4.1262

     occupation numbers 
     1.0000   1.0000   1.0000   1.0000   0.0000   0.0000   0.0000   0.0000
     0.0000   0.0000   0.0000   0.0000

          k = 0.1833 0.1443 0.0000 (  6490 PWs)   bands (ev):

   -23.3274 -11.2289 -10.8782  -9.3283  -2.2829  -0.9218   0.2775   1.3276
     2.8188   3.6797   3.7849   3.9153

     occupation numbers 
     1.0000   1.0000   1.0000   1.0000   0.0000   0.0000   0.0000   0.0000
     0.0000   0.0000   0.0000   0.0000

          k = 0.1833 0.1636 0.0000 (  6492 PWs)   bands (ev):

   -23.2232 -11.1075 -11.1006  -9.5120  -2.1356  -0.7763   0.4218   1.4695
     2.9601   3.6125   3.7945   3.9638

     occupation numbers 
     1.0000   1.0000   1.0000   1.0000   0.0000   0.0000   0.0000   0.0000
     0.0000   0.0000   0.0000   0.0000

          k = 0.1833 0.1828 0.0000 (  6492 PWs)   bands (ev):

   -23.1062 -11.3303 -10.9683  -9.7289  -1.9699  -0.6126   0.5841   1.6289
     3.1120   3.3481   3.9474   4.1196

     occupation numbers 
     1.0000   1.0000   1.0000   1.0000   0.0000   0.0000   0.0000   0.0000
     0.0000   0.0000   0.0000   0.0000

          k = 0.1833 0.2021 0.0000 (  6478 PWs)   bands (ev):

   -22.9763 -11.5624 -10.8159  -9.9744  -1.7858  -0.4308   0.7644   1.8055
     3.0265   3.3170   4.1410   4.3010

     occupation numbers 
     1.0000   1.0000   1.0000   1.0000   0.0000   0.0000   0.0000   0.0000
     0.0000   0.0000   0.0000   0.0000

          k = 0.1833 0.2213 0.0000 (  6476 PWs)   bands (ev):

   -22.8338 -11.7981 -10.6490 -10.2428  -1.5834  -0.2308   0.9628   1.9984
     2.7221   3.5069   4.3676   4.5066

     occupation numbers 
     1.0000   1.0000   1.0000   1.0000   0.0000   0.0000   0.0000   0.0000
     0.0000   0.0000   0.0000   0.0000

          k = 0.1833 0.2406 0.0000 (  6480 PWs)   bands (ev):

   -22.6786 -12.0384 -10.5280 -10.4676  -1.3625  -0.0128   1.1791   2.1981
     2.4082   3.7201   4.6154   4.7403

     occupation numbers 
     1.0000   1.0000   1.0000   1.0000   0.0000   0.0000   0.0000   0.0000
     0.0000   0.0000   0.0000   0.0000

          k = 0.1833 0.2598 0.0000 (  6480 PWs)   bands (ev):

   -22.5109 -12.2852 -10.8220 -10.2727  -1.1232   0.2233   1.4132   2.0432
     2.4524   3.9518   4.8715   5.0054

     occupation numbers 
     1.0000   1.0000   1.0000   1.0000   0.0000   0.0000   0.0000   0.0000
     0.0000   0.0000   0.0000   0.0000

          k = 0.1833 0.2791 0.0000 (  6484 PWs)   bands (ev):

   -22.3309 -12.5413 -11.1175 -10.0641  -0.8655   0.4774   1.6636   1.6984
     2.6937   4.2009   5.1323   5.2915

     occupation numbers 
     1.0000   1.0000   1.0000   1.0000   0.0000   0.0000   0.0000   0.0000
     0.0000   0.0000   0.0000   0.0000

          k = 0.1833 0.2983 0.0000 (  6472 PWs)   bands (ev):

   -22.1385 -12.8103 -11.4061  -9.8423  -0.5893   0.7495   1.3365   1.9354
     2.9551   4.4671   5.4004   5.5747

     occupation numbers 
     1.0000   1.0000   1.0000   1.0000   0.0000   0.0000   0.0000   0.0000
     0.0000   0.0000   0.0000   0.0000

          k = 0.1833 0.3175 0.0000 (  6482 PWs)   bands (ev):

   -21.9341 -13.0958 -11.6802  -9.6079  -0.2948   0.9673   1.0396   2.2229
     3.2336   4.7498   5.6714   5.8277

     occupation numbers 
     1.0000   1.0000   1.0000   1.0000   0.0000   0.0000   0.0000   0.0000
     0.0000   0.0000   0.0000   0.0000

          k = 0.1833 0.3368 0.0000 (  6478 PWs)   bands (ev):

   -21.7177 -13.4003 -11.9335  -9.3615   0.0181   0.5912   1.3474   2.5282
     3.5281   5.0484   5.9021   6.0610

     occupation numbers 
     1.0000   1.0000   1.0000   1.0000   0.0000   0.0000   0.0000   0.0000
     0.0000   0.0000   0.0000   0.0000

          k = 0.1833 0.3560 0.0000 (  6492 PWs)   bands (ev):

   -21.4896 -13.7242 -12.1623  -9.1038   0.2094   0.3495   1.6729   2.8510
     3.8378   5.3615   6.0145   6.3456

     occupation numbers 
     1.0000   1.0000   1.0000   1.0000   0.0000   0.0000   0.0000   0.0000
     0.0000   0.0000   0.0000   0.0000

          k = 0.1833 0.3753 0.0000 (  6486 PWs)   bands (ev):

   -21.2500 -14.0658 -12.3656  -8.8359  -0.1761   0.6991   2.0161   3.1913
     4.1618   5.6845   6.0499   6.6652

     occupation numbers 
     1.0000   1.0000   1.0000   1.0000   0.0000   0.0000   0.0000   0.0000
     0.0000   0.0000   0.0000   0.0000

          k = 0.1833 0.3945 0.0000 (  6476 PWs)   bands (ev):

   -20.9993 -14.4217 -12.5441  -8.5590  -0.5632   1.0673   2.3768   3.5489
     4.4986   5.9592   6.1078   7.0012

     occupation numbers 
     1.0000   1.0000   1.0000   1.0000   0.0000   0.0000   0.0000   0.0000
     0.0000   0.0000   0.0000   0.0000

          k = 0.1833 0.4138 0.0000 (  6469 PWs)   bands (ev):

   -20.7378 -14.7877 -12.6996  -8.2747  -0.9497   1.4538   2.7548   3.9236
     4.8461   5.9820   6.4109   7.3462

     occupation numbers 
     1.0000   1.0000   1.0000   1.0000   0.0000   0.0000   0.0000   0.0000
     0.0000   0.0000   0.0000   0.0000

          k = 0.1833 0.4330 0.0000 (  6462 PWs)   bands (ev):

   -20.4661 -15.1599 -12.8340  -7.9852  -1.3324   1.8587   3.1497   4.3150
     5.2005   5.9537   6.7658   7.6917

     occupation numbers 
     1.0000   1.0000   1.0000   1.0000   0.0000   0.0000   0.0000   0.0000
     0.0000   0.0000   0.0000   0.0000

          k = 0.1833 0.4523 0.0000 (  6459 PWs)   bands (ev):

   -20.1849 -15.5344 -12.9488  -7.6936  -1.7075   2.2820   3.5613   4.7226
     5.5528   5.9259   7.1236   8.0232

     occupation numbers 
     1.0000   1.0000   1.0000   1.0000   0.0000   0.0000   0.0000   0.0000
     0.0000   0.0000   0.0000   0.0000

          k = 0.1833 0.4715 0.0000 (  6458 PWs)   bands (ev):

   -19.8953 -15.9079 -13.0454  -7.4043  -2.0700   2.7237   3.9888   5.1446
     5.8228   5.9787   7.4664   8.3180

     occupation numbers 
     1.0000   1.0000   1.0000   1.0000   0.0000   0.0000   0.0000   0.0000
     0.0000   0.0000   0.0000   0.0000

          k = 0.1833 0.4907 0.0000 (  6472 PWs)   bands (ev):

   -19.5990 -16.2765 -13.1248  -7.1238  -2.4126   3.1837   4.4314   5.5705
     5.8467   6.2752   7.7678   8.1500

     occupation numbers 
     1.0000   1.0000   1.0000   1.0000   0.0000   0.0000   0.0000   0.0000
     0.0000   0.0000   0.0000   0.0000

          k = 0.1833 0.5100 0.0000 (  6486 PWs)   bands (ev):

   -19.2995 -16.6355 -13.1877  -6.8619  -2.7249   3.6622   4.8874   5.7786
     6.0729   6.5669   7.5245   8.0039

     occupation numbers 
     1.0000   1.0000   1.0000   1.0000   0.0000   0.0000   0.0000   0.0000
     0.0000   0.0000   0.0000   0.0000

          k = 0.1833 0.5292 0.0000 (  6476 PWs)   bands (ev):

   -19.0038 -16.9765 -13.2344  -6.6334  -2.9916   4.1589   5.3532   5.7742
     6.5279   6.7785   6.9320   7.9509

     occupation numbers 
     1.0000   1.0000   1.0000   1.0000   0.0000   0.0000   0.0000   0.0000
     0.0000   0.0000   0.0000   0.0000

          k = 0.1833 0.5485 0.0000 (  6488 PWs)   bands (ev):

   -18.7308 -17.2802 -13.2655  -6.4589  -3.1918   4.6740   5.7471   5.8399
     6.3273   6.8821   7.0121   7.6002

     occupation numbers 
     1.0000   1.0000   1.0000   1.0000   0.0000   0.0000   0.0000   0.0000
     0.0000   0.0000   0.0000   0.0000

          k = 0.1833 0.5677 0.0000 (  6492 PWs)   bands (ev):

   -18.5370 -17.4894 -13.2810  -6.3627  -3.3009   5.2073   5.7518   5.7587
     6.2767   6.7358   7.3508   7.5265

     occupation numbers 
     1.0000   1.0000   1.0000   1.0000   0.0000   0.0000   0.0000   0.0000
     0.0000   0.0000   0.0000   0.0000

          k = 0.1833 0.5870 0.0000 (  6492 PWs)   bands (ev):

   -18.5370 -17.4894 -13.2811  -6.3629  -3.3006   5.2073   5.7517   5.7587
     6.2766   6.7360   7.3504   7.5268

     occupation numbers 
     1.0000   1.0000   1.0000   1.0000   0.0000   0.0000   0.0000   0.0000
     0.0000   0.0000   0.0000   0.0000

          k = 0.1833 0.6062 0.0000 (  6488 PWs)   bands (ev):

   -18.7308 -17.2800 -13.2657  -6.4594  -3.1910   4.6740   5.7461   5.8404
     6.3273   6.8820   7.0123   7.5998

     occupation numbers 
     1.0000   1.0000   1.0000   1.0000   0.0000   0.0000   0.0000   0.0000
     0.0000   0.0000   0.0000   0.0000

          k = 0.1833 0.6255 0.0000 (  6476 PWs)   bands (ev):

   -19.0038 -16.9762 -13.2349  -6.6341  -2.9905   4.1589   5.3529   5.7736
     6.5282   6.7781   6.9320   7.9509

     occupation numbers 
     1.0000   1.0000   1.0000   1.0000   0.0000   0.0000   0.0000   0.0000
     0.0000   0.0000   0.0000   0.0000

          k = 0.1833 0.6447 0.0000 (  6486 PWs)   bands (ev):

   -19.2994 -16.6350 -13.1883  -6.8627  -2.7234   3.6622   4.8873   5.7773
     6.0735   6.5663   7.5245   8.0039

     occupation numbers 
     1.0000   1.0000   1.0000   1.0000   0.0000   0.0000   0.0000   0.0000
     0.0000   0.0000   0.0000   0.0000

          k = 0.1833 0.6640 0.0000 (  6472 PWs)   bands (ev):

   -19.5989 -16.2758 -13.1257  -7.1247  -2.4108   3.1837   4.4313   5.5698
     5.8462   6.2747   7.7675   8.1500

     occupation numbers 
     1.0000   1.0000   1.0000   1.0000   0.0000   0.0000   0.0000   0.0000
     0.0000   0.0000   0.0000   0.0000

          k = 0.1833-0.4715 0.0000 (  6458 PWs)   bands (ev):

   -19.8952 -15.9070 -13.0466  -7.4052  -2.0680   2.7237   3.9887   5.1444
     5.8212   5.9786   7.4661   8.3180

     occupation numbers 
     1.0000   1.0000   1.0000   1.0000   0.0000   0.0000   0.0000   0.0000
     0.0000   0.0000   0.0000   0.0000

          k = 0.1833-0.4523 0.0000 (  6459 PWs)   bands (ev):

   -20.1848 -15.5333 -12.9502  -7.6945  -1.7054   2.2820   3.5612   4.7224
     5.5520   5.9245   7.1234   8.0230

     occupation numbers 
     1.0000   1.0000   1.0000   1.0000   0.0000   0.0000   0.0000   0.0000
     0.0000   0.0000   0.0000   0.0000

          k = 0.1833-0.4330 0.0000 (  6462 PWs)   bands (ev):

   -20.4660 -15.1584 -12.8358  -7.9860  -1.3301   1.8587   3.1497   4.3149
     5.1999   5.9514   6.7657   7.6914

     occupation numbers 
     1.0000   1.0000   1.0000   1.0000   0.0000   0.0000   0.0000   0.0000
     0.0000   0.0000   0.0000   0.0000

          k = 0.1833-0.4138 0.0000 (  6469 PWs)   bands (ev):

   -20.7377 -14.7858 -12.7018  -8.2755  -0.9473   1.4538   2.7547   3.9235
     4.8456   5.9787   6.4109   7.3460

     occupation numbers 
     1.0000   1.0000   1.0000   1.0000   0.0000   0.0000   0.0000   0.0000
     0.0000   0.0000   0.0000   0.0000

          k = 0.1833-0.3945 0.0000 (  6476 PWs)   bands (ev):

   -20.9991 -14.4193 -12.5469  -8.5598  -0.5608   1.0673   2.3768   3.5489
     4.4982   5.9560   6.1066   7.0011

     occupation numbers 
     1.0000   1.0000   1.0000   1.0000   0.0000   0.0000   0.0000   0.0000
     0.0000   0.0000   0.0000   0.0000

          k = 0.1833-0.3753 0.0000 (  6486 PWs)   bands (ev):

   -21.2499 -14.0629 -12.3689  -8.8367  -0.1736   0.6991   2.0161   3.1913
     4.1615   5.6838   6.0445   6.6651

     occupation numbers 
     1.0000   1.0000   1.0000   1.0000   0.0000   0.0000   0.0000   0.0000
     0.0000   0.0000   0.0000   0.0000

          k = 0.1833-0.3560 0.0000 (  6492 PWs)   bands (ev):

   -21.4894 -13.7207 -12.1663  -9.1045   0.2119   0.3495   1.6729   2.8510
     3.8375   5.3611   6.0069   6.3453

     occupation numbers 
     1.0000   1.0000   1.0000   1.0000   0.0000   0.0000   0.0000   0.0000
     0.0000   0.0000   0.0000   0.0000

          k = 0.1833-0.3368 0.0000 (  6478 PWs)   bands (ev):

   -21.7175 -13.3962 -11.9380  -9.3621   0.0181   0.5938   1.3473   2.5282
     3.5279   5.0482   5.8945   6.0585

     occupation numbers 
     1.0000   1.0000   1.0000   1.0000   0.0000   0.0000   0.0000   0.0000
     0.0000   0.0000   0.0000   0.0000

          k = 0.1833-0.3175 0.0000 (  6482 PWs)   bands (ev):

   -21.9339 -13.0912 -11.6853  -9.6085  -0.2948   0.9700   1.0396   2.2229
     3.2334   4.7496   5.6678   5.8201

     occupation numbers 
     1.0000   1.0000   1.0000   1.0000   0.0000   0.0000   0.0000   0.0000
     0.0000   0.0000   0.0000   0.0000

          k = 0.1833-0.2983 0.0000 (  6472 PWs)   bands (ev):

   -22.1384 -12.8053 -11.4116  -9.8429  -0.5893   0.7495   1.3391   1.9354
     2.9550   4.4669   5.3979   5.5661

     occupation numbers 
     1.0000   1.0000   1.0000   1.0000   0.0000   0.0000   0.0000   0.0000
     0.0000   0.0000   0.0000   0.0000

          k = 0.1833-0.2791 0.0000 (  6484 PWs)   bands (ev):

   -22.3307 -12.5361 -11.1232 -10.0647  -0.8655   0.4774   1.6637   1.7009
     2.6936   4.2008   5.1297   5.2840

     occupation numbers 
     1.0000   1.0000   1.0000   1.0000   0.0000   0.0000   0.0000   0.0000
     0.0000   0.0000   0.0000   0.0000

          k = 0.1833-0.2598 0.0000 (  6480 PWs)   bands (ev):

   -22.5108 -12.2799 -10.8279 -10.2732  -1.1232   0.2233   1.4132   2.0456
     2.4525   3.9516   4.8680   4.9998

     occupation numbers 
     1.0000   1.0000   1.0000   1.0000   0.0000   0.0000   0.0000   0.0000
     0.0000   0.0000   0.0000   0.0000

          k = 0.1833-0.2406 0.0000 (  6480 PWs)   bands (ev):

   -22.6785 -12.0331 -10.5341 -10.4681  -1.3625  -0.0128   1.1791   2.1980
     2.4108   3.7200   4.6105   4.7370

     occupation numbers 
     1.0000   1.0000   1.0000   1.0000   0.0000   0.0000   0.0000   0.0000
     0.0000   0.0000   0.0000   0.0000

          k = 0.1833-0.2213 0.0000 (  6476 PWs)   bands (ev):

   -22.8337 -11.7928 -10.6494 -10.2489  -1.5834  -0.2308   0.9628   1.9983
     2.7246   3.5068   4.3619   4.5049

     occupation numbers 
     1.0000   1.0000   1.0000   1.0000   0.0000   0.0000   0.0000   0.0000
     0.0000   0.0000   0.0000   0.0000

          k = 0.1833-0.2021 0.0000 (  6478 PWs)   bands (ev):

   -22.9762 -11.5570 -10.8163  -9.9805  -1.7858  -0.4308   0.7644   1.8054
     3.0287   3.3171   4.1352   4.3001

     occupation numbers 
     1.0000   1.0000   1.0000   1.0000   0.0000   0.0000   0.0000   0.0000
     0.0000   0.0000   0.0000   0.0000

          k = 0.1833-0.1828 0.0000 (  6492 PWs)   bands (ev):

   -23.1061 -11.3250 -10.9687  -9.7350  -1.9699  -0.6126   0.5841   1.6288
     3.1119   3.3503   3.9419   4.1190

     occupation numbers 
     1.0000   1.0000   1.0000   1.0000   0.0000   0.0000   0.0000   0.0000
     0.0000   0.0000   0.0000   0.0000

          k = 0.1833-0.1636 0.0000 (  6492 PWs)   bands (ev):

   -23.2231 -11.1071 -11.0960  -9.5181  -2.1356  -0.7763   0.4217   1.4695
     2.9600   3.6145   3.7895   3.9633

     occupation numbers 
     1.0000   1.0000   1.0000   1.0000   0.0000   0.0000   0.0000   0.0000
     0.0000   0.0000   0.0000   0.0000

          k = 0.1833-0.1443 0.0000 (  6490 PWs)   bands (ev):

   -23.3273 -11.2292 -10.8730  -9.3343  -2.2829  -0.9218   0.2775   1.3276
     2.8187   3.6756   3.7838   3.9169

     occupation numbers 
     1.0000   1.0000   1.0000   1.0000   0.0000   0.0000   0.0000   0.0000
     0.0000   0.0000   0.0000   0.0000

          k = 0.1833-0.1251 0.0000 (  6496 PWs)   bands (ev):

   -23.4187 -11.3369 -10.6554  -9.1870  -2.4117  -1.0492   0.1512   1.2033
     2.6944   3.5985   3.7056   4.1280

     occupation numbers 
     1.0000   1.0000   1.0000   1.0000   0.0000   0.0000   0.0000   0.0000
     0.0000   0.0000   0.0000   0.0000

          k = 0.1833-0.1058 0.0000 (  6496 PWs)   bands (ev):

   -23.4970 -11.4295 -10.4466  -9.0776  -2.5222  -1.1583   0.0431   1.0967
     2.5877   3.5243   3.6712   4.3357

     occupation numbers 
     1.0000   1.0000   1.0000   1.0000   0.0000   0.0000   0.0000   0.0000
     0.0000   0.0000   0.0000   0.0000

          k = 0.1833-0.0866 0.0000 (  6492 PWs)   bands (ev):

   -23.5624 -11.5068 -10.2502  -9.0058  -2.6142  -1.2493  -0.0470   1.0078
     2.4988   3.4469   3.7042   4.5171

     occupation numbers 
     1.0000   1.0000   1.0000   1.0000   0.0000   0.0000   0.0000   0.0000
     0.0000   0.0000   0.0000   0.0000

          k = 0.1833-0.0674 0.0000 (  6494 PWs)   bands (ev):

   -23.6147 -11.5688 -10.0716  -8.9684  -2.6878  -1.3221  -0.1191   0.9367
     2.4277   3.3798   3.7861   4.6676

     occupation numbers 
     1.0000   1.0000   1.0000   1.0000   0.0000   0.0000   0.0000   0.0000
     0.0000   0.0000   0.0000   0.0000

          k = 0.1833-0.0481 0.0000 (  6484 PWs)   bands (ev):

   -23.6540 -11.6153  -9.9184  -8.9589  -2.7431  -1.3767  -0.1731   0.8834
     2.3743   3.3280   3.8991   4.7837

     occupation numbers 
     1.0000   1.0000   1.0000   1.0000   0.0000   0.0000   0.0000   0.0000
     0.0000   0.0000   0.0000   0.0000

          k = 0.1833-0.0289 0.0000 (  6489 PWs)   bands (ev):

   -23.6801 -11.6463  -9.8021  -8.9665  -2.7799  -1.4131  -0.2091   0.8478
     2.3387   3.2931   4.0176   4.8034

     occupation numbers 
     1.0000   1.0000   1.0000   1.0000   0.0000   0.0000   0.0000   0.0000
     0.0000   0.0000   0.0000   0.0000

          k = 0.1833-0.0096 0.0000 (  6487 PWs)   bands (ev):

   -23.6932 -11.6618  -9.7381  -8.9762  -2.7983  -1.4313  -0.2271   0.8301
     2.3209   3.2755   4.0996   4.7880

     occupation numbers 
     1.0000   1.0000   1.0000   1.0000   0.0000   0.0000   0.0000   0.0000
     0.0000   0.0000   0.0000   0.0000

          k = 0.1833 0.0096 0.0000 (  6487 PWs)   bands (ev):

   -23.6933 -11.6618  -9.7391  -8.9751  -2.7983  -1.4313  -0.2271   0.8301
     2.3209   3.2755   4.1007   4.7880

     occupation numbers 
     1.0000   1.0000   1.0000   1.0000   0.0000   0.0000   0.0000   0.0000
     0.0000   0.0000   0.0000   0.0000

          k = 0.1833 0.0289 0.0000 (  6489 PWs)   bands (ev):

   -23.6802 -11.6462  -9.8049  -8.9635  -2.7799  -1.4131  -0.2091   0.8478
     2.3387   3.2931   4.0204   4.8035

     occupation numbers 
     1.0000   1.0000   1.0000   1.0000   0.0000   0.0000   0.0000   0.0000
     0.0000   0.0000   0.0000   0.0000

          k = 0.1833 0.0481 0.0000 (  6484 PWs)   bands (ev):

   -23.6540 -11.6152  -9.9222  -8.9547  -2.7431  -1.3767  -0.1731   0.8834
     2.3743   3.3280   3.9029   4.7830

     occupation numbers 
     1.0000   1.0000   1.0000   1.0000   0.0000   0.0000   0.0000   0.0000
     0.0000   0.0000   0.0000   0.0000

          k = 0.1833 0.0674 0.0000 (  6494 PWs)   bands (ev):

   -23.6147 -11.5686 -10.0760  -8.9634  -2.6878  -1.3221  -0.1190   0.9368
     2.4277   3.3799   3.7903   4.6666

     occupation numbers 
     1.0000   1.0000   1.0000   1.0000   0.0000   0.0000   0.0000   0.0000
     0.0000   0.0000   0.0000   0.0000

          k = 0.1833 0.0866 0.0000 (  6492 PWs)   bands (ev):

   -23.5624 -11.5067 -10.2550  -9.0004  -2.6142  -1.2493  -0.0470   1.0079
     2.4989   3.4472   3.7086   4.5158

     occupation numbers 
     1.0000   1.0000   1.0000   1.0000   0.0000   0.0000   0.0000   0.0000
     0.0000   0.0000   0.0000   0.0000

          k = 0.2000 0.1155 0.0000 (  6474 PWs)   bands (ev):

   -23.3470 -11.2521 -10.8646  -9.2526  -2.3105  -0.9491   0.2503   1.3007
     2.7910   3.5886   3.7545   3.9493

     occupation numbers 
     1.0000   1.0000   1.0000   1.0000   0.0000   0.0000   0.0000   0.0000
     0.0000   0.0000   0.0000   0.0000

          k = 0.2000 0.1347 0.0000 (  6488 PWs)   bands (ev):

   -23.2622 -11.1524 -11.0781  -9.3619  -2.1908  -0.8309   0.3674   1.4156
     2.9043   3.5976   3.6862   3.9105

     occupation numbers 
     1.0000   1.0000   1.0000   1.0000   0.0000   0.0000   0.0000   0.0000
     0.0000   0.0000   0.0000   0.0000

          k = 0.2000 0.1540 0.0000 (  6482 PWs)   bands (ev):

   -23.1646 -11.2979 -11.0374  -9.5097  -2.0528  -0.6946   0.5026   1.5480
     3.0319   3.4628   3.6555   4.0298

     occupation numbers 
     1.0000   1.0000   1.0000   1.0000   0.0000   0.0000   0.0000   0.0000
     0.0000   0.0000   0.0000   0.0000

          k = 0.2000 0.1732 0.0000 (  6484 PWs)   bands (ev):

   -23.0541 -11.5210 -10.9076  -9.6947  -1.8963  -0.5400   0.6559   1.6975
     3.1228   3.2648   3.7635   4.1785

     occupation numbers 
     1.0000   1.0000   1.0000   1.0000   0.0000   0.0000   0.0000   0.0000
     0.0000   0.0000   0.0000   0.0000

          k = 0.2000 0.1925 0.0000 (  6480 PWs)   bands (ev):

   -22.9309 -11.7462 -10.7632  -9.9135  -1.7214  -0.3673   0.8271   1.8635
     2.9044   3.3760   3.9205   4.3476

     occupation numbers 
     1.0000   1.0000   1.0000   1.0000   0.0000   0.0000   0.0000   0.0000
     0.0000   0.0000   0.0000   0.0000

          k = 0.2000 0.2117 0.0000 (  6477 PWs)   bands (ev):

   -22.7949 -11.9726 -10.6042 -10.1619  -1.5281  -0.1765   1.0164   2.0429
     2.6207   3.5586   4.1229   4.5356

     occupation numbers 
     1.0000   1.0000   1.0000   1.0000   0.0000   0.0000   0.0000   0.0000
     0.0000   0.0000   0.0000   0.0000

          k = 0.2000 0.2309 0.0000 (  6477 PWs)   bands (ev):

   -22.6463 -12.1999 -10.4365 -10.4290  -1.3164   0.0323   1.2237   2.1890
     2.3699   3.7630   4.3659   4.7422

     occupation numbers 
     1.0000   1.0000   1.0000   1.0000   0.0000   0.0000   0.0000   0.0000
     0.0000   0.0000   0.0000   0.0000

          k = 0.2000 0.2502 0.0000 (  6474 PWs)   bands (ev):

   -22.4851 -12.4287 -10.7260 -10.2435  -1.0863   0.2593   1.4487   1.9633
     2.4948   3.9859   4.6436   4.9672

     occupation numbers 
     1.0000   1.0000   1.0000   1.0000   0.0000   0.0000   0.0000   0.0000
     0.0000   0.0000   0.0000   0.0000

          k = 0.2000 0.2694 0.0000 (  6480 PWs)   bands (ev):

   -22.3115 -12.6603 -11.0290 -10.0425  -0.8378   0.5041   1.6350   1.6957
     2.7239   4.2264   4.9484   5.2114

     occupation numbers 
     1.0000   1.0000   1.0000   1.0000   0.0000   0.0000   0.0000   0.0000
     0.0000   0.0000   0.0000   0.0000

          k = 0.2000 0.2887 0.0000 (  6470 PWs)   bands (ev):

   -22.1257 -12.8970 -11.3365  -9.8281  -0.5709   0.7667   1.2989   1.9534
     2.9749   4.4841   5.2699   5.4757

     occupation numbers 
     1.0000   1.0000   1.0000   1.0000   0.0000   0.0000   0.0000   0.0000
     0.0000   0.0000   0.0000   0.0000

          k = 0.2000 0.3079 0.0000 (  6476 PWs)   bands (ev):

   -21.9277 -13.1423 -11.6407  -9.6009  -0.2856   0.9456   1.0516   2.2319
     3.2434   4.7582   5.5934   5.7610

     occupation numbers 
     1.0000   1.0000   1.0000   1.0000   0.0000   0.0000   0.0000   0.0000
     0.0000   0.0000   0.0000   0.0000

          k = 0.2000 0.3272 0.0000 (  6478 PWs)   bands (ev):

   -21.7177 -13.4003 -11.9334  -9.3615   0.0181   0.5912   1.3474   2.5282
     3.5281   5.0484   5.9021   6.0611

     occupation numbers 
     1.0000   1.0000   1.0000   1.0000   0.0000   0.0000   0.0000   0.0000
     0.0000   0.0000   0.0000   0.0000

          k = 0.2000 0.3464 0.0000 (  6482 PWs)   bands (ev):

   -21.4959 -13.6751 -12.2070  -9.1104   0.2277   0.3402   1.6636   2.8421
     3.8279   5.3537   6.1741   6.3593

     occupation numbers 
     1.0000   1.0000   1.0000   1.0000   0.0000   0.0000   0.0000   0.0000
     0.0000   0.0000   0.0000   0.0000

          k = 0.2000 0.3657 0.0000 (  6484 PWs)   bands (ev):

   -21.2627 -13.9693 -12.4553  -8.8485  -0.1408   0.6807   1.9975   3.1735
     4.1420   5.6727   6.3614   6.6595

     occupation numbers 
     1.0000   1.0000   1.0000   1.0000   0.0000   0.0000   0.0000   0.0000
     0.0000   0.0000   0.0000   0.0000

          k = 0.2000 0.3849 0.0000 (  6476 PWs)   bands (ev):

   -21.0181 -14.2836 -12.6752  -8.5768  -0.5126   1.0396   2.3489   3.5222
     4.4686   6.0018   6.4451   6.9775

     occupation numbers 
     1.0000   1.0000   1.0000   1.0000   0.0000   0.0000   0.0000   0.0000
     0.0000   0.0000   0.0000   0.0000

          k = 0.2000 0.4041 0.0000 (  6462 PWs)   bands (ev):

   -20.7627 -14.6156 -12.8663  -8.2968  -0.8858   1.4169   2.7176   3.8881
     4.8055   6.3181   6.4840   7.3077

     occupation numbers 
     1.0000   1.0000   1.0000   1.0000   0.0000   0.0000   0.0000   0.0000
     0.0000   0.0000   0.0000   0.0000

          k = 0.2000 0.4234 0.0000 (  6465 PWs)   bands (ev):

   -20.4970 -14.9614 -13.0302  -8.0102  -1.2579   1.8126   3.1032   4.2709
     5.1492   6.4089   6.7227   7.6389

     occupation numbers 
     1.0000   1.0000   1.0000   1.0000   0.0000   0.0000   0.0000   0.0000
     0.0000   0.0000   0.0000   0.0000

          k = 0.2000 0.4426 0.0000 (  6449 PWs)   bands (ev):

   -20.2214 -15.3166 -13.1692  -7.7194  -1.6259   2.2267   3.5054   4.6702
     5.4938   6.3870   7.0596   7.9559

     occupation numbers 
     1.0000   1.0000   1.0000   1.0000   0.0000   0.0000   0.0000   0.0000
     0.0000   0.0000   0.0000   0.0000

          k = 0.2000 0.4619 0.0000 (  6463 PWs)   bands (ev):

   -19.9369 -15.6765 -13.2856  -7.4280  -1.9858   2.6592   3.9234   5.0854
     5.8284   6.3586   7.3848   8.2440

     occupation numbers 
     1.0000   1.0000   1.0000   1.0000   0.0000   0.0000   0.0000   0.0000
     0.0000   0.0000   0.0000   0.0000

          k = 0.2000 0.4811 0.0000 (  6443 PWs)   bands (ev):

   -19.6449 -16.0366 -13.3815  -7.1410  -2.3319   3.1101   4.3563   5.5149
     6.1254   6.3476   7.6739   8.4914

     occupation numbers 
     1.0000   1.0000   1.0000   1.0000   0.0000   0.0000   0.0000   0.0000
     0.0000   0.0000   0.0000   0.0000

          k = 0.2000 0.5004 0.0000 (  6474 PWs)   bands (ev):

   -19.3479 -16.3923 -13.4583  -6.8661  -2.6559   3.5793   4.8021   5.9514
     6.2587   6.4690   7.9066   8.0114

     occupation numbers 
     1.0000   1.0000   1.0000   1.0000   0.0000   0.0000   0.0000   0.0000
     0.0000   0.0000   0.0000   0.0000

          k = 0.2000 0.5196 0.0000 (  6478 PWs)   bands (ev):

   -19.0505 -16.7369 -13.5171  -6.6153  -2.9455   4.0668   5.2575   6.2124
     6.4485   6.6616   7.3807   8.1169

     occupation numbers 
     1.0000   1.0000   1.0000   1.0000   0.0000   0.0000   0.0000   0.0000
     0.0000   0.0000   0.0000   0.0000

          k = 0.2000 0.5389 0.0000 (  6478 PWs)   bands (ev):

   -18.7639 -17.0581 -13.5586  -6.4064  -3.1824   4.5726   5.7137   6.2140
     6.7264   6.8213   6.9286   7.9102

     occupation numbers 
     1.0000   1.0000   1.0000   1.0000   0.0000   0.0000   0.0000   0.0000
     0.0000   0.0000   0.0000   0.0000

          k = 0.2000 0.5581 0.0000 (  6482 PWs)   bands (ev):

   -18.5203 -17.3227 -13.5834  -6.2639  -3.3417   5.0966   6.1355   6.1991
     6.2149   6.8191   7.3763   7.5580

     occupation numbers 
     1.0000   1.0000   1.0000   1.0000   0.0000   0.0000   0.0000   0.0000
     0.0000   0.0000   0.0000   0.0000

          k = 0.2000 0.5774 0.0000 (  6484 PWs)   bands (ev):

   -18.4100 -17.4400 -13.5917  -6.2128  -3.3984   5.6322   5.6448   6.2018
     6.3977   6.7771   7.3347   7.8436

     occupation numbers 
     1.0000   1.0000   1.0000   1.0000   0.0000   0.0000   0.0000   0.0000
     0.0000   0.0000   0.0000   0.0000

          k = 0.2000 0.5966 0.0000 (  6482 PWs)   bands (ev):

   -18.5203 -17.3225 -13.5836  -6.2643  -3.3411   5.0966   6.1349   6.1987
     6.2154   6.8194   7.3764   7.5577

     occupation numbers 
     1.0000   1.0000   1.0000   1.0000   0.0000   0.0000   0.0000   0.0000
     0.0000   0.0000   0.0000   0.0000

          k = 0.2000 0.6158 0.0000 (  6478 PWs)   bands (ev):

   -18.7639 -17.0577 -13.5590  -6.4071  -3.1812   4.5726   5.7134   6.2133
     6.7263   6.8211   6.9292   7.9098

     occupation numbers 
     1.0000   1.0000   1.0000   1.0000   0.0000   0.0000   0.0000   0.0000
     0.0000   0.0000   0.0000   0.0000

          k = 0.2000 0.6351 0.0000 (  6478 PWs)   bands (ev):

   -19.0505 -16.7364 -13.5177  -6.6162  -2.9440   4.0668   5.2573   6.2109
     6.4490   6.6615   7.3807   8.1172

     occupation numbers 
     1.0000   1.0000   1.0000   1.0000   0.0000   0.0000   0.0000   0.0000
     0.0000   0.0000   0.0000   0.0000

          k = 0.2000 0.6543 0.0000 (  6474 PWs)   bands (ev):

   -19.3478 -16.3915 -13.4592  -6.8671  -2.6541   3.5793   4.8020   5.9508
     6.2578   6.4689   7.9066   8.0114

     occupation numbers 
     1.0000   1.0000   1.0000   1.0000   0.0000   0.0000   0.0000   0.0000
     0.0000   0.0000   0.0000   0.0000

          k = 0.2000 0.6736 0.0000 (  6443 PWs)   bands (ev):

   -19.6449 -16.0356 -13.3827  -7.1420  -2.3298   3.1101   4.3562   5.5147
     6.1240   6.3472   7.6736   8.4916

     occupation numbers 
     1.0000   1.0000   1.0000   1.0000   0.0000   0.0000   0.0000   0.0000
     0.0000   0.0000   0.0000   0.0000

          k = 0.2000-0.4619 0.0000 (  6463 PWs)   bands (ev):

   -19.9368 -15.6751 -13.2872  -7.4291  -1.9836   2.6592   3.9233   5.0852
     5.8275   6.3571   7.3845   8.2439

     occupation numbers 
     1.0000   1.0000   1.0000   1.0000   0.0000   0.0000   0.0000   0.0000
     0.0000   0.0000   0.0000   0.0000

          k = 0.2000-0.4426 0.0000 (  6449 PWs)   bands (ev):

   -20.2213 -15.3149 -13.1712  -7.7205  -1.6235   2.2267   3.5053   4.6701
     5.4931   6.3846   7.0594   7.9558

     occupation numbers 
     1.0000   1.0000   1.0000   1.0000   0.0000   0.0000   0.0000   0.0000
     0.0000   0.0000   0.0000   0.0000

          k = 0.2000-0.4234 0.0000 (  6465 PWs)   bands (ev):

   -20.4968 -14.9593 -13.0327  -8.0112  -1.2554   1.8126   3.1032   4.2709
     5.1487   6.4053   6.7226   7.6387

     occupation numbers 
     1.0000   1.0000   1.0000   1.0000   0.0000   0.0000   0.0000   0.0000
     0.0000   0.0000   0.0000   0.0000

          k = 0.2000-0.4041 0.0000 (  6462 PWs)   bands (ev):

   -20.7626 -14.6129 -12.8694  -8.2977  -0.8831   1.4169   2.7176   3.8881
     4.8051   6.3160   6.4809   7.3076

     occupation numbers 
     1.0000   1.0000   1.0000   1.0000   0.0000   0.0000   0.0000   0.0000
     0.0000   0.0000   0.0000   0.0000

          k = 0.2000-0.3849 0.0000 (  6476 PWs)   bands (ev):

   -21.0180 -14.2803 -12.6789  -8.5777  -0.5099   1.0396   2.3489   3.5222
     4.4682   6.0012   6.4384   6.9773

     occupation numbers 
     1.0000   1.0000   1.0000   1.0000   0.0000   0.0000   0.0000   0.0000
     0.0000   0.0000   0.0000   0.0000

          k = 0.2000-0.3657 0.0000 (  6484 PWs)   bands (ev):

   -21.2625 -13.9655 -12.4596  -8.8493  -0.1380   0.6807   1.9975   3.1735
     4.1417   5.6723   6.3524   6.6589

     occupation numbers 
     1.0000   1.0000   1.0000   1.0000   0.0000   0.0000   0.0000   0.0000
     0.0000   0.0000   0.0000   0.0000

          k = 0.2000-0.3464 0.0000 (  6482 PWs)   bands (ev):

   -21.4958 -13.6708 -12.2118  -9.1111   0.2305   0.3402   1.6635   2.8421
     3.8277   5.3534   6.1650   6.3572

     occupation numbers 
     1.0000   1.0000   1.0000   1.0000   0.0000   0.0000   0.0000   0.0000
     0.0000   0.0000   0.0000   0.0000

          k = 0.2000-0.3272 0.0000 (  6478 PWs)   bands (ev):

   -21.7175 -13.3957 -11.9386  -9.3622   0.0181   0.5940   1.3473   2.5282
     3.5279   5.0482   5.8940   6.0583

     occupation numbers 
     1.0000   1.0000   1.0000   1.0000   0.0000   0.0000   0.0000   0.0000
     0.0000   0.0000   0.0000   0.0000

          k = 0.2000-0.3079 0.0000 (  6476 PWs)   bands (ev):

   -21.9275 -13.1375 -11.6462  -9.6016  -0.2856   0.9482   1.0517   2.2319
     3.2432   4.7580   5.5854   5.7592

     occupation numbers 
     1.0000   1.0000   1.0000   1.0000   0.0000   0.0000   0.0000   0.0000
     0.0000   0.0000   0.0000   0.0000

          k = 0.2000-0.2887 0.0000 (  6470 PWs)   bands (ev):

   -22.1255 -12.8921 -11.3421  -9.8288  -0.5709   0.7667   1.3017   1.9534
     2.9748   4.4838   5.2621   5.4748

     occupation numbers 
     1.0000   1.0000   1.0000   1.0000   0.0000   0.0000   0.0000   0.0000
     0.0000   0.0000   0.0000   0.0000

          k = 0.2000-0.2694 0.0000 (  6480 PWs)   bands (ev):

   -22.3114 -12.6553 -11.0347 -10.0430  -0.8378   0.5041   1.6375   1.6958
     2.7239   4.2262   4.9411   5.2110

     occupation numbers 
     1.0000   1.0000   1.0000   1.0000   0.0000   0.0000   0.0000   0.0000
     0.0000   0.0000   0.0000   0.0000

          k = 0.2000-0.2502 0.0000 (  6474 PWs)   bands (ev):

   -22.4850 -12.4237 -10.7317 -10.2440  -1.0863   0.2592   1.4486   1.9658
     2.4950   3.9857   4.6368   4.9670

     occupation numbers 
     1.0000   1.0000   1.0000   1.0000   0.0000   0.0000   0.0000   0.0000
     0.0000   0.0000   0.0000   0.0000

          k = 0.2000-0.2309 0.0000 (  6477 PWs)   bands (ev):

   -22.6461 -12.1950 -10.4415 -10.4303  -1.3164   0.0323   1.2236   2.1894
     2.3720   3.7628   4.3597   4.7420

     occupation numbers 
     1.0000   1.0000   1.0000   1.0000   0.0000   0.0000   0.0000   0.0000
     0.0000   0.0000   0.0000   0.0000

          k = 0.2000-0.2117 0.0000 (  6477 PWs)   bands (ev):

   -22.7948 -11.9677 -10.6046 -10.1677  -1.5281  -0.1766   1.0164   2.0427
     2.6233   3.5585   4.1172   4.5355

     occupation numbers 
     1.0000   1.0000   1.0000   1.0000   0.0000   0.0000   0.0000   0.0000
     0.0000   0.0000   0.0000   0.0000

          k = 0.2000-0.1925 0.0000 (  6480 PWs)   bands (ev):

   -22.9308 -11.7413 -10.7636  -9.9192  -1.7214  -0.3673   0.8271   1.8634
     2.9067   3.3760   3.9152   4.3476

     occupation numbers 
     1.0000   1.0000   1.0000   1.0000   0.0000   0.0000   0.0000   0.0000
     0.0000   0.0000   0.0000   0.0000

          k = 0.2000-0.1732 0.0000 (  6484 PWs)   bands (ev):

   -23.0540 -11.5162 -10.9080  -9.7004  -1.8963  -0.5400   0.6558   1.6974
     3.1235   3.2662   3.7585   4.1785

     occupation numbers 
     1.0000   1.0000   1.0000   1.0000   0.0000   0.0000   0.0000   0.0000
     0.0000   0.0000   0.0000   0.0000

          k = 0.2000-0.1540 0.0000 (  6482 PWs)   bands (ev):

   -23.1645 -11.2930 -11.0377  -9.5154  -2.0528  -0.6946   0.5026   1.5479
     3.0317   3.4649   3.6508   4.0298

     occupation numbers 
     1.0000   1.0000   1.0000   1.0000   0.0000   0.0000   0.0000   0.0000
     0.0000   0.0000   0.0000   0.0000

          k = 0.2000-0.1347 0.0000 (  6488 PWs)   bands (ev):

   -23.2622 -11.1526 -11.0734  -9.3675  -2.1908  -0.8309   0.3674   1.4155
     2.9041   3.5932   3.6877   3.9109

     occupation numbers 
     1.0000   1.0000   1.0000   1.0000   0.0000   0.0000   0.0000   0.0000
     0.0000   0.0000   0.0000   0.0000

          k = 0.2000-0.1155 0.0000 (  6474 PWs)   bands (ev):

   -23.3469 -11.2523 -10.8599  -9.2581  -2.3105  -0.9492   0.2503   1.3006
     2.7909   3.5847   3.7541   3.9511

     occupation numbers 
     1.0000   1.0000   1.0000   1.0000   0.0000   0.0000   0.0000   0.0000
     0.0000   0.0000   0.0000   0.0000

          k = 0.2000-0.0962 0.0000 (  6496 PWs)   bands (ev):

   -23.4187 -11.3369 -10.6555  -9.1869  -2.4117  -1.0492   0.1512   1.2033
     2.6944   3.5986   3.7056   4.1280

     occupation numbers 
     1.0000   1.0000   1.0000   1.0000   0.0000   0.0000   0.0000   0.0000
     0.0000   0.0000   0.0000   0.0000

          k = 0.2000-0.0770 0.0000 (  6502 PWs)   bands (ev):

   -23.4774 -11.4063 -10.4648  -9.1512  -2.4945  -1.1310   0.0702   1.1236
     2.6151   3.5592   3.7626   4.2881

     occupation numbers 
     1.0000   1.0000   1.0000   1.0000   0.0000   0.0000   0.0000   0.0000
     0.0000   0.0000   0.0000   0.0000

          k = 0.2000-0.0577 0.0000 (  6498 PWs)   bands (ev):

   -23.5232 -11.4603 -10.2947  -9.1452  -2.5590  -1.1947   0.0072   1.0616
     2.5534   3.5050   3.8860   4.4183

     occupation numbers 
     1.0000   1.0000   1.0000   1.0000   0.0000   0.0000   0.0000   0.0000
     0.0000   0.0000   0.0000   0.0000

          k = 0.2000-0.0385 0.0000 (  6491 PWs)   bands (ev):

   -23.5559 -11.4989 -10.1550  -9.1592  -2.6050  -1.2401  -0.0377   1.0173
     2.5092   3.4630   4.0302   4.5141

     occupation numbers 
     1.0000   1.0000   1.0000   1.0000   0.0000   0.0000   0.0000   0.0000
     0.0000   0.0000   0.0000   0.0000

          k = 0.2000-0.0192 0.0000 (  6487 PWs)   bands (ev):

   -23.5755 -11.5221 -10.0602  -9.1787  -2.6326  -1.2674  -0.0647   0.9907
     2.4827   3.4373   4.1560   4.5727

     occupation numbers 
     1.0000   1.0000   1.0000   1.0000   0.0000   0.0000   0.0000   0.0000
     0.0000   0.0000   0.0000   0.0000

          k = 0.2000 0.0000 0.0000 (  6479 PWs)   bands (ev):

   -23.5820 -11.5298 -10.0266  -9.1872  -2.6418  -1.2765  -0.0737   0.9818
     2.4738   3.4287   4.2092   4.5923

     occupation numbers 
     1.0000   1.0000   1.0000   1.0000   0.0000   0.0000   0.0000   0.0000
     0.0000   0.0000   0.0000   0.0000

          k = 0.2000 0.0192 0.0000 (  6487 PWs)   bands (ev):

   -23.5755 -11.5220 -10.0620  -9.1768  -2.6326  -1.2674  -0.0647   0.9907
     2.4827   3.4373   4.1578   4.5724

     occupation numbers 
     1.0000   1.0000   1.0000   1.0000   0.0000   0.0000   0.0000   0.0000
     0.0000   0.0000   0.0000   0.0000

          k = 0.2000 0.0385 0.0000 (  6491 PWs)   bands (ev):

   -23.5559 -11.4988 -10.1581  -9.1558  -2.6050  -1.2401  -0.0377   1.0173
     2.5092   3.4631   4.0333   4.5134

     occupation numbers 
     1.0000   1.0000   1.0000   1.0000   0.0000   0.0000   0.0000   0.0000
     0.0000   0.0000   0.0000   0.0000

          k = 0.2000 0.0577 0.0000 (  6498 PWs)   bands (ev):

   -23.5232 -11.4602 -10.2985  -9.1409  -2.5590  -1.1947   0.0073   1.0616
     2.5534   3.5051   3.8896   4.4173

     occupation numbers 
     1.0000   1.0000   1.0000   1.0000   0.0000   0.0000   0.0000   0.0000
     0.0000   0.0000   0.0000   0.0000

          k = 0.2000 0.0770 0.0000 (  6502 PWs)   bands (ev):

   -23.4775 -11.4061 -10.4691  -9.1463  -2.4945  -1.1310   0.0702   1.1236
     2.6152   3.5595   3.7663   4.2868

     occupation numbers 
     1.0000   1.0000   1.0000   1.0000   0.0000   0.0000   0.0000   0.0000
     0.0000   0.0000   0.0000   0.0000

          k = 0.2000 0.0962 0.0000 (  6496 PWs)   bands (ev):

   -23.4187 -11.3367 -10.6600  -9.1817  -2.4117  -1.0492   0.1513   1.2033
     2.6944   3.6007   3.7078   4.1264

     occupation numbers 
     1.0000   1.0000   1.0000   1.0000   0.0000   0.0000   0.0000   0.0000
     0.0000   0.0000   0.0000   0.0000

          k = 0.2167 0.1251 0.0000 (  6488 PWs)   bands (ev):

   -23.1841 -11.2887 -11.0604  -9.4318  -2.0804  -0.7219   0.4754   1.5209
     3.0037   3.5001   3.5500   4.0037

     occupation numbers 
     1.0000   1.0000   1.0000   1.0000   0.0000   0.0000   0.0000   0.0000
     0.0000   0.0000   0.0000   0.0000

          k = 0.2167 0.1443 0.0000 (  6490 PWs)   bands (ev):

   -23.0931 -11.5059 -10.9536  -9.5401  -1.9515  -0.5947   0.6015   1.6434
     3.0995   3.3048   3.5540   4.1248

     occupation numbers 
     1.0000   1.0000   1.0000   1.0000   0.0000   0.0000   0.0000   0.0000
     0.0000   0.0000   0.0000   0.0000

          k = 0.2167 0.1636 0.0000 (  6490 PWs)   bands (ev):

   -22.9892 -11.7265 -10.8319  -9.6875  -1.8043  -0.4493   0.7456   1.7823
     3.0003   3.3005   3.6130   4.2664

     occupation numbers 
     1.0000   1.0000   1.0000   1.0000   0.0000   0.0000   0.0000   0.0000
     0.0000   0.0000   0.0000   0.0000

          k = 0.2167 0.1828 0.0000 (  6482 PWs)   bands (ev):

   -22.8725 -11.9484 -10.6955  -9.8724  -1.6386  -0.2858   0.9077   1.9358
     2.7567   3.4436   3.7251   4.4268

     occupation numbers 
     1.0000   1.0000   1.0000   1.0000   0.0000   0.0000   0.0000   0.0000
     0.0000   0.0000   0.0000   0.0000

          k = 0.2167 0.2021 0.0000 (  6493 PWs)   bands (ev):

   -22.7431 -12.1704 -10.5445 -10.0918  -1.4545  -0.1042   1.0879   2.0929
     2.5011   3.6169   3.8864   4.6054

     occupation numbers 
     1.0000   1.0000   1.0000   1.0000   0.0000   0.0000   0.0000   0.0000
     0.0000   0.0000   0.0000   0.0000

          k = 0.2167 0.2213 0.0000 (  6485 PWs)   bands (ev):

   -22.6010 -12.3914 -10.3793 -10.3413  -1.2520   0.0954   1.2860   2.1107
     2.3865   3.8128   4.0925   4.8019

     occupation numbers 
     1.0000   1.0000   1.0000   1.0000   0.0000   0.0000   0.0000   0.0000
     0.0000   0.0000   0.0000   0.0000

          k = 0.2167 0.2406 0.0000 (  6473 PWs)   bands (ev):

   -22.4464 -12.6110 -10.6167 -10.1996  -1.0311   0.3131   1.5015   1.8519
     2.5538   4.0290   4.3402   5.0162

     occupation numbers 
     1.0000   1.0000   1.0000   1.0000   0.0000   0.0000   0.0000   0.0000
     0.0000   0.0000   0.0000   0.0000

          k = 0.2167 0.2598 0.0000 (  6473 PWs)   bands (ev):

   -22.2793 -12.8295 -10.9117 -10.0064  -0.7918   0.5484   1.5433   1.7390
     2.7730   4.2633   4.6255   5.2479

     occupation numbers 
     1.0000   1.0000   1.0000   1.0000   0.0000   0.0000   0.0000   0.0000
     0.0000   0.0000   0.0000   0.0000

          k = 0.2167 0.2791 0.0000 (  6474 PWs)   bands (ev):

   -22.1000 -13.0479 -11.2207  -9.7998  -0.5341   0.8005   1.2264   1.9893
     3.0139   4.5143   4.9436   5.4969

     occupation numbers 
     1.0000   1.0000   1.0000   1.0000   0.0000   0.0000   0.0000   0.0000
     0.0000   0.0000   0.0000   0.0000

          k = 0.2167 0.2983 0.0000 (  6466 PWs)   bands (ev):

   -21.9084 -13.2678 -11.5369  -9.5801  -0.2580   0.8865   1.0821   2.2588
     3.2726   4.7814   5.2879   5.7631

     occupation numbers 
     1.0000   1.0000   1.0000   1.0000   0.0000   0.0000   0.0000   0.0000
     0.0000   0.0000   0.0000   0.0000

          k = 0.2167 0.3175 0.0000 (  6469 PWs)   bands (ev):

   -21.7049 -13.4920 -11.8534  -9.3479   0.0365   0.5536   1.3664   2.5461
     3.5476   5.0640   5.6493   6.0461

     occupation numbers 
     1.0000   1.0000   1.0000   1.0000   0.0000   0.0000   0.0000   0.0000
     0.0000   0.0000   0.0000   0.0000

          k = 0.2167 0.3368 0.0000 (  6492 PWs)   bands (ev):

   -21.4896 -13.7243 -12.1622  -9.1038   0.2093   0.3495   1.6729   2.8510
     3.8378   5.3615   6.0146   6.3456

     occupation numbers 
     1.0000   1.0000   1.0000   1.0000   0.0000   0.0000   0.0000   0.0000
     0.0000   0.0000   0.0000   0.0000

          k = 0.2167 0.3560 0.0000 (  6484 PWs)   bands (ev):

   -21.2627 -13.9694 -12.4552  -8.8485  -0.1408   0.6807   1.9975   3.1735
     4.1420   5.6727   6.3615   6.6595

     occupation numbers 
     1.0000   1.0000   1.0000   1.0000   0.0000   0.0000   0.0000   0.0000
     0.0000   0.0000   0.0000   0.0000

          k = 0.2167 0.3753 0.0000 (  6484 PWs)   bands (ev):

   -21.0244 -14.2318 -12.7248  -8.5828  -0.4955   1.0304   2.3396   3.5133
     4.4585   5.9958   6.6490   6.9800

     occupation numbers 
     1.0000   1.0000   1.0000   1.0000   0.0000   0.0000   0.0000   0.0000
     0.0000   0.0000   0.0000   0.0000

          k = 0.2167 0.3945 0.0000 (  6470 PWs)   bands (ev):

   -20.7752 -14.5144 -12.9651  -8.3079  -0.8530   1.3985   2.6990   3.8703
     4.7849   6.3269   6.8219   7.2975

     occupation numbers 
     1.0000   1.0000   1.0000   1.0000   0.0000   0.0000   0.0000   0.0000
     0.0000   0.0000   0.0000   0.0000

          k = 0.2167 0.4138 0.0000 (  6455 PWs)   bands (ev):

   -20.5155 -14.8176 -13.1732  -8.0253  -1.2117   1.7850   3.0753   4.2443
     5.1173   6.6540   6.8866   7.6107

     occupation numbers 
     1.0000   1.0000   1.0000   1.0000   0.0000   0.0000   0.0000   0.0000
     0.0000   0.0000   0.0000   0.0000

          k = 0.2167 0.4330 0.0000 (  6448 PWs)   bands (ev):

   -20.2458 -15.1385 -13.3497  -7.7369  -1.5691   2.1899   3.4680   4.6349
     5.4496   6.8377   7.0299   7.9107

     occupation numbers 
     1.0000   1.0000   1.0000   1.0000   0.0000   0.0000   0.0000   0.0000
     0.0000   0.0000   0.0000   0.0000

          k = 0.2167 0.4523 0.0000 (  6442 PWs)   bands (ev):

   -19.9668 -15.4727 -13.4967  -7.4455  -1.9222   2.6132   3.8764   5.0416
     5.7715   6.8263   7.3265   8.1862

     occupation numbers 
     1.0000   1.0000   1.0000   1.0000   0.0000   0.0000   0.0000   0.0000
     0.0000   0.0000   0.0000   0.0000

          k = 0.2167 0.4715 0.0000 (  6445 PWs)   bands (ev):

   -19.6797 -15.8148 -13.6171  -7.1548  -2.2666   3.0548   4.2994   5.4637
     6.0666   6.7982   7.5997   8.4487

     occupation numbers 
     1.0000   1.0000   1.0000   1.0000   0.0000   0.0000   0.0000   0.0000
     0.0000   0.0000   0.0000   0.0000

          k = 0.2167 0.4907 0.0000 (  6455 PWs)   bands (ev):

   -19.3863 -16.1593 -13.7138  -6.8710  -2.5961   3.5148   4.7348   5.8994
     6.3123   6.7739   7.8451   8.4728

     occupation numbers 
     1.0000   1.0000   1.0000   1.0000   0.0000   0.0000   0.0000   0.0000
     0.0000   0.0000   0.0000   0.0000

          k = 0.2167 0.5100 0.0000 (  6463 PWs)   bands (ev):

   -19.0899 -16.4997 -13.7890  -6.6030  -2.9011   3.9931   5.1785   6.3422
     6.4870   6.7676   7.8528   8.1021

     occupation numbers 
     1.0000   1.0000   1.0000   1.0000   0.0000   0.0000   0.0000   0.0000
     0.0000   0.0000   0.0000   0.0000

          k = 0.2167 0.5292 0.0000 (  6468 PWs)   bands (ev):

   -18.7974 -16.8270 -13.8441  -6.3656  -3.1665   4.4897   5.6203   6.5835
     6.6943   6.8856   7.2550   8.2080

     occupation numbers 
     1.0000   1.0000   1.0000   1.0000   0.0000   0.0000   0.0000   0.0000
     0.0000   0.0000   0.0000   0.0000

          k = 0.2167 0.5485 0.0000 (  6470 PWs)   bands (ev):

   -18.5271 -17.1212 -13.8804  -6.1809  -3.3701   5.0044   6.0282   6.6118
     6.6625   6.7974   7.3133   7.8531

     occupation numbers 
     1.0000   1.0000   1.0000   1.0000   0.0000   0.0000   0.0000   0.0000
     0.0000   0.0000   0.0000   0.0000

          k = 0.2167 0.5677 0.0000 (  6470 PWs)   bands (ev):

   -18.3346 -17.3259 -13.8984  -6.0772  -3.4832   5.5367   6.0830   6.3093
     6.6472   6.8915   7.4616   7.8104

     occupation numbers 
     1.0000   1.0000   1.0000   1.0000   0.0000   0.0000   0.0000   0.0000
     0.0000   0.0000   0.0000   0.0000

          k = 0.2167 0.5870 0.0000 (  6470 PWs)   bands (ev):

   -18.3346 -17.3257 -13.8985  -6.0774  -3.4828   5.5367   6.0830   6.3091
     6.6465   6.8925   7.4610   7.8109

     occupation numbers 
     1.0000   1.0000   1.0000   1.0000   0.0000   0.0000   0.0000   0.0000
     0.0000   0.0000   0.0000   0.0000

          k = 0.2167 0.6062 0.0000 (  6470 PWs)   bands (ev):

   -18.5272 -17.1208 -13.8808  -6.1816  -3.3691   5.0044   6.0279   6.6105
     6.6625   6.7982   7.3139   7.8525

     occupation numbers 
     1.0000   1.0000   1.0000   1.0000   0.0000   0.0000   0.0000   0.0000
     0.0000   0.0000   0.0000   0.0000

          k = 0.2167 0.6255 0.0000 (  6468 PWs)   bands (ev):

   -18.7974 -16.8264 -13.8448  -6.3666  -3.1650   4.4897   5.6200   6.5819
     6.6936   6.8872   7.2550   8.2077

     occupation numbers 
     1.0000   1.0000   1.0000   1.0000   0.0000   0.0000   0.0000   0.0000
     0.0000   0.0000   0.0000   0.0000

          k = 0.2167 0.6447 0.0000 (  6463 PWs)   bands (ev):

   -19.0899 -16.4988 -13.7900  -6.6042  -2.8991   3.9931   5.1783   6.3417
     6.4855   6.7682   7.8528   8.1023

     occupation numbers 
     1.0000   1.0000   1.0000   1.0000   0.0000   0.0000   0.0000   0.0000
     0.0000   0.0000   0.0000   0.0000

          k = 0.2167 0.6640 0.0000 (  6455 PWs)   bands (ev):

   -19.3863 -16.1581 -13.7152  -6.8722  -2.5939   3.5148   4.7347   5.8992
     6.3110   6.7734   7.8451   8.4728

     occupation numbers 
     1.0000   1.0000   1.0000   1.0000   0.0000   0.0000   0.0000   0.0000
     0.0000   0.0000   0.0000   0.0000

          k = 0.2167 0.6832 0.0000 (  6445 PWs)   bands (ev):

   -19.6796 -15.8133 -13.6189  -7.1560  -2.2642   3.0548   4.2993   5.4636
     6.0656   6.7968   7.5994   8.4490

     occupation numbers 
     1.0000   1.0000   1.0000   1.0000   0.0000   0.0000   0.0000   0.0000
     0.0000   0.0000   0.0000   0.0000

          k = 0.2167-0.4523 0.0000 (  6442 PWs)   bands (ev):

   -19.9667 -15.4707 -13.4989  -7.4466  -1.9196   2.6132   3.8763   5.0415
     5.7707   6.8238   7.3262   8.1862

     occupation numbers 
     1.0000   1.0000   1.0000   1.0000   0.0000   0.0000   0.0000   0.0000
     0.0000   0.0000   0.0000   0.0000

          k = 0.2167-0.4330 0.0000 (  6448 PWs)   bands (ev):

   -20.2457 -15.1360 -13.3525  -7.7381  -1.5664   2.1899   3.4679   4.6348
     5.4490   6.8337   7.0297   7.9106

     occupation numbers 
     1.0000   1.0000   1.0000   1.0000   0.0000   0.0000   0.0000   0.0000
     0.0000   0.0000   0.0000   0.0000

          k = 0.2167-0.4138 0.0000 (  6455 PWs)   bands (ev):

   -20.5154 -14.8145 -13.1767  -8.0264  -1.2088   1.7850   3.0752   4.2443
     5.1168   6.6527   6.8816   7.6107

     occupation numbers 
     1.0000   1.0000   1.0000   1.0000   0.0000   0.0000   0.0000   0.0000
     0.0000   0.0000   0.0000   0.0000

          k = 0.2167-0.3945 0.0000 (  6470 PWs)   bands (ev):

   -20.7751 -14.5109 -12.9691  -8.3090  -0.8501   1.3985   2.6989   3.8703
     4.7845   6.3262   6.8133   7.2972

     occupation numbers 
     1.0000   1.0000   1.0000   1.0000   0.0000   0.0000   0.0000   0.0000
     0.0000   0.0000   0.0000   0.0000

          k = 0.2167-0.3753 0.0000 (  6484 PWs)   bands (ev):

   -21.0243 -14.2278 -12.7293  -8.5838  -0.4925   1.0304   2.3396   3.5133
     4.4581   5.9953   6.6386   6.9793

     occupation numbers 
     1.0000   1.0000   1.0000   1.0000   0.0000   0.0000   0.0000   0.0000
     0.0000   0.0000   0.0000   0.0000

          k = 0.2167-0.3560 0.0000 (  6484 PWs)   bands (ev):

   -21.2625 -13.9651 -12.4602  -8.8494  -0.1378   0.6807   1.9975   3.1735
     4.1417   5.6723   6.3517   6.6588

     occupation numbers 
     1.0000   1.0000   1.0000   1.0000   0.0000   0.0000   0.0000   0.0000
     0.0000   0.0000   0.0000   0.0000

          k = 0.2167-0.3368 0.0000 (  6492 PWs)   bands (ev):

   -21.4894 -13.7198 -12.1674  -9.1047   0.2123   0.3495   1.6729   2.8510
     3.8376   5.3611   6.0058   6.3452

     occupation numbers 
     1.0000   1.0000   1.0000   1.0000   0.0000   0.0000   0.0000   0.0000
     0.0000   0.0000   0.0000   0.0000

          k = 0.2167-0.3175 0.0000 (  6469 PWs)   bands (ev):

   -21.7048 -13.4874 -11.8587  -9.3487   0.0365   0.5566   1.3664   2.5461
     3.5474   5.0637   5.6414   6.0459

     occupation numbers 
     1.0000   1.0000   1.0000   1.0000   0.0000   0.0000   0.0000   0.0000
     0.0000   0.0000   0.0000   0.0000

          k = 0.2167-0.2983 0.0000 (  6466 PWs)   bands (ev):

   -21.9083 -13.2631 -11.5423  -9.5809  -0.2580   0.8893   1.0823   2.2588
     3.2725   4.7811   5.2809   5.7629

     occupation numbers 
     1.0000   1.0000   1.0000   1.0000   0.0000   0.0000   0.0000   0.0000
     0.0000   0.0000   0.0000   0.0000

          k = 0.2167-0.2791 0.0000 (  6474 PWs)   bands (ev):

   -22.0998 -13.0433 -11.2260  -9.8005  -0.5341   0.8004   1.2293   1.9893
     3.0138   4.5139   4.9373   5.4968

     occupation numbers 
     1.0000   1.0000   1.0000   1.0000   0.0000   0.0000   0.0000   0.0000
     0.0000   0.0000   0.0000   0.0000

          k = 0.2167-0.2598 0.0000 (  6473 PWs)   bands (ev):

   -22.2792 -12.8250 -10.9171 -10.0071  -0.7918   0.5484   1.5460   1.7390
     2.7730   4.2628   4.6199   5.2478

     occupation numbers 
     1.0000   1.0000   1.0000   1.0000   0.0000   0.0000   0.0000   0.0000
     0.0000   0.0000   0.0000   0.0000

          k = 0.2167-0.2406 0.0000 (  6473 PWs)   bands (ev):

   -22.4463 -12.6064 -10.6221 -10.2002  -1.0311   0.3130   1.5014   1.8545
     2.5539   4.0284   4.3351   5.0161

     occupation numbers 
     1.0000   1.0000   1.0000   1.0000   0.0000   0.0000   0.0000   0.0000
     0.0000   0.0000   0.0000   0.0000

          k = 0.2167-0.2213 0.0000 (  6485 PWs)   bands (ev):

   -22.6009 -12.3868 -10.3798 -10.3467  -1.2520   0.0954   1.2859   2.1123
     2.3876   3.8122   4.0879   4.8019

     occupation numbers 
     1.0000   1.0000   1.0000   1.0000   0.0000   0.0000   0.0000   0.0000
     0.0000   0.0000   0.0000   0.0000

          k = 0.2167-0.2021 0.0000 (  6493 PWs)   bands (ev):

   -22.7429 -12.1659 -10.5449 -10.0972  -1.4545  -0.1042   1.0879   2.0927
     2.5038   3.6163   3.8821   4.6054

     occupation numbers 
     1.0000   1.0000   1.0000   1.0000   0.0000   0.0000   0.0000   0.0000
     0.0000   0.0000   0.0000   0.0000

          k = 0.2167-0.1828 0.0000 (  6482 PWs)   bands (ev):

   -22.8724 -11.9440 -10.6959  -9.8778  -1.6386  -0.2858   0.9077   1.9356
     2.7591   3.4432   3.7210   4.4268

     occupation numbers 
     1.0000   1.0000   1.0000   1.0000   0.0000   0.0000   0.0000   0.0000
     0.0000   0.0000   0.0000   0.0000

          k = 0.2167-0.1636 0.0000 (  6490 PWs)   bands (ev):

   -22.9891 -11.7220 -10.8323  -9.6929  -1.8043  -0.4493   0.7456   1.7822
     3.0022   3.3005   3.6090   4.2664

     occupation numbers 
     1.0000   1.0000   1.0000   1.0000   0.0000   0.0000   0.0000   0.0000
     0.0000   0.0000   0.0000   0.0000

          k = 0.2167-0.1443 0.0000 (  6490 PWs)   bands (ev):

   -23.0930 -11.5014 -10.9540  -9.5454  -1.9515  -0.5947   0.6015   1.6433
     3.0994   3.3068   3.5501   4.1249

     occupation numbers 
     1.0000   1.0000   1.0000   1.0000   0.0000   0.0000   0.0000   0.0000
     0.0000   0.0000   0.0000   0.0000

          k = 0.2167-0.1251 0.0000 (  6488 PWs)   bands (ev):

   -23.1840 -11.2844 -11.0607  -9.4370  -2.0804  -0.7219   0.4754   1.5208
     3.0035   3.5018   3.5463   4.0038

     occupation numbers 
     1.0000   1.0000   1.0000   1.0000   0.0000   0.0000   0.0000   0.0000
     0.0000   0.0000   0.0000   0.0000

          k = 0.2167-0.1058 0.0000 (  6488 PWs)   bands (ev):

   -23.2622 -11.1526 -11.0734  -9.3674  -2.1908  -0.8309   0.3674   1.4155
     2.9041   3.5933   3.6877   3.9109

     occupation numbers 
     1.0000   1.0000   1.0000   1.0000   0.0000   0.0000   0.0000   0.0000
     0.0000   0.0000   0.0000   0.0000

          k = 0.2167-0.0866 0.0000 (  6490 PWs)   bands (ev):

   -23.3273 -11.2292 -10.8730  -9.3342  -2.2829  -0.9218   0.2775   1.3276
     2.8187   3.6758   3.7839   3.9169

     occupation numbers 
     1.0000   1.0000   1.0000   1.0000   0.0000   0.0000   0.0000   0.0000
     0.0000   0.0000   0.0000   0.0000

          k = 0.2167-0.0674 0.0000 (  6498 PWs)   bands (ev):

   -23.3795 -11.2906 -10.6886  -9.3323  -2.3565  -0.9945   0.2055   1.2571
     2.7494   3.6881   3.8662   4.0377

     occupation numbers 
     1.0000   1.0000   1.0000   1.0000   0.0000   0.0000   0.0000   0.0000
     0.0000   0.0000   0.0000   0.0000

          k = 0.2167-0.0481 0.0000 (  6484 PWs)   bands (ev):

   -23.4187 -11.3367 -10.5287  -9.3531  -2.4117  -1.0491   0.1516   1.2042
     2.6971   3.6479   4.0258   4.1451

     occupation numbers 
     1.0000   1.0000   1.0000   1.0000   0.0000   0.0000   0.0000   0.0000
     0.0000   0.0000   0.0000   0.0000

          k = 0.2167-0.0289 0.0000 (  6483 PWs)   bands (ev):

   -23.4448 -11.3674 -10.4062  -9.3833  -2.4485  -1.0854   0.1156   1.1689
     2.6621   3.6161   4.1876   4.2213

     occupation numbers 
     1.0000   1.0000   1.0000   1.0000   0.0000   0.0000   0.0000   0.0000
     0.0000   0.0000   0.0000   0.0000

          k = 0.2167-0.0096 0.0000 (  6473 PWs)   bands (ev):

   -23.4579 -11.3828 -10.3381  -9.4053  -2.4669  -1.1036   0.0977   1.1513
     2.6445   3.5995   4.2562   4.3018

     occupation numbers 
     1.0000   1.0000   1.0000   1.0000   0.0000   0.0000   0.0000   0.0000
     0.0000   0.0000   0.0000   0.0000

          k = 0.2167 0.0096 0.0000 (  6473 PWs)   bands (ev):

   -23.4579 -11.3828 -10.3390  -9.4044  -2.4669  -1.1036   0.0977   1.1513
     2.6446   3.5995   4.2560   4.3027

     occupation numbers 
     1.0000   1.0000   1.0000   1.0000   0.0000   0.0000   0.0000   0.0000
     0.0000   0.0000   0.0000   0.0000

          k = 0.2167 0.0289 0.0000 (  6483 PWs)   bands (ev):

   -23.4448 -11.3673 -10.4085  -9.3807  -2.4485  -1.0854   0.1157   1.1689
     2.6621   3.6161   4.1898   4.2210

     occupation numbers 
     1.0000   1.0000   1.0000   1.0000   0.0000   0.0000   0.0000   0.0000
     0.0000   0.0000   0.0000   0.0000

          k = 0.2167 0.0481 0.0000 (  6484 PWs)   bands (ev):

   -23.4187 -11.3365 -10.5320  -9.3493  -2.4117  -1.0491   0.1516   1.2042
     2.6971   3.6481   4.0288   4.1443

     occupation numbers 
     1.0000   1.0000   1.0000   1.0000   0.0000   0.0000   0.0000   0.0000
     0.0000   0.0000   0.0000   0.0000

          k = 0.2167 0.0674 0.0000 (  6498 PWs)   bands (ev):

   -23.3796 -11.2904 -10.6925  -9.3279  -2.3565  -0.9945   0.2055   1.2571
     2.7495   3.6885   3.8693   4.0365

     occupation numbers 
     1.0000   1.0000   1.0000   1.0000   0.0000   0.0000   0.0000   0.0000
     0.0000   0.0000   0.0000   0.0000

          k = 0.2167 0.0866 0.0000 (  6490 PWs)   bands (ev):

   -23.3274 -11.2290 -10.8772  -9.3294  -2.2829  -0.9218   0.2775   1.3276
     2.8188   3.6785   3.7847   3.9155

     occupation numbers 
     1.0000   1.0000   1.0000   1.0000   0.0000   0.0000   0.0000   0.0000
     0.0000   0.0000   0.0000   0.0000

          k = 0.2167 0.1058 0.0000 (  6488 PWs)   bands (ev):

   -23.2622 -11.1524 -11.0777  -9.3623  -2.1908  -0.8309   0.3674   1.4156
     2.9043   3.5969   3.6864   3.9105

     occupation numbers 
     1.0000   1.0000   1.0000   1.0000   0.0000   0.0000   0.0000   0.0000
     0.0000   0.0000   0.0000   0.0000

          k = 0.2333 0.1347 0.0000 (  6494 PWs)   bands (ev):

   -23.0086 -11.7212 -10.8549  -9.6076  -1.8319  -0.4766   0.7184   1.7552
     3.0265   3.2758   3.5093   4.2400

     occupation numbers 
     1.0000   1.0000   1.0000   1.0000   0.0000   0.0000   0.0000   0.0000
     0.0000   0.0000   0.0000   0.0000

          k = 0.2333 0.1540 0.0000 (  6496 PWs)   bands (ev):

   -22.9113 -11.9407 -10.7413  -9.7141  -1.6938  -0.3405   0.8533   1.8819
     2.8205   3.3643   3.5348   4.3738

     occupation numbers 
     1.0000   1.0000   1.0000   1.0000   0.0000   0.0000   0.0000   0.0000
     0.0000   0.0000   0.0000   0.0000

          k = 0.2333 0.1732 0.0000 (  6484 PWs)   bands (ev):

   -22.8012 -12.1615 -10.6129  -9.8600  -1.5373  -0.1862   1.0062   2.0171
     2.5921   3.4668   3.6335   4.5257

     occupation numbers 
     1.0000   1.0000   1.0000   1.0000   0.0000   0.0000   0.0000   0.0000
     0.0000   0.0000   0.0000   0.0000

          k = 0.2333 0.1925 0.0000 (  6483 PWs)   bands (ev):

   -22.6784 -12.3818 -10.4700 -10.0438  -1.3625  -0.0139   1.1772   2.1142
     2.4013   3.5941   3.7829   4.6955

     occupation numbers 
     1.0000   1.0000   1.0000   1.0000   0.0000   0.0000   0.0000   0.0000
     0.0000   0.0000   0.0000   0.0000

          k = 0.2333 0.2117 0.0000 (  6479 PWs)   bands (ev):

   -22.5429 -12.6003 -10.3128 -10.2624  -1.1692   0.1765   1.3659   1.9757
     2.4496   3.7615   3.9635   4.8831

     occupation numbers 
     1.0000   1.0000   1.0000   1.0000   0.0000   0.0000   0.0000   0.0000
     0.0000   0.0000   0.0000   0.0000

          k = 0.2333 0.2309 0.0000 (  6481 PWs)   bands (ev):

   -22.3948 -12.8161 -10.5121 -10.1413  -0.9575   0.3846   1.5693   1.7157
     2.6284   3.9713   4.1686   5.0881

     occupation numbers 
     1.0000   1.0000   1.0000   1.0000   0.0000   0.0000   0.0000   0.0000
     0.0000   0.0000   0.0000   0.0000

          k = 0.2333 0.2502 0.0000 (  6487 PWs)   bands (ev):

   -22.2343 -13.0287 -10.7880  -9.9561  -0.7274   0.6100   1.4203   1.8011
     2.8395   4.2191   4.3981   5.3104

     occupation numbers 
     1.0000   1.0000   1.0000   1.0000   0.0000   0.0000   0.0000   0.0000
     0.0000   0.0000   0.0000   0.0000

          k = 0.2333 0.2694 0.0000 (  6479 PWs)   bands (ev):

   -22.0615 -13.2381 -11.0848  -9.7573  -0.4789   0.8477   1.1256   2.0430
     3.0712   4.4952   4.6564   5.5497

     occupation numbers 
     1.0000   1.0000   1.0000   1.0000   0.0000   0.0000   0.0000   0.0000
     0.0000   0.0000   0.0000   0.0000

          k = 0.2333 0.2887 0.0000 (  6479 PWs)   bands (ev):

   -21.8764 -13.4449 -11.3972  -9.5455  -0.2120   0.7947   1.1292   2.3035
     3.3205   4.7849   4.9524   5.8056

     occupation numbers 
     1.0000   1.0000   1.0000   1.0000   0.0000   0.0000   0.0000   0.0000
     0.0000   0.0000   0.0000   0.0000

          k = 0.2333 0.3079 0.0000 (  6469 PWs)   bands (ev):

   -21.6794 -13.6502 -11.7191  -9.3209   0.0732   0.4806   1.4041   2.5818
     3.5862   5.0783   5.2899   6.0775

     occupation numbers 
     1.0000   1.0000   1.0000   1.0000   0.0000   0.0000   0.0000   0.0000
     0.0000   0.0000   0.0000   0.0000

          k = 0.2333 0.3272 0.0000 (  6476 PWs)   bands (ev):

   -21.4705 -13.8562 -12.0442  -9.0842   0.1552   0.3772   1.7010   2.8778
     3.8670   5.3769   5.6601   6.3644

     occupation numbers 
     1.0000   1.0000   1.0000   1.0000   0.0000   0.0000   0.0000   0.0000
     0.0000   0.0000   0.0000   0.0000

          k = 0.2333 0.3464 0.0000 (  6486 PWs)   bands (ev):

   -21.2500 -14.0659 -12.3654  -8.8359  -0.1761   0.6991   2.0161   3.1913
     4.1617   5.6845   6.0500   6.6652

     occupation numbers 
     1.0000   1.0000   1.0000   1.0000   0.0000   0.0000   0.0000   0.0000
     0.0000   0.0000   0.0000   0.0000

          k = 0.2333 0.3657 0.0000 (  6476 PWs)   bands (ev):

   -21.0181 -14.2837 -12.6751  -8.5768  -0.5127   1.0396   2.3489   3.5222
     4.4686   6.0018   6.4452   6.9775

     occupation numbers 
     1.0000   1.0000   1.0000   1.0000   0.0000   0.0000   0.0000   0.0000
     0.0000   0.0000   0.0000   0.0000

          k = 0.2333 0.3849 0.0000 (  6470 PWs)   bands (ev):

   -20.7752 -14.5145 -12.9650  -8.3079  -0.8530   1.3985   2.6990   3.8703
     4.7849   6.3269   6.8220   7.2975

     occupation numbers 
     1.0000   1.0000   1.0000   1.0000   0.0000   0.0000   0.0000   0.0000
     0.0000   0.0000   0.0000   0.0000

          k = 0.2333 0.4041 0.0000 (  6446 PWs)   bands (ev):

   -20.5217 -14.7633 -13.2273  -8.0304  -1.1960   1.7758   3.0659   4.2354
     5.1065   6.6544   7.1264   7.6156

     occupation numbers 
     1.0000   1.0000   1.0000   1.0000   0.0000   0.0000   0.0000   0.0000
     0.0000   0.0000   0.0000   0.0000

          k = 0.2333 0.4234 0.0000 (  6446 PWs)   bands (ev):

   -20.2580 -15.0331 -13.4565  -7.7457  -1.5399   2.1715   3.4492   4.6171
     5.4269   6.9727   7.2785   7.8930

     occupation numbers 
     1.0000   1.0000   1.0000   1.0000   0.0000   0.0000   0.0000   0.0000
     0.0000   0.0000   0.0000   0.0000

          k = 0.2333 0.4426 0.0000 (  6452 PWs)   bands (ev):

   -19.9848 -15.3239 -13.6502  -7.4561  -1.8825   2.5855   3.8481   5.0151
     5.7348   7.2369   7.3350   8.1386

     occupation numbers 
     1.0000   1.0000   1.0000   1.0000   0.0000   0.0000   0.0000   0.0000
     0.0000   0.0000   0.0000   0.0000

          k = 0.2333 0.4619 0.0000 (  6442 PWs)   bands (ev):

   -19.7030 -15.6323 -13.8095  -7.1645  -2.2207   3.0180   4.2612   5.4286
     6.0136   7.2614   7.5510   8.3889

     occupation numbers 
     1.0000   1.0000   1.0000   1.0000   0.0000   0.0000   0.0000   0.0000
     0.0000   0.0000   0.0000   0.0000

          k = 0.2333 0.4811 0.0000 (  6443 PWs)   bands (ev):

   -19.4141 -15.9526 -13.9372  -6.8752  -2.5498   3.4687   4.6862   5.8561
     6.2425   7.2334   7.7882   8.6253

     occupation numbers 
     1.0000   1.0000   1.0000   1.0000   0.0000   0.0000   0.0000   0.0000
     0.0000   0.0000   0.0000   0.0000

          k = 0.2333 0.5004 0.0000 (  6455 PWs)   bands (ev):

   -19.1204 -16.2781 -14.0369  -6.5952  -2.8629   3.9378   5.1181   6.2906
     6.4143   7.2050   8.0437   8.3534

     occupation numbers 
     1.0000   1.0000   1.0000   1.0000   0.0000   0.0000   0.0000   0.0000
     0.0000   0.0000   0.0000   0.0000

          k = 0.2333 0.5196 0.0000 (  6451 PWs)   bands (ev):

   -18.8265 -16.6004 -14.1116  -6.3355  -3.1485   4.4251   5.5446   6.5144
     6.7525   7.1869   7.7385   8.3307

     occupation numbers 
     1.0000   1.0000   1.0000   1.0000   0.0000   0.0000   0.0000   0.0000
     0.0000   0.0000   0.0000   0.0000

          k = 0.2333 0.5389 0.0000 (  6459 PWs)   bands (ev):

   -18.5431 -16.9059 -14.1635  -6.1144  -3.3883   4.9305   5.9284   6.6307
     7.0937   7.1458   7.2872   8.1876

     occupation numbers 
     1.0000   1.0000   1.0000   1.0000   0.0000   0.0000   0.0000   0.0000
     0.0000   0.0000   0.0000   0.0000

          k = 0.2333 0.5581 0.0000 (  6468 PWs)   bands (ev):

   -18.3013 -17.1617 -14.1942  -5.9595  -3.5544   5.4535   6.1758   6.5609
     6.8492   7.1198   7.6716   7.8393

     occupation numbers 
     1.0000   1.0000   1.0000   1.0000   0.0000   0.0000   0.0000   0.0000
     0.0000   0.0000   0.0000   0.0000

          k = 0.2333 0.5774 0.0000 (  6460 PWs)   bands (ev):

   -18.1910 -17.2767 -14.2044  -5.9029  -3.6146   5.9762   6.0034   6.2684
     7.0786   7.0912   7.5075   8.1392

     occupation numbers 
     1.0000   1.0000   1.0000   1.0000   0.0000   0.0000   0.0000   0.0000
     0.0000   0.0000   0.0000   0.0000

          k = 0.2333 0.5966 0.0000 (  6468 PWs)   bands (ev):

   -18.3014 -17.1612 -14.1945  -5.9601  -3.5535   5.4535   6.1754   6.5609
     6.8484   7.1208   7.6716   7.8391

     occupation numbers 
     1.0000   1.0000   1.0000   1.0000   0.0000   0.0000   0.0000   0.0000
     0.0000   0.0000   0.0000   0.0000

          k = 0.2333 0.6158 0.0000 (  6459 PWs)   bands (ev):

   -18.5432 -16.9052 -14.1642  -6.1154  -3.3868   4.9305   5.9280   6.6301
     7.0925   7.1458   7.2892   8.1868

     occupation numbers 
     1.0000   1.0000   1.0000   1.0000   0.0000   0.0000   0.0000   0.0000
     0.0000   0.0000   0.0000   0.0000

          k = 0.2333 0.6351 0.0000 (  6451 PWs)   bands (ev):

   -18.8265 -16.5994 -14.1127  -6.3368  -3.1465   4.4251   5.5443   6.5135
     6.7518   7.1876   7.7385   8.3310

     occupation numbers 
     1.0000   1.0000   1.0000   1.0000   0.0000   0.0000   0.0000   0.0000
     0.0000   0.0000   0.0000   0.0000

          k = 0.2333 0.6543 0.0000 (  6455 PWs)   bands (ev):

   -19.1204 -16.2767 -14.0385  -6.5966  -2.8606   3.9378   5.1180   6.2903
     6.4131   7.2047   8.0439   8.3534

     occupation numbers 
     1.0000   1.0000   1.0000   1.0000   0.0000   0.0000   0.0000   0.0000
     0.0000   0.0000   0.0000   0.0000

          k = 0.2333 0.6736 0.0000 (  6443 PWs)   bands (ev):

   -19.4141 -15.9508 -13.9392  -6.8766  -2.5473   3.4687   4.6861   5.8560
     6.2413   7.2321   7.7881   8.6253

     occupation numbers 
     1.0000   1.0000   1.0000   1.0000   0.0000   0.0000   0.0000   0.0000
     0.0000   0.0000   0.0000   0.0000

          k = 0.2333 0.6928 0.0000 (  6442 PWs)   bands (ev):

   -19.7030 -15.6300 -13.8120  -7.1659  -2.2179   3.0180   4.2611   5.4285
     6.0125   7.2588   7.5508   8.3896

     occupation numbers 
     1.0000   1.0000   1.0000   1.0000   0.0000   0.0000   0.0000   0.0000
     0.0000   0.0000   0.0000   0.0000

          k = 0.2333-0.4426 0.0000 (  6452 PWs)   bands (ev):

   -19.9847 -15.3211 -13.6534  -7.4574  -1.8796   2.5855   3.8480   5.0150
     5.7340   7.2336   7.3334   8.1396

     occupation numbers 
     1.0000   1.0000   1.0000   1.0000   0.0000   0.0000   0.0000   0.0000
     0.0000   0.0000   0.0000   0.0000

          k = 0.2333-0.4234 0.0000 (  6446 PWs)   bands (ev):

   -20.2579 -15.0298 -13.4602  -7.7470  -1.5369   2.1715   3.4492   4.6171
     5.4262   6.9716   7.2713   7.8940

     occupation numbers 
     1.0000   1.0000   1.0000   1.0000   0.0000   0.0000   0.0000   0.0000
     0.0000   0.0000   0.0000   0.0000

          k = 0.2333-0.4041 0.0000 (  6446 PWs)   bands (ev):

   -20.5215 -14.7595 -13.2316  -8.0316  -1.1929   1.7758   3.0659   4.2354
     5.1060   6.6536   7.1162   7.6149

     occupation numbers 
     1.0000   1.0000   1.0000   1.0000   0.0000   0.0000   0.0000   0.0000
     0.0000   0.0000   0.0000   0.0000

          k = 0.2333-0.3849 0.0000 (  6470 PWs)   bands (ev):

   -20.7751 -14.5104 -12.9696  -8.3090  -0.8499   1.3985   2.6989   3.8703
     4.7845   6.3262   6.8125   7.2971

     occupation numbers 
     1.0000   1.0000   1.0000   1.0000   0.0000   0.0000   0.0000   0.0000
     0.0000   0.0000   0.0000   0.0000

          k = 0.2333-0.3657 0.0000 (  6476 PWs)   bands (ev):

   -21.0180 -14.2794 -12.6800  -8.5779  -0.5095   1.0396   2.3489   3.5222
     4.4682   6.0012   6.4371   6.9772

     occupation numbers 
     1.0000   1.0000   1.0000   1.0000   0.0000   0.0000   0.0000   0.0000
     0.0000   0.0000   0.0000   0.0000

          k = 0.2333-0.3464 0.0000 (  6486 PWs)   bands (ev):

   -21.2498 -14.0616 -12.3704  -8.8369  -0.1729   0.6991   2.0161   3.1913
     4.1615   5.6838   6.0431   6.6650

     occupation numbers 
     1.0000   1.0000   1.0000   1.0000   0.0000   0.0000   0.0000   0.0000
     0.0000   0.0000   0.0000   0.0000

          k = 0.2333-0.3272 0.0000 (  6476 PWs)   bands (ev):

   -21.4703 -13.8519 -12.0492  -9.0851   0.1584   0.3772   1.7010   2.8778
     3.8668   5.3760   5.6541   6.3643

     occupation numbers 
     1.0000   1.0000   1.0000   1.0000   0.0000   0.0000   0.0000   0.0000
     0.0000   0.0000   0.0000   0.0000

          k = 0.2333-0.3079 0.0000 (  6469 PWs)   bands (ev):

   -21.6792 -13.6459 -11.7241  -9.3218   0.0732   0.4837   1.4041   2.5818
     3.5861   5.0769   5.2851   6.0774

     occupation numbers 
     1.0000   1.0000   1.0000   1.0000   0.0000   0.0000   0.0000   0.0000
     0.0000   0.0000   0.0000   0.0000

          k = 0.2333-0.2887 0.0000 (  6479 PWs)   bands (ev):

   -21.8763 -13.4406 -11.4022  -9.5463  -0.2120   0.7977   1.1294   2.3034
     3.3204   4.7826   4.9490   5.8055

     occupation numbers 
     1.0000   1.0000   1.0000   1.0000   0.0000   0.0000   0.0000   0.0000
     0.0000   0.0000   0.0000   0.0000

          k = 0.2333-0.2694 0.0000 (  6479 PWs)   bands (ev):

   -22.0613 -13.2338 -11.0899  -9.7581  -0.4789   0.8477   1.1285   2.0430
     3.0711   4.4919   4.6544   5.5497

     occupation numbers 
     1.0000   1.0000   1.0000   1.0000   0.0000   0.0000   0.0000   0.0000
     0.0000   0.0000   0.0000   0.0000

          k = 0.2333-0.2502 0.0000 (  6487 PWs)   bands (ev):

   -22.2342 -13.0245 -10.7931  -9.9567  -0.7274   0.6099   1.4232   1.8011
     2.8395   4.2153   4.3970   5.3104

     occupation numbers 
     1.0000   1.0000   1.0000   1.0000   0.0000   0.0000   0.0000   0.0000
     0.0000   0.0000   0.0000   0.0000

          k = 0.2333-0.2309 0.0000 (  6481 PWs)   bands (ev):

   -22.3947 -12.8119 -10.5172 -10.1419  -0.9575   0.3846   1.5693   1.7183
     2.6285   3.9675   4.1678   5.0881

     occupation numbers 
     1.0000   1.0000   1.0000   1.0000   0.0000   0.0000   0.0000   0.0000
     0.0000   0.0000   0.0000   0.0000

          k = 0.2333-0.2117 0.0000 (  6479 PWs)   bands (ev):

   -22.5427 -12.5961 -10.3134 -10.2675  -1.1692   0.1764   1.3658   1.9778
     2.4502   3.7579   3.9628   4.8831

     occupation numbers 
     1.0000   1.0000   1.0000   1.0000   0.0000   0.0000   0.0000   0.0000
     0.0000   0.0000   0.0000   0.0000

          k = 0.2333-0.1925 0.0000 (  6483 PWs)   bands (ev):

   -22.6782 -12.3777 -10.4705 -10.0489  -1.3625  -0.0139   1.1771   2.1145
     2.4036   3.5909   3.7821   4.6955

     occupation numbers 
     1.0000   1.0000   1.0000   1.0000   0.0000   0.0000   0.0000   0.0000
     0.0000   0.0000   0.0000   0.0000

          k = 0.2333-0.1732 0.0000 (  6484 PWs)   bands (ev):

   -22.8011 -12.1574 -10.6134  -9.8651  -1.5373  -0.1862   1.0062   2.0169
     2.5946   3.4643   3.6322   4.5257

     occupation numbers 
     1.0000   1.0000   1.0000   1.0000   0.0000   0.0000   0.0000   0.0000
     0.0000   0.0000   0.0000   0.0000

          k = 0.2333-0.1540 0.0000 (  6496 PWs)   bands (ev):

   -22.9112 -11.9366 -10.7417  -9.7192  -1.6938  -0.3405   0.8533   1.8817
     2.8226   3.3631   3.5325   4.3738

     occupation numbers 
     1.0000   1.0000   1.0000   1.0000   0.0000   0.0000   0.0000   0.0000
     0.0000   0.0000   0.0000   0.0000

          k = 0.2333-0.1347 0.0000 (  6494 PWs)   bands (ev):

   -23.0085 -11.7171 -10.8553  -9.6126  -1.8319  -0.4767   0.7183   1.7551
     3.0280   3.2759   3.5062   4.2400

     occupation numbers 
     1.0000   1.0000   1.0000   1.0000   0.0000   0.0000   0.0000   0.0000
     0.0000   0.0000   0.0000   0.0000

          k = 0.2333-0.1155 0.0000 (  6490 PWs)   bands (ev):

   -23.0930 -11.5015 -10.9540  -9.5454  -1.9515  -0.5947   0.6015   1.6433
     3.0994   3.3068   3.5502   4.1249

     occupation numbers 
     1.0000   1.0000   1.0000   1.0000   0.0000   0.0000   0.0000   0.0000
     0.0000   0.0000   0.0000   0.0000

          k = 0.2333-0.0962 0.0000 (  6482 PWs)   bands (ev):

   -23.1645 -11.2931 -11.0377  -9.5153  -2.0528  -0.6946   0.5026   1.5479
     3.0317   3.4648   3.6509   4.0298

     occupation numbers 
     1.0000   1.0000   1.0000   1.0000   0.0000   0.0000   0.0000   0.0000
     0.0000   0.0000   0.0000   0.0000

          k = 0.2333-0.0770 0.0000 (  6492 PWs)   bands (ev):

   -23.2231 -11.1071 -11.0961  -9.5179  -2.1356  -0.7763   0.4217   1.4695
     2.9600   3.6144   3.7897   3.9633

     occupation numbers 
     1.0000   1.0000   1.0000   1.0000   0.0000   0.0000   0.0000   0.0000
     0.0000   0.0000   0.0000   0.0000

          k = 0.2333-0.0577 0.0000 (  6488 PWs)   bands (ev):

   -23.2687 -11.1598 -10.9199  -9.5456  -2.2000  -0.8399   0.3589   1.4083
     2.9014   3.7338   3.8593   4.0216

     occupation numbers 
     1.0000   1.0000   1.0000   1.0000   0.0000   0.0000   0.0000   0.0000
     0.0000   0.0000   0.0000   0.0000

          k = 0.2333-0.0385 0.0000 (  6469 PWs)   bands (ev):

   -23.3013 -11.1980 -10.7732  -9.5865  -2.2460  -0.8853   0.3140   1.3645
     2.8587   3.7936   3.8612   4.2044

     occupation numbers 
     1.0000   1.0000   1.0000   1.0000   0.0000   0.0000   0.0000   0.0000
     0.0000   0.0000   0.0000   0.0000

          k = 0.2333-0.0192 0.0000 (  6475 PWs)   bands (ev):

   -23.3209 -11.2210 -10.6728  -9.6240  -2.2736  -0.9125   0.2871   1.3383
     2.8329   3.7857   3.9016   4.3682

     occupation numbers 
     1.0000   1.0000   1.0000   1.0000   0.0000   0.0000   0.0000   0.0000
     0.0000   0.0000   0.0000   0.0000

          k = 0.2333-0.0000 0.0000 (  6469 PWs)   bands (ev):

   -23.3274 -11.2286 -10.6369  -9.6389  -2.2829  -0.9216   0.2781   1.3295
     2.8242   3.7794   3.9185   4.4374

     occupation numbers 
     1.0000   1.0000   1.0000   1.0000   0.0000   0.0000   0.0000   0.0000
     0.0000   0.0000   0.0000   0.0000

          k = 0.2333 0.0192 0.0000 (  6475 PWs)   bands (ev):

   -23.3209 -11.2209 -10.6743  -9.6222  -2.2736  -0.9125   0.2871   1.3383
     2.8329   3.7858   3.9011   4.3698

     occupation numbers 
     1.0000   1.0000   1.0000   1.0000   0.0000   0.0000   0.0000   0.0000
     0.0000   0.0000   0.0000   0.0000

          k = 0.2333 0.0385 0.0000 (  6469 PWs)   bands (ev):

   -23.3014 -11.1979 -10.7759  -9.5835  -2.2460  -0.8853   0.3140   1.3646
     2.8587   3.7938   3.8603   4.2070

     occupation numbers 
     1.0000   1.0000   1.0000   1.0000   0.0000   0.0000   0.0000   0.0000
     0.0000   0.0000   0.0000   0.0000

          k = 0.2333 0.0577 0.0000 (  6488 PWs)   bands (ev):

   -23.2688 -11.1597 -10.9233  -9.5417  -2.2000  -0.8399   0.3589   1.4083
     2.9014   3.7332   3.8594   4.0241

     occupation numbers 
     1.0000   1.0000   1.0000   1.0000   0.0000   0.0000   0.0000   0.0000
     0.0000   0.0000   0.0000   0.0000

          k = 0.2333 0.0770 0.0000 (  6492 PWs)   bands (ev):

   -23.2232 -11.1073 -11.0994  -9.5135  -2.1356  -0.7763   0.4217   1.4695
     2.9601   3.6133   3.7924   3.9635

     occupation numbers 
     1.0000   1.0000   1.0000   1.0000   0.0000   0.0000   0.0000   0.0000
     0.0000   0.0000   0.0000   0.0000

          k = 0.2333 0.0962 0.0000 (  6482 PWs)   bands (ev):

   -23.1646 -11.2971 -11.0374  -9.5106  -2.0528  -0.6946   0.5026   1.5480
     3.0318   3.4632   3.6541   4.0297

     occupation numbers 
     1.0000   1.0000   1.0000   1.0000   0.0000   0.0000   0.0000   0.0000
     0.0000   0.0000   0.0000   0.0000

          k = 0.2333 0.1155 0.0000 (  6490 PWs)   bands (ev):

   -23.0931 -11.5055 -10.9537  -9.5405  -1.9515  -0.5947   0.6015   1.6434
     3.0995   3.3050   3.5535   4.1248

     occupation numbers 
     1.0000   1.0000   1.0000   1.0000   0.0000   0.0000   0.0000   0.0000
     0.0000   0.0000   0.0000   0.0000

          k = 0.2500 0.1443 0.0000 (  6494 PWs)   bands (ev):

   -22.8206 -12.1596 -10.6358  -9.7785  -1.5650  -0.2135   0.9790   1.9911
     2.6220   3.3784   3.5831   4.4994

     occupation numbers 
     1.0000   1.0000   1.0000   1.0000   0.0000   0.0000   0.0000   0.0000
     0.0000   0.0000   0.0000   0.0000

          k = 0.2500 0.1636 0.0000 (  6494 PWs)   bands (ev):

   -22.7170 -12.3805 -10.5156  -9.8823  -1.4177  -0.0685   1.1226   2.0836
     2.4380   3.3930   3.7074   4.6429

     occupation numbers 
     1.0000   1.0000   1.0000   1.0000   0.0000   0.0000   0.0000   0.0000
     0.0000   0.0000   0.0000   0.0000

          k = 0.2500 0.1828 0.0000 (  6493 PWs)   bands (ev):

   -22.6008 -12.6008 -10.3808 -10.0259  -1.2520   0.0945   1.2841   2.0254
     2.4066   3.4533   3.8615   4.8041

     occupation numbers 
     1.0000   1.0000   1.0000   1.0000   0.0000   0.0000   0.0000   0.0000
     0.0000   0.0000   0.0000   0.0000

          k = 0.2500 0.2021 0.0000 (  6483 PWs)   bands (ev):

   -22.4719 -12.8190 -10.2319 -10.2076  -1.0680   0.2753   1.4626   1.8089
     2.5388   3.5665   4.0368   4.9829

     occupation numbers 
     1.0000   1.0000   1.0000   1.0000   0.0000   0.0000   0.0000   0.0000
     0.0000   0.0000   0.0000   0.0000

          k = 0.2500 0.2213 0.0000 (  6487 PWs)   bands (ev):

   -22.3304 -13.0338 -10.4247 -10.0685  -0.8655   0.4735   1.5395   1.6712
     2.7186   3.7316   4.2311   5.1791

     occupation numbers 
     1.0000   1.0000   1.0000   1.0000   0.0000   0.0000   0.0000   0.0000
     0.0000   0.0000   0.0000   0.0000

          k = 0.2500 0.2406 0.0000 (  6487 PWs)   bands (ev):

   -22.1765 -13.2445 -10.6730  -9.8915  -0.6446   0.6874   1.2727   1.8811
     2.9225   3.9457   4.4436   5.3925

     occupation numbers 
     1.0000   1.0000   1.0000   1.0000   0.0000   0.0000   0.0000   0.0000
     0.0000   0.0000   0.0000   0.0000

          k = 0.2500 0.2598 0.0000 (  6487 PWs)   bands (ev):

   -22.0102 -13.4504 -10.9482  -9.7009  -0.4053   0.8825   1.0264   2.1143
     3.1456   4.2045   4.6740   5.6228

     occupation numbers 
     1.0000   1.0000   1.0000   1.0000   0.0000   0.0000   0.0000   0.0000
     0.0000   0.0000   0.0000   0.0000

          k = 0.2500 0.2791 0.0000 (  6479 PWs)   bands (ev):

   -21.8317 -13.6515 -11.2452  -9.4971  -0.1477   0.6734   1.1935   2.3658
     3.3863   4.5033   4.9219   5.8696

     occupation numbers 
     1.0000   1.0000   1.0000   1.0000   0.0000   0.0000   0.0000   0.0000
     0.0000   0.0000   0.0000   0.0000

          k = 0.2500 0.2983 0.0000 (  6480 PWs)   bands (ev):

   -21.6411 -13.8481 -11.5588  -9.2805   0.1282   0.3758   1.4600   2.6352
     3.6431   4.8366   5.1873   6.1322

     occupation numbers 
     1.0000   1.0000   1.0000   1.0000   0.0000   0.0000   0.0000   0.0000
     0.0000   0.0000   0.0000   0.0000

          k = 0.2500 0.3175 0.0000 (  6477 PWs)   bands (ev):

   -21.4388 -14.0409 -11.8837  -9.0515   0.0681   0.4232   1.7475   2.9223
     3.9151   5.1978   5.4707   6.4096

     occupation numbers 
     1.0000   1.0000   1.0000   1.0000   0.0000   0.0000   0.0000   0.0000
     0.0000   0.0000   0.0000   0.0000

          k = 0.2500 0.3368 0.0000 (  6484 PWs)   bands (ev):

   -21.2247 -14.2314 -12.2141  -8.8108  -0.2451   0.7360   2.0533   3.2269
     4.2009   5.5778   5.7746   6.7002

     occupation numbers 
     1.0000   1.0000   1.0000   1.0000   0.0000   0.0000   0.0000   0.0000
     0.0000   0.0000   0.0000   0.0000

          k = 0.2500 0.3560 0.0000 (  6476 PWs)   bands (ev):

   -20.9993 -14.4218 -12.5439  -8.5589  -0.5633   1.0673   2.3768   3.5489
     4.4986   5.9593   6.1079   7.0012

     occupation numbers 
     1.0000   1.0000   1.0000   1.0000   0.0000   0.0000   0.0000   0.0000
     0.0000   0.0000   0.0000   0.0000

          k = 0.2500 0.3753 0.0000 (  6462 PWs)   bands (ev):

   -20.7627 -14.6157 -12.8662  -8.2968  -0.8858   1.4169   2.7176   3.8881
     4.8055   6.3181   6.4841   7.3077

     occupation numbers 
     1.0000   1.0000   1.0000   1.0000   0.0000   0.0000   0.0000   0.0000
     0.0000   0.0000   0.0000   0.0000

          k = 0.2500 0.3945 0.0000 (  6455 PWs)   bands (ev):

   -20.5155 -14.8176 -13.1731  -8.0253  -1.2117   1.7850   3.0753   4.2443
     5.1173   6.6540   6.8867   7.6108

     occupation numbers 
     1.0000   1.0000   1.0000   1.0000   0.0000   0.0000   0.0000   0.0000
     0.0000   0.0000   0.0000   0.0000

          k = 0.2500 0.4138 0.0000 (  6446 PWs)   bands (ev):

   -20.2580 -15.0332 -13.4564  -7.7457  -1.5399   2.1715   3.4492   4.6171
     5.4269   6.9727   7.2786   7.8930

     occupation numbers 
     1.0000   1.0000   1.0000   1.0000   0.0000   0.0000   0.0000   0.0000
     0.0000   0.0000   0.0000   0.0000

          k = 0.2500 0.4330 0.0000 (  6442 PWs)   bands (ev):

   -19.9908 -15.2675 -13.7083  -7.4597  -1.8690   2.5763   3.8387   5.0062
     5.7223   7.2634   7.5917   8.0158

     occupation numbers 
     1.0000   1.0000   1.0000   1.0000   0.0000   0.0000   0.0000   0.0000
     0.0000   0.0000   0.0000   0.0000

          k = 0.2500 0.4523 0.0000 (  6444 PWs)   bands (ev):

   -19.7147 -15.5236 -13.9232  -7.1694  -2.1970   2.9995   4.2421   5.4108
     5.9858   7.5132   7.7019   8.1986

     occupation numbers 
     1.0000   1.0000   1.0000   1.0000   0.0000   0.0000   0.0000   0.0000
     0.0000   0.0000   0.0000   0.0000

          k = 0.2500 0.4715 0.0000 (  6438 PWs)   bands (ev):

   -19.4309 -15.8008 -14.0993  -6.8781  -2.5206   3.4411   4.6569   5.8294
     6.1965   7.6741   7.7598   8.4519

     occupation numbers 
     1.0000   1.0000   1.0000   1.0000   0.0000   0.0000   0.0000   0.0000
     0.0000   0.0000   0.0000   0.0000

          k = 0.2500 0.4907 0.0000 (  6438 PWs)   bands (ev):

   -19.1412 -16.0944 -14.2384  -6.5907  -2.8350   3.9009   5.0773   6.2496
     6.3557   7.6480   8.0090   8.6298

     occupation numbers 
     1.0000   1.0000   1.0000   1.0000   0.0000   0.0000   0.0000   0.0000
     0.0000   0.0000   0.0000   0.0000

          k = 0.2500 0.5100 0.0000 (  6449 PWs)   bands (ev):

   -18.8487 -16.3968 -14.3440  -6.3150  -3.1323   4.3790   5.4887   6.4339
     6.7188   7.6163   8.2296   8.3271

     occupation numbers 
     1.0000   1.0000   1.0000   1.0000   0.0000   0.0000   0.0000   0.0000
     0.0000   0.0000   0.0000   0.0000

          k = 0.2500 0.5292 0.0000 (  6455 PWs)   bands (ev):

   -18.5599 -16.6970 -14.4197  -6.0647  -3.3989   4.8751   5.8483   6.5580
     7.1645   7.5913   7.6426   8.4700

     occupation numbers 
     1.0000   1.0000   1.0000   1.0000   0.0000   0.0000   0.0000   0.0000
     0.0000   0.0000   0.0000   0.0000

          k = 0.2500 0.5485 0.0000 (  6453 PWs)   bands (ev):

   -18.2922 -16.9742 -14.4686  -5.8633  -3.6111   5.3886   6.0702   6.7949
     7.0565   7.5042   7.6829   8.1537

     occupation numbers 
     1.0000   1.0000   1.0000   1.0000   0.0000   0.0000   0.0000   0.0000
     0.0000   0.0000   0.0000   0.0000

          k = 0.2500 0.5677 0.0000 (  6446 PWs)   bands (ev):

   -18.0993 -17.1723 -14.4927  -5.7462  -3.7336   5.9125   6.1509   6.4860
     7.1492   7.4866   7.7621   8.1488

     occupation numbers 
     1.0000   1.0000   1.0000   1.0000   0.0000   0.0000   0.0000   0.0000
     0.0000   0.0000   0.0000   0.0000

          k = 0.2500 0.5870 0.0000 (  6446 PWs)   bands (ev):

   -18.0994 -17.1720 -14.4929  -5.7466  -3.7330   5.9125   6.1508   6.4860
     7.1486   7.4884   7.7604   8.1498

     occupation numbers 
     1.0000   1.0000   1.0000   1.0000   0.0000   0.0000   0.0000   0.0000
     0.0000   0.0000   0.0000   0.0000

          k = 0.2500 0.6062 0.0000 (  6453 PWs)   bands (ev):

   -18.2924 -16.9734 -14.4693  -5.8643  -3.6097   5.3886   6.0697   6.7947
     7.0565   7.5032   7.6853   8.1523

     occupation numbers 
     1.0000   1.0000   1.0000   1.0000   0.0000   0.0000   0.0000   0.0000
     0.0000   0.0000   0.0000   0.0000

          k = 0.2500 0.6255 0.0000 (  6455 PWs)   bands (ev):

   -18.5601 -16.6958 -14.4208  -6.0661  -3.3969   4.8751   5.8478   6.5574
     7.1637   7.5928   7.6426   8.4686

     occupation numbers 
     1.0000   1.0000   1.0000   1.0000   0.0000   0.0000   0.0000   0.0000
     0.0000   0.0000   0.0000   0.0000

          k = 0.2500 0.6447 0.0000 (  6449 PWs)   bands (ev):

   -18.8487 -16.3952 -14.3456  -6.3166  -3.1299   4.3790   5.4884   6.4330
     6.7184   7.6166   8.2295   8.3274

     occupation numbers 
     1.0000   1.0000   1.0000   1.0000   0.0000   0.0000   0.0000   0.0000
     0.0000   0.0000   0.0000   0.0000

          k = 0.2500 0.6640 0.0000 (  6438 PWs)   bands (ev):

   -19.1412 -16.0923 -14.2407  -6.5923  -2.8323   3.9009   5.0771   6.2493
     6.3546   7.6473   8.0092   8.6285

     occupation numbers 
     1.0000   1.0000   1.0000   1.0000   0.0000   0.0000   0.0000   0.0000
     0.0000   0.0000   0.0000   0.0000

          k = 0.2500 0.6832 0.0000 (  6438 PWs)   bands (ev):

   -19.4309 -15.7982 -14.1022  -6.8797  -2.5176   3.4411   4.6567   5.8293
     6.1952   7.6715   7.7599   8.4520

     occupation numbers 
     1.0000   1.0000   1.0000   1.0000   0.0000   0.0000   0.0000   0.0000
     0.0000   0.0000   0.0000   0.0000

          k = 0.2500 0.7024 0.0000 (  6444 PWs)   bands (ev):

   -19.7147 -15.5205 -13.9266  -7.1710  -2.1939   2.9995   4.2420   5.4108
     5.9847   7.5121   7.6967   8.2020

     occupation numbers 
     1.0000   1.0000   1.0000   1.0000   0.0000   0.0000   0.0000   0.0000
     0.0000   0.0000   0.0000   0.0000

          k = 0.2500-0.4330 0.0000 (  6442 PWs)   bands (ev):

   -19.9907 -15.2640 -13.7122  -7.4612  -1.8658   2.5763   3.8386   5.0062
     5.7215   7.2623   7.5819   8.0236

     occupation numbers 
     1.0000   1.0000   1.0000   1.0000   0.0000   0.0000   0.0000   0.0000
     0.0000   0.0000   0.0000   0.0000

          k = 0.2500-0.4138 0.0000 (  6446 PWs)   bands (ev):

   -20.2579 -15.0293 -13.4608  -7.7471  -1.5366   2.1715   3.4492   4.6171
     5.4262   6.9716   7.2703   7.8936

     occupation numbers 
     1.0000   1.0000   1.0000   1.0000   0.0000   0.0000   0.0000   0.0000
     0.0000   0.0000   0.0000   0.0000

          k = 0.2500-0.3945 0.0000 (  6455 PWs)   bands (ev):

   -20.5154 -14.8136 -13.1777  -8.0266  -1.2084   1.7850   3.0752   4.2443
     5.1168   6.6527   6.8803   7.6105

     occupation numbers 
     1.0000   1.0000   1.0000   1.0000   0.0000   0.0000   0.0000   0.0000
     0.0000   0.0000   0.0000   0.0000

          k = 0.2500-0.3753 0.0000 (  6462 PWs)   bands (ev):

   -20.7626 -14.6116 -12.8709  -8.2980  -0.8824   1.4169   2.7176   3.8881
     4.8051   6.3158   6.4796   7.3075

     occupation numbers 
     1.0000   1.0000   1.0000   1.0000   0.0000   0.0000   0.0000   0.0000
     0.0000   0.0000   0.0000   0.0000

          k = 0.2500-0.3560 0.0000 (  6476 PWs)   bands (ev):

   -20.9991 -14.4177 -12.5487  -8.5601  -0.5599   1.0673   2.3768   3.5489
     4.4983   5.9553   6.1057   7.0010

     occupation numbers 
     1.0000   1.0000   1.0000   1.0000   0.0000   0.0000   0.0000   0.0000
     0.0000   0.0000   0.0000   0.0000

          k = 0.2500-0.3368 0.0000 (  6484 PWs)   bands (ev):

   -21.2246 -14.2273 -12.2189  -8.8119  -0.2417   0.7360   2.0533   3.2269
     4.2006   5.5729   5.7738   6.7000

     occupation numbers 
     1.0000   1.0000   1.0000   1.0000   0.0000   0.0000   0.0000   0.0000
     0.0000   0.0000   0.0000   0.0000

          k = 0.2500-0.3175 0.0000 (  6477 PWs)   bands (ev):

   -21.4386 -14.0369 -11.8885  -9.0525   0.0714   0.4232   1.7475   2.9223
     3.9149   5.1928   5.4704   6.4094

     occupation numbers 
     1.0000   1.0000   1.0000   1.0000   0.0000   0.0000   0.0000   0.0000
     0.0000   0.0000   0.0000   0.0000

          k = 0.2500-0.2983 0.0000 (  6480 PWs)   bands (ev):

   -21.6410 -13.8442 -11.5636  -9.2814   0.1282   0.3790   1.4600   2.6352
     3.6430   4.8318   5.1871   6.1321

     occupation numbers 
     1.0000   1.0000   1.0000   1.0000   0.0000   0.0000   0.0000   0.0000
     0.0000   0.0000   0.0000   0.0000

          k = 0.2500-0.2791 0.0000 (  6479 PWs)   bands (ev):

   -21.8315 -13.6476 -11.2500  -9.4979  -0.1477   0.6764   1.1936   2.3658
     3.3862   4.4988   4.9218   5.8695

     occupation numbers 
     1.0000   1.0000   1.0000   1.0000   0.0000   0.0000   0.0000   0.0000
     0.0000   0.0000   0.0000   0.0000

          k = 0.2500-0.2598 0.0000 (  6487 PWs)   bands (ev):

   -22.0100 -13.4465 -10.9530  -9.7017  -0.4053   0.8832   1.0287   2.1143
     3.1456   4.2003   4.6739   5.6228

     occupation numbers 
     1.0000   1.0000   1.0000   1.0000   0.0000   0.0000   0.0000   0.0000
     0.0000   0.0000   0.0000   0.0000

          k = 0.2500-0.2406 0.0000 (  6487 PWs)   bands (ev):

   -22.1763 -13.2406 -10.6779  -9.8922  -0.6446   0.6874   1.2756   1.8811
     2.9225   3.9417   4.4436   5.3925

     occupation numbers 
     1.0000   1.0000   1.0000   1.0000   0.0000   0.0000   0.0000   0.0000
     0.0000   0.0000   0.0000   0.0000

          k = 0.2500-0.2213 0.0000 (  6487 PWs)   bands (ev):

   -22.3303 -13.0300 -10.4296 -10.0692  -0.8655   0.4735   1.5420   1.6714
     2.7187   3.7278   4.2310   5.1791

     occupation numbers 
     1.0000   1.0000   1.0000   1.0000   0.0000   0.0000   0.0000   0.0000
     0.0000   0.0000   0.0000   0.0000

          k = 0.2500-0.2021 0.0000 (  6483 PWs)   bands (ev):

   -22.4717 -12.8151 -10.2325 -10.2125  -1.0680   0.2752   1.4626   1.8112
     2.5392   3.5629   4.0367   4.9829

     occupation numbers 
     1.0000   1.0000   1.0000   1.0000   0.0000   0.0000   0.0000   0.0000
     0.0000   0.0000   0.0000   0.0000

          k = 0.2500-0.1828 0.0000 (  6493 PWs)   bands (ev):

   -22.6007 -12.5969 -10.3814 -10.0308  -1.2520   0.0944   1.2841   2.0268
     2.4076   3.4499   3.8615   4.8041

     occupation numbers 
     1.0000   1.0000   1.0000   1.0000   0.0000   0.0000   0.0000   0.0000
     0.0000   0.0000   0.0000   0.0000

          k = 0.2500-0.1636 0.0000 (  6494 PWs)   bands (ev):

   -22.7169 -12.3766 -10.5160  -9.8872  -1.4177  -0.0686   1.1226   2.0835
     2.4404   3.3898   3.7073   4.6429

     occupation numbers 
     1.0000   1.0000   1.0000   1.0000   0.0000   0.0000   0.0000   0.0000
     0.0000   0.0000   0.0000   0.0000

          k = 0.2500-0.1443 0.0000 (  6494 PWs)   bands (ev):

   -22.8205 -12.1558 -10.6362  -9.7833  -1.5650  -0.2136   0.9789   1.9909
     2.6243   3.3758   3.5826   4.4994

     occupation numbers 
     1.0000   1.0000   1.0000   1.0000   0.0000   0.0000   0.0000   0.0000
     0.0000   0.0000   0.0000   0.0000

          k = 0.2500-0.1251 0.0000 (  6496 PWs)   bands (ev):

   -22.9112 -11.9366 -10.7417  -9.7191  -1.6938  -0.3405   0.8533   1.8817
     2.8226   3.3631   3.5325   4.3738

     occupation numbers 
     1.0000   1.0000   1.0000   1.0000   0.0000   0.0000   0.0000   0.0000
     0.0000   0.0000   0.0000   0.0000

          k = 0.2500-0.1058 0.0000 (  6490 PWs)   bands (ev):

   -22.9891 -11.7221 -10.8323  -9.6928  -1.8043  -0.4493   0.7456   1.7822
     3.0021   3.3006   3.6091   4.2664

     occupation numbers 
     1.0000   1.0000   1.0000   1.0000   0.0000   0.0000   0.0000   0.0000
     0.0000   0.0000   0.0000   0.0000

          k = 0.2500-0.0866 0.0000 (  6484 PWs)   bands (ev):

   -23.0540 -11.5163 -10.9080  -9.7003  -1.8963  -0.5400   0.6558   1.6974
     3.1234   3.2662   3.7587   4.1785

     occupation numbers 
     1.0000   1.0000   1.0000   1.0000   0.0000   0.0000   0.0000   0.0000
     0.0000   0.0000   0.0000   0.0000

          k = 0.2500-0.0674 0.0000 (  6492 PWs)   bands (ev):

   -23.1061 -11.3252 -10.9687  -9.7348  -1.9699  -0.6126   0.5841   1.6288
     3.1119   3.3503   3.9422   4.1190

     occupation numbers 
     1.0000   1.0000   1.0000   1.0000   0.0000   0.0000   0.0000   0.0000
     0.0000   0.0000   0.0000   0.0000

          k = 0.2500-0.0481 0.0000 (  6474 PWs)   bands (ev):

   -23.1451 -11.1580 -11.0142  -9.7861  -2.0251  -0.6670   0.5303   1.5771
     3.0697   3.4504   4.0198   4.2069

     occupation numbers 
     1.0000   1.0000   1.0000   1.0000   0.0000   0.0000   0.0000   0.0000
     0.0000   0.0000   0.0000   0.0000

          k = 0.2500-0.0289 0.0000 (  6475 PWs)   bands (ev):

   -23.1712 -11.0448 -11.0285  -9.8391  -2.0620  -0.7033   0.4944   1.5425
     3.0379   3.5231   3.9939   4.4072

     occupation numbers 
     1.0000   1.0000   1.0000   1.0000   0.0000   0.0000   0.0000   0.0000
     0.0000   0.0000   0.0000   0.0000

          k = 0.2500-0.0096 0.0000 (  6473 PWs)   bands (ev):

   -23.1842 -11.0598 -10.9562  -9.8735  -2.0804  -0.7215   0.4764   1.5252
     3.0215   3.5609   3.9768   4.5478

     occupation numbers 
     1.0000   1.0000   1.0000   1.0000   0.0000   0.0000   0.0000   0.0000
     0.0000   0.0000   0.0000   0.0000

          k = 0.2500 0.0096 0.0000 (  6473 PWs)   bands (ev):

   -23.1842 -11.0598 -10.9570  -9.8727  -2.0804  -0.7215   0.4764   1.5252
     3.0215   3.5607   3.9768   4.5486

     occupation numbers 
     1.0000   1.0000   1.0000   1.0000   0.0000   0.0000   0.0000   0.0000
     0.0000   0.0000   0.0000   0.0000

          k = 0.2500 0.0289 0.0000 (  6475 PWs)   bands (ev):

   -23.1712 -11.0448 -11.0305  -9.8367  -2.0620  -0.7033   0.4944   1.5425
     3.0380   3.5226   3.9939   4.4092

     occupation numbers 
     1.0000   1.0000   1.0000   1.0000   0.0000   0.0000   0.0000   0.0000
     0.0000   0.0000   0.0000   0.0000

          k = 0.2500 0.0481 0.0000 (  6474 PWs)   bands (ev):

   -23.1451 -11.1609 -11.0140  -9.7828  -2.0251  -0.6670   0.5303   1.5772
     3.0698   3.4495   4.0200   4.2093

     occupation numbers 
     1.0000   1.0000   1.0000   1.0000   0.0000   0.0000   0.0000   0.0000
     0.0000   0.0000   0.0000   0.0000

          k = 0.2500 0.0674 0.0000 (  6492 PWs)   bands (ev):

   -23.1061 -11.3286 -10.9685  -9.7308  -1.9699  -0.6126   0.5841   1.6289
     3.1121   3.3489   3.9447   4.1193

     occupation numbers 
     1.0000   1.0000   1.0000   1.0000   0.0000   0.0000   0.0000   0.0000
     0.0000   0.0000   0.0000   0.0000

          k = 0.2500 0.0866 0.0000 (  6484 PWs)   bands (ev):

   -23.0541 -11.5199 -10.9078  -9.6959  -1.8963  -0.5400   0.6558   1.6975
     3.1232   3.2650   3.7616   4.1785

     occupation numbers 
     1.0000   1.0000   1.0000   1.0000   0.0000   0.0000   0.0000   0.0000
     0.0000   0.0000   0.0000   0.0000

          k = 0.2500 0.1058 0.0000 (  6490 PWs)   bands (ev):

   -22.9892 -11.7258 -10.8320  -9.6882  -1.8043  -0.4493   0.7456   1.7823
     3.0007   3.3004   3.6120   4.2664

     occupation numbers 
     1.0000   1.0000   1.0000   1.0000   0.0000   0.0000   0.0000   0.0000
     0.0000   0.0000   0.0000   0.0000

          k = 0.2500 0.1251 0.0000 (  6496 PWs)   bands (ev):

   -22.9113 -11.9404 -10.7413  -9.7144  -1.6938  -0.3405   0.8533   1.8819
     2.8207   3.3641   3.5345   4.3738

     occupation numbers 
     1.0000   1.0000   1.0000   1.0000   0.0000   0.0000   0.0000   0.0000
     0.0000   0.0000   0.0000   0.0000

          k = 0.2667 0.1540 0.0000 (  6492 PWs)   bands (ev):

   -22.6201 -12.6018 -10.4036  -9.9431  -1.2796   0.0671   1.2568   2.0352
     2.3979   3.3413   3.8328   4.7779

     occupation numbers 
     1.0000   1.0000   1.0000   1.0000   0.0000   0.0000   0.0000   0.0000
     0.0000   0.0000   0.0000   0.0000

          k = 0.2667 0.1732 0.0000 (  6483 PWs)   bands (ev):

   -22.5104 -12.8231 -10.2771 -10.0436  -1.1232   0.2206   1.4082   1.8497
     2.4975   3.3425   3.9812   4.9306

     occupation numbers 
     1.0000   1.0000   1.0000   1.0000   0.0000   0.0000   0.0000   0.0000
     0.0000   0.0000   0.0000   0.0000

          k = 0.2667 0.1925 0.0000 (  6487 PWs)   bands (ev):

   -22.3881 -13.0423 -10.1842 -10.1363  -0.9483   0.3916   1.5601   1.6363
     2.6477   3.4002   4.1489   5.1008

     occupation numbers 
     1.0000   1.0000   1.0000   1.0000   0.0000   0.0000   0.0000   0.0000
     0.0000   0.0000   0.0000   0.0000

          k = 0.2667 0.2117 0.0000 (  6489 PWs)   bands (ev):

   -22.2532 -13.2579 -10.3631  -9.9815  -0.7551   0.5789   1.3619   1.7733
     2.8238   3.5138   4.3349   5.2883

     occupation numbers 
     1.0000   1.0000   1.0000   1.0000   0.0000   0.0000   0.0000   0.0000
     0.0000   0.0000   0.0000   0.0000

          k = 0.2667 0.2309 0.0000 (  6491 PWs)   bands (ev):

   -22.1058 -13.4689 -10.5776  -9.8128  -0.5434   0.7750   1.1106   1.9787
     3.0204   3.6807   4.5385   5.4930

     occupation numbers 
     1.0000   1.0000   1.0000   1.0000   0.0000   0.0000   0.0000   0.0000
     0.0000   0.0000   0.0000   0.0000

          k = 0.2667 0.2502 0.0000 (  6481 PWs)   bands (ev):

   -21.9461 -13.6745 -10.8236  -9.6305  -0.3133   0.7882   1.0502   2.2031
     3.2355   3.8974   4.7594   5.7146

     occupation numbers 
     1.0000   1.0000   1.0000   1.0000   0.0000   0.0000   0.0000   0.0000
     0.0000   0.0000   0.0000   0.0000

          k = 0.2667 0.2694 0.0000 (  6475 PWs)   bands (ev):

   -21.7742 -13.8741 -11.0969  -9.4350  -0.0650   0.5263   1.2755   2.4457
     3.4680   4.1595   4.9973   5.9526

     occupation numbers 
     1.0000   1.0000   1.0000   1.0000   0.0000   0.0000   0.0000   0.0000
     0.0000   0.0000   0.0000   0.0000

          k = 0.2667 0.2887 0.0000 (  6480 PWs)   bands (ev):

   -21.5902 -14.0675 -11.3926  -9.2267   0.1991   0.2456   1.5339   2.7062
     3.7167   4.4626   5.2515   6.2064

     occupation numbers 
     1.0000   1.0000   1.0000   1.0000   0.0000   0.0000   0.0000   0.0000
     0.0000   0.0000   0.0000   0.0000

          k = 0.2667 0.3079 0.0000 (  6474 PWs)   bands (ev):

   -21.3943 -14.2549 -11.7059  -9.0059  -0.0485   0.4877   1.8122   2.9844
     3.9805   4.8018   5.5215   6.4751

     occupation numbers 
     1.0000   1.0000   1.0000   1.0000   0.0000   0.0000   0.0000   0.0000
     0.0000   0.0000   0.0000   0.0000

          k = 0.2667 0.3272 0.0000 (  6477 PWs)   bands (ev):

   -21.1868 -14.4366 -12.0316  -8.7733  -0.3445   0.7913   2.1088   3.2801
     4.2581   5.1718   5.8061   6.7569

     occupation numbers 
     1.0000   1.0000   1.0000   1.0000   0.0000   0.0000   0.0000   0.0000
     0.0000   0.0000   0.0000   0.0000

          k = 0.2667 0.3464 0.0000 (  6474 PWs)   bands (ev):

   -20.9679 -14.6137 -12.3646  -8.5293  -0.6451   1.1133   2.4231   3.5933
     4.5475   5.5673   6.1036   7.0490

     occupation numbers 
     1.0000   1.0000   1.0000   1.0000   0.0000   0.0000   0.0000   0.0000
     0.0000   0.0000   0.0000   0.0000

          k = 0.2667 0.3657 0.0000 (  6469 PWs)   bands (ev):

   -20.7378 -14.7879 -12.6994  -8.2746  -0.9498   1.4538   2.7548   3.9236
     4.8461   5.9821   6.4110   7.3462

     occupation numbers 
     1.0000   1.0000   1.0000   1.0000   0.0000   0.0000   0.0000   0.0000
     0.0000   0.0000   0.0000   0.0000

          k = 0.2667 0.3849 0.0000 (  6465 PWs)   bands (ev):

   -20.4970 -14.9616 -13.0300  -8.0102  -1.2580   1.8126   3.1032   4.2709
     5.1492   6.4091   6.7227   7.6389

     occupation numbers 
     1.0000   1.0000   1.0000   1.0000   0.0000   0.0000   0.0000   0.0000
     0.0000   0.0000   0.0000   0.0000

          k = 0.2667 0.4041 0.0000 (  6448 PWs)   bands (ev):

   -20.2458 -15.1386 -13.3495  -7.7369  -1.5692   2.1899   3.4680   4.6349
     5.4496   6.8378   7.0300   7.9107

     occupation numbers 
     1.0000   1.0000   1.0000   1.0000   0.0000   0.0000   0.0000   0.0000
     0.0000   0.0000   0.0000   0.0000

          k = 0.2667 0.4234 0.0000 (  6452 PWs)   bands (ev):

   -19.9848 -15.3240 -13.6501  -7.4561  -1.8826   2.5855   3.8481   5.0151
     5.7348   7.2370   7.3351   8.1386

     occupation numbers 
     1.0000   1.0000   1.0000   1.0000   0.0000   0.0000   0.0000   0.0000
     0.0000   0.0000   0.0000   0.0000

          k = 0.2667 0.4426 0.0000 (  6444 PWs)   bands (ev):

   -19.7147 -15.5237 -13.9231  -7.1694  -2.1970   2.9995   4.2421   5.4108
     5.9858   7.5132   7.7021   8.1985

     occupation numbers 
     1.0000   1.0000   1.0000   1.0000   0.0000   0.0000   0.0000   0.0000
     0.0000   0.0000   0.0000   0.0000

          k = 0.2667 0.4619 0.0000 (  6452 PWs)   bands (ev):

   -19.4366 -15.7430 -14.1607  -6.8792  -2.5106   3.4319   4.6470   5.8204
     6.1807   7.7356   8.0347   8.1824

     occupation numbers 
     1.0000   1.0000   1.0000   1.0000   0.0000   0.0000   0.0000   0.0000
     0.0000   0.0000   0.0000   0.0000

          k = 0.2667 0.4811 0.0000 (  6434 PWs)   bands (ev):

   -19.1517 -15.9845 -14.3573  -6.5886  -2.8203   3.8825   5.0566   6.2272
     6.3265   7.9803   8.0679   8.4076

     occupation numbers 
     1.0000   1.0000   1.0000   1.0000   0.0000   0.0000   0.0000   0.0000
     0.0000   0.0000   0.0000   0.0000

          k = 0.2667 0.5004 0.0000 (  6436 PWs)   bands (ev):

   -18.8624 -16.2461 -14.5118  -6.3031  -3.1212   4.3513   5.4543   6.3832
     6.6947   8.0158   8.2931   8.5867

     occupation numbers 
     1.0000   1.0000   1.0000   1.0000   0.0000   0.0000   0.0000   0.0000
     0.0000   0.0000   0.0000   0.0000

          k = 0.2667 0.5196 0.0000 (  6443 PWs)   bands (ev):

   -18.5730 -16.5205 -14.6263  -6.0318  -3.4043   4.8382   5.7921   6.5039
     7.1381   7.9763   8.1511   8.6247

     occupation numbers 
     1.0000   1.0000   1.0000   1.0000   0.0000   0.0000   0.0000   0.0000
     0.0000   0.0000   0.0000   0.0000

          k = 0.2667 0.5389 0.0000 (  6444 PWs)   bands (ev):

   -18.2932 -16.7936 -14.7045  -5.7918  -3.6526   5.3421   5.9873   6.7551
     7.5556   7.5829   7.9459   8.4605

     occupation numbers 
     1.0000   1.0000   1.0000   1.0000   0.0000   0.0000   0.0000   0.0000
     0.0000   0.0000   0.0000   0.0000

          k = 0.2667 0.5581 0.0000 (  6442 PWs)   bands (ev):

   -18.0516 -17.0329 -14.7501  -5.6147  -3.8345   5.8539   6.0643   6.9728
     7.1326   7.8471   7.9949   8.2423

     occupation numbers 
     1.0000   1.0000   1.0000   1.0000   0.0000   0.0000   0.0000   0.0000
     0.0000   0.0000   0.0000   0.0000

          k = 0.2667 0.5774 0.0000 (  6432 PWs)   bands (ev):

   -17.9386 -17.1453 -14.7651  -5.5471  -3.9037   6.0457   6.4171   6.4287
     7.4337   7.6722   7.9996   8.4661

     occupation numbers 
     1.0000   1.0000   1.0000   1.0000   0.0000   0.0000   0.0000   0.0000
     0.0000   0.0000   0.0000   0.0000

          k = 0.2667 0.5966 0.0000 (  6442 PWs)   bands (ev):

   -18.0519 -17.0321 -14.7506  -5.6157  -3.8333   5.8539   6.0640   6.9728
     7.1323   7.8488   7.9938   8.2422

     occupation numbers 
     1.0000   1.0000   1.0000   1.0000   0.0000   0.0000   0.0000   0.0000
     0.0000   0.0000   0.0000   0.0000

          k = 0.2667 0.6158 0.0000 (  6444 PWs)   bands (ev):

   -18.2935 -16.7923 -14.7057  -5.7933  -3.6505   5.3421   5.9866   6.7549
     7.5556   7.5820   7.9489   8.4578

     occupation numbers 
     1.0000   1.0000   1.0000   1.0000   0.0000   0.0000   0.0000   0.0000
     0.0000   0.0000   0.0000   0.0000

          k = 0.2667 0.6351 0.0000 (  6443 PWs)   bands (ev):

   -18.5732 -16.5187 -14.6281  -6.0336  -3.4017   4.8382   5.7915   6.5033
     7.1378   7.9780   8.1509   8.6233

     occupation numbers 
     1.0000   1.0000   1.0000   1.0000   0.0000   0.0000   0.0000   0.0000
     0.0000   0.0000   0.0000   0.0000

          k = 0.2667 0.6543 0.0000 (  6436 PWs)   bands (ev):

   -18.8626 -16.2437 -14.5142  -6.3050  -3.1183   4.3513   5.4540   6.3821
     6.6945   8.0164   8.2936   8.5838

     occupation numbers 
     1.0000   1.0000   1.0000   1.0000   0.0000   0.0000   0.0000   0.0000
     0.0000   0.0000   0.0000   0.0000

          k = 0.2667 0.6736 0.0000 (  6434 PWs)   bands (ev):

   -19.1518 -15.9816 -14.3604  -6.5905  -2.8172   3.8825   5.0564   6.2269
     6.3254   7.9797   8.0674   8.4061

     occupation numbers 
     1.0000   1.0000   1.0000   1.0000   0.0000   0.0000   0.0000   0.0000
     0.0000   0.0000   0.0000   0.0000

          k = 0.2667 0.6928 0.0000 (  6452 PWs)   bands (ev):

   -19.4366 -15.7396 -14.1643  -6.8809  -2.5073   3.4319   4.6469   5.8204
     6.1794   7.7351   8.0252   8.1893

     occupation numbers 
     1.0000   1.0000   1.0000   1.0000   0.0000   0.0000   0.0000   0.0000
     0.0000   0.0000   0.0000   0.0000

          k = 0.2667 0.7121 0.0000 (  6444 PWs)   bands (ev):

   -19.7147 -15.5201 -13.9271  -7.1711  -2.1936   2.9995   4.2420   5.4108
     5.9847   7.5121   7.6956   8.2026

     occupation numbers 
     1.0000   1.0000   1.0000   1.0000   0.0000   0.0000   0.0000   0.0000
     0.0000   0.0000   0.0000   0.0000

          k = 0.2667-0.4234 0.0000 (  6452 PWs)   bands (ev):

   -19.9847 -15.3202 -13.6544  -7.4577  -1.8791   2.5855   3.8480   5.0151
     5.7340   7.2332   7.3323   8.1392

     occupation numbers 
     1.0000   1.0000   1.0000   1.0000   0.0000   0.0000   0.0000   0.0000
     0.0000   0.0000   0.0000   0.0000

          k = 0.2667-0.4041 0.0000 (  6448 PWs)   bands (ev):

   -20.2457 -15.1348 -13.3539  -7.7384  -1.5656   2.1899   3.4679   4.6349
     5.4490   6.8326   7.0293   7.9104

     occupation numbers 
     1.0000   1.0000   1.0000   1.0000   0.0000   0.0000   0.0000   0.0000
     0.0000   0.0000   0.0000   0.0000

          k = 0.2667-0.3849 0.0000 (  6465 PWs)   bands (ev):

   -20.4968 -14.9577 -13.0345  -8.0116  -1.2544   1.8126   3.1032   4.2709
     5.1487   6.4040   6.7224   7.6385

     occupation numbers 
     1.0000   1.0000   1.0000   1.0000   0.0000   0.0000   0.0000   0.0000
     0.0000   0.0000   0.0000   0.0000

          k = 0.2667-0.3657 0.0000 (  6469 PWs)   bands (ev):

   -20.7376 -14.7841 -12.7039  -8.2760  -0.9462   1.4538   2.7547   3.9236
     4.8457   5.9772   6.4107   7.3460

     occupation numbers 
     1.0000   1.0000   1.0000   1.0000   0.0000   0.0000   0.0000   0.0000
     0.0000   0.0000   0.0000   0.0000

          k = 0.2667-0.3464 0.0000 (  6474 PWs)   bands (ev):

   -20.9677 -14.6100 -12.3691  -8.5305  -0.6416   1.1133   2.4231   3.5932
     4.5472   5.5627   6.1035   7.0488

     occupation numbers 
     1.0000   1.0000   1.0000   1.0000   0.0000   0.0000   0.0000   0.0000
     0.0000   0.0000   0.0000   0.0000

          k = 0.2667-0.3272 0.0000 (  6477 PWs)   bands (ev):

   -21.1866 -14.4329 -12.0361  -8.7744  -0.3410   0.7913   2.1088   3.2801
     4.2578   5.1674   5.8060   6.7567

     occupation numbers 
     1.0000   1.0000   1.0000   1.0000   0.0000   0.0000   0.0000   0.0000
     0.0000   0.0000   0.0000   0.0000

          k = 0.2667-0.3079 0.0000 (  6474 PWs)   bands (ev):

   -21.3942 -14.2512 -11.7104  -9.0070  -0.0450   0.4877   1.8122   2.9843
     3.9803   4.7976   5.5214   6.4749

     occupation numbers 
     1.0000   1.0000   1.0000   1.0000   0.0000   0.0000   0.0000   0.0000
     0.0000   0.0000   0.0000   0.0000

          k = 0.2667-0.2887 0.0000 (  6480 PWs)   bands (ev):

   -21.5900 -14.0639 -11.3971  -9.2277   0.1993   0.2488   1.5339   2.7061
     3.7165   4.4586   5.2515   6.2063

     occupation numbers 
     1.0000   1.0000   1.0000   1.0000   0.0000   0.0000   0.0000   0.0000
     0.0000   0.0000   0.0000   0.0000

          k = 0.2667-0.2694 0.0000 (  6475 PWs)   bands (ev):

   -21.7740 -13.8705 -11.1014  -9.4360  -0.0650   0.5294   1.2755   2.4457
     3.4678   4.1558   4.9972   5.9526

     occupation numbers 
     1.0000   1.0000   1.0000   1.0000   0.0000   0.0000   0.0000   0.0000
     0.0000   0.0000   0.0000   0.0000

          k = 0.2667-0.2502 0.0000 (  6481 PWs)   bands (ev):

   -21.9460 -13.6709 -10.8282  -9.6314  -0.3133   0.7907   1.0507   2.2031
     3.2354   3.8938   4.7594   5.7146

     occupation numbers 
     1.0000   1.0000   1.0000   1.0000   0.0000   0.0000   0.0000   0.0000
     0.0000   0.0000   0.0000   0.0000

          k = 0.2667-0.2309 0.0000 (  6491 PWs)   bands (ev):

   -22.1057 -13.4653 -10.5822  -9.8136  -0.5434   0.7750   1.1134   1.9787
     3.0204   3.6773   4.5385   5.4930

     occupation numbers 
     1.0000   1.0000   1.0000   1.0000   0.0000   0.0000   0.0000   0.0000
     0.0000   0.0000   0.0000   0.0000

          k = 0.2667-0.2117 0.0000 (  6489 PWs)   bands (ev):

   -22.2531 -13.2543 -10.3678  -9.9822  -0.7551   0.5789   1.3646   1.7734
     2.8239   3.5106   4.3349   5.2883

     occupation numbers 
     1.0000   1.0000   1.0000   1.0000   0.0000   0.0000   0.0000   0.0000
     0.0000   0.0000   0.0000   0.0000

          k = 0.2667-0.1925 0.0000 (  6487 PWs)   bands (ev):

   -22.3880 -13.0387 -10.1889 -10.1370  -0.9483   0.3915   1.5606   1.6381
     2.6479   3.3971   4.1490   5.1008

     occupation numbers 
     1.0000   1.0000   1.0000   1.0000   0.0000   0.0000   0.0000   0.0000
     0.0000   0.0000   0.0000   0.0000

          k = 0.2667-0.1732 0.0000 (  6483 PWs)   bands (ev):

   -22.5103 -12.8195 -10.2777 -10.0483  -1.1232   0.2205   1.4082   1.8517
     2.4980   3.3395   3.9812   4.9306

     occupation numbers 
     1.0000   1.0000   1.0000   1.0000   0.0000   0.0000   0.0000   0.0000
     0.0000   0.0000   0.0000   0.0000

          k = 0.2667-0.1540 0.0000 (  6492 PWs)   bands (ev):

   -22.6200 -12.5982 -10.4041  -9.9477  -1.2796   0.0671   1.2568   2.0362
     2.3992   3.3384   3.8328   4.7779

     occupation numbers 
     1.0000   1.0000   1.0000   1.0000   0.0000   0.0000   0.0000   0.0000
     0.0000   0.0000   0.0000   0.0000

          k = 0.2667-0.1347 0.0000 (  6494 PWs)   bands (ev):

   -22.7169 -12.3766 -10.5160  -9.8872  -1.4177  -0.0686   1.1226   2.0835
     2.4404   3.3899   3.7073   4.6429

     occupation numbers 
     1.0000   1.0000   1.0000   1.0000   0.0000   0.0000   0.0000   0.0000
     0.0000   0.0000   0.0000   0.0000

          k = 0.2667-0.1155 0.0000 (  6484 PWs)   bands (ev):

   -22.8011 -12.1574 -10.6133  -9.8651  -1.5373  -0.1862   1.0062   2.0169
     2.5946   3.4644   3.6322   4.5257

     occupation numbers 
     1.0000   1.0000   1.0000   1.0000   0.0000   0.0000   0.0000   0.0000
     0.0000   0.0000   0.0000   0.0000

          k = 0.2667-0.0962 0.0000 (  6482 PWs)   bands (ev):

   -22.8724 -11.9440 -10.6959  -9.8777  -1.6386  -0.2858   0.9077   1.9356
     2.7591   3.4432   3.7212   4.4268

     occupation numbers 
     1.0000   1.0000   1.0000   1.0000   0.0000   0.0000   0.0000   0.0000
     0.0000   0.0000   0.0000   0.0000

          k = 0.2667-0.0770 0.0000 (  6480 PWs)   bands (ev):

   -22.9308 -11.7415 -10.7636  -9.9191  -1.7214  -0.3673   0.8271   1.8634
     2.9066   3.3760   3.9154   4.3476

     occupation numbers 
     1.0000   1.0000   1.0000   1.0000   0.0000   0.0000   0.0000   0.0000
     0.0000   0.0000   0.0000   0.0000

          k = 0.2667-0.0577 0.0000 (  6478 PWs)   bands (ev):

   -22.9762 -11.5572 -10.8163  -9.9803  -1.7858  -0.4308   0.7644   1.8054
     3.0286   3.3171   4.1356   4.3001

     occupation numbers 
     1.0000   1.0000   1.0000   1.0000   0.0000   0.0000   0.0000   0.0000
     0.0000   0.0000   0.0000   0.0000

          k = 0.2667-0.0385 0.0000 (  6481 PWs)   bands (ev):

   -23.0087 -11.4031 -10.8540 -10.0479  -1.8319  -0.4761   0.7196   1.7634
     3.1203   3.2728   4.2095   4.4262

     occupation numbers 
     1.0000   1.0000   1.0000   1.0000   0.0000   0.0000   0.0000   0.0000
     0.0000   0.0000   0.0000   0.0000

          k = 0.2667-0.0192 0.0000 (  6473 PWs)   bands (ev):

   -23.0282 -11.2967 -10.8766 -10.1030  -1.8595  -0.5033   0.6928   1.7381
     3.1796   3.2432   4.1907   4.6246

     occupation numbers 
     1.0000   1.0000   1.0000   1.0000   0.0000   0.0000   0.0000   0.0000
     0.0000   0.0000   0.0000   0.0000

          k = 0.2667 0.0000 0.0000 (  6457 PWs)   bands (ev):

   -23.0347 -11.2583 -10.8841 -10.1243  -1.8687  -0.5123   0.6838   1.7296
     3.2046   3.2283   4.1827   4.7109

     occupation numbers 
     1.0000   1.0000   1.0000   1.0000   0.0000   0.0000   0.0000   0.0000
     0.0000   0.0000   0.0000   0.0000

          k = 0.2667 0.0192 0.0000 (  6473 PWs)   bands (ev):

   -23.0282 -11.2981 -10.8765 -10.1014  -1.8595  -0.5033   0.6928   1.7381
     3.1796   3.2429   4.1907   4.6260

     occupation numbers 
     1.0000   1.0000   1.0000   1.0000   0.0000   0.0000   0.0000   0.0000
     0.0000   0.0000   0.0000   0.0000

          k = 0.2667 0.0385 0.0000 (  6481 PWs)   bands (ev):

   -23.0087 -11.4055 -10.8538 -10.0451  -1.8319  -0.4761   0.7196   1.7635
     3.1198   3.2726   4.2097   4.4283

     occupation numbers 
     1.0000   1.0000   1.0000   1.0000   0.0000   0.0000   0.0000   0.0000
     0.0000   0.0000   0.0000   0.0000

          k = 0.2667 0.0577 0.0000 (  6478 PWs)   bands (ev):

   -22.9763 -11.5602 -10.8161  -9.9767  -1.7858  -0.4308   0.7644   1.8055
     3.0277   3.3169   4.1377   4.3005

     occupation numbers 
     1.0000   1.0000   1.0000   1.0000   0.0000   0.0000   0.0000   0.0000
     0.0000   0.0000   0.0000   0.0000

          k = 0.2667 0.0770 0.0000 (  6480 PWs)   bands (ev):

   -22.9308 -11.7448 -10.7633  -9.9151  -1.7214  -0.3673   0.8271   1.8635
     2.9053   3.3759   3.9180   4.3476

     occupation numbers 
     1.0000   1.0000   1.0000   1.0000   0.0000   0.0000   0.0000   0.0000
     0.0000   0.0000   0.0000   0.0000

          k = 0.2667 0.0962 0.0000 (  6482 PWs)   bands (ev):

   -22.8724 -11.9475 -10.6956  -9.8734  -1.6386  -0.2858   0.9077   1.9358
     2.7574   3.4434   3.7237   4.4268

     occupation numbers 
     1.0000   1.0000   1.0000   1.0000   0.0000   0.0000   0.0000   0.0000
     0.0000   0.0000   0.0000   0.0000

          k = 0.2667 0.1155 0.0000 (  6484 PWs)   bands (ev):

   -22.8012 -12.1610 -10.6130  -9.8606  -1.5373  -0.1862   1.0062   2.0172
     2.5925   3.4661   3.6332   4.5257

     occupation numbers 
     1.0000   1.0000   1.0000   1.0000   0.0000   0.0000   0.0000   0.0000
     0.0000   0.0000   0.0000   0.0000

          k = 0.2667 0.1347 0.0000 (  6494 PWs)   bands (ev):

   -22.7170 -12.3803 -10.5156  -9.8826  -1.4177  -0.0685   1.1226   2.0837
     2.4382   3.3925   3.7074   4.6429

     occupation numbers 
     1.0000   1.0000   1.0000   1.0000   0.0000   0.0000   0.0000   0.0000
     0.0000   0.0000   0.0000   0.0000

          k = 0.2833 0.1636 0.0000 (  6490 PWs)   bands (ev):

   -22.4073 -13.0458 -10.1590 -10.1002  -0.9759   0.3642   1.5410   1.6491
     2.6242   3.2856   4.1222   5.0747

     occupation numbers 
     1.0000   1.0000   1.0000   1.0000   0.0000   0.0000   0.0000   0.0000
     0.0000   0.0000   0.0000   0.0000

          k = 0.2833 0.1828 0.0000 (  6488 PWs)   bands (ev):

   -22.2916 -13.2667 -10.1969 -10.0267  -0.8103   0.5245   1.4026   1.7198
     2.7734   3.2875   4.2819   5.2363

     occupation numbers 
     1.0000   1.0000   1.0000   1.0000   0.0000   0.0000   0.0000   0.0000
     0.0000   0.0000   0.0000   0.0000

          k = 0.2833 0.2021 0.0000 (  6484 PWs)   bands (ev):

   -22.1633 -13.4842 -10.3338  -9.8803  -0.6262   0.6971   1.1686   1.8969
     2.9417   3.3483   4.4595   5.4153

     occupation numbers 
     1.0000   1.0000   1.0000   1.0000   0.0000   0.0000   0.0000   0.0000
     0.0000   0.0000   0.0000   0.0000

          k = 0.2833 0.2213 0.0000 (  6494 PWs)   bands (ev):

   -22.0225 -13.6969 -10.5092  -9.7201  -0.4238   0.8143   0.9965   2.0938
     3.1282   3.4660   4.6546   5.6115

     occupation numbers 
     1.0000   1.0000   1.0000   1.0000   0.0000   0.0000   0.0000   0.0000
     0.0000   0.0000   0.0000   0.0000

          k = 0.2833 0.2406 0.0000 (  6486 PWs)   bands (ev):

   -21.8694 -13.9039 -10.7203  -9.5464  -0.2030   0.6181   1.1478   2.3091
     3.3333   3.6367   4.8669   5.8245

     occupation numbers 
     1.0000   1.0000   1.0000   1.0000   0.0000   0.0000   0.0000   0.0000
     0.0000   0.0000   0.0000   0.0000

          k = 0.2833 0.2598 0.0000 (  6487 PWs)   bands (ev):

   -21.7040 -14.1043 -10.9633  -9.3595   0.0359   0.3579   1.3752   2.5427
     3.5574   3.8558   5.0960   6.0539

     occupation numbers 
     1.0000   1.0000   1.0000   1.0000   0.0000   0.0000   0.0000   0.0000
     0.0000   0.0000   0.0000   0.0000

          k = 0.2833 0.2791 0.0000 (  6493 PWs)   bands (ev):

   -21.5266 -14.2977 -11.2337  -9.1598   0.0857   0.2951   1.6255   2.7942
     3.7994   4.1190   5.3414   6.2992

     occupation numbers 
     1.0000   1.0000   1.0000   1.0000   0.0000   0.0000   0.0000   0.0000
     0.0000   0.0000   0.0000   0.0000

          k = 0.2833 0.2983 0.0000 (  6481 PWs)   bands (ev):

   -21.3373 -14.4839 -11.5271  -8.9476  -0.1899   0.5705   1.8950   3.0635
     4.0574   4.4229   5.6025   6.5595

     occupation numbers 
     1.0000   1.0000   1.0000   1.0000   0.0000   0.0000   0.0000   0.0000
     0.0000   0.0000   0.0000   0.0000

          k = 0.2833 0.3175 0.0000 (  6488 PWs)   bands (ev):

   -21.1364 -14.6628 -11.8386  -8.7235  -0.4704   0.8649   2.1825   3.3505
     4.3291   4.7634   5.8781   6.8330

     occupation numbers 
     1.0000   1.0000   1.0000   1.0000   0.0000   0.0000   0.0000   0.0000
     0.0000   0.0000   0.0000   0.0000

          k = 0.2833 0.3368 0.0000 (  6478 PWs)   bands (ev):

   -20.9240 -14.8345 -12.1634  -8.4880  -0.7545   1.1778   2.4878   3.6549
     4.6122   5.1357   6.1664   7.1171

     occupation numbers 
     1.0000   1.0000   1.0000   1.0000   0.0000   0.0000   0.0000   0.0000
     0.0000   0.0000   0.0000   0.0000

          k = 0.2833 0.3560 0.0000 (  6475 PWs)   bands (ev):

   -20.7004 -14.9999 -12.4968  -8.2416  -1.0419   1.5090   2.8103   3.9765
     4.9041   5.5345   6.4643   7.4065

     occupation numbers 
     1.0000   1.0000   1.0000   1.0000   0.0000   0.0000   0.0000   0.0000
     0.0000   0.0000   0.0000   0.0000

          k = 0.2833 0.3753 0.0000 (  6462 PWs)   bands (ev):

   -20.4661 -15.1601 -12.8338  -7.9851  -1.3325   1.8587   3.1497   4.3150
     5.2005   5.9539   6.7658   7.6917

     occupation numbers 
     1.0000   1.0000   1.0000   1.0000   0.0000   0.0000   0.0000   0.0000
     0.0000   0.0000   0.0000   0.0000

          k = 0.2833 0.3945 0.0000 (  6449 PWs)   bands (ev):

   -20.2214 -15.3167 -13.1690  -7.7194  -1.6260   2.2267   3.5054   4.6702
     5.4938   6.3871   7.0596   7.9560

     occupation numbers 
     1.0000   1.0000   1.0000   1.0000   0.0000   0.0000   0.0000   0.0000
     0.0000   0.0000   0.0000   0.0000

          k = 0.2833 0.4138 0.0000 (  6442 PWs)   bands (ev):

   -19.9668 -15.4728 -13.4965  -7.4454  -1.9223   2.6132   3.8764   5.0416
     5.7715   6.8265   7.3266   8.1862

     occupation numbers 
     1.0000   1.0000   1.0000   1.0000   0.0000   0.0000   0.0000   0.0000
     0.0000   0.0000   0.0000   0.0000

          k = 0.2833 0.4330 0.0000 (  6442 PWs)   bands (ev):

   -19.7030 -15.6324 -13.8093  -7.1644  -2.2208   3.0180   4.2612   5.4286
     6.0136   7.2615   7.5510   8.3889

     occupation numbers 
     1.0000   1.0000   1.0000   1.0000   0.0000   0.0000   0.0000   0.0000
     0.0000   0.0000   0.0000   0.0000

          k = 0.2833 0.4523 0.0000 (  6438 PWs)   bands (ev):

   -19.4309 -15.8009 -14.0993  -6.8781  -2.5206   3.4411   4.6569   5.8294
     6.1965   7.6742   7.7598   8.4518

     occupation numbers 
     1.0000   1.0000   1.0000   1.0000   0.0000   0.0000   0.0000   0.0000
     0.0000   0.0000   0.0000   0.0000

          k = 0.2833 0.4715 0.0000 (  6434 PWs)   bands (ev):

   -19.1517 -15.9845 -14.3573  -6.5886  -2.8203   3.8825   5.0566   6.2272
     6.3265   7.9803   8.0680   8.4075

     occupation numbers 
     1.0000   1.0000   1.0000   1.0000   0.0000   0.0000   0.0000   0.0000
     0.0000   0.0000   0.0000   0.0000

          k = 0.2833 0.4907 0.0000 (  6422 PWs)   bands (ev):

   -18.8671 -16.1885 -14.5751  -6.2992  -3.1173   4.3421   5.4427   6.3660
     6.6865   8.2785   8.3028   8.4304

     occupation numbers 
     1.0000   1.0000   1.0000   1.0000   0.0000   0.0000   0.0000   0.0000
     0.0000   0.0000   0.0000   0.0000

          k = 0.2833 0.5100 0.0000 (  6431 PWs)   bands (ev):

   -18.5801 -16.4141 -14.7474  -6.0154  -3.4065   4.8197   5.7630   6.4760
     7.1226   8.2755   8.5815   8.6251

     occupation numbers 
     1.0000   1.0000   1.0000   1.0000   0.0000   0.0000   0.0000   0.0000
     0.0000   0.0000   0.0000   0.0000

          k = 0.2833 0.5292 0.0000 (  6442 PWs)   bands (ev):

   -18.2964 -16.6561 -14.8731  -5.7476  -3.6779   5.3142   5.9350   6.7271
     7.5651   8.0733   8.2349   8.6527

     occupation numbers 
     1.0000   1.0000   1.0000   1.0000   0.0000   0.0000   0.0000   0.0000
     0.0000   0.0000   0.0000   0.0000

          k = 0.2833 0.5485 0.0000 (  6444 PWs)   bands (ev):

   -18.0306 -16.8970 -14.9542  -5.5178  -3.9100   5.8134   5.9995   7.0993
     7.4934   7.9948   8.1511   8.5334

     occupation numbers 
     1.0000   1.0000   1.0000   1.0000   0.0000   0.0000   0.0000   0.0000
     0.0000   0.0000   0.0000   0.0000

          k = 0.2833 0.5677 0.0000 (  6438 PWs)   bands (ev):

   -17.8324 -17.0837 -14.9940  -5.3725  -4.0562   5.9766   6.3771   6.9226
     7.4960   7.9427   8.2767   8.5462

     occupation numbers 
     1.0000   1.0000   1.0000   1.0000   0.0000   0.0000   0.0000   0.0000
     0.0000   0.0000   0.0000   0.0000

          k = 0.2833 0.5870 0.0000 (  6438 PWs)   bands (ev):

   -17.8327 -17.0830 -14.9944  -5.3732  -4.0554   5.9764   6.3771   6.9226
     7.4956   7.9444   8.2741   8.5483

     occupation numbers 
     1.0000   1.0000   1.0000   1.0000   0.0000   0.0000   0.0000   0.0000
     0.0000   0.0000   0.0000   0.0000

          k = 0.2833 0.6062 0.0000 (  6444 PWs)   bands (ev):

   -18.0311 -16.8955 -14.9553  -5.5194  -3.9079   5.8134   5.9990   7.0991
     7.4934   7.9934   8.1551   8.5305

     occupation numbers 
     1.0000   1.0000   1.0000   1.0000   0.0000   0.0000   0.0000   0.0000
     0.0000   0.0000   0.0000   0.0000

          k = 0.2833 0.6255 0.0000 (  6442 PWs)   bands (ev):

   -18.2968 -16.6540 -14.8749  -5.7496  -3.6752   5.3142   5.9342   6.7269
     7.5646   8.0735   8.2385   8.6477

     occupation numbers 
     1.0000   1.0000   1.0000   1.0000   0.0000   0.0000   0.0000   0.0000
     0.0000   0.0000   0.0000   0.0000

          k = 0.2833 0.6447 0.0000 (  6431 PWs)   bands (ev):

   -18.5803 -16.4115 -14.7500  -6.0176  -3.4033   4.8197   5.7623   6.4754
     7.1224   8.2795   8.5760   8.6255

     occupation numbers 
     1.0000   1.0000   1.0000   1.0000   0.0000   0.0000   0.0000   0.0000
     0.0000   0.0000   0.0000   0.0000

          k = 0.2833 0.6640 0.0000 (  6422 PWs)   bands (ev):

   -18.8673 -16.1853 -14.5783  -6.3014  -3.1139   4.3421   5.4423   6.3648
     6.6863   8.2781   8.3088   8.4222

     occupation numbers 
     1.0000   1.0000   1.0000   1.0000   0.0000   0.0000   0.0000   0.0000
     0.0000   0.0000   0.0000   0.0000

          k = 0.2833 0.6832 0.0000 (  6434 PWs)   bands (ev):

   -19.1518 -15.9810 -14.3609  -6.5907  -2.8168   3.8825   5.0564   6.2268
     6.3254   7.9798   8.0660   8.4071

     occupation numbers 
     1.0000   1.0000   1.0000   1.0000   0.0000   0.0000   0.0000   0.0000
     0.0000   0.0000   0.0000   0.0000

          k = 0.2833 0.7024 0.0000 (  6438 PWs)   bands (ev):

   -19.4310 -15.7973 -14.1032  -6.8801  -2.5169   3.4411   4.6567   5.8294
     6.1951   7.6705   7.7594   8.4525

     occupation numbers 
     1.0000   1.0000   1.0000   1.0000   0.0000   0.0000   0.0000   0.0000
     0.0000   0.0000   0.0000   0.0000

          k = 0.2833 0.7217 0.0000 (  6442 PWs)   bands (ev):

   -19.7030 -15.6287 -13.8134  -7.1663  -2.2170   3.0180   4.2611   5.4285
     6.0124   7.2574   7.5505   8.3892

     occupation numbers 
     1.0000   1.0000   1.0000   1.0000   0.0000   0.0000   0.0000   0.0000
     0.0000   0.0000   0.0000   0.0000

          k = 0.2833-0.4138 0.0000 (  6442 PWs)   bands (ev):

   -19.9667 -15.4692 -13.5006  -7.4472  -1.9185   2.6132   3.8763   5.0416
     5.7707   6.8223   7.3260   8.1859

     occupation numbers 
     1.0000   1.0000   1.0000   1.0000   0.0000   0.0000   0.0000   0.0000
     0.0000   0.0000   0.0000   0.0000

          k = 0.2833-0.3945 0.0000 (  6449 PWs)   bands (ev):

   -20.2213 -15.3131 -13.1732  -7.7210  -1.6222   2.2267   3.5053   4.6702
     5.4931   6.3830   7.0592   7.9555

     occupation numbers 
     1.0000   1.0000   1.0000   1.0000   0.0000   0.0000   0.0000   0.0000
     0.0000   0.0000   0.0000   0.0000

          k = 0.2833-0.3753 0.0000 (  6462 PWs)   bands (ev):

   -20.4660 -15.1565 -12.8380  -7.9867  -1.3287   1.8587   3.1497   4.3150
     5.1999   5.9498   6.7656   7.6913

     occupation numbers 
     1.0000   1.0000   1.0000   1.0000   0.0000   0.0000   0.0000   0.0000
     0.0000   0.0000   0.0000   0.0000

          k = 0.2833-0.3560 0.0000 (  6475 PWs)   bands (ev):

   -20.7003 -14.9965 -12.5010  -8.2430  -1.0382   1.5090   2.8103   3.9764
     4.9037   5.5306   6.4641   7.4063

     occupation numbers 
     1.0000   1.0000   1.0000   1.0000   0.0000   0.0000   0.0000   0.0000
     0.0000   0.0000   0.0000   0.0000

          k = 0.2833-0.3368 0.0000 (  6478 PWs)   bands (ev):

   -20.9238 -14.8311 -12.1677  -8.4893  -0.7508   1.1778   2.4878   3.6548
     4.6119   5.1320   6.1663   7.1169

     occupation numbers 
     1.0000   1.0000   1.0000   1.0000   0.0000   0.0000   0.0000   0.0000
     0.0000   0.0000   0.0000   0.0000

          k = 0.2833-0.3175 0.0000 (  6488 PWs)   bands (ev):

   -21.1362 -14.6594 -11.8429  -8.7248  -0.4667   0.8649   2.1825   3.3505
     4.3287   4.7598   5.8780   6.8329

     occupation numbers 
     1.0000   1.0000   1.0000   1.0000   0.0000   0.0000   0.0000   0.0000
     0.0000   0.0000   0.0000   0.0000

          k = 0.2833-0.2983 0.0000 (  6481 PWs)   bands (ev):

   -21.3372 -14.4805 -11.5314  -8.9488  -0.1864   0.5705   1.8950   3.0635
     4.0571   4.4196   5.6024   6.5594

     occupation numbers 
     1.0000   1.0000   1.0000   1.0000   0.0000   0.0000   0.0000   0.0000
     0.0000   0.0000   0.0000   0.0000

          k = 0.2833-0.2791 0.0000 (  6493 PWs)   bands (ev):

   -21.5265 -14.2944 -11.2381  -9.1609   0.0891   0.2951   1.6256   2.7941
     3.7991   4.1159   5.3414   6.2992

     occupation numbers 
     1.0000   1.0000   1.0000   1.0000   0.0000   0.0000   0.0000   0.0000
     0.0000   0.0000   0.0000   0.0000

          k = 0.2833-0.2598 0.0000 (  6487 PWs)   bands (ev):

   -21.7039 -14.1009 -10.9677  -9.3605   0.0359   0.3611   1.3753   2.5426
     3.5571   3.8528   5.0960   6.0539

     occupation numbers 
     1.0000   1.0000   1.0000   1.0000   0.0000   0.0000   0.0000   0.0000
     0.0000   0.0000   0.0000   0.0000

          k = 0.2833-0.2406 0.0000 (  6486 PWs)   bands (ev):

   -21.8692 -13.9005 -10.7248  -9.5473  -0.2030   0.6210   1.1480   2.3091
     3.3331   3.6339   4.8669   5.8244

     occupation numbers 
     1.0000   1.0000   1.0000   1.0000   0.0000   0.0000   0.0000   0.0000
     0.0000   0.0000   0.0000   0.0000

          k = 0.2833-0.2213 0.0000 (  6494 PWs)   bands (ev):

   -22.0224 -13.6936 -10.5137  -9.7209  -0.4238   0.8156   0.9982   2.0937
     3.1280   3.4633   4.6546   5.6115

     occupation numbers 
     1.0000   1.0000   1.0000   1.0000   0.0000   0.0000   0.0000   0.0000
     0.0000   0.0000   0.0000   0.0000

          k = 0.2833-0.2021 0.0000 (  6484 PWs)   bands (ev):

   -22.1632 -13.4808 -10.3383  -9.8810  -0.6262   0.6971   1.1713   1.8969
     2.9417   3.3456   4.4595   5.4153

     occupation numbers 
     1.0000   1.0000   1.0000   1.0000   0.0000   0.0000   0.0000   0.0000
     0.0000   0.0000   0.0000   0.0000

          k = 0.2833-0.1828 0.0000 (  6488 PWs)   bands (ev):

   -22.2915 -13.2633 -10.2014 -10.0273  -0.8103   0.5244   1.4051   1.7198
     2.7736   3.2848   4.2819   5.2364

     occupation numbers 
     1.0000   1.0000   1.0000   1.0000   0.0000   0.0000   0.0000   0.0000
     0.0000   0.0000   0.0000   0.0000

          k = 0.2833-0.1636 0.0000 (  6490 PWs)   bands (ev):

   -22.4072 -13.0423 -10.1596 -10.1047  -0.9759   0.3642   1.5411   1.6511
     2.6245   3.2830   4.1222   5.0747

     occupation numbers 
     1.0000   1.0000   1.0000   1.0000   0.0000   0.0000   0.0000   0.0000
     0.0000   0.0000   0.0000   0.0000

          k = 0.2833-0.1443 0.0000 (  6483 PWs)   bands (ev):

   -22.5103 -12.8195 -10.2777 -10.0483  -1.1232   0.2205   1.4082   1.8517
     2.4980   3.3396   3.9812   4.9306

     occupation numbers 
     1.0000   1.0000   1.0000   1.0000   0.0000   0.0000   0.0000   0.0000
     0.0000   0.0000   0.0000   0.0000

          k = 0.2833-0.1251 0.0000 (  6493 PWs)   bands (ev):

   -22.6007 -12.5970 -10.3814 -10.0308  -1.2520   0.0944   1.2841   2.0268
     2.4076   3.4500   3.8615   4.8041

     occupation numbers 
     1.0000   1.0000   1.0000   1.0000   0.0000   0.0000   0.0000   0.0000
     0.0000   0.0000   0.0000   0.0000

          k = 0.2833-0.1058 0.0000 (  6483 PWs)   bands (ev):

   -22.6782 -12.3777 -10.4705 -10.0488  -1.3625  -0.0139   1.1771   2.1144
     2.4035   3.5910   3.7821   4.6955

     occupation numbers 
     1.0000   1.0000   1.0000   1.0000   0.0000   0.0000   0.0000   0.0000
     0.0000   0.0000   0.0000   0.0000

          k = 0.2833-0.0866 0.0000 (  6493 PWs)   bands (ev):

   -22.7430 -12.1660 -10.5449 -10.0971  -1.4545  -0.1042   1.0879   2.0926
     2.5037   3.6163   3.8823   4.6054

     occupation numbers 
     1.0000   1.0000   1.0000   1.0000   0.0000   0.0000   0.0000   0.0000
     0.0000   0.0000   0.0000   0.0000

          k = 0.2833-0.0674 0.0000 (  6477 PWs)   bands (ev):

   -22.7948 -11.9678 -10.6046 -10.1675  -1.5281  -0.1766   1.0164   2.0427
     2.6232   3.5585   4.1174   4.5355

     occupation numbers 
     1.0000   1.0000   1.0000   1.0000   0.0000   0.0000   0.0000   0.0000
     0.0000   0.0000   0.0000   0.0000

          k = 0.2833-0.0481 0.0000 (  6476 PWs)   bands (ev):

   -22.8337 -11.7930 -10.6494 -10.2487  -1.5834  -0.2308   0.9628   1.9983
     2.7245   3.5068   4.3623   4.5050

     occupation numbers 
     1.0000   1.0000   1.0000   1.0000   0.0000   0.0000   0.0000   0.0000
     0.0000   0.0000   0.0000   0.0000

          k = 0.2833-0.0289 0.0000 (  6480 PWs)   bands (ev):

   -22.8596 -11.6566 -10.6793 -10.3237  -1.6202  -0.2670   0.9270   1.9670
     2.7964   3.4705   4.4175   4.6704

     occupation numbers 
     1.0000   1.0000   1.0000   1.0000   0.0000   0.0000   0.0000   0.0000
     0.0000   0.0000   0.0000   0.0000

          k = 0.2833-0.0096 0.0000 (  6486 PWs)   bands (ev):

   -22.8726 -11.5796 -10.6943 -10.3703  -1.6386  -0.2851   0.9091   1.9510
     2.8336   3.4519   4.4056   4.8393

     occupation numbers 
     1.0000   1.0000   1.0000   1.0000   0.0000   0.0000   0.0000   0.0000
     0.0000   0.0000   0.0000   0.0000

          k = 0.2833 0.0096 0.0000 (  6486 PWs)   bands (ev):

   -22.8726 -11.5803 -10.6942 -10.3695  -1.6386  -0.2851   0.9091   1.9511
     2.8334   3.4519   4.4056   4.8401

     occupation numbers 
     1.0000   1.0000   1.0000   1.0000   0.0000   0.0000   0.0000   0.0000
     0.0000   0.0000   0.0000   0.0000

          k = 0.2833 0.0289 0.0000 (  6480 PWs)   bands (ev):

   -22.8596 -11.6584 -10.6792 -10.3216  -1.6202  -0.2670   0.9270   1.9671
     2.7958   3.4705   4.4176   4.6721

     occupation numbers 
     1.0000   1.0000   1.0000   1.0000   0.0000   0.0000   0.0000   0.0000
     0.0000   0.0000   0.0000   0.0000

          k = 0.2833 0.0481 0.0000 (  6476 PWs)   bands (ev):

   -22.8337 -11.7956 -10.6492 -10.2456  -1.5834  -0.2308   0.9628   1.9984
     2.7235   3.5068   4.3640   4.5055

     occupation numbers 
     1.0000   1.0000   1.0000   1.0000   0.0000   0.0000   0.0000   0.0000
     0.0000   0.0000   0.0000   0.0000

          k = 0.2833 0.0674 0.0000 (  6477 PWs)   bands (ev):

   -22.7948 -11.9709 -10.6044 -10.1639  -1.5281  -0.1765   1.0164   2.0429
     2.6218   3.5585   4.1198   4.5356

     occupation numbers 
     1.0000   1.0000   1.0000   1.0000   0.0000   0.0000   0.0000   0.0000
     0.0000   0.0000   0.0000   0.0000

          k = 0.2833 0.0866 0.0000 (  6493 PWs)   bands (ev):

   -22.7430 -12.1692 -10.5446 -10.0931  -1.4545  -0.1042   1.0879   2.0930
     2.5019   3.6165   3.8845   4.6054

     occupation numbers 
     1.0000   1.0000   1.0000   1.0000   0.0000   0.0000   0.0000   0.0000
     0.0000   0.0000   0.0000   0.0000

          k = 0.2833 0.1058 0.0000 (  6483 PWs)   bands (ev):

   -22.6783 -12.3811 -10.4701 -10.0446  -1.3625  -0.0139   1.1772   2.1145
     2.4017   3.5929   3.7827   4.6955

     occupation numbers 
     1.0000   1.0000   1.0000   1.0000   0.0000   0.0000   0.0000   0.0000
     0.0000   0.0000   0.0000   0.0000

          k = 0.2833 0.1251 0.0000 (  6493 PWs)   bands (ev):

   -22.6008 -12.6004 -10.3809 -10.0264  -1.2520   0.0945   1.2841   2.0258
     2.4066   3.4525   3.8615   4.8041

     occupation numbers 
     1.0000   1.0000   1.0000   1.0000   0.0000   0.0000   0.0000   0.0000
     0.0000   0.0000   0.0000   0.0000

          k = 0.2833 0.1443 0.0000 (  6483 PWs)   bands (ev):

   -22.5104 -12.8229 -10.2772 -10.0438  -1.1232   0.2206   1.4082   1.8500
     2.4975   3.3421   3.9812   4.9306

     occupation numbers 
     1.0000   1.0000   1.0000   1.0000   0.0000   0.0000   0.0000   0.0000
     0.0000   0.0000   0.0000   0.0000

          k = 0.3000 0.1732 0.0000 (  6492 PWs)   bands (ev):

   -22.1825 -13.4898 -10.2488  -9.9029  -0.6538   0.6706   1.1875   1.8695
     2.9128   3.2363   4.4333   5.3895

     occupation numbers 
     1.0000   1.0000   1.0000   1.0000   0.0000   0.0000   0.0000   0.0000
     0.0000   0.0000   0.0000   0.0000

          k = 0.3000 0.1925 0.0000 (  6488 PWs)   bands (ev):

   -22.0607 -13.7098 -10.3412  -9.7651  -0.4790   0.7943   0.9999   2.0385
     3.0583   3.2562   4.6025   5.5599

     occupation numbers 
     1.0000   1.0000   1.0000   1.0000   0.0000   0.0000   0.0000   0.0000
     0.0000   0.0000   0.0000   0.0000

          k = 0.3000 0.2117 0.0000 (  6486 PWs)   bands (ev):

   -21.9266 -13.9250 -10.4739  -9.6136  -0.2858   0.6639   1.0755   2.2259
     3.1978   3.3585   4.7892   5.7476

     occupation numbers 
     1.0000   1.0000   1.0000   1.0000   0.0000   0.0000   0.0000   0.0000
     0.0000   0.0000   0.0000   0.0000

          k = 0.3000 0.2309 0.0000 (  6494 PWs)   bands (ev):

   -21.7800 -14.1344 -10.6453  -9.4487  -0.0744   0.4250   1.2708   2.4317
     3.3444   3.5281   4.9930   5.9521

     occupation numbers 
     1.0000   1.0000   1.0000   1.0000   0.0000   0.0000   0.0000   0.0000
     0.0000   0.0000   0.0000   0.0000

          k = 0.3000 0.2502 0.0000 (  6493 PWs)   bands (ev):

   -21.6213 -14.3370 -10.8524  -9.2707   0.1465   0.1809   1.4929   2.6558
     3.5257   3.7338   5.2136   6.1731

     occupation numbers 
     1.0000   1.0000   1.0000   1.0000   0.0000   0.0000   0.0000   0.0000
     0.0000   0.0000   0.0000   0.0000

          k = 0.3000 0.2694 0.0000 (  6489 PWs)   bands (ev):

   -21.4505 -14.5322 -11.0915  -9.0800  -0.0886   0.4052   1.7350   2.8982
     3.7501   3.9630   5.4506   6.4101

     occupation numbers 
     1.0000   1.0000   1.0000   1.0000   0.0000   0.0000   0.0000   0.0000
     0.0000   0.0000   0.0000   0.0000

          k = 0.3000 0.2887 0.0000 (  6485 PWs)   bands (ev):

   -21.2678 -14.7196 -11.3584  -8.8768  -0.3518   0.6718   1.9956   3.1587
     4.0157   4.2123   5.7033   6.6621

     occupation numbers 
     1.0000   1.0000   1.0000   1.0000   0.0000   0.0000   0.0000   0.0000
     0.0000   0.0000   0.0000   0.0000

          k = 0.3000 0.3079 0.0000 (  6494 PWs)   bands (ev):

   -21.0734 -14.8987 -11.6485  -8.6618  -0.6182   0.9570   2.2742   3.4370
     4.3156   4.4827   5.9706   6.9277

     occupation numbers 
     1.0000   1.0000   1.0000   1.0000   0.0000   0.0000   0.0000   0.0000
     0.0000   0.0000   0.0000   0.0000

          k = 0.3000 0.3272 0.0000 (  6485 PWs)   bands (ev):

   -20.8676 -15.0695 -11.9572  -8.4353  -0.8871   1.2606   2.5705   3.7328
     4.6357   4.7818   6.2509   7.2042

     occupation numbers 
     1.0000   1.0000   1.0000   1.0000   0.0000   0.0000   0.0000   0.0000
     0.0000   0.0000   0.0000   0.0000

          k = 0.3000 0.3464 0.0000 (  6491 PWs)   bands (ev):

   -20.6507 -15.2321 -12.2798  -8.1980  -1.1583   1.5827   2.8841   4.0459
     4.9535   5.1243   6.5412   7.4866

     occupation numbers 
     1.0000   1.0000   1.0000   1.0000   0.0000   0.0000   0.0000   0.0000
     0.0000   0.0000   0.0000   0.0000

          k = 0.3000 0.3657 0.0000 (  6475 PWs)   bands (ev):

   -20.4230 -15.3869 -12.6118  -7.9504  -1.4318   1.9231   3.2145   4.3759
     5.2587   5.5106   6.8358   7.7655

     occupation numbers 
     1.0000   1.0000   1.0000   1.0000   0.0000   0.0000   0.0000   0.0000
     0.0000   0.0000   0.0000   0.0000

          k = 0.3000 0.3849 0.0000 (  6459 PWs)   bands (ev):

   -20.1849 -15.5346 -12.9486  -7.6935  -1.7077   2.2820   3.5613   4.7225
     5.5528   5.9261   7.1236   8.0233

     occupation numbers 
     1.0000   1.0000   1.0000   1.0000   0.0000   0.0000   0.0000   0.0000
     0.0000   0.0000   0.0000   0.0000

          k = 0.3000 0.4041 0.0000 (  6463 PWs)   bands (ev):

   -19.9369 -15.6766 -13.2854  -7.4279  -1.9860   2.6592   3.9234   5.0854
     5.8284   6.3587   7.3848   8.2440

     occupation numbers 
     1.0000   1.0000   1.0000   1.0000   0.0000   0.0000   0.0000   0.0000
     0.0000   0.0000   0.0000   0.0000

          k = 0.3000 0.4234 0.0000 (  6445 PWs)   bands (ev):

   -19.6797 -15.8150 -13.6169  -7.1548  -2.2668   3.0548   4.2994   5.4637
     6.0666   6.7984   7.5997   8.4488

     occupation numbers 
     1.0000   1.0000   1.0000   1.0000   0.0000   0.0000   0.0000   0.0000
     0.0000   0.0000   0.0000   0.0000

          k = 0.3000 0.4426 0.0000 (  6443 PWs)   bands (ev):

   -19.4141 -15.9528 -13.9371  -6.8752  -2.5499   3.4687   4.6862   5.8561
     6.2425   7.2335   7.7882   8.6253

     occupation numbers 
     1.0000   1.0000   1.0000   1.0000   0.0000   0.0000   0.0000   0.0000
     0.0000   0.0000   0.0000   0.0000

          k = 0.3000 0.4619 0.0000 (  6438 PWs)   bands (ev):

   -19.1412 -16.0945 -14.2383  -6.5906  -2.8351   3.9009   5.0773   6.2496
     6.3557   7.6482   8.0090   8.6298

     occupation numbers 
     1.0000   1.0000   1.0000   1.0000   0.0000   0.0000   0.0000   0.0000
     0.0000   0.0000   0.0000   0.0000

          k = 0.3000 0.4811 0.0000 (  6436 PWs)   bands (ev):

   -18.8624 -16.2462 -14.5117  -6.3031  -3.1213   4.3513   5.4543   6.3832
     6.6947   8.0160   8.2931   8.5866

     occupation numbers 
     1.0000   1.0000   1.0000   1.0000   0.0000   0.0000   0.0000   0.0000
     0.0000   0.0000   0.0000   0.0000

          k = 0.3000 0.5004 0.0000 (  6431 PWs)   bands (ev):

   -18.5800 -16.4142 -14.7474  -6.0154  -3.4065   4.8197   5.7630   6.4760
     7.1226   8.2756   8.5814   8.6251

     occupation numbers 
     1.0000   1.0000   1.0000   1.0000   0.0000   0.0000   0.0000   0.0000
     0.0000   0.0000   0.0000   0.0000

          k = 0.3000 0.5196 0.0000 (  6422 PWs)   bands (ev):

   -18.2978 -16.6031 -14.9361  -5.7326  -3.6865   5.3049   5.9172   6.7175
     7.5581   8.3380   8.5947   8.6456

     occupation numbers 
     1.0000   1.0000   1.0000   1.0000   0.0000   0.0000   0.0000   0.0000
     0.0000   0.0000   0.0000   0.0000

          k = 0.3000 0.5389 0.0000 (  6437 PWs)   bands (ev):

   -18.0232 -16.8105 -15.0720  -5.4656  -3.9510   5.7926   5.9661   7.0859
     7.9875   8.0221   8.3116   8.5840

     occupation numbers 
     1.0000   1.0000   1.0000   1.0000   0.0000   0.0000   0.0000   0.0000
     0.0000   0.0000   0.0000   0.0000

          k = 0.3000 0.5581 0.0000 (  6447 PWs)   bands (ev):

   -17.7780 -17.0159 -15.1531  -5.2438  -4.1711   5.9287   6.3494   7.4340
     7.5008   8.1874   8.3731   8.5545

     occupation numbers 
     1.0000   1.0000   1.0000   1.0000   0.0000   0.0000   0.0000   0.0000
     0.0000   0.0000   0.0000   0.0000

          k = 0.3000 0.5774 0.0000 (  6444 PWs)   bands (ev):

   -17.6530 -17.1276 -15.1803  -5.1461  -4.2681   5.9282   6.8857   6.8873
     7.7816   8.0029   8.4816   8.5745

     occupation numbers 
     1.0000   1.0000   1.0000   1.0000   0.0000   0.0000   0.0000   0.0000
     0.0000   0.0000   0.0000   0.0000

          k = 0.3000 0.5966 0.0000 (  6447 PWs)   bands (ev):

   -17.7787 -17.0143 -15.1540  -5.2456  -4.1690   5.9283   6.3494   7.4339
     7.5005   8.1902   8.3707   8.5545

     occupation numbers 
     1.0000   1.0000   1.0000   1.0000   0.0000   0.0000   0.0000   0.0000
     0.0000   0.0000   0.0000   0.0000

          k = 0.3000 0.6158 0.0000 (  6437 PWs)   bands (ev):

   -18.0239 -16.8081 -15.0738  -5.4680  -3.9480   5.7924   5.9655   7.0857
     7.9868   8.0221   8.3156   8.5839

     occupation numbers 
     1.0000   1.0000   1.0000   1.0000   0.0000   0.0000   0.0000   0.0000
     0.0000   0.0000   0.0000   0.0000

          k = 0.3000 0.6351 0.0000 (  6422 PWs)   bands (ev):

   -18.2983 -16.6001 -14.9387  -5.7352  -3.6831   5.3049   5.9163   6.7173
     7.5577   8.3425   8.5933   8.6459

     occupation numbers 
     1.0000   1.0000   1.0000   1.0000   0.0000   0.0000   0.0000   0.0000
     0.0000   0.0000   0.0000   0.0000

          k = 0.3000 0.6543 0.0000 (  6431 PWs)   bands (ev):

   -18.5804 -16.4109 -14.7505  -6.0179  -3.4028   4.8197   5.7623   6.4753
     7.1224   8.2786   8.5765   8.6253

     occupation numbers 
     1.0000   1.0000   1.0000   1.0000   0.0000   0.0000   0.0000   0.0000
     0.0000   0.0000   0.0000   0.0000

          k = 0.3000 0.6736 0.0000 (  6436 PWs)   bands (ev):

   -18.8627 -16.2427 -14.5153  -6.3055  -3.1174   4.3513   5.4539   6.3820
     6.6946   8.0152   8.2933   8.5846

     occupation numbers 
     1.0000   1.0000   1.0000   1.0000   0.0000   0.0000   0.0000   0.0000
     0.0000   0.0000   0.0000   0.0000

          k = 0.3000 0.6928 0.0000 (  6438 PWs)   bands (ev):

   -19.1413 -16.0910 -14.2420  -6.5930  -2.8311   3.9009   5.0771   6.2493
     6.3545   7.6459   8.0090   8.6291

     occupation numbers 
     1.0000   1.0000   1.0000   1.0000   0.0000   0.0000   0.0000   0.0000
     0.0000   0.0000   0.0000   0.0000

          k = 0.3000 0.7121 0.0000 (  6443 PWs)   bands (ev):

   -19.4142 -15.9492 -13.9409  -6.8774  -2.5459   3.4687   4.6861   5.8561
     6.2411   7.2306   7.7878   8.6251

     occupation numbers 
     1.0000   1.0000   1.0000   1.0000   0.0000   0.0000   0.0000   0.0000
     0.0000   0.0000   0.0000   0.0000

          k = 0.3000 0.7313 0.0000 (  6445 PWs)   bands (ev):

   -19.6797 -15.8115 -13.6209  -7.1568  -2.2627   3.0548   4.2993   5.4636
     6.0655   6.7952   7.5991   8.4485

     occupation numbers 
     1.0000   1.0000   1.0000   1.0000   0.0000   0.0000   0.0000   0.0000
     0.0000   0.0000   0.0000   0.0000

          k = 0.3000-0.4041 0.0000 (  6463 PWs)   bands (ev):

   -19.9369 -15.6732 -13.2894  -7.4299  -1.9819   2.6592   3.9233   5.0853
     5.8275   6.3555   7.3843   8.2436

     occupation numbers 
     1.0000   1.0000   1.0000   1.0000   0.0000   0.0000   0.0000   0.0000
     0.0000   0.0000   0.0000   0.0000

          k = 0.3000-0.3849 0.0000 (  6459 PWs)   bands (ev):

   -20.1848 -15.5313 -12.9526  -7.6953  -1.7036   2.2820   3.5612   4.7225
     5.5520   5.9229   7.1232   8.0228

     occupation numbers 
     1.0000   1.0000   1.0000   1.0000   0.0000   0.0000   0.0000   0.0000
     0.0000   0.0000   0.0000   0.0000

          k = 0.3000-0.3657 0.0000 (  6475 PWs)   bands (ev):

   -20.4229 -15.3836 -12.6158  -7.9521  -1.4278   1.9231   3.2145   4.3759
     5.2579   5.5076   6.8355   7.7651

     occupation numbers 
     1.0000   1.0000   1.0000   1.0000   0.0000   0.0000   0.0000   0.0000
     0.0000   0.0000   0.0000   0.0000

          k = 0.3000-0.3464 0.0000 (  6491 PWs)   bands (ev):

   -20.6506 -15.2289 -12.2838  -8.1995  -1.1544   1.5827   2.8840   4.0458
     4.9522   5.1219   6.5410   7.4864

     occupation numbers 
     1.0000   1.0000   1.0000   1.0000   0.0000   0.0000   0.0000   0.0000
     0.0000   0.0000   0.0000   0.0000

          k = 0.3000-0.3272 0.0000 (  6485 PWs)   bands (ev):

   -20.8675 -15.0663 -11.9612  -8.4367  -0.8832   1.2606   2.5705   3.7328
     4.6337   4.7804   6.2508   7.2040

     occupation numbers 
     1.0000   1.0000   1.0000   1.0000   0.0000   0.0000   0.0000   0.0000
     0.0000   0.0000   0.0000   0.0000

          k = 0.3000-0.3079 0.0000 (  6494 PWs)   bands (ev):

   -21.0733 -14.8956 -11.6526  -8.6631  -0.6144   0.9570   2.2742   3.4369
     4.3131   4.4820   5.9705   6.9276

     occupation numbers 
     1.0000   1.0000   1.0000   1.0000   0.0000   0.0000   0.0000   0.0000
     0.0000   0.0000   0.0000   0.0000

          k = 0.3000-0.2887 0.0000 (  6485 PWs)   bands (ev):

   -21.2676 -14.7164 -11.3626  -8.8781  -0.3482   0.6718   1.9956   3.1586
     4.0130   4.2119   5.7032   6.6620

     occupation numbers 
     1.0000   1.0000   1.0000   1.0000   0.0000   0.0000   0.0000   0.0000
     0.0000   0.0000   0.0000   0.0000

          k = 0.3000-0.2694 0.0000 (  6489 PWs)   bands (ev):

   -21.4503 -14.5291 -11.0957  -9.0811  -0.0852   0.4052   1.7350   2.8981
     3.7475   3.9627   5.4506   6.4101

     occupation numbers 
     1.0000   1.0000   1.0000   1.0000   0.0000   0.0000   0.0000   0.0000
     0.0000   0.0000   0.0000   0.0000

          k = 0.3000-0.2502 0.0000 (  6493 PWs)   bands (ev):

   -21.6211 -14.3339 -10.8566  -9.2718   0.1473   0.1834   1.4930   2.6557
     3.5233   3.7335   5.2136   6.1731

     occupation numbers 
     1.0000   1.0000   1.0000   1.0000   0.0000   0.0000   0.0000   0.0000
     0.0000   0.0000   0.0000   0.0000

          k = 0.3000-0.2309 0.0000 (  6494 PWs)   bands (ev):

   -21.7799 -14.1312 -10.6496  -9.4497  -0.0744   0.4280   1.2709   2.4316
     3.3423   3.5276   4.9930   5.9521

     occupation numbers 
     1.0000   1.0000   1.0000   1.0000   0.0000   0.0000   0.0000   0.0000
     0.0000   0.0000   0.0000   0.0000

          k = 0.3000-0.2117 0.0000 (  6486 PWs)   bands (ev):

   -21.9264 -13.9218 -10.4782  -9.6145  -0.2858   0.6665   1.0758   2.2259
     3.1963   3.3575   4.7892   5.7476

     occupation numbers 
     1.0000   1.0000   1.0000   1.0000   0.0000   0.0000   0.0000   0.0000
     0.0000   0.0000   0.0000   0.0000

          k = 0.3000-0.1925 0.0000 (  6488 PWs)   bands (ev):

   -22.0606 -13.7066 -10.3455  -9.7658  -0.4790   0.7949   1.0021   2.0385
     3.0578   3.2543   4.6026   5.5599

     occupation numbers 
     1.0000   1.0000   1.0000   1.0000   0.0000   0.0000   0.0000   0.0000
     0.0000   0.0000   0.0000   0.0000

          k = 0.3000-0.1732 0.0000 (  6492 PWs)   bands (ev):

   -22.1823 -13.4866 -10.2532  -9.9035  -0.6538   0.6705   1.1900   1.8695
     2.9128   3.2341   4.4334   5.3895

     occupation numbers 
     1.0000   1.0000   1.0000   1.0000   0.0000   0.0000   0.0000   0.0000
     0.0000   0.0000   0.0000   0.0000

          k = 0.3000-0.1540 0.0000 (  6488 PWs)   bands (ev):

   -22.2915 -13.2634 -10.2014 -10.0273  -0.8103   0.5244   1.4050   1.7198
     2.7736   3.2848   4.2819   5.2364

     occupation numbers 
     1.0000   1.0000   1.0000   1.0000   0.0000   0.0000   0.0000   0.0000
     0.0000   0.0000   0.0000   0.0000

          k = 0.3000-0.1347 0.0000 (  6487 PWs)   bands (ev):

   -22.3880 -13.0387 -10.1889 -10.1369  -0.9483   0.3915   1.5606   1.6381
     2.6479   3.3972   4.1490   5.1008

     occupation numbers 
     1.0000   1.0000   1.0000   1.0000   0.0000   0.0000   0.0000   0.0000
     0.0000   0.0000   0.0000   0.0000

          k = 0.3000-0.1155 0.0000 (  6483 PWs)   bands (ev):

   -22.4717 -12.8152 -10.2325 -10.2124  -1.0680   0.2752   1.4626   1.8111
     2.5392   3.5630   4.0367   4.9829

     occupation numbers 
     1.0000   1.0000   1.0000   1.0000   0.0000   0.0000   0.0000   0.0000
     0.0000   0.0000   0.0000   0.0000

          k = 0.3000-0.0962 0.0000 (  6479 PWs)   bands (ev):

   -22.5427 -12.5962 -10.3133 -10.2674  -1.1692   0.1764   1.3658   1.9777
     2.4502   3.7581   3.9628   4.8831

     occupation numbers 
     1.0000   1.0000   1.0000   1.0000   0.0000   0.0000   0.0000   0.0000
     0.0000   0.0000   0.0000   0.0000

          k = 0.3000-0.0770 0.0000 (  6485 PWs)   bands (ev):

   -22.6009 -12.3870 -10.3798 -10.3465  -1.2520   0.0954   1.2859   2.1122
     2.3876   3.8122   4.0882   4.8019

     occupation numbers 
     1.0000   1.0000   1.0000   1.0000   0.0000   0.0000   0.0000   0.0000
     0.0000   0.0000   0.0000   0.0000

          k = 0.3000-0.0577 0.0000 (  6477 PWs)   bands (ev):

   -22.6462 -12.1951 -10.4413 -10.4303  -1.3164   0.0323   1.2236   2.1893
     2.3719   3.7628   4.3600   4.7420

     occupation numbers 
     1.0000   1.0000   1.0000   1.0000   0.0000   0.0000   0.0000   0.0000
     0.0000   0.0000   0.0000   0.0000

          k = 0.3000-0.0385 0.0000 (  6480 PWs)   bands (ev):

   -22.6785 -12.0333 -10.5338 -10.4681  -1.3625  -0.0128   1.1791   2.1980
     2.4106   3.7200   4.6109   4.7372

     occupation numbers 
     1.0000   1.0000   1.0000   1.0000   0.0000   0.0000   0.0000   0.0000
     0.0000   0.0000   0.0000   0.0000

          k = 0.3000-0.0192 0.0000 (  6490 PWs)   bands (ev):

   -22.6979 -11.9207 -10.6059 -10.4903  -1.3901  -0.0399   1.1523   2.1865
     2.4519   3.6932   4.6424   4.9267

     occupation numbers 
     1.0000   1.0000   1.0000   1.0000   0.0000   0.0000   0.0000   0.0000
     0.0000   0.0000   0.0000   0.0000

          k = 0.3000-0.0000 0.0000 (  6482 PWs)   bands (ev):

   -22.7044 -11.8798 -10.6334 -10.4977  -1.3993  -0.0489   1.1434   2.1812
     2.4673   3.6842   4.6371   5.0299

     occupation numbers 
     1.0000   1.0000   1.0000   1.0000   0.0000   0.0000   0.0000   0.0000
     0.0000   0.0000   0.0000   0.0000

          k = 0.3000 0.0192 0.0000 (  6490 PWs)   bands (ev):

   -22.6980 -11.9220 -10.6045 -10.4903  -1.3901  -0.0399   1.1523   2.1867
     2.4514   3.6932   4.6424   4.9280

     occupation numbers 
     1.0000   1.0000   1.0000   1.0000   0.0000   0.0000   0.0000   0.0000
     0.0000   0.0000   0.0000   0.0000

          k = 0.3000 0.0385 0.0000 (  6480 PWs)   bands (ev):

   -22.6785 -12.0355 -10.5312 -10.4679  -1.3625  -0.0128   1.1791   2.1983
     2.4095   3.7200   4.6120   4.7381

     occupation numbers 
     1.0000   1.0000   1.0000   1.0000   0.0000   0.0000   0.0000   0.0000
     0.0000   0.0000   0.0000   0.0000

          k = 0.3000 0.0577 0.0000 (  6477 PWs)   bands (ev):

   -22.6462 -12.1979 -10.4384 -10.4297  -1.3164   0.0323   1.2236   2.1897
     2.3705   3.7628   4.3622   4.7421

     occupation numbers 
     1.0000   1.0000   1.0000   1.0000   0.0000   0.0000   0.0000   0.0000
     0.0000   0.0000   0.0000   0.0000

          k = 0.3000 0.0770 0.0000 (  6485 PWs)   bands (ev):

   -22.6009 -12.3900 -10.3795 -10.3429  -1.2520   0.0954   1.2860   2.1118
     2.3866   3.8124   4.0903   4.8019

     occupation numbers 
     1.0000   1.0000   1.0000   1.0000   0.0000   0.0000   0.0000   0.0000
     0.0000   0.0000   0.0000   0.0000

          k = 0.3000 0.0962 0.0000 (  6479 PWs)   bands (ev):

   -22.5428 -12.5994 -10.3130 -10.2635  -1.1692   0.1765   1.3658   1.9766
     2.4496   3.7599   3.9632   4.8830

     occupation numbers 
     1.0000   1.0000   1.0000   1.0000   0.0000   0.0000   0.0000   0.0000
     0.0000   0.0000   0.0000   0.0000

          k = 0.3000 0.1155 0.0000 (  6483 PWs)   bands (ev):

   -22.4718 -12.8184 -10.2320 -10.2083  -1.0680   0.2753   1.4626   1.8096
     2.5388   3.5653   4.0368   4.9829

     occupation numbers 
     1.0000   1.0000   1.0000   1.0000   0.0000   0.0000   0.0000   0.0000
     0.0000   0.0000   0.0000   0.0000

          k = 0.3000 0.1347 0.0000 (  6487 PWs)   bands (ev):

   -22.3881 -13.0420 -10.1846 -10.1364  -0.9483   0.3916   1.5602   1.6366
     2.6476   3.3996   4.1489   5.1007

     occupation numbers 
     1.0000   1.0000   1.0000   1.0000   0.0000   0.0000   0.0000   0.0000
     0.0000   0.0000   0.0000   0.0000

          k = 0.3000 0.1540 0.0000 (  6488 PWs)   bands (ev):

   -22.2916 -13.2666 -10.1971 -10.0267  -0.8103   0.5245   1.4028   1.7198
     2.7734   3.2872   4.2819   5.2363

     occupation numbers 
     1.0000   1.0000   1.0000   1.0000   0.0000   0.0000   0.0000   0.0000
     0.0000   0.0000   0.0000   0.0000

          k = 0.3167 0.1828 0.0000 (  6488 PWs)   bands (ev):

   -21.9456 -13.9325 -10.3881  -9.6361  -0.3134   0.6771   1.0527   2.1978
     3.1116   3.3034   4.7634   5.7219

     occupation numbers 
     1.0000   1.0000   1.0000   1.0000   0.0000   0.0000   0.0000   0.0000
     0.0000   0.0000   0.0000   0.0000

          k = 0.3167 0.2021 0.0000 (  6482 PWs)   bands (ev):

   -21.8181 -14.1507 -10.4757  -9.4935  -0.1296   0.4554   1.2192   2.3747
     3.1367   3.4563   4.9416   5.9011

     occupation numbers 
     1.0000   1.0000   1.0000   1.0000   0.0000   0.0000   0.0000   0.0000
     0.0000   0.0000   0.0000   0.0000

          k = 0.3167 0.2213 0.0000 (  6488 PWs)   bands (ev):

   -21.6782 -14.3632 -10.6038  -9.3377   0.0715   0.2189   1.4137   2.5694
     3.2058   3.6417   5.1370   6.0972

     occupation numbers 
     1.0000   1.0000   1.0000   1.0000   0.0000   0.0000   0.0000   0.0000
     0.0000   0.0000   0.0000   0.0000

          k = 0.3167 0.2406 0.0000 (  6485 PWs)   bands (ev):

   -21.5260 -14.5688 -10.7706  -9.1689  -0.0290   0.2951   1.6285   2.7823
     3.3292   3.8471   5.3492   6.3099

     occupation numbers 
     1.0000   1.0000   1.0000   1.0000   0.0000   0.0000   0.0000   0.0000
     0.0000   0.0000   0.0000   0.0000

          k = 0.3167 0.2598 0.0000 (  6499 PWs)   bands (ev):

   -21.3619 -14.7669 -10.9732  -8.9874  -0.2777   0.5339   1.8621   3.0139
     3.5053   4.0697   5.5779   6.5387

     occupation numbers 
     1.0000   1.0000   1.0000   1.0000   0.0000   0.0000   0.0000   0.0000
     0.0000   0.0000   0.0000   0.0000

          k = 0.3167 0.2791 0.0000 (  6495 PWs)   bands (ev):

   -21.1858 -14.9568 -11.2080  -8.7937  -0.5295   0.7914   2.1139   3.2646
     3.7307   4.3081   5.8223   6.7826

     occupation numbers 
     1.0000   1.0000   1.0000   1.0000   0.0000   0.0000   0.0000   0.0000
     0.0000   0.0000   0.0000   0.0000

          k = 0.3167 0.2983 0.0000 (  6490 PWs)   bands (ev):

   -20.9981 -15.1380 -11.4707  -8.5883  -0.7832   1.0675   2.3837   3.5343
     4.0009   4.5613   6.0816   7.0404

     occupation numbers 
     1.0000   1.0000   1.0000   1.0000   0.0000   0.0000   0.0000   0.0000
     0.0000   0.0000   0.0000   0.0000

          k = 0.3167 0.3175 0.0000 (  6489 PWs)   bands (ev):

   -20.7990 -15.3102 -11.7567  -8.3716  -1.0383   1.3619   2.6711   3.8224
     4.3114   4.8276   6.3542   7.3095

     occupation numbers 
     1.0000   1.0000   1.0000   1.0000   0.0000   0.0000   0.0000   0.0000
     0.0000   0.0000   0.0000   0.0000

          k = 0.3167 0.3368 0.0000 (  6491 PWs)   bands (ev):

   -20.5887 -15.4731 -12.0617  -8.1441  -1.2944   1.6748   2.9758   4.1281
     4.6573   5.1049   6.6373   7.5854

     occupation numbers 
     1.0000   1.0000   1.0000   1.0000   0.0000   0.0000   0.0000   0.0000
     0.0000   0.0000   0.0000   0.0000

          k = 0.3167 0.3560 0.0000 (  6487 PWs)   bands (ev):

   -20.3677 -15.6269 -12.3810  -7.9066  -1.5517   2.0060   3.2974   4.4507
     5.0330   5.3900   6.9257   7.8585

     occupation numbers 
     1.0000   1.0000   1.0000   1.0000   0.0000   0.0000   0.0000   0.0000
     0.0000   0.0000   0.0000   0.0000

          k = 0.3167 0.3753 0.0000 (  6479 PWs)   bands (ev):

   -20.1364 -15.7718 -12.7103  -7.6597  -1.8102   2.3557   3.6354   4.7896
     5.4297   5.6792   7.2089   8.1103

     occupation numbers 
     1.0000   1.0000   1.0000   1.0000   0.0000   0.0000   0.0000   0.0000
     0.0000   0.0000   0.0000   0.0000

          k = 0.3167 0.3945 0.0000 (  6458 PWs)   bands (ev):

   -19.8952 -15.9081 -13.0452  -7.4042  -2.0702   2.7237   3.9888   5.1446
     5.8229   5.9788   7.4665   8.3181

     occupation numbers 
     1.0000   1.0000   1.0000   1.0000   0.0000   0.0000   0.0000   0.0000
     0.0000   0.0000   0.0000   0.0000

          k = 0.3167 0.4138 0.0000 (  6443 PWs)   bands (ev):

   -19.6449 -16.0368 -13.3813  -7.1409  -2.3321   3.1101   4.3562   5.5149
     6.1254   6.3478   7.6739   8.4914

     occupation numbers 
     1.0000   1.0000   1.0000   1.0000   0.0000   0.0000   0.0000   0.0000
     0.0000   0.0000   0.0000   0.0000

          k = 0.3167 0.4330 0.0000 (  6455 PWs)   bands (ev):

   -19.3863 -16.1594 -13.7136  -6.8709  -2.5963   3.5148   4.7348   5.8994
     6.3123   6.7741   7.8452   8.4728

     occupation numbers 
     1.0000   1.0000   1.0000   1.0000   0.0000   0.0000   0.0000   0.0000
     0.0000   0.0000   0.0000   0.0000

          k = 0.3167 0.4523 0.0000 (  6455 PWs)   bands (ev):

   -19.1204 -16.2783 -14.0368  -6.5951  -2.8631   3.9378   5.1181   6.2906
     6.4143   7.2051   8.0437   8.3534

     occupation numbers 
     1.0000   1.0000   1.0000   1.0000   0.0000   0.0000   0.0000   0.0000
     0.0000   0.0000   0.0000   0.0000

          k = 0.3167 0.4715 0.0000 (  6449 PWs)   bands (ev):

   -18.8486 -16.3970 -14.3438  -6.3149  -3.1325   4.3790   5.4887   6.4340
     6.7187   7.6165   8.2295   8.3271

     occupation numbers 
     1.0000   1.0000   1.0000   1.0000   0.0000   0.0000   0.0000   0.0000
     0.0000   0.0000   0.0000   0.0000

          k = 0.3167 0.4907 0.0000 (  6443 PWs)   bands (ev):

   -18.5730 -16.5207 -14.6262  -6.0317  -3.4044   4.8382   5.7921   6.5039
     7.1381   7.9765   8.1511   8.6247

     occupation numbers 
     1.0000   1.0000   1.0000   1.0000   0.0000   0.0000   0.0000   0.0000
     0.0000   0.0000   0.0000   0.0000

          k = 0.3167 0.5100 0.0000 (  6442 PWs)   bands (ev):

   -18.2964 -16.6562 -14.8730  -5.7475  -3.6781   5.3142   5.9351   6.7271
     7.5651   8.0733   8.2350   8.6526

     occupation numbers 
     1.0000   1.0000   1.0000   1.0000   0.0000   0.0000   0.0000   0.0000
     0.0000   0.0000   0.0000   0.0000

          k = 0.3167 0.5292 0.0000 (  6437 PWs)   bands (ev):

   -18.0232 -16.8106 -15.0719  -5.4655  -3.9511   5.7926   5.9661   7.0859
     7.9875   8.0220   8.3117   8.5840

     occupation numbers 
     1.0000   1.0000   1.0000   1.0000   0.0000   0.0000   0.0000   0.0000
     0.0000   0.0000   0.0000   0.0000

          k = 0.3167 0.5485 0.0000 (  6456 PWs)   bands (ev):

   -17.7620 -16.9861 -15.2114  -5.1941  -4.2161   5.9120   6.3401   7.4828
     7.9794   7.9882   8.3008   8.3858

     occupation numbers 
     1.0000   1.0000   1.0000   1.0000   0.0000   0.0000   0.0000   0.0000
     0.0000   0.0000   0.0000   0.0000

          k = 0.3167 0.5677 0.0000 (  6452 PWs)   bands (ev):

   -17.5429 -17.1603 -15.2832  -4.9710  -4.4358   5.8998   6.8683   7.4169
     7.8461   7.9646   8.1823   8.6099

     occupation numbers 
     1.0000   1.0000   1.0000   0.9974   0.0028   0.0000   0.0000   0.0000
     0.0000   0.0000   0.0000   0.0000

          k = 0.3167 0.5870 0.0000 (  6452 PWs)   bands (ev):

   -17.5441 -17.1586 -15.2837  -4.9729  -4.4337   5.8996   6.8683   7.4169
     7.8453   7.9649   8.1842   8.6075

     occupation numbers 
     1.0000   1.0000   1.0000   0.9976   0.0026   0.0000   0.0000   0.0000
     0.0000   0.0000   0.0000   0.0000

          k = 0.3167 0.6062 0.0000 (  6456 PWs)   bands (ev):

   -17.7633 -16.9833 -15.2129  -5.1972  -4.2126   5.9115   6.3401   7.4825
     7.9796   7.9882   8.3040   8.3841

     occupation numbers 
     1.0000   1.0000   1.0000   1.0000   0.0000   0.0000   0.0000   0.0000
     0.0000   0.0000   0.0000   0.0000

          k = 0.3167 0.6255 0.0000 (  6437 PWs)   bands (ev):

   -18.0242 -16.8073 -15.0743  -5.4687  -3.9472   5.7924   5.9653   7.0857
     7.9868   8.0222   8.3152   8.5840

     occupation numbers 
     1.0000   1.0000   1.0000   1.0000   0.0000   0.0000   0.0000   0.0000
     0.0000   0.0000   0.0000   0.0000

          k = 0.3167 0.6447 0.0000 (  6442 PWs)   bands (ev):

   -18.2971 -16.6527 -14.8760  -5.7505  -3.6740   5.3142   5.9340   6.7269
     7.5648   8.0735   8.2373   8.6484

     occupation numbers 
     1.0000   1.0000   1.0000   1.0000   0.0000   0.0000   0.0000   0.0000
     0.0000   0.0000   0.0000   0.0000

          k = 0.3167 0.6640 0.0000 (  6443 PWs)   bands (ev):

   -18.5735 -16.5171 -14.6295  -6.0346  -3.4002   4.8382   5.7913   6.5031
     7.1379   7.9766   8.1509   8.6240

     occupation numbers 
     1.0000   1.0000   1.0000   1.0000   0.0000   0.0000   0.0000   0.0000
     0.0000   0.0000   0.0000   0.0000

          k = 0.3167 0.6832 0.0000 (  6449 PWs)   bands (ev):

   -18.8490 -16.3934 -14.3473  -6.3176  -3.1282   4.3790   5.4883   6.4326
     6.7186   7.6150   8.2296   8.3271

     occupation numbers 
     1.0000   1.0000   1.0000   1.0000   0.0000   0.0000   0.0000   0.0000
     0.0000   0.0000   0.0000   0.0000

          k = 0.3167 0.7024 0.0000 (  6455 PWs)   bands (ev):

   -19.1206 -16.2748 -14.0404  -6.5977  -2.8587   3.9378   5.1179   6.2903
     6.4128   7.2030   8.0436   8.3534

     occupation numbers 
     1.0000   1.0000   1.0000   1.0000   0.0000   0.0000   0.0000   0.0000
     0.0000   0.0000   0.0000   0.0000

          k = 0.3167 0.7217 0.0000 (  6455 PWs)   bands (ev):

   -19.3864 -16.1561 -13.7173  -6.8733  -2.5919   3.5148   4.7347   5.8993
     6.3109   6.7717   7.8447   8.4728

     occupation numbers 
     1.0000   1.0000   1.0000   1.0000   0.0000   0.0000   0.0000   0.0000
     0.0000   0.0000   0.0000   0.0000

          k = 0.3167 0.7409 0.0000 (  6443 PWs)   bands (ev):

   -19.6450 -16.0336 -13.3850  -7.1432  -2.3278   3.1101   4.3562   5.5148
     6.1239   6.3455   7.6733   8.4911

     occupation numbers 
     1.0000   1.0000   1.0000   1.0000   0.0000   0.0000   0.0000   0.0000
     0.0000   0.0000   0.0000   0.0000

          k = 0.3167-0.3945 0.0000 (  6458 PWs)   bands (ev):

   -19.8952 -15.9049 -13.0490  -7.4063  -2.0659   2.7237   3.9888   5.1445
     5.8204   5.9777   7.4659   8.3175

     occupation numbers 
     1.0000   1.0000   1.0000   1.0000   0.0000   0.0000   0.0000   0.0000
     0.0000   0.0000   0.0000   0.0000

          k = 0.3167-0.3753 0.0000 (  6479 PWs)   bands (ev):

   -20.1363 -15.7687 -12.7141  -7.6616  -1.8059   2.3557   3.6353   4.7895
     5.4268   5.6787   7.2085   8.1099

     occupation numbers 
     1.0000   1.0000   1.0000   1.0000   0.0000   0.0000   0.0000   0.0000
     0.0000   0.0000   0.0000   0.0000

          k = 0.3167-0.3560 0.0000 (  6487 PWs)   bands (ev):

   -20.3676 -15.6239 -12.3849  -7.9084  -1.5475   2.0060   3.2974   4.4505
     5.0301   5.3897   6.9255   7.8582

     occupation numbers 
     1.0000   1.0000   1.0000   1.0000   0.0000   0.0000   0.0000   0.0000
     0.0000   0.0000   0.0000   0.0000

          k = 0.3167-0.3368 0.0000 (  6491 PWs)   bands (ev):

   -20.5886 -15.4701 -12.0656  -8.1458  -1.2904   1.6748   2.9758   4.1279
     4.6545   5.1047   6.6372   7.5852

     occupation numbers 
     1.0000   1.0000   1.0000   1.0000   0.0000   0.0000   0.0000   0.0000
     0.0000   0.0000   0.0000   0.0000

          k = 0.3167-0.3175 0.0000 (  6489 PWs)   bands (ev):

   -20.7988 -15.3072 -11.7607  -8.3731  -1.0343   1.3619   2.6711   3.8222
     4.3087   4.8274   6.3541   7.3094

     occupation numbers 
     1.0000   1.0000   1.0000   1.0000   0.0000   0.0000   0.0000   0.0000
     0.0000   0.0000   0.0000   0.0000

          k = 0.3167-0.2983 0.0000 (  6490 PWs)   bands (ev):

   -20.9979 -15.1350 -11.4747  -8.5897  -0.7794   1.0675   2.3837   3.5341
     3.9983   4.5612   6.0815   7.0403

     occupation numbers 
     1.0000   1.0000   1.0000   1.0000   0.0000   0.0000   0.0000   0.0000
     0.0000   0.0000   0.0000   0.0000

          k = 0.3167-0.2791 0.0000 (  6495 PWs)   bands (ev):

   -21.1856 -14.9538 -11.2121  -8.7951  -0.5258   0.7914   2.1140   3.2644
     3.7282   4.3081   5.8223   6.7825

     occupation numbers 
     1.0000   1.0000   1.0000   1.0000   0.0000   0.0000   0.0000   0.0000
     0.0000   0.0000   0.0000   0.0000

          k = 0.3167-0.2598 0.0000 (  6499 PWs)   bands (ev):

   -21.3617 -14.7640 -10.9773  -8.9886  -0.2742   0.5339   1.8621   3.0137
     3.5029   4.0697   5.5778   6.5386

     occupation numbers 
     1.0000   1.0000   1.0000   1.0000   0.0000   0.0000   0.0000   0.0000
     0.0000   0.0000   0.0000   0.0000

          k = 0.3167-0.2406 0.0000 (  6485 PWs)   bands (ev):

   -21.5259 -14.5659 -10.7747  -9.1700  -0.0257   0.2951   1.6285   2.7822
     3.3268   3.8471   5.3492   6.3099

     occupation numbers 
     1.0000   1.0000   1.0000   1.0000   0.0000   0.0000   0.0000   0.0000
     0.0000   0.0000   0.0000   0.0000

          k = 0.3167-0.2213 0.0000 (  6488 PWs)   bands (ev):

   -21.6780 -14.3602 -10.6080  -9.3387   0.0715   0.2219   1.4138   2.5693
     3.2035   3.6417   5.1370   6.0972

     occupation numbers 
     1.0000   1.0000   1.0000   1.0000   0.0000   0.0000   0.0000   0.0000
     0.0000   0.0000   0.0000   0.0000

          k = 0.3167-0.2021 0.0000 (  6482 PWs)   bands (ev):

   -21.8179 -14.1477 -10.4799  -9.4944  -0.1296   0.4583   1.2194   2.3747
     3.1345   3.4562   4.9416   5.9011

     occupation numbers 
     1.0000   1.0000   1.0000   1.0000   0.0000   0.0000   0.0000   0.0000
     0.0000   0.0000   0.0000   0.0000

          k = 0.3167-0.1828 0.0000 (  6488 PWs)   bands (ev):

   -21.9455 -13.9294 -10.3923  -9.6369  -0.3134   0.6794   1.0531   2.1978
     3.1098   3.3030   4.7634   5.7219

     occupation numbers 
     1.0000   1.0000   1.0000   1.0000   0.0000   0.0000   0.0000   0.0000
     0.0000   0.0000   0.0000   0.0000

          k = 0.3167-0.1636 0.0000 (  6488 PWs)   bands (ev):

   -22.0606 -13.7066 -10.3455  -9.7658  -0.4790   0.7949   1.0021   2.0385
     3.0578   3.2543   4.6026   5.5599

     occupation numbers 
     1.0000   1.0000   1.0000   1.0000   0.0000   0.0000   0.0000   0.0000
     0.0000   0.0000   0.0000   0.0000

          k = 0.3167-0.1443 0.0000 (  6484 PWs)   bands (ev):

   -22.1632 -13.4809 -10.3383  -9.8810  -0.6262   0.6971   1.1713   1.8969
     2.9417   3.3456   4.4595   5.4153

     occupation numbers 
     1.0000   1.0000   1.0000   1.0000   0.0000   0.0000   0.0000   0.0000
     0.0000   0.0000   0.0000   0.0000

          k = 0.3167-0.1251 0.0000 (  6489 PWs)   bands (ev):

   -22.2531 -13.2544 -10.3678  -9.9822  -0.7551   0.5789   1.3645   1.7734
     2.8239   3.5107   4.3349   5.2883

     occupation numbers 
     1.0000   1.0000   1.0000   1.0000   0.0000   0.0000   0.0000   0.0000
     0.0000   0.0000   0.0000   0.0000

          k = 0.3167-0.1058 0.0000 (  6487 PWs)   bands (ev):

   -22.3303 -13.0300 -10.4295 -10.0692  -0.8655   0.4735   1.5419   1.6714
     2.7187   3.7279   4.2310   5.1791

     occupation numbers 
     1.0000   1.0000   1.0000   1.0000   0.0000   0.0000   0.0000   0.0000
     0.0000   0.0000   0.0000   0.0000

          k = 0.3167-0.0866 0.0000 (  6481 PWs)   bands (ev):

   -22.3947 -12.8120 -10.5171 -10.1419  -0.9575   0.3846   1.5693   1.7182
     2.6285   3.9677   4.1679   5.0881

     occupation numbers 
     1.0000   1.0000   1.0000   1.0000   0.0000   0.0000   0.0000   0.0000
     0.0000   0.0000   0.0000   0.0000

          k = 0.3167-0.0674 0.0000 (  6473 PWs)   bands (ev):

   -22.4463 -12.6066 -10.6219 -10.2002  -1.0311   0.3130   1.5014   1.8543
     2.5539   4.0284   4.3353   5.0161

     occupation numbers 
     1.0000   1.0000   1.0000   1.0000   0.0000   0.0000   0.0000   0.0000
     0.0000   0.0000   0.0000   0.0000

          k = 0.3167-0.0481 0.0000 (  6474 PWs)   bands (ev):

   -22.4850 -12.4239 -10.7315 -10.2440  -1.0864   0.2592   1.4487   1.9656
     2.4950   3.9857   4.6372   4.9670

     occupation numbers 
     1.0000   1.0000   1.0000   1.0000   0.0000   0.0000   0.0000   0.0000
     0.0000   0.0000   0.0000   0.0000

          k = 0.3167-0.0289 0.0000 (  6480 PWs)   bands (ev):

   -22.5108 -12.2802 -10.8276 -10.2732  -1.1232   0.2233   1.4132   2.0454
     2.4525   3.9516   4.8682   5.0002

     occupation numbers 
     1.0000   1.0000   1.0000   1.0000   0.0000   0.0000   0.0000   0.0000
     0.0000   0.0000   0.0000   0.0000

          k = 0.3167-0.0096 0.0000 (  6488 PWs)   bands (ev):

   -22.5238 -12.1984 -10.8859 -10.2878  -1.1416   0.2053   1.3955   2.0881
     2.4292   3.9340   4.8833   5.1764

     occupation numbers 
     1.0000   1.0000   1.0000   1.0000   0.0000   0.0000   0.0000   0.0000
     0.0000   0.0000   0.0000   0.0000

          k = 0.3167 0.0096 0.0000 (  6488 PWs)   bands (ev):

   -22.5238 -12.1991 -10.8852 -10.2878  -1.1416   0.2053   1.3955   2.0880
     2.4291   3.9340   4.8833   5.1772

     occupation numbers 
     1.0000   1.0000   1.0000   1.0000   0.0000   0.0000   0.0000   0.0000
     0.0000   0.0000   0.0000   0.0000

          k = 0.3167 0.0289 0.0000 (  6480 PWs)   bands (ev):

   -22.5109 -12.2819 -10.8256 -10.2731  -1.1232   0.2233   1.4132   2.0451
     2.4523   3.9516   4.8688   5.0013

     occupation numbers 
     1.0000   1.0000   1.0000   1.0000   0.0000   0.0000   0.0000   0.0000
     0.0000   0.0000   0.0000   0.0000

          k = 0.3167 0.0481 0.0000 (  6474 PWs)   bands (ev):

   -22.4850 -12.4263 -10.7287 -10.2438  -1.0864   0.2592   1.4487   1.9649
     2.4947   3.9857   4.6392   4.9671

     occupation numbers 
     1.0000   1.0000   1.0000   1.0000   0.0000   0.0000   0.0000   0.0000
     0.0000   0.0000   0.0000   0.0000

          k = 0.3167 0.0674 0.0000 (  6473 PWs)   bands (ev):

   -22.4463 -12.6094 -10.6186 -10.1999  -1.0311   0.3131   1.5015   1.8533
     2.5537   4.0285   4.3374   5.0161

     occupation numbers 
     1.0000   1.0000   1.0000   1.0000   0.0000   0.0000   0.0000   0.0000
     0.0000   0.0000   0.0000   0.0000

          k = 0.3167 0.0866 0.0000 (  6481 PWs)   bands (ev):

   -22.3947 -12.8149 -10.5134 -10.1415  -0.9575   0.3846   1.5693   1.7168
     2.6283   3.9694   4.1683   5.0881

     occupation numbers 
     1.0000   1.0000   1.0000   1.0000   0.0000   0.0000   0.0000   0.0000
     0.0000   0.0000   0.0000   0.0000

          k = 0.3167 0.1058 0.0000 (  6487 PWs)   bands (ev):

   -22.3303 -13.0331 -10.4256 -10.0687  -0.8655   0.4735   1.5404   1.6712
     2.7185   3.7301   4.2311   5.1791

     occupation numbers 
     1.0000   1.0000   1.0000   1.0000   0.0000   0.0000   0.0000   0.0000
     0.0000   0.0000   0.0000   0.0000

          k = 0.3167 0.1251 0.0000 (  6489 PWs)   bands (ev):

   -22.2532 -13.2575 -10.3637  -9.9816  -0.7551   0.5789   1.3625   1.7733
     2.8237   3.5129   4.3349   5.2883

     occupation numbers 
     1.0000   1.0000   1.0000   1.0000   0.0000   0.0000   0.0000   0.0000
     0.0000   0.0000   0.0000   0.0000

          k = 0.3167 0.1443 0.0000 (  6484 PWs)   bands (ev):

   -22.1633 -13.4840 -10.3341  -9.8804  -0.6262   0.6971   1.1690   1.8969
     2.9416   3.3478   4.4595   5.4153

     occupation numbers 
     1.0000   1.0000   1.0000   1.0000   0.0000   0.0000   0.0000   0.0000
     0.0000   0.0000   0.0000   0.0000

          k = 0.3167 0.1636 0.0000 (  6488 PWs)   bands (ev):

   -22.0607 -13.7097 -10.3413  -9.7651  -0.4790   0.7944   1.0000   2.0385
     3.0582   3.2560   4.6025   5.5599

     occupation numbers 
     1.0000   1.0000   1.0000   1.0000   0.0000   0.0000   0.0000   0.0000
     0.0000   0.0000   0.0000   0.0000

          k = 0.3333 0.1925 0.0000 (  6484 PWs)   bands (ev):

   -21.6971 -14.3722 -10.5174  -9.3601   0.0442   0.2329   1.3873   2.5392
     3.0926   3.6152   5.1115   6.0719

     occupation numbers 
     1.0000   1.0000   1.0000   1.0000   0.0000   0.0000   0.0000   0.0000
     0.0000   0.0000   0.0000   0.0000

          k = 0.3333 0.2117 0.0000 (  6486 PWs)   bands (ev):

   -21.5638 -14.5882 -10.5998  -9.2135  -0.0017   0.2403   1.5752   2.7178
     3.1074   3.7964   5.2985   6.2597

     occupation numbers 
     1.0000   1.0000   1.0000   1.0000   0.0000   0.0000   0.0000   0.0000
     0.0000   0.0000   0.0000   0.0000

          k = 0.3333 0.2309 0.0000 (  6497 PWs)   bands (ev):

   -21.4184 -14.7974 -10.7229  -9.0542  -0.2377   0.4512   1.7819   2.9082
     3.1868   3.9954   5.5023   6.4641

     occupation numbers 
     1.0000   1.0000   1.0000   1.0000   0.0000   0.0000   0.0000   0.0000
     0.0000   0.0000   0.0000   0.0000

          k = 0.3333 0.2502 0.0000 (  6497 PWs)   bands (ev):

   -21.2608 -14.9990 -10.8847  -8.8824  -0.4774   0.6811   2.0068   3.1098
     3.3306   4.2108   5.7227   6.6846

     occupation numbers 
     1.0000   1.0000   1.0000   1.0000   0.0000   0.0000   0.0000   0.0000
     0.0000   0.0000   0.0000   0.0000

          k = 0.3333 0.2694 0.0000 (  6487 PWs)   bands (ev):

   -21.0915 -15.1922 -11.0824  -8.6987  -0.7189   0.9295   2.2499   3.3288
     3.5298   4.4418   5.9590   6.9206

     occupation numbers 
     1.0000   1.0000   1.0000   1.0000   0.0000   0.0000   0.0000   0.0000
     0.0000   0.0000   0.0000   0.0000

          k = 0.3333 0.2887 0.0000 (  6482 PWs)   bands (ev):

   -20.9105 -15.3765 -11.3123  -8.5035  -0.9612   1.1963   2.5108   3.5751
     3.7705   4.6873   6.2104   7.1707

     occupation numbers 
     1.0000   1.0000   1.0000   1.0000   0.0000   0.0000   0.0000   0.0000
     0.0000   0.0000   0.0000   0.0000

          k = 0.3333 0.3079 0.0000 (  6490 PWs)   bands (ev):

   -20.7181 -15.5513 -11.5702  -8.2972  -1.2035   1.4816   2.7893   3.8536
     4.0431   4.9459   6.4754   7.4326

     occupation numbers 
     1.0000   1.0000   1.0000   1.0000   0.0000   0.0000   0.0000   0.0000
     0.0000   0.0000   0.0000   0.0000

          k = 0.3333 0.3272 0.0000 (  6492 PWs)   bands (ev):

   -20.5146 -15.7165 -11.8517  -8.0805  -1.4456   1.7852   3.0852   4.1623
     4.3444   5.2153   6.7515   7.7019

     occupation numbers 
     1.0000   1.0000   1.0000   1.0000   0.0000   0.0000   0.0000   0.0000
     0.0000   0.0000   0.0000   0.0000

          k = 0.3333 0.3464 0.0000 (  6494 PWs)   bands (ev):

   -20.3005 -15.8716 -12.1523  -7.8541  -1.6874   2.1073   3.3981   4.4944
     4.6758   5.4919   7.0341   7.9694

     occupation numbers 
     1.0000   1.0000   1.0000   1.0000   0.0000   0.0000   0.0000   0.0000
     0.0000   0.0000   0.0000   0.0000

          k = 0.3333 0.3657 0.0000 (  6483 PWs)   bands (ev):

   -20.0761 -16.0166 -12.4674  -7.6186  -1.9289   2.4477   3.7274   4.8422
     5.0391   5.7695   7.3131   8.2134

     occupation numbers 
     1.0000   1.0000   1.0000   1.0000   0.0000   0.0000   0.0000   0.0000
     0.0000   0.0000   0.0000   0.0000

          k = 0.3333 0.3849 0.0000 (  6474 PWs)   bands (ev):

   -19.8420 -16.1516 -12.7930  -7.3748  -2.1706   2.8066   4.0723   5.2010
     5.4322   6.0368   7.5680   8.3098

     occupation numbers 
     1.0000   1.0000   1.0000   1.0000   0.0000   0.0000   0.0000   0.0000
     0.0000   0.0000   0.0000   0.0000

          k = 0.3333 0.4041 0.0000 (  6472 PWs)   bands (ev):

   -19.5990 -16.2767 -13.1246  -7.1236  -2.4128   3.1837   4.4314   5.5705
     5.8469   6.2752   7.7678   8.1500

     occupation numbers 
     1.0000   1.0000   1.0000   1.0000   0.0000   0.0000   0.0000   0.0000
     0.0000   0.0000   0.0000   0.0000

          k = 0.3333 0.4234 0.0000 (  6474 PWs)   bands (ev):

   -19.3479 -16.3925 -13.4580  -6.8660  -2.6562   3.5793   4.8021   5.9514
     6.2589   6.4691   7.9066   8.0114

     occupation numbers 
     1.0000   1.0000   1.0000   1.0000   0.0000   0.0000   0.0000   0.0000
     0.0000   0.0000   0.0000   0.0000

          k = 0.3333 0.4426 0.0000 (  6463 PWs)   bands (ev):

   -19.0898 -16.4999 -13.7887  -6.6029  -2.9013   3.9931   5.1785   6.3422
     6.4871   6.7678   7.8527   8.1021

     occupation numbers 
     1.0000   1.0000   1.0000   1.0000   0.0000   0.0000   0.0000   0.0000
     0.0000   0.0000   0.0000   0.0000

          k = 0.3333 0.4619 0.0000 (  6451 PWs)   bands (ev):

   -18.8265 -16.6006 -14.1114  -6.3354  -3.1487   4.4251   5.5446   6.5145
     6.7525   7.1871   7.7385   8.3307

     occupation numbers 
     1.0000   1.0000   1.0000   1.0000   0.0000   0.0000   0.0000   0.0000
     0.0000   0.0000   0.0000   0.0000

          k = 0.3333 0.4811 0.0000 (  6455 PWs)   bands (ev):

   -18.5599 -16.6972 -14.4195  -6.0646  -3.3991   4.8751   5.8483   6.5580
     7.1644   7.5915   7.6426   8.4699

     occupation numbers 
     1.0000   1.0000   1.0000   1.0000   0.0000   0.0000   0.0000   0.0000
     0.0000   0.0000   0.0000   0.0000

          k = 0.3333 0.5004 0.0000 (  6444 PWs)   bands (ev):

   -18.2932 -16.7938 -14.7044  -5.7916  -3.6528   5.3421   5.9873   6.7551
     7.5556   7.5829   7.9461   8.4604

     occupation numbers 
     1.0000   1.0000   1.0000   1.0000   0.0000   0.0000   0.0000   0.0000
     0.0000   0.0000   0.0000   0.0000

          k = 0.3333 0.5196 0.0000 (  6444 PWs)   bands (ev):

   -18.0305 -16.8972 -14.9541  -5.5176  -3.9102   5.8135   5.9996   7.0993
     7.4934   7.9947   8.1512   8.5334

     occupation numbers 
     1.0000   1.0000   1.0000   1.0000   0.0000   0.0000   0.0000   0.0000
     0.0000   0.0000   0.0000   0.0000

          k = 0.3333 0.5389 0.0000 (  6447 PWs)   bands (ev):

   -17.7779 -17.0161 -15.1530  -5.2437  -4.1713   5.9288   6.3494   7.4340
     7.5008   8.1874   8.3731   8.5545

     occupation numbers 
     1.0000   1.0000   1.0000   1.0000   0.0000   0.0000   0.0000   0.0000
     0.0000   0.0000   0.0000   0.0000

          k = 0.3333 0.5581 0.0000 (  6452 PWs)   bands (ev):

   -17.5428 -17.1604 -15.2831  -4.9708  -4.4360   5.8998   6.8683   7.4168
     7.8462   7.9646   8.1823   8.6099

     occupation numbers 
     1.0000   1.0000   1.0000   0.9974   0.0028   0.0000   0.0000   0.0000
     0.0000   0.0000   0.0000   0.0000

          k = 0.3333 0.5774 0.0000 (  6450 PWs)   bands (ev):

   -17.3370 -17.3336 -15.3290  -4.7042  -4.6997   5.8881   7.4077   7.4082
     7.4084   8.0884   8.0911   8.6380

     occupation numbers 
     1.0000   1.0000   1.0000   0.5089   0.4899   0.0000   0.0000   0.0000
     0.0000   0.0000   0.0000   0.0000

          k = 0.3333 0.5966 0.0000 (  6452 PWs)   bands (ev):

   -17.5453 -17.1569 -15.2843  -4.9747  -4.4317   5.8994   6.8683   7.4168
     7.8452   7.9647   8.1849   8.6074

     occupation numbers 
     1.0000   1.0000   1.0000   0.9977   0.0025   0.0000   0.0000   0.0000
     0.0000   0.0000   0.0000   0.0000

          k = 0.3333 0.6158 0.0000 (  6447 PWs)   bands (ev):

   -17.7798 -17.0123 -15.1551  -5.2474  -4.1669   5.9280   6.3494   7.4338
     7.5006   8.1902   8.3712   8.5546

     occupation numbers 
     1.0000   1.0000   1.0000   1.0000   0.0000   0.0000   0.0000   0.0000
     0.0000   0.0000   0.0000   0.0000

          k = 0.3333 0.6351 0.0000 (  6444 PWs)   bands (ev):

   -18.0319 -16.8933 -14.9568  -5.5212  -3.9057   5.8133   5.9987   7.0991
     7.4934   7.9940   8.1539   8.5304

     occupation numbers 
     1.0000   1.0000   1.0000   1.0000   0.0000   0.0000   0.0000   0.0000
     0.0000   0.0000   0.0000   0.0000

          k = 0.3333 0.6543 0.0000 (  6444 PWs)   bands (ev):

   -18.2942 -16.7900 -14.7075  -5.7950  -3.6482   5.3421   5.9862   6.7548
     7.5556   7.5825   7.9470   8.4585

     occupation numbers 
     1.0000   1.0000   1.0000   1.0000   0.0000   0.0000   0.0000   0.0000
     0.0000   0.0000   0.0000   0.0000

          k = 0.3333 0.6736 0.0000 (  6455 PWs)   bands (ev):

   -18.5606 -16.6935 -14.4228  -6.0678  -3.3945   4.8751   5.8476   6.5571
     7.1641   7.5910   7.6424   8.4693

     occupation numbers 
     1.0000   1.0000   1.0000   1.0000   0.0000   0.0000   0.0000   0.0000
     0.0000   0.0000   0.0000   0.0000

          k = 0.3333 0.6928 0.0000 (  6451 PWs)   bands (ev):

   -18.8269 -16.5971 -14.1148  -6.3384  -3.1441   4.4251   5.5443   6.5130
     6.7521   7.1857   7.7385   8.3310

     occupation numbers 
     1.0000   1.0000   1.0000   1.0000   0.0000   0.0000   0.0000   0.0000
     0.0000   0.0000   0.0000   0.0000

          k = 0.3333 0.7121 0.0000 (  6463 PWs)   bands (ev):

   -19.0901 -16.4966 -13.7922  -6.6057  -2.8966   3.9931   5.1783   6.3419
     6.4852   6.7662   7.8528   8.1020

     occupation numbers 
     1.0000   1.0000   1.0000   1.0000   0.0000   0.0000   0.0000   0.0000
     0.0000   0.0000   0.0000   0.0000

          k = 0.3333 0.7313 0.0000 (  6474 PWs)   bands (ev):

   -19.3481 -16.3893 -13.4616  -6.8686  -2.6515   3.5793   4.8020   5.9510
     6.2566   6.4680   7.9063   8.0113

     occupation numbers 
     1.0000   1.0000   1.0000   1.0000   0.0000   0.0000   0.0000   0.0000
     0.0000   0.0000   0.0000   0.0000

          k = 0.3333 0.7506 0.0000 (  6472 PWs)   bands (ev):

   -19.5991 -16.2736 -13.1282  -7.1261  -2.4082   3.1837   4.4314   5.5700
     5.8446   6.2744   7.7672   8.1500

     occupation numbers 
     1.0000   1.0000   1.0000   1.0000   0.0000   0.0000   0.0000   0.0000
     0.0000   0.0000   0.0000   0.0000

          k = 0.3333-0.3849 0.0000 (  6474 PWs)   bands (ev):

   -19.8421 -16.1486 -12.7966  -7.3771  -2.1660   2.8066   4.0723   5.2003
     5.4302   6.0363   7.5675   8.3097

     occupation numbers 
     1.0000   1.0000   1.0000   1.0000   0.0000   0.0000   0.0000   0.0000
     0.0000   0.0000   0.0000   0.0000

          k = 0.3333-0.3657 0.0000 (  6483 PWs)   bands (ev):

   -20.0761 -16.0137 -12.4711  -7.6207  -1.9244   2.4477   3.7274   4.8412
     5.0373   5.7691   7.3127   8.2129

     occupation numbers 
     1.0000   1.0000   1.0000   1.0000   0.0000   0.0000   0.0000   0.0000
     0.0000   0.0000   0.0000   0.0000

          k = 0.3333-0.3464 0.0000 (  6494 PWs)   bands (ev):

   -20.3004 -15.8687 -12.1560  -7.8561  -1.6830   2.1073   3.3981   4.4930
     4.6745   5.4917   7.0339   7.9691

     occupation numbers 
     1.0000   1.0000   1.0000   1.0000   0.0000   0.0000   0.0000   0.0000
     0.0000   0.0000   0.0000   0.0000

          k = 0.3333-0.3272 0.0000 (  6492 PWs)   bands (ev):

   -20.5145 -15.7136 -11.8555  -8.0824  -1.4414   1.7852   3.0852   4.1606
     4.3434   5.2151   6.7514   7.7017

     occupation numbers 
     1.0000   1.0000   1.0000   1.0000   0.0000   0.0000   0.0000   0.0000
     0.0000   0.0000   0.0000   0.0000

          k = 0.3333-0.3079 0.0000 (  6490 PWs)   bands (ev):

   -20.7179 -15.5485 -11.5741  -8.2989  -1.1994   1.4816   2.7893   3.8519
     4.0422   4.9458   6.4753   7.4324

     occupation numbers 
     1.0000   1.0000   1.0000   1.0000   0.0000   0.0000   0.0000   0.0000
     0.0000   0.0000   0.0000   0.0000

          k = 0.3333-0.2887 0.0000 (  6482 PWs)   bands (ev):

   -20.9103 -15.3736 -11.3162  -8.5050  -0.9572   1.1963   2.5108   3.5735
     3.7696   4.6873   6.2103   7.1706

     occupation numbers 
     1.0000   1.0000   1.0000   1.0000   0.0000   0.0000   0.0000   0.0000
     0.0000   0.0000   0.0000   0.0000

          k = 0.3333-0.2694 0.0000 (  6487 PWs)   bands (ev):

   -21.0913 -15.1894 -11.0864  -8.7001  -0.7152   0.9295   2.2499   3.3274
     3.5288   4.4418   5.9590   6.9205

     occupation numbers 
     1.0000   1.0000   1.0000   1.0000   0.0000   0.0000   0.0000   0.0000
     0.0000   0.0000   0.0000   0.0000

          k = 0.3333-0.2502 0.0000 (  6497 PWs)   bands (ev):

   -21.2607 -14.9961 -10.8887  -8.8837  -0.4739   0.6811   2.0069   3.1089
     3.3292   4.2109   5.7227   6.6846

     occupation numbers 
     1.0000   1.0000   1.0000   1.0000   0.0000   0.0000   0.0000   0.0000
     0.0000   0.0000   0.0000   0.0000

          k = 0.3333-0.2309 0.0000 (  6497 PWs)   bands (ev):

   -21.4182 -14.7946 -10.7269  -9.0554  -0.2344   0.4512   1.7819   2.9077
     3.1851   3.9955   5.5024   6.4641

     occupation numbers 
     1.0000   1.0000   1.0000   1.0000   0.0000   0.0000   0.0000   0.0000
     0.0000   0.0000   0.0000   0.0000

          k = 0.3333-0.2117 0.0000 (  6486 PWs)   bands (ev):

   -21.5637 -14.5853 -10.6039  -9.2146   0.0014   0.2403   1.5753   2.7176
     3.1054   3.7965   5.2985   6.2597

     occupation numbers 
     1.0000   1.0000   1.0000   1.0000   0.0000   0.0000   0.0000   0.0000
     0.0000   0.0000   0.0000   0.0000

          k = 0.3333-0.1925 0.0000 (  6484 PWs)   bands (ev):

   -21.6970 -14.3693 -10.5215  -9.3610   0.0442   0.2358   1.3874   2.5391
     3.0905   3.6153   5.1115   6.0719

     occupation numbers 
     1.0000   1.0000   1.0000   1.0000   0.0000   0.0000   0.0000   0.0000
     0.0000   0.0000   0.0000   0.0000

          k = 0.3333-0.1732 0.0000 (  6482 PWs)   bands (ev):

   -21.8179 -14.1477 -10.4799  -9.4944  -0.1296   0.4582   1.2194   2.3747
     3.1345   3.4562   4.9416   5.9011

     occupation numbers 
     1.0000   1.0000   1.0000   1.0000   0.0000   0.0000   0.0000   0.0000
     0.0000   0.0000   0.0000   0.0000

          k = 0.3333-0.1540 0.0000 (  6486 PWs)   bands (ev):

   -21.9264 -13.9218 -10.4782  -9.6145  -0.2858   0.6665   1.0758   2.2259
     3.1964   3.3575   4.7892   5.7476

     occupation numbers 
     1.0000   1.0000   1.0000   1.0000   0.0000   0.0000   0.0000   0.0000
     0.0000   0.0000   0.0000   0.0000

          k = 0.3333-0.1347 0.0000 (  6494 PWs)   bands (ev):

   -22.0224 -13.6936 -10.5137  -9.7209  -0.4238   0.8155   0.9981   2.0937
     3.1280   3.4633   4.6546   5.6115

     occupation numbers 
     1.0000   1.0000   1.0000   1.0000   0.0000   0.0000   0.0000   0.0000
     0.0000   0.0000   0.0000   0.0000

          k = 0.3333-0.1155 0.0000 (  6491 PWs)   bands (ev):

   -22.1057 -13.4654 -10.5821  -9.8135  -0.5434   0.7750   1.1134   1.9787
     3.0204   3.6775   4.5385   5.4930

     occupation numbers 
     1.0000   1.0000   1.0000   1.0000   0.0000   0.0000   0.0000   0.0000
     0.0000   0.0000   0.0000   0.0000

          k = 0.3333-0.0962 0.0000 (  6487 PWs)   bands (ev):

   -22.1763 -13.2407 -10.6778  -9.8922  -0.6446   0.6874   1.2755   1.8811
     2.9225   3.9418   4.4436   5.3925

     occupation numbers 
     1.0000   1.0000   1.0000   1.0000   0.0000   0.0000   0.0000   0.0000
     0.0000   0.0000   0.0000   0.0000

          k = 0.3333-0.0770 0.0000 (  6487 PWs)   bands (ev):

   -22.2342 -13.0246 -10.7929  -9.9567  -0.7274   0.6099   1.4230   1.8011
     2.8395   4.2155   4.3970   5.3104

     occupation numbers 
     1.0000   1.0000   1.0000   1.0000   0.0000   0.0000   0.0000   0.0000
     0.0000   0.0000   0.0000   0.0000

          k = 0.3333-0.0577 0.0000 (  6473 PWs)   bands (ev):

   -22.2792 -12.8251 -10.9169 -10.0070  -0.7918   0.5484   1.5459   1.7390
     2.7730   4.2628   4.6202   5.2478

     occupation numbers 
     1.0000   1.0000   1.0000   1.0000   0.0000   0.0000   0.0000   0.0000
     0.0000   0.0000   0.0000   0.0000

          k = 0.3333-0.0385 0.0000 (  6480 PWs)   bands (ev):

   -22.3114 -12.6555 -11.0344 -10.0430  -0.8379   0.5041   1.6373   1.6958
     2.7239   4.2262   4.9415   5.2110

     occupation numbers 
     1.0000   1.0000   1.0000   1.0000   0.0000   0.0000   0.0000   0.0000
     0.0000   0.0000   0.0000   0.0000

          k = 0.3333-0.0192 0.0000 (  6484 PWs)   bands (ev):

   -22.3308 -12.5365 -11.1229 -10.0646  -0.8655   0.4774   1.6637   1.7007
     2.6936   4.2008   5.1299   5.2845

     occupation numbers 
     1.0000   1.0000   1.0000   1.0000   0.0000   0.0000   0.0000   0.0000
     0.0000   0.0000   0.0000   0.0000

          k = 0.3333 0.0000 0.0000 (  6494 PWs)   bands (ev):

   -22.3372 -12.4929 -11.1563 -10.0718  -0.8747   0.4685   1.6563   1.7188
     2.6833   4.1920   5.1384   5.3954

     occupation numbers 
     1.0000   1.0000   1.0000   1.0000   0.0000   0.0000   0.0000   0.0000
     0.0000   0.0000   0.0000   0.0000

          k = 0.3333 0.0192 0.0000 (  6484 PWs)   bands (ev):

   -22.3308 -12.5376 -11.1215 -10.0645  -0.8655   0.4774   1.6637   1.7003
     2.6935   4.2008   5.1302   5.2856

     occupation numbers 
     1.0000   1.0000   1.0000   1.0000   0.0000   0.0000   0.0000   0.0000
     0.0000   0.0000   0.0000   0.0000

          k = 0.3333 0.0385 0.0000 (  6480 PWs)   bands (ev):

   -22.3115 -12.6576 -11.0320 -10.0428  -0.8379   0.5041   1.6368   1.6957
     2.7238   4.2262   4.9433   5.2111

     occupation numbers 
     1.0000   1.0000   1.0000   1.0000   0.0000   0.0000   0.0000   0.0000
     0.0000   0.0000   0.0000   0.0000

          k = 0.3333 0.0577 0.0000 (  6473 PWs)   bands (ev):

   -22.2793 -12.8276 -10.9139 -10.0068  -0.7918   0.5484   1.5449   1.7390
     2.7729   4.2629   4.6222   5.2479

     occupation numbers 
     1.0000   1.0000   1.0000   1.0000   0.0000   0.0000   0.0000   0.0000
     0.0000   0.0000   0.0000   0.0000

          k = 0.3333 0.0770 0.0000 (  6487 PWs)   bands (ev):

   -22.2342 -13.0273 -10.7895  -9.9564  -0.7274   0.6100   1.4217   1.8011
     2.8394   4.2170   4.3977   5.3104

     occupation numbers 
     1.0000   1.0000   1.0000   1.0000   0.0000   0.0000   0.0000   0.0000
     0.0000   0.0000   0.0000   0.0000

          k = 0.3333 0.0962 0.0000 (  6487 PWs)   bands (ev):

   -22.1764 -13.2436 -10.6741  -9.8917  -0.6446   0.6874   1.2738   1.8810
     2.9223   3.9439   4.4436   5.3925

     occupation numbers 
     1.0000   1.0000   1.0000   1.0000   0.0000   0.0000   0.0000   0.0000
     0.0000   0.0000   0.0000   0.0000

          k = 0.3333 0.1155 0.0000 (  6491 PWs)   bands (ev):

   -22.1058 -13.4683 -10.5783  -9.8130  -0.5434   0.7751   1.1114   1.9787
     3.0202   3.6795   4.5385   5.4930

     occupation numbers 
     1.0000   1.0000   1.0000   1.0000   0.0000   0.0000   0.0000   0.0000
     0.0000   0.0000   0.0000   0.0000

          k = 0.3333 0.1347 0.0000 (  6494 PWs)   bands (ev):

   -22.0225 -13.6965 -10.5097  -9.7203  -0.4238   0.8147   0.9967   2.0937
     3.1280   3.4653   4.6546   5.6114

     occupation numbers 
     1.0000   1.0000   1.0000   1.0000   0.0000   0.0000   0.0000   0.0000
     0.0000   0.0000   0.0000   0.0000

          k = 0.3333 0.1540 0.0000 (  6486 PWs)   bands (ev):

   -21.9265 -13.9248 -10.4742  -9.6137  -0.2858   0.6643   1.0755   2.2259
     3.1974   3.3584   4.7892   5.7475

     occupation numbers 
     1.0000   1.0000   1.0000   1.0000   0.0000   0.0000   0.0000   0.0000
     0.0000   0.0000   0.0000   0.0000

          k = 0.3333 0.1732 0.0000 (  6482 PWs)   bands (ev):

   -21.8180 -14.1506 -10.4758  -9.4936  -0.1296   0.4556   1.2192   2.3747
     3.1364   3.4563   4.9416   5.9011

     occupation numbers 
     1.0000   1.0000   1.0000   1.0000   0.0000   0.0000   0.0000   0.0000
     0.0000   0.0000   0.0000   0.0000

          k = 0.3500 0.2021 0.0000 (  6490 PWs)   bands (ev):

   -21.4372 -14.8078 -10.6359  -9.0765  -0.2251   0.4236   1.7551   2.8594
     3.0901   3.9710   5.4771   6.4391

     occupation numbers 
     1.0000   1.0000   1.0000   1.0000   0.0000   0.0000   0.0000   0.0000
     0.0000   0.0000   0.0000   0.0000

          k = 0.3500 0.2213 0.0000 (  6500 PWs)   bands (ev):

   -21.2984 -15.0209 -10.7130  -8.9270  -0.4535   0.6259   1.9531   2.9598
     3.1922   4.1628   5.6727   6.6353

     occupation numbers 
     1.0000   1.0000   1.0000   1.0000   0.0000   0.0000   0.0000   0.0000
     0.0000   0.0000   0.0000   0.0000

          k = 0.3500 0.2406 0.0000 (  6500 PWs)   bands (ev):

   -21.1476 -15.2264 -10.8306  -8.7654  -0.6845   0.8467   2.1691   3.0539
     3.3784   4.3709   5.8849   6.8477

     occupation numbers 
     1.0000   1.0000   1.0000   1.0000   0.0000   0.0000   0.0000   0.0000
     0.0000   0.0000   0.0000   0.0000

          k = 0.3500 0.2598 0.0000 (  6490 PWs)   bands (ev):

   -20.9849 -15.4235 -10.9871  -8.5921  -0.9163   1.0860   2.4030   3.1881
     3.6005   4.5945   6.1130   7.0757

     occupation numbers 
     1.0000   1.0000   1.0000   1.0000   0.0000   0.0000   0.0000   0.0000
     0.0000   0.0000   0.0000   0.0000

          k = 0.3500 0.2791 0.0000 (  6489 PWs)   bands (ev):

   -20.8107 -15.6114 -11.1795  -8.4077  -1.1479   1.3436   2.6548   3.3721
     3.8458   4.8327   6.3565   7.3181

     occupation numbers 
     1.0000   1.0000   1.0000   1.0000   0.0000   0.0000   0.0000   0.0000
     0.0000   0.0000   0.0000   0.0000

          k = 0.3500 0.2983 0.0000 (  6488 PWs)   bands (ev):

   -20.6251 -15.7898 -11.4042  -8.2127  -1.3783   1.6197   2.9244   3.6052
     4.1109   5.0842   6.6140   7.5728

     occupation numbers 
     1.0000   1.0000   1.0000   1.0000   0.0000   0.0000   0.0000   0.0000
     0.0000   0.0000   0.0000   0.0000

          k = 0.3500 0.3175 0.0000 (  6492 PWs)   bands (ev):

   -20.4286 -15.9580 -11.6570  -8.0078  -1.6072   1.9141   3.2116   3.8836
     4.3946   5.3470   6.8832   7.8355

     occupation numbers 
     1.0000   1.0000   1.0000   1.0000   0.0000   0.0000   0.0000   0.0000
     0.0000   0.0000   0.0000   0.0000

          k = 0.3500 0.3368 0.0000 (  6497 PWs)   bands (ev):

   -20.2215 -16.1157 -11.9333  -7.7936  -1.8341   2.2270   3.5158   4.2030
     4.6961   5.6178   7.1598   8.0957

     occupation numbers 
     1.0000   1.0000   1.0000   1.0000   0.0000   0.0000   0.0000   0.0000
     0.0000   0.0000   0.0000   0.0000

          k = 0.3500 0.3560 0.0000 (  6497 PWs)   bands (ev):

   -20.0043 -16.2625 -12.2289  -7.5710  -2.0591   2.5582   3.8366   4.5580
     5.0152   5.8907   7.4347   8.0746

     occupation numbers 
     1.0000   1.0000   1.0000   1.0000   0.0000   0.0000   0.0000   0.0000
     0.0000   0.0000   0.0000   0.0000

          k = 0.3500 0.3753 0.0000 (  6488 PWs)   bands (ev):

   -19.7776 -16.3983 -12.5393  -7.3408  -2.2823   2.9078   4.1732   4.9432
     5.3515   6.1550   7.6855   7.8760

     occupation numbers 
     1.0000   1.0000   1.0000   1.0000   0.0000   0.0000   0.0000   0.0000
     0.0000   0.0000   0.0000   0.0000

          k = 0.3500 0.3945 0.0000 (  6494 PWs)   bands (ev):

   -19.5423 -16.5227 -12.8602  -7.1040  -2.5042   3.2758   4.5243   5.3525
     5.7045   6.3909   7.6860   7.8859

     occupation numbers 
     1.0000   1.0000   1.0000   1.0000   0.0000   0.0000   0.0000   0.0000
     0.0000   0.0000   0.0000   0.0000

          k = 0.3500 0.4138 0.0000 (  6486 PWs)   bands (ev):

   -19.2994 -16.6357 -13.1874  -6.8617  -2.7252   3.6622   4.8874   5.7787
     6.0729   6.5669   7.5245   8.0039

     occupation numbers 
     1.0000   1.0000   1.0000   1.0000   0.0000   0.0000   0.0000   0.0000
     0.0000   0.0000   0.0000   0.0000

          k = 0.3500 0.4330 0.0000 (  6478 PWs)   bands (ev):

   -19.0504 -16.7372 -13.5168  -6.6151  -2.9458   4.0668   5.2575   6.2125
     6.4485   6.6617   7.3806   8.1169

     occupation numbers 
     1.0000   1.0000   1.0000   1.0000   0.0000   0.0000   0.0000   0.0000
     0.0000   0.0000   0.0000   0.0000

          k = 0.3500 0.4523 0.0000 (  6468 PWs)   bands (ev):

   -18.7973 -16.8273 -13.8439  -6.3654  -3.1668   4.4897   5.6203   6.5836
     6.6944   6.8857   7.2550   8.2079

     occupation numbers 
     1.0000   1.0000   1.0000   1.0000   0.0000   0.0000   0.0000   0.0000
     0.0000   0.0000   0.0000   0.0000

          k = 0.3500 0.4715 0.0000 (  6459 PWs)   bands (ev):

   -18.5431 -16.9062 -14.1633  -6.1142  -3.3886   4.9305   5.9284   6.6308
     7.0938   7.1458   7.2874   8.1876

     occupation numbers 
     1.0000   1.0000   1.0000   1.0000   0.0000   0.0000   0.0000   0.0000
     0.0000   0.0000   0.0000   0.0000

          k = 0.3500 0.4907 0.0000 (  6453 PWs)   bands (ev):

   -18.2921 -16.9745 -14.4684  -5.8631  -3.6114   5.3886   6.0703   6.7950
     7.0565   7.5042   7.6830   8.1536

     occupation numbers 
     1.0000   1.0000   1.0000   1.0000   0.0000   0.0000   0.0000   0.0000
     0.0000   0.0000   0.0000   0.0000

          k = 0.3500 0.5100 0.0000 (  6442 PWs)   bands (ev):

   -18.0515 -17.0332 -14.7499  -5.6145  -3.8348   5.8539   6.0644   6.9728
     7.1326   7.8472   7.9950   8.2423

     occupation numbers 
     1.0000   1.0000   1.0000   1.0000   0.0000   0.0000   0.0000   0.0000
     0.0000   0.0000   0.0000   0.0000

          k = 0.3500 0.5292 0.0000 (  6438 PWs)   bands (ev):

   -17.8323 -17.0840 -14.9938  -5.3722  -4.0566   5.9767   6.3771   6.9226
     7.4960   7.9426   8.2767   8.5464

     occupation numbers 
     1.0000   1.0000   1.0000   1.0000   0.0000   0.0000   0.0000   0.0000
     0.0000   0.0000   0.0000   0.0000

          k = 0.3500 0.5485 0.0000 (  6444 PWs)   bands (ev):

   -17.6528 -17.1279 -15.1801  -5.1458  -4.2684   5.9282   6.8857   6.8873
     7.7817   8.0027   8.4817   8.5746

     occupation numbers 
     1.0000   1.0000   1.0000   1.0000   0.0000   0.0000   0.0000   0.0000
     0.0000   0.0000   0.0000   0.0000

          k = 0.3500 0.5677 0.0000 (  6452 PWs)   bands (ev):

   -17.5439 -17.1589 -15.2836  -4.9725  -4.4341   5.8996   6.8683   7.4169
     7.8454   7.9649   8.1840   8.6077

     occupation numbers 
     1.0000   1.0000   1.0000   0.9975   0.0027   0.0000   0.0000   0.0000
     0.0000   0.0000   0.0000   0.0000

          k = 0.3500 0.5870 0.0000 (  6452 PWs)   bands (ev):

   -17.5452 -17.1570 -15.2842  -4.9746  -4.4319   5.8995   6.8683   7.4168
     7.8453   7.9647   8.1848   8.6076

     occupation numbers 
     1.0000   1.0000   1.0000   0.9977   0.0025   0.0000   0.0000   0.0000
     0.0000   0.0000   0.0000   0.0000

          k = 0.3500 0.6062 0.0000 (  6444 PWs)   bands (ev):

   -17.6553 -17.1238 -15.1818  -5.1494  -4.2643   5.9277   6.8857   6.8873
     7.7806   8.0049   8.4809   8.5744

     occupation numbers 
     1.0000   1.0000   1.0000   1.0000   0.0000   0.0000   0.0000   0.0000
     0.0000   0.0000   0.0000   0.0000

          k = 0.3500 0.6255 0.0000 (  6438 PWs)   bands (ev):

   -17.8346 -17.0794 -14.9962  -5.3760  -4.0519   5.9758   6.3771   6.9226
     7.4954   7.9448   8.2744   8.5466

     occupation numbers 
     1.0000   1.0000   1.0000   1.0000   0.0000   0.0000   0.0000   0.0000
     0.0000   0.0000   0.0000   0.0000

          k = 0.3500 0.6447 0.0000 (  6442 PWs)   bands (ev):

   -18.0533 -17.0288 -14.7527  -5.6183  -3.8300   5.8538   6.0634   6.9728
     7.1323   7.8485   7.9936   8.2415

     occupation numbers 
     1.0000   1.0000   1.0000   1.0000   0.0000   0.0000   0.0000   0.0000
     0.0000   0.0000   0.0000   0.0000

          k = 0.3500 0.6640 0.0000 (  6453 PWs)   bands (ev):

   -18.2934 -16.9704 -14.4715  -5.8667  -3.6064   5.3886   6.0692   6.7945
     7.0565   7.5032   7.6835   8.1529

     occupation numbers 
     1.0000   1.0000   1.0000   1.0000   0.0000   0.0000   0.0000   0.0000
     0.0000   0.0000   0.0000   0.0000

          k = 0.3500 0.6832 0.0000 (  6459 PWs)   bands (ev):

   -18.5440 -16.9024 -14.1665  -6.1176  -3.3836   4.9305   5.9278   6.6296
     7.0923   7.1458   7.2876   8.1873

     occupation numbers 
     1.0000   1.0000   1.0000   1.0000   0.0000   0.0000   0.0000   0.0000
     0.0000   0.0000   0.0000   0.0000

          k = 0.3500 0.7024 0.0000 (  6468 PWs)   bands (ev):

   -18.7980 -16.8238 -13.8472  -6.3687  -3.1618   4.4897   5.6200   6.5814
     6.6931   6.8858   7.2550   8.2081

     occupation numbers 
     1.0000   1.0000   1.0000   1.0000   0.0000   0.0000   0.0000   0.0000
     0.0000   0.0000   0.0000   0.0000

          k = 0.3500 0.7217 0.0000 (  6478 PWs)   bands (ev):

   -19.0509 -16.7339 -13.5202  -6.6181  -2.9408   4.0668   5.2573   6.2101
     6.4485   6.6606   7.3806   8.1170

     occupation numbers 
     1.0000   1.0000   1.0000   1.0000   0.0000   0.0000   0.0000   0.0000
     0.0000   0.0000   0.0000   0.0000

          k = 0.3500 0.7409 0.0000 (  6486 PWs)   bands (ev):

   -19.2997 -16.6326 -13.1908  -6.8646  -2.7202   3.6622   4.8873   5.7762
     6.0730   6.5659   7.5245   8.0035

     occupation numbers 
     1.0000   1.0000   1.0000   1.0000   0.0000   0.0000   0.0000   0.0000
     0.0000   0.0000   0.0000   0.0000

          k = 0.3500 0.7602 0.0000 (  6494 PWs)   bands (ev):

   -19.5425 -16.5197 -12.8636  -7.1067  -2.4993   3.2758   4.5242   5.3499
     5.7046   6.3902   7.6860   7.8853

     occupation numbers 
     1.0000   1.0000   1.0000   1.0000   0.0000   0.0000   0.0000   0.0000
     0.0000   0.0000   0.0000   0.0000

          k = 0.3500-0.3753 0.0000 (  6488 PWs)   bands (ev):

   -19.7777 -16.3954 -12.5428  -7.3433  -2.2776   2.9078   4.1732   4.9407
     5.3516   6.1545   7.6851   7.8760

     occupation numbers 
     1.0000   1.0000   1.0000   1.0000   0.0000   0.0000   0.0000   0.0000
     0.0000   0.0000   0.0000   0.0000

          k = 0.3500-0.3560 0.0000 (  6497 PWs)   bands (ev):

   -20.0043 -16.2597 -12.2325  -7.5733  -2.0544   2.5582   3.8366   4.5555
     5.0153   5.8903   7.4344   8.0746

     occupation numbers 
     1.0000   1.0000   1.0000   1.0000   0.0000   0.0000   0.0000   0.0000
     0.0000   0.0000   0.0000   0.0000

          k = 0.3500-0.3368 0.0000 (  6497 PWs)   bands (ev):

   -20.2214 -16.1129 -11.9370  -7.7957  -1.8296   2.2270   3.5158   4.2005
     4.6962   5.6176   7.1597   8.0954

     occupation numbers 
     1.0000   1.0000   1.0000   1.0000   0.0000   0.0000   0.0000   0.0000
     0.0000   0.0000   0.0000   0.0000

          k = 0.3500-0.3175 0.0000 (  6492 PWs)   bands (ev):

   -20.4285 -15.9552 -11.6607  -8.0098  -1.6028   1.9141   3.2115   3.8812
     4.3946   5.3469   6.8831   7.8353

     occupation numbers 
     1.0000   1.0000   1.0000   1.0000   0.0000   0.0000   0.0000   0.0000
     0.0000   0.0000   0.0000   0.0000

          k = 0.3500-0.2983 0.0000 (  6488 PWs)   bands (ev):

   -20.6250 -15.7871 -11.4080  -8.2145  -1.3741   1.6197   2.9244   3.6028
     4.1110   5.0842   6.6139   7.5726

     occupation numbers 
     1.0000   1.0000   1.0000   1.0000   0.0000   0.0000   0.0000   0.0000
     0.0000   0.0000   0.0000   0.0000

          k = 0.3500-0.2791 0.0000 (  6489 PWs)   bands (ev):

   -20.8106 -15.6087 -11.1834  -8.4094  -1.1439   1.3436   2.6548   3.3699
     3.8459   4.8327   6.3565   7.3180

     occupation numbers 
     1.0000   1.0000   1.0000   1.0000   0.0000   0.0000   0.0000   0.0000
     0.0000   0.0000   0.0000   0.0000

          k = 0.3500-0.2598 0.0000 (  6490 PWs)   bands (ev):

   -20.9848 -15.4207 -10.9910  -8.5937  -0.9125   1.0860   2.4030   3.1860
     3.6005   4.5945   6.1130   7.0757

     occupation numbers 
     1.0000   1.0000   1.0000   1.0000   0.0000   0.0000   0.0000   0.0000
     0.0000   0.0000   0.0000   0.0000

          k = 0.3500-0.2406 0.0000 (  6500 PWs)   bands (ev):

   -21.1474 -15.2237 -10.8346  -8.7668  -0.6809   0.8467   2.1691   3.0519
     3.3782   4.3710   5.8849   6.8477

     occupation numbers 
     1.0000   1.0000   1.0000   1.0000   0.0000   0.0000   0.0000   0.0000
     0.0000   0.0000   0.0000   0.0000

          k = 0.3500-0.2213 0.0000 (  6500 PWs)   bands (ev):

   -21.2982 -15.0182 -10.7170  -8.9283  -0.4501   0.6259   1.9531   2.9582
     3.1917   4.1629   5.6727   6.6353

     occupation numbers 
     1.0000   1.0000   1.0000   1.0000   0.0000   0.0000   0.0000   0.0000
     0.0000   0.0000   0.0000   0.0000

          k = 0.3500-0.2021 0.0000 (  6490 PWs)   bands (ev):

   -21.4370 -14.8051 -10.6399  -9.0776  -0.2219   0.4236   1.7551   2.8587
     3.0888   3.9711   5.4771   6.4391

     occupation numbers 
     1.0000   1.0000   1.0000   1.0000   0.0000   0.0000   0.0000   0.0000
     0.0000   0.0000   0.0000   0.0000

          k = 0.3500-0.1828 0.0000 (  6486 PWs)   bands (ev):

   -21.5637 -14.5853 -10.6039  -9.2146   0.0014   0.2403   1.5753   2.7176
     3.1054   3.7965   5.2985   6.2597

     occupation numbers 
     1.0000   1.0000   1.0000   1.0000   0.0000   0.0000   0.0000   0.0000
     0.0000   0.0000   0.0000   0.0000

          k = 0.3500-0.1636 0.0000 (  6488 PWs)   bands (ev):

   -21.6780 -14.3602 -10.6080  -9.3387   0.0715   0.2219   1.4138   2.5693
     3.2036   3.6417   5.1370   6.0972

     occupation numbers 
     1.0000   1.0000   1.0000   1.0000   0.0000   0.0000   0.0000   0.0000
     0.0000   0.0000   0.0000   0.0000

          k = 0.3500-0.1443 0.0000 (  6494 PWs)   bands (ev):

   -21.7799 -14.1312 -10.6495  -9.4497  -0.0744   0.4280   1.2709   2.4317
     3.3423   3.5276   4.9930   5.9521

     occupation numbers 
     1.0000   1.0000   1.0000   1.0000   0.0000   0.0000   0.0000   0.0000
     0.0000   0.0000   0.0000   0.0000

          k = 0.3500-0.1251 0.0000 (  6486 PWs)   bands (ev):

   -21.8692 -13.9005 -10.7247  -9.5473  -0.2030   0.6210   1.1480   2.3091
     3.3331   3.6340   4.8669   5.8244

     occupation numbers 
     1.0000   1.0000   1.0000   1.0000   0.0000   0.0000   0.0000   0.0000
     0.0000   0.0000   0.0000   0.0000

          k = 0.3500-0.1058 0.0000 (  6481 PWs)   bands (ev):

   -21.9460 -13.6710 -10.8281  -9.6313  -0.3133   0.7906   1.0507   2.2031
     3.2354   3.8939   4.7594   5.7146

     occupation numbers 
     1.0000   1.0000   1.0000   1.0000   0.0000   0.0000   0.0000   0.0000
     0.0000   0.0000   0.0000   0.0000

          k = 0.3500-0.0866 0.0000 (  6487 PWs)   bands (ev):

   -22.0100 -13.4466 -10.9529  -9.7016  -0.4053   0.8832   1.0286   2.1143
     3.1456   4.2005   4.6739   5.6228

     occupation numbers 
     1.0000   1.0000   1.0000   1.0000   0.0000   0.0000   0.0000   0.0000
     0.0000   0.0000   0.0000   0.0000

          k = 0.3500-0.0674 0.0000 (  6479 PWs)   bands (ev):

   -22.0613 -13.2340 -11.0898  -9.7580  -0.4789   0.8477   1.1284   2.0430
     3.0711   4.4921   4.6545   5.5497

     occupation numbers 
     1.0000   1.0000   1.0000   1.0000   0.0000   0.0000   0.0000   0.0000
     0.0000   0.0000   0.0000   0.0000

          k = 0.3500-0.0481 0.0000 (  6474 PWs)   bands (ev):

   -22.0998 -13.0435 -11.2258  -9.8004  -0.5341   0.8004   1.2292   1.9893
     3.0138   4.5140   4.9377   5.4968

     occupation numbers 
     1.0000   1.0000   1.0000   1.0000   0.0000   0.0000   0.0000   0.0000
     0.0000   0.0000   0.0000   0.0000

          k = 0.3500-0.0289 0.0000 (  6470 PWs)   bands (ev):

   -22.1255 -12.8924 -11.3418  -9.8287  -0.5709   0.7667   1.3015   1.9534
     2.9748   4.4839   5.2626   5.4749

     occupation numbers 
     1.0000   1.0000   1.0000   1.0000   0.0000   0.0000   0.0000   0.0000
     0.0000   0.0000   0.0000   0.0000

          k = 0.3500-0.0096 0.0000 (  6472 PWs)   bands (ev):

   -22.1384 -12.8057 -11.4112  -9.8429  -0.5893   0.7495   1.3389   1.9354
     2.9550   4.4669   5.3981   5.5668

     occupation numbers 
     1.0000   1.0000   1.0000   1.0000   0.0000   0.0000   0.0000   0.0000
     0.0000   0.0000   0.0000   0.0000

          k = 0.3500 0.0096 0.0000 (  6472 PWs)   bands (ev):

   -22.1384 -12.8063 -11.4105  -9.8428  -0.5893   0.7495   1.3387   1.9354
     2.9550   4.4669   5.3983   5.5674

     occupation numbers 
     1.0000   1.0000   1.0000   1.0000   0.0000   0.0000   0.0000   0.0000
     0.0000   0.0000   0.0000   0.0000

          k = 0.3500 0.0289 0.0000 (  6470 PWs)   bands (ev):

   -22.1256 -12.8939 -11.3399  -9.8286  -0.5709   0.7667   1.3009   1.9534
     2.9748   4.4838   5.2640   5.4751

     occupation numbers 
     1.0000   1.0000   1.0000   1.0000   0.0000   0.0000   0.0000   0.0000
     0.0000   0.0000   0.0000   0.0000

          k = 0.3500 0.0481 0.0000 (  6474 PWs)   bands (ev):

   -22.0999 -13.0457 -11.2232  -9.8002  -0.5341   0.8005   1.2282   1.9893
     3.0138   4.5140   4.9396   5.4969

     occupation numbers 
     1.0000   1.0000   1.0000   1.0000   0.0000   0.0000   0.0000   0.0000
     0.0000   0.0000   0.0000   0.0000

          k = 0.3500 0.0674 0.0000 (  6479 PWs)   bands (ev):

   -22.0614 -13.2365 -11.0866  -9.7577  -0.4789   0.8478   1.1271   2.0429
     3.0710   4.4931   4.6554   5.5497

     occupation numbers 
     1.0000   1.0000   1.0000   1.0000   0.0000   0.0000   0.0000   0.0000
     0.0000   0.0000   0.0000   0.0000

          k = 0.3500 0.0866 0.0000 (  6487 PWs)   bands (ev):

   -22.0101 -13.4493 -10.9494  -9.7012  -0.4053   0.8830   1.0272   2.1143
     3.1455   4.2024   4.6739   5.6228

     occupation numbers 
     1.0000   1.0000   1.0000   1.0000   0.0000   0.0000   0.0000   0.0000
     0.0000   0.0000   0.0000   0.0000

          k = 0.3500 0.1058 0.0000 (  6481 PWs)   bands (ev):

   -21.9461 -13.6737 -10.8245  -9.6308  -0.3133   0.7892   1.0503   2.2031
     3.2353   3.8959   4.7594   5.7146

     occupation numbers 
     1.0000   1.0000   1.0000   1.0000   0.0000   0.0000   0.0000   0.0000
     0.0000   0.0000   0.0000   0.0000

          k = 0.3500 0.1251 0.0000 (  6486 PWs)   bands (ev):

   -21.8693 -13.9034 -10.7209  -9.5466  -0.2030   0.6190   1.1478   2.3091
     3.3331   3.6359   4.8669   5.8244

     occupation numbers 
     1.0000   1.0000   1.0000   1.0000   0.0000   0.0000   0.0000   0.0000
     0.0000   0.0000   0.0000   0.0000

          k = 0.3500 0.1443 0.0000 (  6494 PWs)   bands (ev):

   -21.7800 -14.1341 -10.6456  -9.4489  -0.0744   0.4256   1.2708   2.4316
     3.3438   3.5280   4.9930   5.9521

     occupation numbers 
     1.0000   1.0000   1.0000   1.0000   0.0000   0.0000   0.0000   0.0000
     0.0000   0.0000   0.0000   0.0000

          k = 0.3500 0.1636 0.0000 (  6488 PWs)   bands (ev):

   -21.6781 -14.3630 -10.6040  -9.3378   0.0715   0.2193   1.4137   2.5694
     3.2054   3.6417   5.1370   6.0972

     occupation numbers 
     1.0000   1.0000   1.0000   1.0000   0.0000   0.0000   0.0000   0.0000
     0.0000   0.0000   0.0000   0.0000

          k = 0.3500 0.1828 0.0000 (  6486 PWs)   bands (ev):

   -21.5638 -14.5881 -10.5999  -9.2136  -0.0015   0.2403   1.5752   2.7177
     3.1072   3.7964   5.2985   6.2597

     occupation numbers 
     1.0000   1.0000   1.0000   1.0000   0.0000   0.0000   0.0000   0.0000
     0.0000   0.0000   0.0000   0.0000

          k = 0.3667 0.2117 0.0000 (  6498 PWs)   bands (ev):

   -21.1663 -15.2380 -10.7432  -8.7878  -0.6736   0.8191   2.1419   2.9427
     3.3439   4.3473   5.8600   6.8233

     occupation numbers 
     1.0000   1.0000   1.0000   1.0000   0.0000   0.0000   0.0000   0.0000
     0.0000   0.0000   0.0000   0.0000

          k = 0.3667 0.2309 0.0000 (  6500 PWs)   bands (ev):

   -21.0222 -15.4476 -10.8146  -8.6367  -0.8959   1.0308   2.3483   2.9606
     3.5397   4.5480   6.0640   7.0277

     occupation numbers 
     1.0000   1.0000   1.0000   1.0000   0.0000   0.0000   0.0000   0.0000
     0.0000   0.0000   0.0000   0.0000

          k = 0.3667 0.2502 0.0000 (  6493 PWs)   bands (ev):

   -20.8663 -15.6488 -10.9266  -8.4745  -1.1184   1.2608   2.5722   3.0339
     3.7590   4.7642   6.2841   7.2477

     occupation numbers 
     1.0000   1.0000   1.0000   1.0000   0.0000   0.0000   0.0000   0.0000
     0.0000   0.0000   0.0000   0.0000

          k = 0.3667 0.2694 0.0000 (  6495 PWs)   bands (ev):

   -20.6989 -15.8409 -11.0775  -8.3017  -1.3397   1.5093   2.8133   3.1642
     3.9978   4.9952   6.5197   7.4824

     occupation numbers 
     1.0000   1.0000   1.0000   1.0000   0.0000   0.0000   0.0000   0.0000
     0.0000   0.0000   0.0000   0.0000

          k = 0.3667 0.2887 0.0000 (  6487 PWs)   bands (ev):

   -20.5203 -16.0231 -11.2643  -8.1188  -1.5588   1.7761   3.0721   3.3493
     4.2550   5.2398   6.7696   7.7296

     occupation numbers 
     1.0000   1.0000   1.0000   1.0000   0.0000   0.0000   0.0000   0.0000
     0.0000   0.0000   0.0000   0.0000

          k = 0.3667 0.3079 0.0000 (  6489 PWs)   bands (ev):

   -20.3309 -16.1949 -11.4834  -7.9267  -1.7748   2.0614   3.3489   3.5848
     4.5301   5.4961   7.0318   7.9845

     occupation numbers 
     1.0000   1.0000   1.0000   1.0000   0.0000   0.0000   0.0000   0.0000
     0.0000   0.0000   0.0000   0.0000

          k = 0.3667 0.3272 0.0000 (  6491 PWs)   bands (ev):

   -20.1310 -16.3559 -11.7306  -7.7261  -1.9872   2.3651   3.6442   3.8655
     4.8226   5.7613   7.3024   7.8841

     occupation numbers 
     1.0000   1.0000   1.0000   1.0000   0.0000   0.0000   0.0000   0.0000
     0.0000   0.0000   0.0000   0.0000

          k = 0.3667 0.3464 0.0000 (  6499 PWs)   bands (ev):

   -19.9213 -16.5053 -12.0015  -7.5179  -2.1958   2.6871   3.9575   4.1865
     5.1321   6.0300   7.5712   7.6562

     occupation numbers 
     1.0000   1.0000   1.0000   1.0000   0.0000   0.0000   0.0000   0.0000
     0.0000   0.0000   0.0000   0.0000

          k = 0.3667 0.3657 0.0000 (  6495 PWs)   bands (ev):

   -19.7025 -16.6428 -12.2916  -7.3033  -2.4004   3.0275   4.2873   4.5432
     5.4583   6.2923   7.4421   7.8218

     occupation numbers 
     1.0000   1.0000   1.0000   1.0000   0.0000   0.0000   0.0000   0.0000
     0.0000   0.0000   0.0000   0.0000

          k = 0.3667 0.3849 0.0000 (  6498 PWs)   bands (ev):

   -19.4756 -16.7678 -12.5966  -7.0834  -2.6011   3.3863   4.6318   4.9307
     5.8007   6.5291   7.2498   7.9792

     occupation numbers 
     1.0000   1.0000   1.0000   1.0000   0.0000   0.0000   0.0000   0.0000
     0.0000   0.0000   0.0000   0.0000

          k = 0.3667 0.4041 0.0000 (  6492 PWs)   bands (ev):

   -19.2420 -16.8794 -12.9122  -6.8595  -2.7982   3.7635   4.9886   5.3434
     6.1581   6.7055   7.0776   7.9835

     occupation numbers 
     1.0000   1.0000   1.0000   1.0000   0.0000   0.0000   0.0000   0.0000
     0.0000   0.0000   0.0000   0.0000

          k = 0.3667 0.4234 0.0000 (  6476 PWs)   bands (ev):

   -19.0038 -16.9768 -13.2342  -6.6331  -2.9920   4.1589   5.3532   5.7743
     6.5279   6.7785   6.9320   7.9509

     occupation numbers 
     1.0000   1.0000   1.0000   1.0000   0.0000   0.0000   0.0000   0.0000
     0.0000   0.0000   0.0000   0.0000

          k = 0.3667 0.4426 0.0000 (  6478 PWs)   bands (ev):

   -18.7638 -17.0583 -13.5584  -6.4061  -3.1827   4.5726   5.7137   6.2141
     6.7264   6.8213   6.9287   7.9101

     occupation numbers 
     1.0000   1.0000   1.0000   1.0000   0.0000   0.0000   0.0000   0.0000
     0.0000   0.0000   0.0000   0.0000

          k = 0.3667 0.4619 0.0000 (  6470 PWs)   bands (ev):

   -18.5270 -17.1215 -13.8801  -6.1806  -3.3705   5.0044   6.0283   6.6118
     6.6625   6.7975   7.3133   7.8531

     occupation numbers 
     1.0000   1.0000   1.0000   1.0000   0.0000   0.0000   0.0000   0.0000
     0.0000   0.0000   0.0000   0.0000

          k = 0.3667 0.4811 0.0000 (  6468 PWs)   bands (ev):

   -18.3012 -17.1620 -14.1939  -5.9593  -3.5547   5.4535   6.1759   6.5609
     6.8492   7.1199   7.6716   7.8392

     occupation numbers 
     1.0000   1.0000   1.0000   1.0000   0.0000   0.0000   0.0000   0.0000
     0.0000   0.0000   0.0000   0.0000

          k = 0.3667 0.5004 0.0000 (  6446 PWs)   bands (ev):

   -18.0991 -17.1727 -14.4925  -5.7460  -3.7339   5.9125   6.1510   6.4860
     7.1492   7.4867   7.7621   8.1488

     occupation numbers 
     1.0000   1.0000   1.0000   1.0000   0.0000   0.0000   0.0000   0.0000
     0.0000   0.0000   0.0000   0.0000

          k = 0.3667 0.5196 0.0000 (  6432 PWs)   bands (ev):

   -17.9384 -17.1457 -14.7649  -5.5468  -3.9041   6.0457   6.4171   6.4287
     7.4337   7.6721   7.9997   8.4662

     occupation numbers 
     1.0000   1.0000   1.0000   1.0000   0.0000   0.0000   0.0000   0.0000
     0.0000   0.0000   0.0000   0.0000

          k = 0.3667 0.5389 0.0000 (  6438 PWs)   bands (ev):

   -17.8326 -17.0834 -14.9942  -5.3728  -4.0558   5.9765   6.3771   6.9226
     7.4956   7.9442   8.2743   8.5482

     occupation numbers 
     1.0000   1.0000   1.0000   1.0000   0.0000   0.0000   0.0000   0.0000
     0.0000   0.0000   0.0000   0.0000

          k = 0.3667 0.5581 0.0000 (  6447 PWs)   bands (ev):

   -17.7786 -17.0146 -15.1539  -5.2453  -4.1694   5.9284   6.3494   7.4339
     7.5005   8.1900   8.3709   8.5545

     occupation numbers 
     1.0000   1.0000   1.0000   1.0000   0.0000   0.0000   0.0000   0.0000
     0.0000   0.0000   0.0000   0.0000

          k = 0.3667 0.5774 0.0000 (  6456 PWs)   bands (ev):

   -17.7632 -16.9835 -15.2128  -5.1969  -4.2129   5.9115   6.3401   7.4825
     7.9796   7.9882   8.3037   8.3843

     occupation numbers 
     1.0000   1.0000   1.0000   1.0000   0.0000   0.0000   0.0000   0.0000
     0.0000   0.0000   0.0000   0.0000

          k = 0.3667 0.5966 0.0000 (  6447 PWs)   bands (ev):

   -17.7797 -17.0124 -15.1551  -5.2473  -4.1671   5.9281   6.3494   7.4338
     7.5006   8.1900   8.3714   8.5546

     occupation numbers 
     1.0000   1.0000   1.0000   1.0000   0.0000   0.0000   0.0000   0.0000
     0.0000   0.0000   0.0000   0.0000

          k = 0.3667 0.6158 0.0000 (  6438 PWs)   bands (ev):

   -17.8346 -17.0795 -14.9962  -5.3760  -4.0520   5.9758   6.3771   6.9226
     7.4954   7.9447   8.2746   8.5464

     occupation numbers 
     1.0000   1.0000   1.0000   1.0000   0.0000   0.0000   0.0000   0.0000
     0.0000   0.0000   0.0000   0.0000

          k = 0.3667 0.6351 0.0000 (  6432 PWs)   bands (ev):

   -17.9407 -17.1409 -14.7675  -5.5504  -3.8995   6.0448   6.4171   6.4287
     7.4330   7.6734   7.9983   8.4655

     occupation numbers 
     1.0000   1.0000   1.0000   1.0000   0.0000   0.0000   0.0000   0.0000
     0.0000   0.0000   0.0000   0.0000

          k = 0.3667 0.6543 0.0000 (  6446 PWs)   bands (ev):

   -18.1013 -17.1680 -14.4953  -5.7497  -3.7289   5.9124   6.1499   6.4859
     7.1486   7.4873   7.7605   8.1491

     occupation numbers 
     1.0000   1.0000   1.0000   1.0000   0.0000   0.0000   0.0000   0.0000
     0.0000   0.0000   0.0000   0.0000

          k = 0.3667 0.6736 0.0000 (  6468 PWs)   bands (ev):

   -18.3029 -17.1576 -14.1969  -5.9630  -3.5495   5.4535   6.1748   6.5609
     6.8484   7.1191   7.6712   7.8394

     occupation numbers 
     1.0000   1.0000   1.0000   1.0000   0.0000   0.0000   0.0000   0.0000
     0.0000   0.0000   0.0000   0.0000

          k = 0.3667 0.6928 0.0000 (  6470 PWs)   bands (ev):

   -18.5282 -17.1176 -13.8832  -6.1842  -3.3651   5.0044   6.0277   6.6102
     6.6620   6.7969   7.3134   7.8530

     occupation numbers 
     1.0000   1.0000   1.0000   1.0000   0.0000   0.0000   0.0000   0.0000
     0.0000   0.0000   0.0000   0.0000

          k = 0.3667 0.7121 0.0000 (  6478 PWs)   bands (ev):

   -18.7647 -17.0548 -13.5616  -6.4096  -3.1774   4.5726   5.7135   6.2120
     6.7257   6.8208   6.9288   7.9102

     occupation numbers 
     1.0000   1.0000   1.0000   1.0000   0.0000   0.0000   0.0000   0.0000
     0.0000   0.0000   0.0000   0.0000

          k = 0.3667 0.7313 0.0000 (  6476 PWs)   bands (ev):

   -19.0044 -16.9735 -13.2375  -6.6364  -2.9867   4.1589   5.3530   5.7721
     6.5280   6.7774   6.9319   7.9511

     occupation numbers 
     1.0000   1.0000   1.0000   1.0000   0.0000   0.0000   0.0000   0.0000
     0.0000   0.0000   0.0000   0.0000

          k = 0.3667 0.7506 0.0000 (  6492 PWs)   bands (ev):

   -19.2424 -16.8763 -12.9155  -6.8626  -2.7930   3.7635   4.9884   5.3411
     6.1582   6.7045   7.0776   7.9835

     occupation numbers 
     1.0000   1.0000   1.0000   1.0000   0.0000   0.0000   0.0000   0.0000
     0.0000   0.0000   0.0000   0.0000

          k = 0.3667 0.7698 0.0000 (  6498 PWs)   bands (ev):

   -19.4758 -16.7648 -12.6000  -7.0863  -2.5960   3.3863   4.6316   4.9285
     5.8008   6.5284   7.2498   7.9788

     occupation numbers 
     1.0000   1.0000   1.0000   1.0000   0.0000   0.0000   0.0000   0.0000
     0.0000   0.0000   0.0000   0.0000

          k = 0.3667-0.3657 0.0000 (  6495 PWs)   bands (ev):

   -19.7026 -16.6400 -12.2951  -7.3060  -2.3954   3.0275   4.2871   4.5410
     5.4584   6.2919   7.4421   7.8214

     occupation numbers 
     1.0000   1.0000   1.0000   1.0000   0.0000   0.0000   0.0000   0.0000
     0.0000   0.0000   0.0000   0.0000

          k = 0.3667-0.3464 0.0000 (  6499 PWs)   bands (ev):

   -19.9213 -16.5026 -12.0051  -7.5204  -2.1909   2.6871   3.9573   4.1843
     5.1322   6.0297   7.5710   7.6562

     occupation numbers 
     1.0000   1.0000   1.0000   1.0000   0.0000   0.0000   0.0000   0.0000
     0.0000   0.0000   0.0000   0.0000

          k = 0.3667-0.3272 0.0000 (  6491 PWs)   bands (ev):

   -20.1310 -16.3532 -11.7343  -7.7283  -1.9825   2.3651   3.6440   3.8634
     4.8226   5.7611   7.3022   7.8841

     occupation numbers 
     1.0000   1.0000   1.0000   1.0000   0.0000   0.0000   0.0000   0.0000
     0.0000   0.0000   0.0000   0.0000

          k = 0.3667-0.3079 0.0000 (  6489 PWs)   bands (ev):

   -20.3308 -16.1923 -11.4871  -7.9288  -1.7703   2.0614   3.3487   3.5828
     4.5302   5.4960   7.0317   7.9843

     occupation numbers 
     1.0000   1.0000   1.0000   1.0000   0.0000   0.0000   0.0000   0.0000
     0.0000   0.0000   0.0000   0.0000

          k = 0.3667-0.2887 0.0000 (  6487 PWs)   bands (ev):

   -20.5202 -16.0205 -11.2681  -8.1207  -1.5545   1.7761   3.0720   3.3473
     4.2551   5.2397   6.7695   7.7295

     occupation numbers 
     1.0000   1.0000   1.0000   1.0000   0.0000   0.0000   0.0000   0.0000
     0.0000   0.0000   0.0000   0.0000

          k = 0.3667-0.2694 0.0000 (  6495 PWs)   bands (ev):

   -20.6988 -15.8383 -11.0813  -8.3034  -1.3356   1.5093   2.8133   3.1622
     3.9979   4.9952   6.5197   7.4823

     occupation numbers 
     1.0000   1.0000   1.0000   1.0000   0.0000   0.0000   0.0000   0.0000
     0.0000   0.0000   0.0000   0.0000

          k = 0.3667-0.2502 0.0000 (  6493 PWs)   bands (ev):

   -20.8662 -15.6462 -10.9305  -8.4761  -1.1145   1.2608   2.5722   3.0319
     3.7590   4.7642   6.2841   7.2477

     occupation numbers 
     1.0000   1.0000   1.0000   1.0000   0.0000   0.0000   0.0000   0.0000
     0.0000   0.0000   0.0000   0.0000

          k = 0.3667-0.2309 0.0000 (  6500 PWs)   bands (ev):

   -21.0221 -15.4450 -10.8185  -8.6382  -0.8922   1.0308   2.3484   2.9587
     3.5397   4.5480   6.0640   7.0276

     occupation numbers 
     1.0000   1.0000   1.0000   1.0000   0.0000   0.0000   0.0000   0.0000
     0.0000   0.0000   0.0000   0.0000

          k = 0.3667-0.2117 0.0000 (  6498 PWs)   bands (ev):

   -21.1661 -15.2353 -10.7472  -8.7891  -0.6702   0.8191   2.1420   2.9409
     3.3438   4.3473   5.8600   6.8233

     occupation numbers 
     1.0000   1.0000   1.0000   1.0000   0.0000   0.0000   0.0000   0.0000
     0.0000   0.0000   0.0000   0.0000

          k = 0.3667-0.1925 0.0000 (  6500 PWs)   bands (ev):

   -21.2982 -15.0182 -10.7169  -8.9283  -0.4502   0.6259   1.9531   2.9582
     3.1917   4.1629   5.6727   6.6353

     occupation numbers 
     1.0000   1.0000   1.0000   1.0000   0.0000   0.0000   0.0000   0.0000
     0.0000   0.0000   0.0000   0.0000

          k = 0.3667-0.1732 0.0000 (  6497 PWs)   bands (ev):

   -21.4182 -14.7946 -10.7269  -9.0553  -0.2344   0.4512   1.7819   2.9077
     3.1851   3.9955   5.5024   6.4641

     occupation numbers 
     1.0000   1.0000   1.0000   1.0000   0.0000   0.0000   0.0000   0.0000
     0.0000   0.0000   0.0000   0.0000

          k = 0.3667-0.1540 0.0000 (  6485 PWs)   bands (ev):

   -21.5259 -14.5659 -10.7747  -9.1699  -0.0257   0.2951   1.6285   2.7822
     3.3268   3.8471   5.3492   6.3099

     occupation numbers 
     1.0000   1.0000   1.0000   1.0000   0.0000   0.0000   0.0000   0.0000
     0.0000   0.0000   0.0000   0.0000

          k = 0.3667-0.1347 0.0000 (  6493 PWs)   bands (ev):

   -21.6211 -14.3339 -10.8566  -9.2718   0.1473   0.1833   1.4930   2.6557
     3.5233   3.7335   5.2136   6.1731

     occupation numbers 
     1.0000   1.0000   1.0000   1.0000   0.0000   0.0000   0.0000   0.0000
     0.0000   0.0000   0.0000   0.0000

          k = 0.3667-0.1155 0.0000 (  6487 PWs)   bands (ev):

   -21.7039 -14.1010 -10.9676  -9.3605   0.0359   0.3610   1.3753   2.5426
     3.5571   3.8529   5.0960   6.0539

     occupation numbers 
     1.0000   1.0000   1.0000   1.0000   0.0000   0.0000   0.0000   0.0000
     0.0000   0.0000   0.0000   0.0000

          k = 0.3667-0.0962 0.0000 (  6475 PWs)   bands (ev):

   -21.7740 -13.8706 -11.1013  -9.4359  -0.0650   0.5293   1.2755   2.4457
     3.4679   4.1559   4.9972   5.9526

     occupation numbers 
     1.0000   1.0000   1.0000   1.0000   0.0000   0.0000   0.0000   0.0000
     0.0000   0.0000   0.0000   0.0000

          k = 0.3667-0.0770 0.0000 (  6479 PWs)   bands (ev):

   -21.8315 -13.6477 -11.2498  -9.4979  -0.1477   0.6763   1.1936   2.3658
     3.3862   4.4991   4.9218   5.8695

     occupation numbers 
     1.0000   1.0000   1.0000   1.0000   0.0000   0.0000   0.0000   0.0000
     0.0000   0.0000   0.0000   0.0000

          k = 0.3667-0.0577 0.0000 (  6479 PWs)   bands (ev):

   -21.8763 -13.4408 -11.4021  -9.5462  -0.2121   0.7975   1.1294   2.3034
     3.3205   4.7828   4.9491   5.8055

     occupation numbers 
     1.0000   1.0000   1.0000   1.0000   0.0000   0.0000   0.0000   0.0000
     0.0000   0.0000   0.0000   0.0000

          k = 0.3667-0.0385 0.0000 (  6466 PWs)   bands (ev):

   -21.9083 -13.2634 -11.5420  -9.5808  -0.2580   0.8891   1.0823   2.2588
     3.2725   4.7811   5.2813   5.7630

     occupation numbers 
     1.0000   1.0000   1.0000   1.0000   0.0000   0.0000   0.0000   0.0000
     0.0000   0.0000   0.0000   0.0000

          k = 0.3667-0.0192 0.0000 (  6476 PWs)   bands (ev):

   -21.9275 -13.1378 -11.6458  -9.6016  -0.2856   0.9480   1.0517   2.2319
     3.2433   4.7580   5.5860   5.7593

     occupation numbers 
     1.0000   1.0000   1.0000   1.0000   0.0000   0.0000   0.0000   0.0000
     0.0000   0.0000   0.0000   0.0000

          k = 0.3667-0.0000 0.0000 (  6482 PWs)   bands (ev):

   -21.9339 -13.0916 -11.6848  -9.6085  -0.2948   0.9698   1.0396   2.2229
     3.2334   4.7496   5.6681   5.8207

     occupation numbers 
     1.0000   1.0000   1.0000   1.0000   0.0000   0.0000   0.0000   0.0000
     0.0000   0.0000   0.0000   0.0000

          k = 0.3667 0.0192 0.0000 (  6476 PWs)   bands (ev):

   -21.9275 -13.1389 -11.6445  -9.6015  -0.2856   0.9478   1.0516   2.2319
     3.2432   4.7580   5.5870   5.7596

     occupation numbers 
     1.0000   1.0000   1.0000   1.0000   0.0000   0.0000   0.0000   0.0000
     0.0000   0.0000   0.0000   0.0000

          k = 0.3667 0.0385 0.0000 (  6466 PWs)   bands (ev):

   -21.9083 -13.2653 -11.5398  -9.5806  -0.2580   0.8885   1.0821   2.2587
     3.2724   4.7811   5.2831   5.7630

     occupation numbers 
     1.0000   1.0000   1.0000   1.0000   0.0000   0.0000   0.0000   0.0000
     0.0000   0.0000   0.0000   0.0000

          k = 0.3667 0.0577 0.0000 (  6479 PWs)   bands (ev):

   -21.8763 -13.4431 -11.3993  -9.5459  -0.2121   0.7965   1.1292   2.3034
     3.3204   4.7833   4.9505   5.8055

     occupation numbers 
     1.0000   1.0000   1.0000   1.0000   0.0000   0.0000   0.0000   0.0000
     0.0000   0.0000   0.0000   0.0000

          k = 0.3667 0.0770 0.0000 (  6479 PWs)   bands (ev):

   -21.8316 -13.6503 -11.2466  -9.4975  -0.1477   0.6749   1.1935   2.3658
     3.3861   4.5009   4.9219   5.8695

     occupation numbers 
     1.0000   1.0000   1.0000   1.0000   0.0000   0.0000   0.0000   0.0000
     0.0000   0.0000   0.0000   0.0000

          k = 0.3667 0.0962 0.0000 (  6475 PWs)   bands (ev):

   -21.7741 -13.8732 -11.0979  -9.4354  -0.0650   0.5275   1.2754   2.4456
     3.4678   4.1578   4.9972   5.9526

     occupation numbers 
     1.0000   1.0000   1.0000   1.0000   0.0000   0.0000   0.0000   0.0000
     0.0000   0.0000   0.0000   0.0000

          k = 0.3667 0.1155 0.0000 (  6487 PWs)   bands (ev):

   -21.7040 -14.1037 -10.9640  -9.3598   0.0359   0.3589   1.3752   2.5426
     3.5571   3.8547   5.0959   6.0539

     occupation numbers 
     1.0000   1.0000   1.0000   1.0000   0.0000   0.0000   0.0000   0.0000
     0.0000   0.0000   0.0000   0.0000

          k = 0.3667 0.1347 0.0000 (  6493 PWs)   bands (ev):

   -21.6212 -14.3366 -10.8529  -9.2710   0.1467   0.1815   1.4929   2.6557
     3.5249   3.7338   5.2136   6.1731

     occupation numbers 
     1.0000   1.0000   1.0000   1.0000   0.0000   0.0000   0.0000   0.0000
     0.0000   0.0000   0.0000   0.0000

          k = 0.3667 0.1540 0.0000 (  6485 PWs)   bands (ev):

   -21.5260 -14.5686 -10.7709  -9.1690  -0.0284   0.2951   1.6284   2.7822
     3.3286   3.8470   5.3492   6.3099

     occupation numbers 
     1.0000   1.0000   1.0000   1.0000   0.0000   0.0000   0.0000   0.0000
     0.0000   0.0000   0.0000   0.0000

          k = 0.3667 0.1732 0.0000 (  6497 PWs)   bands (ev):

   -21.4183 -14.7973 -10.7230  -9.0543  -0.2374   0.4512   1.7819   2.9080
     3.1866   3.9954   5.5023   6.4641

     occupation numbers 
     1.0000   1.0000   1.0000   1.0000   0.0000   0.0000   0.0000   0.0000
     0.0000   0.0000   0.0000   0.0000

          k = 0.3667 0.1925 0.0000 (  6500 PWs)   bands (ev):

   -21.2984 -15.0209 -10.7130  -8.9271  -0.4534   0.6259   1.9531   2.9596
     3.1922   4.1628   5.6727   6.6353

     occupation numbers 
     1.0000   1.0000   1.0000   1.0000   0.0000   0.0000   0.0000   0.0000
     0.0000   0.0000   0.0000   0.0000

          k = 0.3833 0.2213 0.0000 (  6490 PWs)   bands (ev):

   -20.8849 -15.6615 -10.8389  -8.4969  -1.1091   1.2332   2.5435   2.9175
     3.7310   4.7412   6.2598   7.2240

     occupation numbers 
     1.0000   1.0000   1.0000   1.0000   0.0000   0.0000   0.0000   0.0000
     0.0000   0.0000   0.0000   0.0000

          k = 0.3833 0.2406 0.0000 (  6494 PWs)   bands (ev):

   -20.7359 -15.8670 -10.9043  -8.3464  -1.3223   1.4541   2.7497   2.9397
     3.9429   4.9501   6.4719   7.4361

     occupation numbers 
     1.0000   1.0000   1.0000   1.0000   0.0000   0.0000   0.0000   0.0000
     0.0000   0.0000   0.0000   0.0000

          k = 0.3833 0.2598 0.0000 (  6506 PWs)   bands (ev):

   -20.5755 -16.0633 -11.0105  -8.1859  -1.5334   1.6933   2.9399   3.0552
     4.1735   5.1739   6.6996   7.6630

     occupation numbers 
     1.0000   1.0000   1.0000   1.0000   0.0000   0.0000   0.0000   0.0000
     0.0000   0.0000   0.0000   0.0000

          k = 0.3833 0.2791 0.0000 (  6497 PWs)   bands (ev):

   -20.4039 -16.2496 -11.1555  -8.0161  -1.7412   1.9510   3.1006   3.2761
     4.4222   5.4116   6.9419   7.9020

     occupation numbers 
     1.0000   1.0000   1.0000   1.0000   0.0000   0.0000   0.0000   0.0000
     0.0000   0.0000   0.0000   0.0000

          k = 0.3833 0.2983 0.0000 (  6505 PWs)   bands (ev):

   -20.2217 -16.4253 -11.3365  -7.8380  -1.9445   2.2271   3.2933   3.5379
     4.6886   5.6615   7.1969   7.7472

     occupation numbers 
     1.0000   1.0000   1.0000   1.0000   0.0000   0.0000   0.0000   0.0000
     0.0000   0.0000   0.0000   0.0000

          k = 0.3833 0.3175 0.0000 (  6501 PWs)   bands (ev):

   -20.0294 -16.5897 -11.5497  -7.6525  -2.1424   2.5215   3.5330   3.8213
     4.9722   5.9210   7.4595   7.4914

     occupation numbers 
     1.0000   1.0000   1.0000   1.0000   0.0000   0.0000   0.0000   0.0000
     0.0000   0.0000   0.0000   0.0000

          k = 0.3833 0.3368 0.0000 (  6501 PWs)   bands (ev):

   -19.8276 -16.7420 -11.7911  -7.4606  -2.3342   2.8344   3.8181   4.1229
     5.2728   6.1854   7.2503   7.7260

     occupation numbers 
     1.0000   1.0000   1.0000   1.0000   0.0000   0.0000   0.0000   0.0000
     0.0000   0.0000   0.0000   0.0000

          k = 0.3833 0.3560 0.0000 (  6501 PWs)   bands (ev):

   -19.6173 -16.8815 -12.0561  -7.2637  -2.5197   3.1656   4.1443   4.4413
     5.5901   6.4454   7.0297   7.9411

     occupation numbers 
     1.0000   1.0000   1.0000   1.0000   0.0000   0.0000   0.0000   0.0000
     0.0000   0.0000   0.0000   0.0000

          k = 0.3833 0.3753 0.0000 (  6492 PWs)   bands (ev):

   -19.3999 -17.0071 -12.3404  -7.0633  -2.6983   3.5152   4.5064   4.7752
     5.9234   6.6804   6.8300   7.8643

     occupation numbers 
     1.0000   1.0000   1.0000   1.0000   0.0000   0.0000   0.0000   0.0000
     0.0000   0.0000   0.0000   0.0000

          k = 0.3833 0.3945 0.0000 (  6488 PWs)   bands (ev):

   -19.1773 -17.1172 -12.6395  -6.8609  -2.8700   3.8832   4.8988   5.1229
     6.2719   6.6391   6.8648   7.7328

     occupation numbers 
     1.0000   1.0000   1.0000   1.0000   0.0000   0.0000   0.0000   0.0000
     0.0000   0.0000   0.0000   0.0000

          k = 0.3833 0.4138 0.0000 (  6486 PWs)   bands (ev):

   -18.9525 -17.2097 -12.9492  -6.6586  -3.0347   4.2695   5.3152   5.4807
     6.4745   6.6340   6.9303   7.6519

     occupation numbers 
     1.0000   1.0000   1.0000   1.0000   0.0000   0.0000   0.0000   0.0000
     0.0000   0.0000   0.0000   0.0000

          k = 0.3833 0.4330 0.0000 (  6488 PWs)   bands (ev):

   -18.7307 -17.2805 -13.2652  -6.4586  -3.1922   4.6740   5.7472   5.8400
     6.3273   6.8822   7.0121   7.6002

     occupation numbers 
     1.0000   1.0000   1.0000   1.0000   0.0000   0.0000   0.0000   0.0000
     0.0000   0.0000   0.0000   0.0000

          k = 0.3833 0.4523 0.0000 (  6482 PWs)   bands (ev):

   -18.5202 -17.3230 -13.5832  -6.2636  -3.3421   5.0966   6.1355   6.1991
     6.2151   6.8192   7.3763   7.5580

     occupation numbers 
     1.0000   1.0000   1.0000   1.0000   0.0000   0.0000   0.0000   0.0000
     0.0000   0.0000   0.0000   0.0000

          k = 0.3833 0.4715 0.0000 (  6470 PWs)   bands (ev):

   -18.3344 -17.3263 -13.8981  -6.0769  -3.4836   5.5367   6.0830   6.3094
     6.6473   6.8916   7.4616   7.8104

     occupation numbers 
     1.0000   1.0000   1.0000   1.0000   0.0000   0.0000   0.0000   0.0000
     0.0000   0.0000   0.0000   0.0000

          k = 0.3833 0.4907 0.0000 (  6460 PWs)   bands (ev):

   -18.1908 -17.2771 -14.2041  -5.9026  -3.6151   5.9762   6.0034   6.2685
     7.0788   7.0912   7.5075   8.1392

     occupation numbers 
     1.0000   1.0000   1.0000   1.0000   0.0000   0.0000   0.0000   0.0000
     0.0000   0.0000   0.0000   0.0000

          k = 0.3833 0.5100 0.0000 (  6446 PWs)   bands (ev):

   -18.0992 -17.1724 -14.4927  -5.7463  -3.7335   5.9125   6.1508   6.4860
     7.1486   7.4883   7.7606   8.1498

     occupation numbers 
     1.0000   1.0000   1.0000   1.0000   0.0000   0.0000   0.0000   0.0000
     0.0000   0.0000   0.0000   0.0000

          k = 0.3833 0.5292 0.0000 (  6442 PWs)   bands (ev):

   -18.0517 -17.0325 -14.7504  -5.6153  -3.8337   5.8539   6.0640   6.9728
     7.1323   7.8487   7.9939   8.2423

     occupation numbers 
     1.0000   1.0000   1.0000   1.0000   0.0000   0.0000   0.0000   0.0000
     0.0000   0.0000   0.0000   0.0000

          k = 0.3833 0.5485 0.0000 (  6444 PWs)   bands (ev):

   -18.0310 -16.8958 -14.9551  -5.5191  -3.9083   5.8134   5.9991   7.0991
     7.4934   7.9934   8.1549   8.5308

     occupation numbers 
     1.0000   1.0000   1.0000   1.0000   0.0000   0.0000   0.0000   0.0000
     0.0000   0.0000   0.0000   0.0000

          k = 0.3833 0.5677 0.0000 (  6437 PWs)   bands (ev):

   -18.0238 -16.8084 -15.0736  -5.4678  -3.9483   5.7924   5.9655   7.0857
     7.9868   8.0221   8.3153   8.5839

     occupation numbers 
     1.0000   1.0000   1.0000   1.0000   0.0000   0.0000   0.0000   0.0000
     0.0000   0.0000   0.0000   0.0000

          k = 0.3833 0.5870 0.0000 (  6437 PWs)   bands (ev):

   -18.0241 -16.8075 -15.0742  -5.4685  -3.9475   5.7924   5.9654   7.0857
     7.9868   8.0222   8.3148   8.5840

     occupation numbers 
     1.0000   1.0000   1.0000   1.0000   0.0000   0.0000   0.0000   0.0000
     0.0000   0.0000   0.0000   0.0000

          k = 0.3833 0.6062 0.0000 (  6444 PWs)   bands (ev):

   -18.0319 -16.8934 -14.9567  -5.5210  -3.9059   5.8133   5.9987   7.0991
     7.4934   7.9941   8.1536   8.5307

     occupation numbers 
     1.0000   1.0000   1.0000   1.0000   0.0000   0.0000   0.0000   0.0000
     0.0000   0.0000   0.0000   0.0000

          k = 0.3833 0.6255 0.0000 (  6442 PWs)   bands (ev):

   -18.0532 -17.0289 -14.7526  -5.6182  -3.8301   5.8538   6.0634   6.9728
     7.1323   7.8483   7.9937   8.2415

     occupation numbers 
     1.0000   1.0000   1.0000   1.0000   0.0000   0.0000   0.0000   0.0000
     0.0000   0.0000   0.0000   0.0000

          k = 0.3833 0.6447 0.0000 (  6446 PWs)   bands (ev):

   -18.1013 -17.1680 -14.4953  -5.7497  -3.7290   5.9124   6.1500   6.4860
     7.1486   7.4872   7.7606   8.1490

     occupation numbers 
     1.0000   1.0000   1.0000   1.0000   0.0000   0.0000   0.0000   0.0000
     0.0000   0.0000   0.0000   0.0000

          k = 0.3833 0.6640 0.0000 (  6460 PWs)   bands (ev):

   -18.1930 -17.2723 -14.2070  -5.9063  -3.6100   5.9761   6.0034   6.2675
     7.0779   7.0906   7.5072   8.1387

     occupation numbers 
     1.0000   1.0000   1.0000   1.0000   0.0000   0.0000   0.0000   0.0000
     0.0000   0.0000   0.0000   0.0000

          k = 0.3833 0.6832 0.0000 (  6470 PWs)   bands (ev):

   -18.3365 -17.3216 -13.9011  -6.0806  -3.4782   5.5367   6.0829   6.3084
     6.6455   6.8915   7.4611   7.8106

     occupation numbers 
     1.0000   1.0000   1.0000   1.0000   0.0000   0.0000   0.0000   0.0000
     0.0000   0.0000   0.0000   0.0000

          k = 0.3833 0.7024 0.0000 (  6482 PWs)   bands (ev):

   -18.5218 -17.3188 -13.5862  -6.2673  -3.3366   5.0966   6.1349   6.1982
     6.2141   6.8184   7.3760   7.5581

     occupation numbers 
     1.0000   1.0000   1.0000   1.0000   0.0000   0.0000   0.0000   0.0000
     0.0000   0.0000   0.0000   0.0000

          k = 0.3833 0.7217 0.0000 (  6488 PWs)   bands (ev):

   -18.7319 -17.2767 -13.2684  -6.4623  -3.1866   4.6740   5.7452   5.8397
     6.3273   6.8811   7.0121   7.6001

     occupation numbers 
     1.0000   1.0000   1.0000   1.0000   0.0000   0.0000   0.0000   0.0000
     0.0000   0.0000   0.0000   0.0000

          k = 0.3833 0.7409 0.0000 (  6486 PWs)   bands (ev):

   -18.9534 -17.2063 -12.9525  -6.6621  -3.0292   4.2695   5.3130   5.4806
     6.4745   6.6340   6.9292   7.6521

     occupation numbers 
     1.0000   1.0000   1.0000   1.0000   0.0000   0.0000   0.0000   0.0000
     0.0000   0.0000   0.0000   0.0000

          k = 0.3833 0.7602 0.0000 (  6488 PWs)   bands (ev):

   -19.1778 -17.1141 -12.6429  -6.8642  -2.8646   3.8832   4.8966   5.1229
     6.2720   6.6391   6.8640   7.7330

     occupation numbers 
     1.0000   1.0000   1.0000   1.0000   0.0000   0.0000   0.0000   0.0000
     0.0000   0.0000   0.0000   0.0000

          k = 0.3833 0.7794 0.0000 (  6492 PWs)   bands (ev):

   -19.4002 -17.0041 -12.3438  -7.0664  -2.6930   3.5152   4.5042   4.7752
     5.9234   6.6798   6.8300   7.8644

     occupation numbers 
     1.0000   1.0000   1.0000   1.0000   0.0000   0.0000   0.0000   0.0000
     0.0000   0.0000   0.0000   0.0000

          k = 0.3833-0.3560 0.0000 (  6501 PWs)   bands (ev):

   -19.6175 -16.8787 -12.0596  -7.2666  -2.5144   3.1656   4.1421   4.4413
     5.5901   6.4450   7.0297   7.9409

     occupation numbers 
     1.0000   1.0000   1.0000   1.0000   0.0000   0.0000   0.0000   0.0000
     0.0000   0.0000   0.0000   0.0000

          k = 0.3833-0.3368 0.0000 (  6501 PWs)   bands (ev):

   -19.8277 -16.7393 -11.7946  -7.4633  -2.3292   2.8344   3.8160   4.1229
     5.2729   6.1851   7.2503   7.7258

     occupation numbers 
     1.0000   1.0000   1.0000   1.0000   0.0000   0.0000   0.0000   0.0000
     0.0000   0.0000   0.0000   0.0000

          k = 0.3833-0.3175 0.0000 (  6501 PWs)   bands (ev):

   -20.0294 -16.5870 -11.5533  -7.6549  -2.1375   2.5215   3.5310   3.8213
     4.9723   5.9209   7.4594   7.4913

     occupation numbers 
     1.0000   1.0000   1.0000   1.0000   0.0000   0.0000   0.0000   0.0000
     0.0000   0.0000   0.0000   0.0000

          k = 0.3833-0.2983 0.0000 (  6505 PWs)   bands (ev):

   -20.2217 -16.4227 -11.3402  -7.8403  -1.9398   2.2271   3.2914   3.5379
     4.6886   5.6614   7.1968   7.7472

     occupation numbers 
     1.0000   1.0000   1.0000   1.0000   0.0000   0.0000   0.0000   0.0000
     0.0000   0.0000   0.0000   0.0000

          k = 0.3833-0.2791 0.0000 (  6497 PWs)   bands (ev):

   -20.4039 -16.2470 -11.1592  -8.0182  -1.7368   1.9510   3.0988   3.2760
     4.4223   5.4116   6.9418   7.9019

     occupation numbers 
     1.0000   1.0000   1.0000   1.0000   0.0000   0.0000   0.0000   0.0000
     0.0000   0.0000   0.0000   0.0000

          k = 0.3833-0.2598 0.0000 (  6506 PWs)   bands (ev):

   -20.5754 -16.0607 -11.0143  -8.1878  -1.5292   1.6933   2.9387   3.0545
     4.1736   5.1739   6.6995   7.6629

     occupation numbers 
     1.0000   1.0000   1.0000   1.0000   0.0000   0.0000   0.0000   0.0000
     0.0000   0.0000   0.0000   0.0000

          k = 0.3833-0.2406 0.0000 (  6494 PWs)   bands (ev):

   -20.7358 -15.8644 -10.9082  -8.3481  -1.3183   1.4541   2.7495   2.9380
     3.9429   4.9502   6.4719   7.4361

     occupation numbers 
     1.0000   1.0000   1.0000   1.0000   0.0000   0.0000   0.0000   0.0000
     0.0000   0.0000   0.0000   0.0000

          k = 0.3833-0.2213 0.0000 (  6490 PWs)   bands (ev):

   -20.8848 -15.6589 -10.8427  -8.4984  -1.1054   1.2332   2.5435   2.9158
     3.7310   4.7413   6.2598   7.2240

     occupation numbers 
     1.0000   1.0000   1.0000   1.0000   0.0000   0.0000   0.0000   0.0000
     0.0000   0.0000   0.0000   0.0000

          k = 0.3833-0.2021 0.0000 (  6500 PWs)   bands (ev):

   -21.0221 -15.4450 -10.8185  -8.6382  -0.8922   1.0308   2.3484   2.9588
     3.5397   4.5480   6.0640   7.0276

     occupation numbers 
     1.0000   1.0000   1.0000   1.0000   0.0000   0.0000   0.0000   0.0000
     0.0000   0.0000   0.0000   0.0000

          k = 0.3833-0.1828 0.0000 (  6500 PWs)   bands (ev):

   -21.1474 -15.2237 -10.8346  -8.7668  -0.6809   0.8467   2.1691   3.0520
     3.3782   4.3710   5.8849   6.8477

     occupation numbers 
     1.0000   1.0000   1.0000   1.0000   0.0000   0.0000   0.0000   0.0000
     0.0000   0.0000   0.0000   0.0000

          k = 0.3833-0.1636 0.0000 (  6497 PWs)   bands (ev):

   -21.2607 -14.9962 -10.8887  -8.8837  -0.4739   0.6811   2.0069   3.1090
     3.3292   4.2109   5.7227   6.6846

     occupation numbers 
     1.0000   1.0000   1.0000   1.0000   0.0000   0.0000   0.0000   0.0000
     0.0000   0.0000   0.0000   0.0000

          k = 0.3833-0.1443 0.0000 (  6499 PWs)   bands (ev):

   -21.3617 -14.7640 -10.9773  -8.9886  -0.2742   0.5339   1.8621   3.0137
     3.5030   4.0697   5.5778   6.5386

     occupation numbers 
     1.0000   1.0000   1.0000   1.0000   0.0000   0.0000   0.0000   0.0000
     0.0000   0.0000   0.0000   0.0000

          k = 0.3833-0.1251 0.0000 (  6489 PWs)   bands (ev):

   -21.4503 -14.5291 -11.0957  -9.0811  -0.0853   0.4052   1.7350   2.8981
     3.7476   3.9627   5.4506   6.4101

     occupation numbers 
     1.0000   1.0000   1.0000   1.0000   0.0000   0.0000   0.0000   0.0000
     0.0000   0.0000   0.0000   0.0000

          k = 0.3833-0.1058 0.0000 (  6493 PWs)   bands (ev):

   -21.5265 -14.2944 -11.2380  -9.1608   0.0889   0.2951   1.6256   2.7942
     3.7991   4.1160   5.3414   6.2992

     occupation numbers 
     1.0000   1.0000   1.0000   1.0000   0.0000   0.0000   0.0000   0.0000
     0.0000   0.0000   0.0000   0.0000

          k = 0.3833-0.0866 0.0000 (  6480 PWs)   bands (ev):

   -21.5901 -14.0640 -11.3970  -9.2277   0.1993   0.2486   1.5339   2.7061
     3.7165   4.4588   5.2515   6.2064

     occupation numbers 
     1.0000   1.0000   1.0000   1.0000   0.0000   0.0000   0.0000   0.0000
     0.0000   0.0000   0.0000   0.0000

          k = 0.3833-0.0674 0.0000 (  6480 PWs)   bands (ev):

   -21.6410 -13.8443 -11.5634  -9.2813   0.1282   0.3788   1.4600   2.6352
     3.6430   4.8321   5.1871   6.1321

     occupation numbers 
     1.0000   1.0000   1.0000   1.0000   0.0000   0.0000   0.0000   0.0000
     0.0000   0.0000   0.0000   0.0000

          k = 0.3833-0.0481 0.0000 (  6469 PWs)   bands (ev):

   -21.6792 -13.6461 -11.7239  -9.3217   0.0732   0.4836   1.4041   2.5818
     3.5861   5.0770   5.2853   6.0774

     occupation numbers 
     1.0000   1.0000   1.0000   1.0000   0.0000   0.0000   0.0000   0.0000
     0.0000   0.0000   0.0000   0.0000

          k = 0.3833-0.0289 0.0000 (  6469 PWs)   bands (ev):

   -21.7048 -13.4876 -11.8584  -9.3487   0.0365   0.5564   1.3664   2.5461
     3.5474   5.0637   5.6420   6.0459

     occupation numbers 
     1.0000   1.0000   1.0000   1.0000   0.0000   0.0000   0.0000   0.0000
     0.0000   0.0000   0.0000   0.0000

          k = 0.3833-0.0096 0.0000 (  6478 PWs)   bands (ev):

   -21.7175 -13.3960 -11.9382  -9.3621   0.0181   0.5938   1.3473   2.5282
     3.5279   5.0482   5.8947   6.0585

     occupation numbers 
     1.0000   1.0000   1.0000   1.0000   0.0000   0.0000   0.0000   0.0000
     0.0000   0.0000   0.0000   0.0000

          k = 0.3833 0.0096 0.0000 (  6478 PWs)   bands (ev):

   -21.7176 -13.3966 -11.9376  -9.3621   0.0181   0.5936   1.3473   2.5282
     3.5279   5.0482   5.8952   6.0588

     occupation numbers 
     1.0000   1.0000   1.0000   1.0000   0.0000   0.0000   0.0000   0.0000
     0.0000   0.0000   0.0000   0.0000

          k = 0.3833 0.0289 0.0000 (  6469 PWs)   bands (ev):

   -21.7048 -13.4891 -11.8566  -9.3485   0.0365   0.5558   1.3664   2.5461
     3.5474   5.0637   5.6435   6.0460

     occupation numbers 
     1.0000   1.0000   1.0000   1.0000   0.0000   0.0000   0.0000   0.0000
     0.0000   0.0000   0.0000   0.0000

          k = 0.3833 0.0481 0.0000 (  6469 PWs)   bands (ev):

   -21.6793 -13.6482 -11.7214  -9.3214   0.0732   0.4826   1.4041   2.5818
     3.5860   5.0772   5.2870   6.0774

     occupation numbers 
     1.0000   1.0000   1.0000   1.0000   0.0000   0.0000   0.0000   0.0000
     0.0000   0.0000   0.0000   0.0000

          k = 0.3833 0.0674 0.0000 (  6480 PWs)   bands (ev):

   -21.6410 -13.8467 -11.5605  -9.2809   0.1282   0.3775   1.4600   2.6352
     3.6429   4.8338   5.1873   6.1321

     occupation numbers 
     1.0000   1.0000   1.0000   1.0000   0.0000   0.0000   0.0000   0.0000
     0.0000   0.0000   0.0000   0.0000

          k = 0.3833 0.0866 0.0000 (  6480 PWs)   bands (ev):

   -21.5901 -14.0665 -11.3938  -9.2271   0.1992   0.2470   1.5339   2.7061
     3.7165   4.4607   5.2515   6.2064

     occupation numbers 
     1.0000   1.0000   1.0000   1.0000   0.0000   0.0000   0.0000   0.0000
     0.0000   0.0000   0.0000   0.0000

          k = 0.3833 0.1058 0.0000 (  6493 PWs)   bands (ev):

   -21.5266 -14.2970 -11.2346  -9.1602   0.0869   0.2951   1.6255   2.7941
     3.7991   4.1178   5.3414   6.2992

     occupation numbers 
     1.0000   1.0000   1.0000   1.0000   0.0000   0.0000   0.0000   0.0000
     0.0000   0.0000   0.0000   0.0000

          k = 0.3833 0.1251 0.0000 (  6489 PWs)   bands (ev):

   -21.4504 -14.5318 -11.0921  -9.0803  -0.0876   0.4052   1.7349   2.8981
     3.7491   3.9629   5.4506   6.4101

     occupation numbers 
     1.0000   1.0000   1.0000   1.0000   0.0000   0.0000   0.0000   0.0000
     0.0000   0.0000   0.0000   0.0000

          k = 0.3833 0.1443 0.0000 (  6499 PWs)   bands (ev):

   -21.3618 -14.7666 -10.9736  -8.9876  -0.2769   0.5339   1.8620   3.0137
     3.5047   4.0696   5.5778   6.5386

     occupation numbers 
     1.0000   1.0000   1.0000   1.0000   0.0000   0.0000   0.0000   0.0000
     0.0000   0.0000   0.0000   0.0000

          k = 0.3833 0.1636 0.0000 (  6497 PWs)   bands (ev):

   -21.2608 -14.9988 -10.8849  -8.8826  -0.4769   0.6811   2.0068   3.1094
     3.3305   4.2108   5.7227   6.6846

     occupation numbers 
     1.0000   1.0000   1.0000   1.0000   0.0000   0.0000   0.0000   0.0000
     0.0000   0.0000   0.0000   0.0000

          k = 0.3833 0.1828 0.0000 (  6500 PWs)   bands (ev):

   -21.1475 -15.2263 -10.8308  -8.7655  -0.6841   0.8467   2.1690   3.0535
     3.3784   4.3709   5.8848   6.8477

     occupation numbers 
     1.0000   1.0000   1.0000   1.0000   0.0000   0.0000   0.0000   0.0000
     0.0000   0.0000   0.0000   0.0000

          k = 0.3833 0.2021 0.0000 (  6500 PWs)   bands (ev):

   -21.0222 -15.4476 -10.8147  -8.6368  -0.8957   1.0308   2.3483   2.9605
     3.5397   4.5480   6.0640   7.0277

     occupation numbers 
     1.0000   1.0000   1.0000   1.0000   0.0000   0.0000   0.0000   0.0000
     0.0000   0.0000   0.0000   0.0000

          k = 0.4000 0.2309 0.0000 (  6490 PWs)   bands (ev):

   -20.5938 -16.0768 -10.9225  -8.2083  -1.5255   1.6657   2.8458   3.0033
     4.1466   5.1518   6.6760   7.6403

     occupation numbers 
     1.0000   1.0000   1.0000   1.0000   0.0000   0.0000   0.0000   0.0000
     0.0000   0.0000   0.0000   0.0000

          k = 0.4000 0.2502 0.0000 (  6494 PWs)   bands (ev):

   -20.4405 -16.2775 -10.9818  -8.0611  -1.7262   1.8958   2.8743   3.2132
     4.3686   5.3684   6.8958   7.8588

     occupation numbers 
     1.0000   1.0000   1.0000   1.0000   0.0000   0.0000   0.0000   0.0000
     0.0000   0.0000   0.0000   0.0000

          k = 0.4000 0.2694 0.0000 (  6498 PWs)   bands (ev):

   -20.2763 -16.4679 -11.0819  -7.9056  -1.9223   2.1443   2.9513   3.4527
     4.6086   5.5992   7.1304   7.6648

     occupation numbers 
     1.0000   1.0000   1.0000   1.0000   0.0000   0.0000   0.0000   0.0000
     0.0000   0.0000   0.0000   0.0000

          k = 0.4000 0.2887 0.0000 (  6511 PWs)   bands (ev):

   -20.1016 -16.6475 -11.2209  -7.7429  -2.1125   2.4111   3.0851   3.7115
     4.8661   5.8426   7.3743   7.3836

     occupation numbers 
     1.0000   1.0000   1.0000   1.0000   0.0000   0.0000   0.0000   0.0000
     0.0000   0.0000   0.0000   0.0000

          k = 0.4000 0.3079 0.0000 (  6503 PWs)   bands (ev):

   -19.9172 -16.8153 -11.3958  -7.5740  -2.2953   2.6964   3.2740   3.9882
     5.1408   6.0962   7.1128   7.6355

     occupation numbers 
     1.0000   1.0000   1.0000   1.0000   0.0000   0.0000   0.0000   0.0000
     0.0000   0.0000   0.0000   0.0000

          k = 0.4000 0.3272 0.0000 (  6503 PWs)   bands (ev):

   -19.7240 -16.9703 -11.6030  -7.4005  -2.4699   3.0001   3.5142   4.2819
     5.4325   6.3558   6.8645   7.8771

     occupation numbers 
     1.0000   1.0000   1.0000   1.0000   0.0000   0.0000   0.0000   0.0000
     0.0000   0.0000   0.0000   0.0000

          k = 0.4000 0.3464 0.0000 (  6503 PWs)   bands (ev):

   -19.5232 -17.1113 -11.8382  -7.2237  -2.6352   3.3221   3.8013   4.5919
     5.7408   6.6066   6.6407   7.7420

     occupation numbers 
     1.0000   1.0000   1.0000   1.0000   0.0000   0.0000   0.0000   0.0000
     0.0000   0.0000   0.0000   0.0000

          k = 0.4000 0.3657 0.0000 (  6492 PWs)   bands (ev):

   -19.3168 -17.2365 -12.0972  -7.0455  -2.7906   3.6625   4.1302   4.9174
     6.0651   6.4219   6.8476   7.5552

     occupation numbers 
     1.0000   1.0000   1.0000   1.0000   0.0000   0.0000   0.0000   0.0000
     0.0000   0.0000   0.0000   0.0000

          k = 0.4000 0.3849 0.0000 (  6490 PWs)   bands (ev):

   -19.1079 -17.3434 -12.3753  -6.8679  -2.9355   4.0213   4.4955   5.2566
     6.2286   6.4047   6.9990   7.4307

     occupation numbers 
     1.0000   1.0000   1.0000   1.0000   0.0000   0.0000   0.0000   0.0000
     0.0000   0.0000   0.0000   0.0000

          k = 0.4000 0.4041 0.0000 (  6488 PWs)   bands (ev):

   -18.9016 -17.4272 -12.6682  -6.6931  -3.0692   4.3984   4.8917   5.6062
     6.0536   6.7576   6.9764   7.4227

     occupation numbers 
     1.0000   1.0000   1.0000   1.0000   0.0000   0.0000   0.0000   0.0000
     0.0000   0.0000   0.0000   0.0000

          k = 0.4000 0.4234 0.0000 (  6496 PWs)   bands (ev):

   -18.7066 -17.4803 -12.9714  -6.5236  -3.1913   4.7938   5.3127   5.8965
     5.9580   6.8520   7.1197   7.4296

     occupation numbers 
     1.0000   1.0000   1.0000   1.0000   0.0000   0.0000   0.0000   0.0000
     0.0000   0.0000   0.0000   0.0000

          k = 0.4000 0.4426 0.0000 (  6492 PWs)   bands (ev):

   -18.5368 -17.4898 -13.2807  -6.3624  -3.3013   5.2073   5.7520   5.7587
     6.2767   6.7359   7.3508   7.5265

     occupation numbers 
     1.0000   1.0000   1.0000   1.0000   0.0000   0.0000   0.0000   0.0000
     0.0000   0.0000   0.0000   0.0000

          k = 0.4000 0.4619 0.0000 (  6484 PWs)   bands (ev):

   -18.4098 -17.4404 -13.5915  -6.2125  -3.3988   5.6322   5.6448   6.2020
     6.3978   6.7771   7.3347   7.8436

     occupation numbers 
     1.0000   1.0000   1.0000   1.0000   0.0000   0.0000   0.0000   0.0000
     0.0000   0.0000   0.0000   0.0000

          k = 0.4000 0.4811 0.0000 (  6470 PWs)   bands (ev):

   -18.3345 -17.3261 -13.8983  -6.0771  -3.4833   5.5367   6.0830   6.3092
     6.6467   6.8925   7.4611   7.8108

     occupation numbers 
     1.0000   1.0000   1.0000   1.0000   0.0000   0.0000   0.0000   0.0000
     0.0000   0.0000   0.0000   0.0000

          k = 0.4000 0.5004 0.0000 (  6468 PWs)   bands (ev):

   -18.3013 -17.1616 -14.1942  -5.9598  -3.5540   5.4535   6.1755   6.5609
     6.8485   7.1208   7.6717   7.8390

     occupation numbers 
     1.0000   1.0000   1.0000   1.0000   0.0000   0.0000   0.0000   0.0000
     0.0000   0.0000   0.0000   0.0000

          k = 0.4000 0.5196 0.0000 (  6453 PWs)   bands (ev):

   -18.2923 -16.9737 -14.4690  -5.8640  -3.6101   5.3886   6.0698   6.7947
     7.0565   7.5033   7.6853   8.1523

     occupation numbers 
     1.0000   1.0000   1.0000   1.0000   0.0000   0.0000   0.0000   0.0000
     0.0000   0.0000   0.0000   0.0000

          k = 0.4000 0.5389 0.0000 (  6444 PWs)   bands (ev):

   -18.2935 -16.7926 -14.7054  -5.7930  -3.6509   5.3421   5.9867   6.7549
     7.5556   7.5821   7.9488   8.4580

     occupation numbers 
     1.0000   1.0000   1.0000   1.0000   0.0000   0.0000   0.0000   0.0000
     0.0000   0.0000   0.0000   0.0000

          k = 0.4000 0.5581 0.0000 (  6442 PWs)   bands (ev):

   -18.2967 -16.6543 -14.8747  -5.7494  -3.6755   5.3142   5.9343   6.7270
     7.5646   8.0735   8.2383   8.6481

     occupation numbers 
     1.0000   1.0000   1.0000   1.0000   0.0000   0.0000   0.0000   0.0000
     0.0000   0.0000   0.0000   0.0000

          k = 0.4000 0.5774 0.0000 (  6422 PWs)   bands (ev):

   -18.2983 -16.6004 -14.9385  -5.7349  -3.6833   5.3049   5.9164   6.7173
     7.5577   8.3421   8.5934   8.6458

     occupation numbers 
     1.0000   1.0000   1.0000   1.0000   0.0000   0.0000   0.0000   0.0000
     0.0000   0.0000   0.0000   0.0000

          k = 0.4000 0.5966 0.0000 (  6442 PWs)   bands (ev):

   -18.2971 -16.6529 -14.8758  -5.7503  -3.6742   5.3142   5.9341   6.7269
     7.5648   8.0735   8.2370   8.6488

     occupation numbers 
     1.0000   1.0000   1.0000   1.0000   0.0000   0.0000   0.0000   0.0000
     0.0000   0.0000   0.0000   0.0000

          k = 0.4000 0.6158 0.0000 (  6444 PWs)   bands (ev):

   -18.2942 -16.7901 -14.7074  -5.7949  -3.6484   5.3421   5.9863   6.7548
     7.5556   7.5825   7.9467   8.4587

     occupation numbers 
     1.0000   1.0000   1.0000   1.0000   0.0000   0.0000   0.0000   0.0000
     0.0000   0.0000   0.0000   0.0000

          k = 0.4000 0.6351 0.0000 (  6453 PWs)   bands (ev):

   -18.2934 -16.9705 -14.4714  -5.8667  -3.6066   5.3885   6.0692   6.7945
     7.0565   7.5033   7.6833   8.1530

     occupation numbers 
     1.0000   1.0000   1.0000   1.0000   0.0000   0.0000   0.0000   0.0000
     0.0000   0.0000   0.0000   0.0000

          k = 0.4000 0.6543 0.0000 (  6468 PWs)   bands (ev):

   -18.3029 -17.1577 -14.1969  -5.9630  -3.5496   5.4534   6.1748   6.5609
     6.8484   7.1190   7.6711   7.8394

     occupation numbers 
     1.0000   1.0000   1.0000   1.0000   0.0000   0.0000   0.0000   0.0000
     0.0000   0.0000   0.0000   0.0000

          k = 0.4000 0.6736 0.0000 (  6470 PWs)   bands (ev):

   -18.3365 -17.3217 -13.9011  -6.0806  -3.4783   5.5367   6.0829   6.3084
     6.6456   6.8914   7.4612   7.8106

     occupation numbers 
     1.0000   1.0000   1.0000   1.0000   0.0000   0.0000   0.0000   0.0000
     0.0000   0.0000   0.0000   0.0000

          k = 0.4000 0.6928 0.0000 (  6484 PWs)   bands (ev):

   -18.4120 -17.4357 -13.5944  -6.2162  -3.3934   5.6322   5.6448   6.2002
     6.3970   6.7768   7.3343   7.8432

     occupation numbers 
     1.0000   1.0000   1.0000   1.0000   0.0000   0.0000   0.0000   0.0000
     0.0000   0.0000   0.0000   0.0000

          k = 0.4000 0.7121 0.0000 (  6492 PWs)   bands (ev):

   -18.5388 -17.4853 -13.2838  -6.3662  -3.2957   5.2072   5.7502   5.7586
     6.2764   6.7354   7.3500   7.5267

     occupation numbers 
     1.0000   1.0000   1.0000   1.0000   0.0000   0.0000   0.0000   0.0000
     0.0000   0.0000   0.0000   0.0000

          k = 0.4000 0.7313 0.0000 (  6496 PWs)   bands (ev):

   -18.7081 -17.4762 -12.9746  -6.5274  -3.1855   4.7938   5.3107   5.8965
     5.9579   6.8514   7.1197   7.4292

     occupation numbers 
     1.0000   1.0000   1.0000   1.0000   0.0000   0.0000   0.0000   0.0000
     0.0000   0.0000   0.0000   0.0000

          k = 0.4000 0.7506 0.0000 (  6488 PWs)   bands (ev):

   -18.9027 -17.4236 -12.6714  -6.6967  -3.0634   4.3984   4.8897   5.6062
     6.0536   6.7576   6.9757   7.4225

     occupation numbers 
     1.0000   1.0000   1.0000   1.0000   0.0000   0.0000   0.0000   0.0000
     0.0000   0.0000   0.0000   0.0000

          k = 0.4000 0.7698 0.0000 (  6490 PWs)   bands (ev):

   -19.1087 -17.3400 -12.3786  -6.8713  -2.9298   4.0213   4.4935   5.2566
     6.2286   6.4047   6.9983   7.4308

     occupation numbers 
     1.0000   1.0000   1.0000   1.0000   0.0000   0.0000   0.0000   0.0000
     0.0000   0.0000   0.0000   0.0000

          k = 0.4000 0.7890 0.0000 (  6492 PWs)   bands (ev):

   -19.3173 -17.2335 -12.1006  -7.0488  -2.7851   3.6625   4.1282   4.9174
     6.0652   6.4219   6.8471   7.5553

     occupation numbers 
     1.0000   1.0000   1.0000   1.0000   0.0000   0.0000   0.0000   0.0000
     0.0000   0.0000   0.0000   0.0000

          k = 0.4000-0.3464 0.0000 (  6503 PWs)   bands (ev):

   -19.5235 -17.1084 -11.8417  -7.2268  -2.6298   3.3221   3.7993   4.5920
     5.7409   6.6063   6.6407   7.7421

     occupation numbers 
     1.0000   1.0000   1.0000   1.0000   0.0000   0.0000   0.0000   0.0000
     0.0000   0.0000   0.0000   0.0000

          k = 0.4000-0.3272 0.0000 (  6503 PWs)   bands (ev):

   -19.7242 -16.9675 -11.6065  -7.4033  -2.4647   3.0001   3.5123   4.2819
     5.4326   6.3556   6.8645   7.8771

     occupation numbers 
     1.0000   1.0000   1.0000   1.0000   0.0000   0.0000   0.0000   0.0000
     0.0000   0.0000   0.0000   0.0000

          k = 0.4000-0.3079 0.0000 (  6503 PWs)   bands (ev):

   -19.9173 -16.8126 -11.3994  -7.5767  -2.2903   2.6964   3.2721   3.9882
     5.1409   6.0961   7.1128   7.6354

     occupation numbers 
     1.0000   1.0000   1.0000   1.0000   0.0000   0.0000   0.0000   0.0000
     0.0000   0.0000   0.0000   0.0000

          k = 0.4000-0.2887 0.0000 (  6511 PWs)   bands (ev):

   -20.1017 -16.6449 -11.2245  -7.7453  -2.1077   2.4111   3.0833   3.7116
     4.8661   5.8425   7.3743   7.3836

     occupation numbers 
     1.0000   1.0000   1.0000   1.0000   0.0000   0.0000   0.0000   0.0000
     0.0000   0.0000   0.0000   0.0000

          k = 0.4000-0.2694 0.0000 (  6498 PWs)   bands (ev):

   -20.2763 -16.4654 -11.0856  -7.9078  -1.9178   2.1443   2.9495   3.4527
     4.6086   5.5992   7.1304   7.6648

     occupation numbers 
     1.0000   1.0000   1.0000   1.0000   0.0000   0.0000   0.0000   0.0000
     0.0000   0.0000   0.0000   0.0000

          k = 0.4000-0.2502 0.0000 (  6494 PWs)   bands (ev):

   -20.4405 -16.2749 -10.9856  -8.0631  -1.7219   1.8958   2.8725   3.2132
     4.3687   5.3684   6.8958   7.8587

     occupation numbers 
     1.0000   1.0000   1.0000   1.0000   0.0000   0.0000   0.0000   0.0000
     0.0000   0.0000   0.0000   0.0000

          k = 0.4000-0.2309 0.0000 (  6490 PWs)   bands (ev):

   -20.5938 -16.0743 -10.9262  -8.2101  -1.5214   1.6657   2.8444   3.0031
     4.1466   5.1518   6.6760   7.6403

     occupation numbers 
     1.0000   1.0000   1.0000   1.0000   0.0000   0.0000   0.0000   0.0000
     0.0000   0.0000   0.0000   0.0000

          k = 0.4000-0.2117 0.0000 (  6494 PWs)   bands (ev):

   -20.7358 -15.8644 -10.9082  -8.3481  -1.3183   1.4541   2.7495   2.9381
     3.9429   4.9502   6.4719   7.4361

     occupation numbers 
     1.0000   1.0000   1.0000   1.0000   0.0000   0.0000   0.0000   0.0000
     0.0000   0.0000   0.0000   0.0000

          k = 0.4000-0.1925 0.0000 (  6493 PWs)   bands (ev):

   -20.8662 -15.6462 -10.9305  -8.4761  -1.1145   1.2608   2.5722   3.0320
     3.7590   4.7642   6.2841   7.2477

     occupation numbers 
     1.0000   1.0000   1.0000   1.0000   0.0000   0.0000   0.0000   0.0000
     0.0000   0.0000   0.0000   0.0000

          k = 0.4000-0.1732 0.0000 (  6490 PWs)   bands (ev):

   -20.9848 -15.4208 -10.9910  -8.5936  -0.9125   1.0860   2.4030   3.1861
     3.6005   4.5945   6.1130   7.0757

     occupation numbers 
     1.0000   1.0000   1.0000   1.0000   0.0000   0.0000   0.0000   0.0000
     0.0000   0.0000   0.0000   0.0000

          k = 0.4000-0.1540 0.0000 (  6487 PWs)   bands (ev):

   -21.0913 -15.1894 -11.0863  -8.7001  -0.7152   0.9295   2.2499   3.3275
     3.5288   4.4418   5.9590   6.9205

     occupation numbers 
     1.0000   1.0000   1.0000   1.0000   0.0000   0.0000   0.0000   0.0000
     0.0000   0.0000   0.0000   0.0000

          k = 0.4000-0.1347 0.0000 (  6495 PWs)   bands (ev):

   -21.1856 -14.9539 -11.2120  -8.7950  -0.5259   0.7914   2.1140   3.2644
     3.7283   4.3081   5.8223   6.7826

     occupation numbers 
     1.0000   1.0000   1.0000   1.0000   0.0000   0.0000   0.0000   0.0000
     0.0000   0.0000   0.0000   0.0000

          k = 0.4000-0.1155 0.0000 (  6485 PWs)   bands (ev):

   -21.2676 -14.7165 -11.3625  -8.8780  -0.3483   0.6718   1.9956   3.1586
     4.0132   4.2119   5.7032   6.6621

     occupation numbers 
     1.0000   1.0000   1.0000   1.0000   0.0000   0.0000   0.0000   0.0000
     0.0000   0.0000   0.0000   0.0000

          k = 0.4000-0.0962 0.0000 (  6481 PWs)   bands (ev):

   -21.3372 -14.4806 -11.5313  -8.9488  -0.1865   0.5705   1.8950   3.0635
     4.0571   4.4197   5.6024   6.5594

     occupation numbers 
     1.0000   1.0000   1.0000   1.0000   0.0000   0.0000   0.0000   0.0000
     0.0000   0.0000   0.0000   0.0000

          k = 0.4000-0.0770 0.0000 (  6474 PWs)   bands (ev):

   -21.3942 -14.2513 -11.7102  -9.0070  -0.0452   0.4877   1.8122   2.9843
     3.9803   4.7978   5.5214   6.4750

     occupation numbers 
     1.0000   1.0000   1.0000   1.0000   0.0000   0.0000   0.0000   0.0000
     0.0000   0.0000   0.0000   0.0000

          k = 0.4000-0.0577 0.0000 (  6477 PWs)   bands (ev):

   -21.4386 -14.0371 -11.8883  -9.0525   0.0712   0.4232   1.7475   2.9223
     3.9149   5.1931   5.4704   6.4094

     occupation numbers 
     1.0000   1.0000   1.0000   1.0000   0.0000   0.0000   0.0000   0.0000
     0.0000   0.0000   0.0000   0.0000

          k = 0.4000-0.0385 0.0000 (  6476 PWs)   bands (ev):

   -21.4704 -13.8521 -12.0490  -9.0850   0.1582   0.3772   1.7010   2.8778
     3.8669   5.3761   5.6545   6.3643

     occupation numbers 
     1.0000   1.0000   1.0000   1.0000   0.0000   0.0000   0.0000   0.0000
     0.0000   0.0000   0.0000   0.0000

          k = 0.4000-0.0192 0.0000 (  6492 PWs)   bands (ev):

   -21.4894 -13.7201 -12.1670  -9.1046   0.2121   0.3495   1.6729   2.8510
     3.8376   5.3611   6.0065   6.3452

     occupation numbers 
     1.0000   1.0000   1.0000   1.0000   0.0000   0.0000   0.0000   0.0000
     0.0000   0.0000   0.0000   0.0000

          k = 0.4000 0.0000 0.0000 (  6482 PWs)   bands (ev):

   -21.4958 -13.6711 -12.2114  -9.1111   0.2303   0.3402   1.6635   2.8421
     3.8277   5.3534   6.1658   6.3573

     occupation numbers 
     1.0000   1.0000   1.0000   1.0000   0.0000   0.0000   0.0000   0.0000
     0.0000   0.0000   0.0000   0.0000

          k = 0.4000 0.0192 0.0000 (  6492 PWs)   bands (ev):

   -21.4895 -13.7211 -12.1658  -9.1045   0.2117   0.3495   1.6729   2.8510
     3.8376   5.3611   6.0077   6.3453

     occupation numbers 
     1.0000   1.0000   1.0000   1.0000   0.0000   0.0000   0.0000   0.0000
     0.0000   0.0000   0.0000   0.0000

          k = 0.4000 0.0385 0.0000 (  6476 PWs)   bands (ev):

   -21.4704 -13.8539 -12.0469  -9.0848   0.1574   0.3772   1.7009   2.8778
     3.8668   5.3761   5.6562   6.3644

     occupation numbers 
     1.0000   1.0000   1.0000   1.0000   0.0000   0.0000   0.0000   0.0000
     0.0000   0.0000   0.0000   0.0000

          k = 0.4000 0.0577 0.0000 (  6477 PWs)   bands (ev):

   -21.4386 -14.0392 -11.8856  -9.0520   0.0700   0.4232   1.7474   2.9223
     3.9149   5.1947   5.4707   6.4095

     occupation numbers 
     1.0000   1.0000   1.0000   1.0000   0.0000   0.0000   0.0000   0.0000
     0.0000   0.0000   0.0000   0.0000

          k = 0.4000 0.0770 0.0000 (  6474 PWs)   bands (ev):

   -21.3942 -14.2537 -11.7072  -9.0064  -0.0468   0.4877   1.8122   2.9843
     3.9803   4.7996   5.5215   6.4750

     occupation numbers 
     1.0000   1.0000   1.0000   1.0000   0.0000   0.0000   0.0000   0.0000
     0.0000   0.0000   0.0000   0.0000

          k = 0.4000 0.0962 0.0000 (  6481 PWs)   bands (ev):

   -21.3372 -14.4831 -11.5281  -8.9481  -0.1885   0.5705   1.8949   3.0635
     4.0570   4.4215   5.6024   6.5594

     occupation numbers 
     1.0000   1.0000   1.0000   1.0000   0.0000   0.0000   0.0000   0.0000
     0.0000   0.0000   0.0000   0.0000

          k = 0.4000 0.1155 0.0000 (  6485 PWs)   bands (ev):

   -21.2677 -14.7190 -11.3591  -8.8772  -0.3506   0.6718   1.9955   3.1586
     4.0145   4.2122   5.7032   6.6621

     occupation numbers 
     1.0000   1.0000   1.0000   1.0000   0.0000   0.0000   0.0000   0.0000
     0.0000   0.0000   0.0000   0.0000

          k = 0.4000 0.1347 0.0000 (  6495 PWs)   bands (ev):

   -21.1857 -14.9564 -11.2085  -8.7940  -0.5286   0.7914   2.1139   3.2644
     3.7299   4.3081   5.8223   6.7826

     occupation numbers 
     1.0000   1.0000   1.0000   1.0000   0.0000   0.0000   0.0000   0.0000
     0.0000   0.0000   0.0000   0.0000

          k = 0.4000 0.1540 0.0000 (  6487 PWs)   bands (ev):

   -21.0914 -15.1920 -11.0827  -8.6990  -0.7182   0.9295   2.2498   3.3282
     3.5298   4.4418   5.9590   6.9205

     occupation numbers 
     1.0000   1.0000   1.0000   1.0000   0.0000   0.0000   0.0000   0.0000
     0.0000   0.0000   0.0000   0.0000

          k = 0.4000 0.1732 0.0000 (  6490 PWs)   bands (ev):

   -20.9849 -15.4233 -10.9873  -8.5923  -0.9158   1.0860   2.4030   3.1876
     3.6006   4.5945   6.1130   7.0757

     occupation numbers 
     1.0000   1.0000   1.0000   1.0000   0.0000   0.0000   0.0000   0.0000
     0.0000   0.0000   0.0000   0.0000

          k = 0.4000 0.1925 0.0000 (  6493 PWs)   bands (ev):

   -20.8663 -15.6488 -10.9267  -8.4746  -1.1181   1.2608   2.5721   3.0336
     3.7590   4.7642   6.2841   7.2477

     occupation numbers 
     1.0000   1.0000   1.0000   1.0000   0.0000   0.0000   0.0000   0.0000
     0.0000   0.0000   0.0000   0.0000

          k = 0.4000 0.2117 0.0000 (  6494 PWs)   bands (ev):

   -20.7359 -15.8670 -10.9044  -8.3464  -1.3221   1.4541   2.7497   2.9396
     3.9429   4.9501   6.4719   7.4361

     occupation numbers 
     1.0000   1.0000   1.0000   1.0000   0.0000   0.0000   0.0000   0.0000
     0.0000   0.0000   0.0000   0.0000

          k = 0.4167 0.2406 0.0000 (  6486 PWs)   bands (ev):

   -20.2945 -16.4823 -10.9937  -7.9282  -1.9154   2.1167   2.8324   3.4255
     4.5819   5.5780   7.1078   7.6373

     occupation numbers 
     1.0000   1.0000   1.0000   1.0000   0.0000   0.0000   0.0000   0.0000
     0.0000   0.0000   0.0000   0.0000

          k = 0.4167 0.2598 0.0000 (  6490 PWs)   bands (ev):

   -20.1378 -16.6768 -11.0468  -7.7883  -2.0992   2.3559   2.8492   3.6581
     4.8131   5.8019   7.3236   7.3359

     occupation numbers 
     1.0000   1.0000   1.0000   1.0000   0.0000   0.0000   0.0000   0.0000
     0.0000   0.0000   0.0000   0.0000

          k = 0.4167 0.2791 0.0000 (  6503 PWs)   bands (ev):

   -19.9711 -16.8600 -11.1407  -7.6425  -2.2754   2.6136   2.9262   3.9089
     5.0617   6.0387   7.0303   7.5750

     occupation numbers 
     1.0000   1.0000   1.0000   1.0000   0.0000   0.0000   0.0000   0.0000
     0.0000   0.0000   0.0000   0.0000

          k = 0.4167 0.2983 0.0000 (  6499 PWs)   bands (ev):

   -19.7952 -17.0308 -11.2734  -7.4923  -2.4423   2.8896   3.0618   4.1771
     5.3275   6.2863   6.7544   7.8168

     occupation numbers 
     1.0000   1.0000   1.0000   1.0000   0.0000   0.0000   0.0000   0.0000
     0.0000   0.0000   0.0000   0.0000

          k = 0.4167 0.3175 0.0000 (  6503 PWs)   bands (ev):

   -19.6115 -17.1878 -11.4421  -7.3392  -2.5985   3.1840   3.2533   4.4623
     5.6103   6.4949   6.5424   7.6412

     occupation numbers 
     1.0000   1.0000   1.0000   1.0000   0.0000   0.0000   0.0000   0.0000
     0.0000   0.0000   0.0000   0.0000

          k = 0.4167 0.3368 0.0000 (  6501 PWs)   bands (ev):

   -19.4218 -17.3291 -11.6430  -7.1851  -2.7425   3.4933   3.4999   4.7639
     5.9095   6.2571   6.7918   7.4188

     occupation numbers 
     1.0000   1.0000   1.0000   1.0000   0.0000   0.0000   0.0000   0.0000
     0.0000   0.0000   0.0000   0.0000

          k = 0.4167 0.3560 0.0000 (  6491 PWs)   bands (ev):

   -19.2292 -17.4518 -11.8720  -7.0319  -2.8732   3.7860   3.8284   5.0810
     6.0362   6.2248   6.9909   7.2545

     occupation numbers 
     1.0000   1.0000   1.0000   1.0000   0.0000   0.0000   0.0000   0.0000
     0.0000   0.0000   0.0000   0.0000

          k = 0.4167 0.3753 0.0000 (  6494 PWs)   bands (ev):

   -19.0389 -17.5510 -12.1246  -6.8820  -2.9896   4.1180   4.1779   5.4123
     5.8337   6.5543   6.9330   7.3311

     occupation numbers 
     1.0000   1.0000   1.0000   1.0000   0.0000   0.0000   0.0000   0.0000
     0.0000   0.0000   0.0000   0.0000

          k = 0.4167 0.3945 0.0000 (  6492 PWs)   bands (ev):

   -18.8596 -17.6183 -12.3962  -6.7377  -3.0908   4.4865   4.5458   5.6495
     5.7548   6.7573   6.9054   7.4551

     occupation numbers 
     1.0000   1.0000   1.0000   1.0000   0.0000   0.0000   0.0000   0.0000
     0.0000   0.0000   0.0000   0.0000

          k = 0.4167 0.4138 0.0000 (  6492 PWs)   bands (ev):

   -18.7059 -17.6402 -12.6825  -6.6014  -3.1765   4.8858   4.9320   5.4838
     6.1012   6.5959   7.2532   7.4746

     occupation numbers 
     1.0000   1.0000   1.0000   1.0000   0.0000   0.0000   0.0000   0.0000
     0.0000   0.0000   0.0000   0.0000

          k = 0.4167 0.4330 0.0000 (  6478 PWs)   bands (ev):

   -18.5954 -17.5997 -12.9789  -6.4757  -3.2464   5.3098   5.3316   5.3412
     6.3775   6.5032   7.3923   7.5857

     occupation numbers 
     1.0000   1.0000   1.0000   1.0000   0.0000   0.0000   0.0000   0.0000
     0.0000   0.0000   0.0000   0.0000

          k = 0.4167 0.4523 0.0000 (  6492 PWs)   bands (ev):

   -18.5369 -17.4897 -13.2808  -6.3626  -3.3011   5.2072   5.7519   5.7587
     6.2766   6.7361   7.3505   7.5267

     occupation numbers 
     1.0000   1.0000   1.0000   1.0000   0.0000   0.0000   0.0000   0.0000
     0.0000   0.0000   0.0000   0.0000

          k = 0.4167 0.4715 0.0000 (  6482 PWs)   bands (ev):

   -18.5202 -17.3228 -13.5834  -6.2640  -3.3416   5.0966   6.1349   6.1988
     6.2155   6.8195   7.3764   7.5577

     occupation numbers 
     1.0000   1.0000   1.0000   1.0000   0.0000   0.0000   0.0000   0.0000
     0.0000   0.0000   0.0000   0.0000

          k = 0.4167 0.4907 0.0000 (  6470 PWs)   bands (ev):

   -18.5271 -17.1211 -13.8805  -6.1812  -3.3695   5.0044   6.0279   6.6107
     6.6626   6.7982   7.3139   7.8525

     occupation numbers 
     1.0000   1.0000   1.0000   1.0000   0.0000   0.0000   0.0000   0.0000
     0.0000   0.0000   0.0000   0.0000

          k = 0.4167 0.5100 0.0000 (  6459 PWs)   bands (ev):

   -18.5432 -16.9055 -14.1639  -6.1151  -3.3872   4.9305   5.9280   6.6302
     7.0926   7.1458   7.2892   8.1868

     occupation numbers 
     1.0000   1.0000   1.0000   1.0000   0.0000   0.0000   0.0000   0.0000
     0.0000   0.0000   0.0000   0.0000

          k = 0.4167 0.5292 0.0000 (  6455 PWs)   bands (ev):

   -18.5601 -16.6961 -14.4206  -6.0658  -3.3973   4.8751   5.8479   6.5575
     7.1638   7.5928   7.6426   8.4686

     occupation numbers 
     1.0000   1.0000   1.0000   1.0000   0.0000   0.0000   0.0000   0.0000
     0.0000   0.0000   0.0000   0.0000

          k = 0.4167 0.5485 0.0000 (  6443 PWs)   bands (ev):

   -18.5732 -16.5190 -14.6278  -6.0333  -3.4021   4.8382   5.7915   6.5034
     7.1378   7.9780   8.1509   8.6233

     occupation numbers 
     1.0000   1.0000   1.0000   1.0000   0.0000   0.0000   0.0000   0.0000
     0.0000   0.0000   0.0000   0.0000

          k = 0.4167 0.5677 0.0000 (  6431 PWs)   bands (ev):

   -18.5803 -16.4118 -14.7497  -6.0174  -3.4036   4.8197   5.7624   6.4755
     7.1224   8.2792   8.5764   8.6254

     occupation numbers 
     1.0000   1.0000   1.0000   1.0000   0.0000   0.0000   0.0000   0.0000
     0.0000   0.0000   0.0000   0.0000

          k = 0.4167 0.5870 0.0000 (  6431 PWs)   bands (ev):

   -18.5804 -16.4111 -14.7503  -6.0177  -3.4031   4.8197   5.7624   6.4754
     7.1224   8.2783   8.5770   8.6252

     occupation numbers 
     1.0000   1.0000   1.0000   1.0000   0.0000   0.0000   0.0000   0.0000
     0.0000   0.0000   0.0000   0.0000

          k = 0.4167 0.6062 0.0000 (  6443 PWs)   bands (ev):

   -18.5735 -16.5172 -14.6294  -6.0345  -3.4004   4.8382   5.7914   6.5031
     7.1379   7.9764   8.1509   8.6241

     occupation numbers 
     1.0000   1.0000   1.0000   1.0000   0.0000   0.0000   0.0000   0.0000
     0.0000   0.0000   0.0000   0.0000

          k = 0.4167 0.6255 0.0000 (  6455 PWs)   bands (ev):

   -18.5606 -16.6936 -14.4227  -6.0677  -3.3946   4.8751   5.8476   6.5571
     7.1641   7.5909   7.6424   8.4694

     occupation numbers 
     1.0000   1.0000   1.0000   1.0000   0.0000   0.0000   0.0000   0.0000
     0.0000   0.0000   0.0000   0.0000

          k = 0.4167 0.6447 0.0000 (  6459 PWs)   bands (ev):

   -18.5440 -16.9025 -14.1664  -6.1175  -3.3837   4.9305   5.9278   6.6297
     7.0924   7.1458   7.2874   8.1874

     occupation numbers 
     1.0000   1.0000   1.0000   1.0000   0.0000   0.0000   0.0000   0.0000
     0.0000   0.0000   0.0000   0.0000

          k = 0.4167 0.6640 0.0000 (  6470 PWs)   bands (ev):

   -18.5282 -17.1176 -13.8832  -6.1842  -3.3652   5.0044   6.0277   6.6103
     6.6620   6.7968   7.3134   7.8531

     occupation numbers 
     1.0000   1.0000   1.0000   1.0000   0.0000   0.0000   0.0000   0.0000
     0.0000   0.0000   0.0000   0.0000

          k = 0.4167 0.6832 0.0000 (  6482 PWs)   bands (ev):

   -18.5218 -17.3188 -13.5862  -6.2673  -3.3366   5.0966   6.1349   6.1983
     6.2141   6.8184   7.3760   7.5581

     occupation numbers 
     1.0000   1.0000   1.0000   1.0000   0.0000   0.0000   0.0000   0.0000
     0.0000   0.0000   0.0000   0.0000

          k = 0.4167 0.7024 0.0000 (  6492 PWs)   bands (ev):

   -18.5388 -17.4853 -13.2838  -6.3662  -3.2957   5.2072   5.7502   5.7586
     6.2764   6.7354   7.3500   7.5267

     occupation numbers 
     1.0000   1.0000   1.0000   1.0000   0.0000   0.0000   0.0000   0.0000
     0.0000   0.0000   0.0000   0.0000

          k = 0.4167 0.7217 0.0000 (  6478 PWs)   bands (ev):

   -18.5975 -17.5951 -12.9820  -6.4794  -3.2407   5.3080   5.3316   5.3412
     6.3774   6.5029   7.3914   7.5854

     occupation numbers 
     1.0000   1.0000   1.0000   1.0000   0.0000   0.0000   0.0000   0.0000
     0.0000   0.0000   0.0000   0.0000

          k = 0.4167 0.7409 0.0000 (  6492 PWs)   bands (ev):

   -18.7078 -17.6358 -12.6857  -6.6052  -3.1706   4.8839   4.9320   5.4838
     6.1011   6.5957   7.2532   7.4738

     occupation numbers 
     1.0000   1.0000   1.0000   1.0000   0.0000   0.0000   0.0000   0.0000
     0.0000   0.0000   0.0000   0.0000

          k = 0.4167 0.7602 0.0000 (  6492 PWs)   bands (ev):

   -18.8611 -17.6144 -12.3995  -6.7414  -3.0849   4.4846   4.5458   5.6495
     5.7548   6.7571   6.9055   7.4544

     occupation numbers 
     1.0000   1.0000   1.0000   1.0000   0.0000   0.0000   0.0000   0.0000
     0.0000   0.0000   0.0000   0.0000

          k = 0.4167 0.7794 0.0000 (  6494 PWs)   bands (ev):

   -19.0400 -17.5474 -12.1279  -6.8856  -2.9837   4.1161   4.1779   5.4123
     5.8337   6.5544   6.9329   7.3308

     occupation numbers 
     1.0000   1.0000   1.0000   1.0000   0.0000   0.0000   0.0000   0.0000
     0.0000   0.0000   0.0000   0.0000

          k = 0.4167 0.7987 0.0000 (  6491 PWs)   bands (ev):

   -19.2300 -17.4485 -11.8754  -7.0353  -2.8674   3.7841   3.8284   5.0810
     6.0362   6.2249   6.9905   7.2546

     occupation numbers 
     1.0000   1.0000   1.0000   1.0000   0.0000   0.0000   0.0000   0.0000
     0.0000   0.0000   0.0000   0.0000

          k = 0.4167-0.3368 0.0000 (  6501 PWs)   bands (ev):

   -19.4223 -17.3261 -11.6465  -7.1883  -2.7369   3.4921   3.4992   4.7639
     5.9096   6.2571   6.7915   7.4189

     occupation numbers 
     1.0000   1.0000   1.0000   1.0000   0.0000   0.0000   0.0000   0.0000
     0.0000   0.0000   0.0000   0.0000

          k = 0.4167-0.3175 0.0000 (  6503 PWs)   bands (ev):

   -19.6119 -17.1849 -11.4456  -7.3422  -2.5931   3.1840   3.2515   4.4623
     5.6104   6.4949   6.5423   7.6413

     occupation numbers 
     1.0000   1.0000   1.0000   1.0000   0.0000   0.0000   0.0000   0.0000
     0.0000   0.0000   0.0000   0.0000

          k = 0.4167-0.2983 0.0000 (  6499 PWs)   bands (ev):

   -19.7954 -17.0280 -11.2770  -7.4951  -2.4371   2.8896   3.0601   4.1771
     5.3276   6.2862   6.7544   7.8168

     occupation numbers 
     1.0000   1.0000   1.0000   1.0000   0.0000   0.0000   0.0000   0.0000
     0.0000   0.0000   0.0000   0.0000

          k = 0.4167-0.2791 0.0000 (  6503 PWs)   bands (ev):

   -19.9712 -16.8573 -11.1444  -7.6451  -2.2705   2.6136   2.9244   3.9089
     5.0617   6.0387   7.0303   7.5749

     occupation numbers 
     1.0000   1.0000   1.0000   1.0000   0.0000   0.0000   0.0000   0.0000
     0.0000   0.0000   0.0000   0.0000

          k = 0.4167-0.2598 0.0000 (  6490 PWs)   bands (ev):

   -20.1378 -16.6742 -11.0505  -7.7907  -2.0945   2.3559   2.8475   3.6581
     4.8131   5.8019   7.3236   7.3358

     occupation numbers 
     1.0000   1.0000   1.0000   1.0000   0.0000   0.0000   0.0000   0.0000
     0.0000   0.0000   0.0000   0.0000

          k = 0.4167-0.2406 0.0000 (  6486 PWs)   bands (ev):

   -20.2945 -16.4797 -10.9974  -7.9304  -1.9110   2.1167   2.8307   3.4255
     4.5820   5.5780   7.1078   7.6373

     occupation numbers 
     1.0000   1.0000   1.0000   1.0000   0.0000   0.0000   0.0000   0.0000
     0.0000   0.0000   0.0000   0.0000

          k = 0.4167-0.2213 0.0000 (  6494 PWs)   bands (ev):

   -20.4405 -16.2749 -10.9856  -8.0631  -1.7219   1.8958   2.8726   3.2132
     4.3687   5.3684   6.8958   7.8587

     occupation numbers 
     1.0000   1.0000   1.0000   1.0000   0.0000   0.0000   0.0000   0.0000
     0.0000   0.0000   0.0000   0.0000

          k = 0.4167-0.2021 0.0000 (  6506 PWs)   bands (ev):

   -20.5754 -16.0607 -11.0143  -8.1877  -1.5293   1.6933   2.9388   3.0545
     4.1736   5.1740   6.6995   7.6629

     occupation numbers 
     1.0000   1.0000   1.0000   1.0000   0.0000   0.0000   0.0000   0.0000
     0.0000   0.0000   0.0000   0.0000

          k = 0.4167-0.1828 0.0000 (  6495 PWs)   bands (ev):

   -20.6988 -15.8383 -11.0813  -8.3034  -1.3357   1.5093   2.8133   3.1623
     3.9978   4.9952   6.5197   7.4823

     occupation numbers 
     1.0000   1.0000   1.0000   1.0000   0.0000   0.0000   0.0000   0.0000
     0.0000   0.0000   0.0000   0.0000

          k = 0.4167-0.1636 0.0000 (  6489 PWs)   bands (ev):

   -20.8106 -15.6087 -11.1834  -8.4094  -1.1439   1.3436   2.6548   3.3700
     3.8459   4.8327   6.3565   7.3180

     occupation numbers 
     1.0000   1.0000   1.0000   1.0000   0.0000   0.0000   0.0000   0.0000
     0.0000   0.0000   0.0000   0.0000

          k = 0.4167-0.1443 0.0000 (  6482 PWs)   bands (ev):

   -20.9103 -15.3737 -11.3162  -8.5050  -0.9573   1.1963   2.5108   3.5735
     3.7696   4.6873   6.2103   7.1706

     occupation numbers 
     1.0000   1.0000   1.0000   1.0000   0.0000   0.0000   0.0000   0.0000
     0.0000   0.0000   0.0000   0.0000

          k = 0.4167-0.1251 0.0000 (  6490 PWs)   bands (ev):

   -20.9979 -15.1351 -11.4746  -8.5897  -0.7795   1.0675   2.3837   3.5341
     3.9983   4.5612   6.0816   7.0403

     occupation numbers 
     1.0000   1.0000   1.0000   1.0000   0.0000   0.0000   0.0000   0.0000
     0.0000   0.0000   0.0000   0.0000

          k = 0.4167-0.1058 0.0000 (  6494 PWs)   bands (ev):

   -21.0733 -14.8956 -11.6525  -8.6631  -0.6145   0.9570   2.2742   3.4369
     4.3132   4.4820   5.9705   6.9276

     occupation numbers 
     1.0000   1.0000   1.0000   1.0000   0.0000   0.0000   0.0000   0.0000
     0.0000   0.0000   0.0000   0.0000

          k = 0.4167-0.0866 0.0000 (  6488 PWs)   bands (ev):

   -21.1362 -14.6594 -11.8428  -8.7247  -0.4669   0.8649   2.1825   3.3505
     4.3288   4.7600   5.8780   6.8329

     occupation numbers 
     1.0000   1.0000   1.0000   1.0000   0.0000   0.0000   0.0000   0.0000
     0.0000   0.0000   0.0000   0.0000

          k = 0.4167-0.0674 0.0000 (  6477 PWs)   bands (ev):

   -21.1867 -14.4331 -12.0359  -8.7744  -0.3411   0.7913   2.1088   3.2801
     4.2579   5.1677   5.8060   6.7567

     occupation numbers 
     1.0000   1.0000   1.0000   1.0000   0.0000   0.0000   0.0000   0.0000
     0.0000   0.0000   0.0000   0.0000

          k = 0.4167-0.0481 0.0000 (  6484 PWs)   bands (ev):

   -21.2246 -14.2275 -12.2187  -8.8118  -0.2419   0.7360   2.0533   3.2269
     4.2006   5.5732   5.7738   6.7000

     occupation numbers 
     1.0000   1.0000   1.0000   1.0000   0.0000   0.0000   0.0000   0.0000
     0.0000   0.0000   0.0000   0.0000

          k = 0.4167-0.0289 0.0000 (  6486 PWs)   bands (ev):

   -21.2499 -14.0619 -12.3701  -8.8368  -0.1732   0.6991   2.0161   3.1913
     4.1615   5.6838   6.0435   6.6650

     occupation numbers 
     1.0000   1.0000   1.0000   1.0000   0.0000   0.0000   0.0000   0.0000
     0.0000   0.0000   0.0000   0.0000

          k = 0.4167-0.0096 0.0000 (  6484 PWs)   bands (ev):

   -21.2625 -13.9654 -12.4598  -8.8493  -0.1381   0.6807   1.9975   3.1735
     4.1417   5.6723   6.3524   6.6588

     occupation numbers 
     1.0000   1.0000   1.0000   1.0000   0.0000   0.0000   0.0000   0.0000
     0.0000   0.0000   0.0000   0.0000

          k = 0.4167 0.0096 0.0000 (  6484 PWs)   bands (ev):

   -21.2625 -13.9659 -12.4592  -8.8492  -0.1383   0.6807   1.9975   3.1735
     4.1417   5.6723   6.3532   6.6590

     occupation numbers 
     1.0000   1.0000   1.0000   1.0000   0.0000   0.0000   0.0000   0.0000
     0.0000   0.0000   0.0000   0.0000

          k = 0.4167 0.0289 0.0000 (  6486 PWs)   bands (ev):

   -21.2499 -14.0633 -12.3685  -8.8366  -0.1738   0.6991   2.0161   3.1913
     4.1615   5.6838   6.0451   6.6651

     occupation numbers 
     1.0000   1.0000   1.0000   1.0000   0.0000   0.0000   0.0000   0.0000
     0.0000   0.0000   0.0000   0.0000

          k = 0.4167 0.0481 0.0000 (  6484 PWs)   bands (ev):

   -21.2246 -14.2295 -12.2164  -8.8114  -0.2430   0.7360   2.0533   3.2269
     4.2006   5.5745   5.7743   6.7001

     occupation numbers 
     1.0000   1.0000   1.0000   1.0000   0.0000   0.0000   0.0000   0.0000
     0.0000   0.0000   0.0000   0.0000

          k = 0.4167 0.0674 0.0000 (  6477 PWs)   bands (ev):

   -21.1867 -14.4353 -12.0332  -8.7738  -0.3427   0.7913   2.1088   3.2801
     4.2578   5.1694   5.8061   6.7567

     occupation numbers 
     1.0000   1.0000   1.0000   1.0000   0.0000   0.0000   0.0000   0.0000
     0.0000   0.0000   0.0000   0.0000

          k = 0.4167 0.0866 0.0000 (  6488 PWs)   bands (ev):

   -21.1363 -14.6618 -11.8397  -8.7240  -0.4688   0.8649   2.1825   3.3504
     4.3287   4.7618   5.8780   6.8329

     occupation numbers 
     1.0000   1.0000   1.0000   1.0000   0.0000   0.0000   0.0000   0.0000
     0.0000   0.0000   0.0000   0.0000

          k = 0.4167 0.1058 0.0000 (  6494 PWs)   bands (ev):

   -21.0733 -14.8981 -11.6493  -8.6622  -0.6168   0.9570   2.2742   3.4369
     4.3144   4.4826   5.9706   6.9276

     occupation numbers 
     1.0000   1.0000   1.0000   1.0000   0.0000   0.0000   0.0000   0.0000
     0.0000   0.0000   0.0000   0.0000

          k = 0.4167 0.1251 0.0000 (  6490 PWs)   bands (ev):

   -20.9980 -15.1376 -11.4712  -8.5887  -0.7821   1.0675   2.3837   3.5340
     4.0000   4.5612   6.0816   7.0403

     occupation numbers 
     1.0000   1.0000   1.0000   1.0000   0.0000   0.0000   0.0000   0.0000
     0.0000   0.0000   0.0000   0.0000

          k = 0.4167 0.1443 0.0000 (  6482 PWs)   bands (ev):

   -20.9104 -15.3762 -11.3127  -8.5038  -0.9603   1.1963   2.5107   3.5743
     3.7705   4.6872   6.2103   7.1706

     occupation numbers 
     1.0000   1.0000   1.0000   1.0000   0.0000   0.0000   0.0000   0.0000
     0.0000   0.0000   0.0000   0.0000

          k = 0.4167 0.1636 0.0000 (  6489 PWs)   bands (ev):

   -20.8106 -15.6113 -11.1798  -8.4080  -1.1472   1.3436   2.6548   3.3715
     3.8460   4.8326   6.3565   7.3181

     occupation numbers 
     1.0000   1.0000   1.0000   1.0000   0.0000   0.0000   0.0000   0.0000
     0.0000   0.0000   0.0000   0.0000

          k = 0.4167 0.1828 0.0000 (  6495 PWs)   bands (ev):

   -20.6989 -15.8408 -11.0776  -8.3018  -1.3393   1.5093   2.8133   3.1639
     3.9979   4.9951   6.5196   7.4823

     occupation numbers 
     1.0000   1.0000   1.0000   1.0000   0.0000   0.0000   0.0000   0.0000
     0.0000   0.0000   0.0000   0.0000

          k = 0.4167 0.2021 0.0000 (  6506 PWs)   bands (ev):

   -20.5754 -16.0632 -11.0106  -8.1860  -1.5331   1.6933   2.9396   3.0552
     4.1736   5.1739   6.6995   7.6629

     occupation numbers 
     1.0000   1.0000   1.0000   1.0000   0.0000   0.0000   0.0000   0.0000
     0.0000   0.0000   0.0000   0.0000

          k = 0.4167 0.2213 0.0000 (  6494 PWs)   bands (ev):

   -20.4405 -16.2774 -10.9819  -8.0611  -1.7260   1.8958   2.8741   3.2133
     4.3686   5.3684   6.8958   7.8587

     occupation numbers 
     1.0000   1.0000   1.0000   1.0000   0.0000   0.0000   0.0000   0.0000
     0.0000   0.0000   0.0000   0.0000

          k = 0.4333 0.2502 0.0000 (  6488 PWs)   bands (ev):

   -19.9890 -16.8750 -11.0523  -7.6654  -2.2693   2.5860   2.8065   3.8825
     5.0353   6.0189   7.0028   7.5539

     occupation numbers 
     1.0000   1.0000   1.0000   1.0000   0.0000   0.0000   0.0000   0.0000
     0.0000   0.0000   0.0000   0.0000

          k = 0.4333 0.2694 0.0000 (  6501 PWs)   bands (ev):

   -19.8309 -17.0613 -11.0991  -7.5383  -2.4302   2.8236   2.8360   4.1247
     5.2750   6.2491   6.6993   7.7816

     occupation numbers 
     1.0000   1.0000   1.0000   1.0000   0.0000   0.0000   0.0000   0.0000
     0.0000   0.0000   0.0000   0.0000

          k = 0.4333 0.2887 0.0000 (  6505 PWs)   bands (ev):

   -19.6646 -17.2343 -11.1866  -7.4088  -2.5798   2.9044   3.1015   4.3843
     5.5319   6.4134   6.4910   7.5768

     occupation numbers 
     1.0000   1.0000   1.0000   1.0000   0.0000   0.0000   0.0000   0.0000
     0.0000   0.0000   0.0000   0.0000

          k = 0.4333 0.3079 0.0000 (  6503 PWs)   bands (ev):

   -19.4920 -17.3919 -11.3129  -7.2786  -2.7160   3.0429   3.3867   4.6608
     5.8056   6.1471   6.7375   7.3261

     occupation numbers 
     1.0000   1.0000   1.0000   1.0000   0.0000   0.0000   0.0000   0.0000
     0.0000   0.0000   0.0000   0.0000

          k = 0.4333 0.3272 0.0000 (  6509 PWs)   bands (ev):

   -19.3161 -17.5311 -11.4752  -7.1497  -2.8371   3.2373   3.6903   4.9538
     5.8985   6.0958   6.9517   7.1271

     occupation numbers 
     1.0000   1.0000   1.0000   1.0000   0.0000   0.0000   0.0000   0.0000
     0.0000   0.0000   0.0000   0.0000

          k = 0.4333 0.3464 0.0000 (  6499 PWs)   bands (ev):

   -19.1421 -17.6467 -11.6697  -7.0244  -2.9415   3.4835   4.0123   5.2625
     5.6685   6.4010   6.8341   7.2688

     occupation numbers 
     1.0000   1.0000   1.0000   1.0000   0.0000   0.0000   0.0000   0.0000
     0.0000   0.0000   0.0000   0.0000

          k = 0.4333 0.3657 0.0000 (  6500 PWs)   bands (ev):

   -18.9790 -17.7300 -11.8923  -6.9048  -3.0281   3.7767   4.3527   5.4567
     5.5857   6.6201   6.7347   7.4737

     occupation numbers 
     1.0000   1.0000   1.0000   1.0000   0.0000   0.0000   0.0000   0.0000
     0.0000   0.0000   0.0000   0.0000

          k = 0.4333 0.3849 0.0000 (  6506 PWs)   bands (ev):

   -18.8413 -17.7669 -12.1383  -6.7933  -3.0960   4.1118   4.7114   5.2635
     5.9208   6.4373   7.0610   7.5514

     occupation numbers 
     1.0000   1.0000   1.0000   1.0000   0.0000   0.0000   0.0000   0.0000
     0.0000   0.0000   0.0000   0.0000

          k = 0.4333 0.4041 0.0000 (  6486 PWs)   bands (ev):

   -18.7473 -17.7396 -12.4032  -6.6917  -3.1452   4.4834   5.0842   5.0929
     6.2496   6.2750   7.3701   7.4386

     occupation numbers 
     1.0000   1.0000   1.0000   1.0000   0.0000   0.0000   0.0000   0.0000
     0.0000   0.0000   0.0000   0.0000

          k = 0.4333 0.4234 0.0000 (  6492 PWs)   bands (ev):

   -18.7059 -17.6401 -12.6825  -6.6015  -3.1763   4.8857   4.9320   5.4838
     6.1011   6.5959   7.2533   7.4744

     occupation numbers 
     1.0000   1.0000   1.0000   1.0000   0.0000   0.0000   0.0000   0.0000
     0.0000   0.0000   0.0000   0.0000

          k = 0.4333 0.4426 0.0000 (  6496 PWs)   bands (ev):

   -18.7066 -17.4802 -12.9716  -6.5239  -3.1909   4.7938   5.3125   5.8965
     5.9580   6.8521   7.1198   7.4293

     occupation numbers 
     1.0000   1.0000   1.0000   1.0000   0.0000   0.0000   0.0000   0.0000
     0.0000   0.0000   0.0000   0.0000

          k = 0.4333 0.4619 0.0000 (  6488 PWs)   bands (ev):

   -18.7307 -17.2803 -13.2655  -6.4591  -3.1915   4.6740   5.7463   5.8404
     6.3273   6.8821   7.0123   7.5998

     occupation numbers 
     1.0000   1.0000   1.0000   1.0000   0.0000   0.0000   0.0000   0.0000
     0.0000   0.0000   0.0000   0.0000

          k = 0.4333 0.4811 0.0000 (  6478 PWs)   bands (ev):

   -18.7638 -17.0580 -13.5588  -6.4068  -3.1817   4.5726   5.7135   6.2136
     6.7263   6.8211   6.9292   7.9098

     occupation numbers 
     1.0000   1.0000   1.0000   1.0000   0.0000   0.0000   0.0000   0.0000
     0.0000   0.0000   0.0000   0.0000

          k = 0.4333 0.5004 0.0000 (  6468 PWs)   bands (ev):

   -18.7974 -16.8267 -13.8445  -6.3663  -3.1654   4.4897   5.6200   6.5821
     6.6937   6.8872   7.2550   8.2077

     occupation numbers 
     1.0000   1.0000   1.0000   1.0000   0.0000   0.0000   0.0000   0.0000
     0.0000   0.0000   0.0000   0.0000

          k = 0.4333 0.5196 0.0000 (  6451 PWs)   bands (ev):

   -18.8265 -16.5997 -14.1124  -6.3365  -3.1469   4.4251   5.5443   6.5136
     6.7519   7.1877   7.7385   8.3310

     occupation numbers 
     1.0000   1.0000   1.0000   1.0000   0.0000   0.0000   0.0000   0.0000
     0.0000   0.0000   0.0000   0.0000

          k = 0.4333 0.5389 0.0000 (  6449 PWs)   bands (ev):

   -18.8487 -16.3955 -14.3453  -6.3163  -3.1302   4.3790   5.4884   6.4331
     6.7184   7.6167   8.2295   8.3274

     occupation numbers 
     1.0000   1.0000   1.0000   1.0000   0.0000   0.0000   0.0000   0.0000
     0.0000   0.0000   0.0000   0.0000

          k = 0.4333 0.5581 0.0000 (  6436 PWs)   bands (ev):

   -18.8625 -16.2440 -14.5139  -6.3048  -3.1186   4.3513   5.4540   6.3823
     6.6945   8.0165   8.2935   8.5840

     occupation numbers 
     1.0000   1.0000   1.0000   1.0000   0.0000   0.0000   0.0000   0.0000
     0.0000   0.0000   0.0000   0.0000

          k = 0.4333 0.5774 0.0000 (  6422 PWs)   bands (ev):

   -18.8672 -16.1856 -14.5780  -6.3012  -3.1142   4.3421   5.4424   6.3649
     6.6863   8.2781   8.3083   8.4229

     occupation numbers 
     1.0000   1.0000   1.0000   1.0000   0.0000   0.0000   0.0000   0.0000
     0.0000   0.0000   0.0000   0.0000

          k = 0.4333 0.5966 0.0000 (  6436 PWs)   bands (ev):

   -18.8627 -16.2429 -14.5151  -6.3054  -3.1177   4.3513   5.4540   6.3821
     6.6946   8.0152   8.2933   8.5849

     occupation numbers 
     1.0000   1.0000   1.0000   1.0000   0.0000   0.0000   0.0000   0.0000
     0.0000   0.0000   0.0000   0.0000

          k = 0.4333 0.6158 0.0000 (  6449 PWs)   bands (ev):

   -18.8490 -16.3935 -14.3472  -6.3175  -3.1284   4.3790   5.4884   6.4327
     6.7186   7.6150   8.2296   8.3271

     occupation numbers 
     1.0000   1.0000   1.0000   1.0000   0.0000   0.0000   0.0000   0.0000
     0.0000   0.0000   0.0000   0.0000

          k = 0.4333 0.6351 0.0000 (  6451 PWs)   bands (ev):

   -18.8269 -16.5972 -14.1147  -6.3383  -3.1442   4.4251   5.5443   6.5131
     6.7522   7.1856   7.7385   8.3309

     occupation numbers 
     1.0000   1.0000   1.0000   1.0000   0.0000   0.0000   0.0000   0.0000
     0.0000   0.0000   0.0000   0.0000

          k = 0.4333 0.6543 0.0000 (  6468 PWs)   bands (ev):

   -18.7980 -16.8238 -13.8471  -6.3686  -3.1619   4.4897   5.6200   6.5816
     6.6931   6.8857   7.2550   8.2081

     occupation numbers 
     1.0000   1.0000   1.0000   1.0000   0.0000   0.0000   0.0000   0.0000
     0.0000   0.0000   0.0000   0.0000

          k = 0.4333 0.6736 0.0000 (  6478 PWs)   bands (ev):

   -18.7647 -17.0548 -13.5616  -6.4096  -3.1775   4.5726   5.7135   6.2121
     6.7257   6.8208   6.9287   7.9103

     occupation numbers 
     1.0000   1.0000   1.0000   1.0000   0.0000   0.0000   0.0000   0.0000
     0.0000   0.0000   0.0000   0.0000

          k = 0.4333 0.6928 0.0000 (  6488 PWs)   bands (ev):

   -18.7319 -17.2768 -13.2684  -6.4622  -3.1867   4.6740   5.7453   5.8397
     6.3273   6.8811   7.0121   7.6002

     occupation numbers 
     1.0000   1.0000   1.0000   1.0000   0.0000   0.0000   0.0000   0.0000
     0.0000   0.0000   0.0000   0.0000

          k = 0.4333 0.7121 0.0000 (  6496 PWs)   bands (ev):

   -18.7081 -17.4762 -12.9746  -6.5273  -3.1856   4.7938   5.3108   5.8965
     5.9579   6.8514   7.1197   7.4292

     occupation numbers 
     1.0000   1.0000   1.0000   1.0000   0.0000   0.0000   0.0000   0.0000
     0.0000   0.0000   0.0000   0.0000

          k = 0.4333 0.7313 0.0000 (  6492 PWs)   bands (ev):

   -18.7078 -17.6358 -12.6857  -6.6052  -3.1706   4.8839   4.9320   5.4838
     6.1011   6.5957   7.2531   7.4738

     occupation numbers 
     1.0000   1.0000   1.0000   1.0000   0.0000   0.0000   0.0000   0.0000
     0.0000   0.0000   0.0000   0.0000

          k = 0.4333 0.7506 0.0000 (  6486 PWs)   bands (ev):

   -18.7494 -17.7351 -12.4065  -6.6954  -3.1393   4.4816   5.0842   5.0929
     6.2497   6.2748   7.3698   7.4386

     occupation numbers 
     1.0000   1.0000   1.0000   1.0000   0.0000   0.0000   0.0000   0.0000
     0.0000   0.0000   0.0000   0.0000

          k = 0.4333 0.7698 0.0000 (  6506 PWs)   bands (ev):

   -18.8431 -17.7626 -12.1416  -6.7971  -3.0901   4.1100   4.7114   5.2635
     5.9208   6.4372   7.0610   7.5510

     occupation numbers 
     1.0000   1.0000   1.0000   1.0000   0.0000   0.0000   0.0000   0.0000
     0.0000   0.0000   0.0000   0.0000

          k = 0.4333 0.7890 0.0000 (  6500 PWs)   bands (ev):

   -18.9804 -17.7262 -11.8957  -6.9086  -3.0221   3.7749   4.3527   5.4567
     5.5857   6.6200   6.7349   7.4732

     occupation numbers 
     1.0000   1.0000   1.0000   1.0000   0.0000   0.0000   0.0000   0.0000
     0.0000   0.0000   0.0000   0.0000

          k = 0.4333 0.8083 0.0000 (  6499 PWs)   bands (ev):

   -19.1432 -17.6432 -11.6732  -7.0280  -2.9356   3.4817   4.0123   5.2625
     5.6685   6.4011   6.8341   7.2686

     occupation numbers 
     1.0000   1.0000   1.0000   1.0000   0.0000   0.0000   0.0000   0.0000
     0.0000   0.0000   0.0000   0.0000

          k = 0.4333-0.3272 0.0000 (  6509 PWs)   bands (ev):

   -19.3169 -17.5279 -11.4788  -7.1531  -2.8313   3.2356   3.6903   4.9538
     5.8985   6.0959   6.9514   7.1272

     occupation numbers 
     1.0000   1.0000   1.0000   1.0000   0.0000   0.0000   0.0000   0.0000
     0.0000   0.0000   0.0000   0.0000

          k = 0.4333-0.3079 0.0000 (  6503 PWs)   bands (ev):

   -19.4925 -17.3890 -11.3165  -7.2818  -2.7104   3.0413   3.3867   4.6608
     5.8057   6.1471   6.7374   7.3262

     occupation numbers 
     1.0000   1.0000   1.0000   1.0000   0.0000   0.0000   0.0000   0.0000
     0.0000   0.0000   0.0000   0.0000

          k = 0.4333-0.2887 0.0000 (  6505 PWs)   bands (ev):

   -19.6650 -17.2315 -11.1902  -7.4118  -2.5744   2.9028   3.1015   4.3843
     5.5319   6.4134   6.4909   7.5769

     occupation numbers 
     1.0000   1.0000   1.0000   1.0000   0.0000   0.0000   0.0000   0.0000
     0.0000   0.0000   0.0000   0.0000

          k = 0.4333-0.2694 0.0000 (  6501 PWs)   bands (ev):

   -19.8311 -17.0587 -11.1027  -7.5411  -2.4251   2.8221   2.8358   4.1247
     5.2750   6.2491   6.6993   7.7817

     occupation numbers 
     1.0000   1.0000   1.0000   1.0000   0.0000   0.0000   0.0000   0.0000
     0.0000   0.0000   0.0000   0.0000

          k = 0.4333-0.2502 0.0000 (  6488 PWs)   bands (ev):

   -19.9892 -16.8724 -11.0560  -7.6680  -2.2644   2.5860   2.8049   3.8825
     5.0353   6.0189   7.0028   7.5539

     occupation numbers 
     1.0000   1.0000   1.0000   1.0000   0.0000   0.0000   0.0000   0.0000
     0.0000   0.0000   0.0000   0.0000

          k = 0.4333-0.2309 0.0000 (  6490 PWs)   bands (ev):

   -20.1378 -16.6742 -11.0505  -7.7907  -2.0945   2.3559   2.8475   3.6581
     4.8131   5.8019   7.3236   7.3358

     occupation numbers 
     1.0000   1.0000   1.0000   1.0000   0.0000   0.0000   0.0000   0.0000
     0.0000   0.0000   0.0000   0.0000

          k = 0.4333-0.2117 0.0000 (  6498 PWs)   bands (ev):

   -20.2763 -16.4654 -11.0856  -7.9078  -1.9178   2.1443   2.9495   3.4527
     4.6086   5.5992   7.1304   7.6648

     occupation numbers 
     1.0000   1.0000   1.0000   1.0000   0.0000   0.0000   0.0000   0.0000
     0.0000   0.0000   0.0000   0.0000

          k = 0.4333-0.1925 0.0000 (  6497 PWs)   bands (ev):

   -20.4039 -16.2471 -11.1592  -8.0182  -1.7368   1.9510   3.0989   3.2760
     4.4223   5.4116   6.9418   7.9019

     occupation numbers 
     1.0000   1.0000   1.0000   1.0000   0.0000   0.0000   0.0000   0.0000
     0.0000   0.0000   0.0000   0.0000

          k = 0.4333-0.1732 0.0000 (  6487 PWs)   bands (ev):

   -20.5203 -16.0205 -11.2681  -8.1207  -1.5545   1.7761   3.0720   3.3473
     4.2551   5.2397   6.7695   7.7295

     occupation numbers 
     1.0000   1.0000   1.0000   1.0000   0.0000   0.0000   0.0000   0.0000
     0.0000   0.0000   0.0000   0.0000

          k = 0.4333-0.1540 0.0000 (  6488 PWs)   bands (ev):

   -20.6250 -15.7871 -11.4080  -8.2145  -1.3742   1.6197   2.9244   3.6029
     4.1110   5.0842   6.6139   7.5727

     occupation numbers 
     1.0000   1.0000   1.0000   1.0000   0.0000   0.0000   0.0000   0.0000
     0.0000   0.0000   0.0000   0.0000

          k = 0.4333-0.1347 0.0000 (  6490 PWs)   bands (ev):

   -20.7180 -15.5485 -11.5741  -8.2989  -1.1995   1.4816   2.7893   3.8520
     4.0422   4.9458   6.4753   7.4324

     occupation numbers 
     1.0000   1.0000   1.0000   1.0000   0.0000   0.0000   0.0000   0.0000
     0.0000   0.0000   0.0000   0.0000

          k = 0.4333-0.1155 0.0000 (  6489 PWs)   bands (ev):

   -20.7988 -15.3072 -11.7606  -8.3731  -1.0344   1.3619   2.6711   3.8222
     4.3088   4.8274   6.3541   7.3094

     occupation numbers 
     1.0000   1.0000   1.0000   1.0000   0.0000   0.0000   0.0000   0.0000
     0.0000   0.0000   0.0000   0.0000

          k = 0.4333-0.0962 0.0000 (  6485 PWs)   bands (ev):

   -20.8675 -15.0664 -11.9611  -8.4367  -0.8834   1.2606   2.5705   3.7328
     4.6338   4.7805   6.2508   7.2040

     occupation numbers 
     1.0000   1.0000   1.0000   1.0000   0.0000   0.0000   0.0000   0.0000
     0.0000   0.0000   0.0000   0.0000

          k = 0.4333-0.0770 0.0000 (  6478 PWs)   bands (ev):

   -20.9238 -14.8312 -12.1676  -8.4893  -0.7509   1.1778   2.4878   3.6549
     4.6119   5.1321   6.1663   7.1169

     occupation numbers 
     1.0000   1.0000   1.0000   1.0000   0.0000   0.0000   0.0000   0.0000
     0.0000   0.0000   0.0000   0.0000

          k = 0.4333-0.0577 0.0000 (  6474 PWs)   bands (ev):

   -20.9677 -14.6101 -12.3689  -8.5305  -0.6417   1.1133   2.4231   3.5932
     4.5472   5.5629   6.1035   7.0488

     occupation numbers 
     1.0000   1.0000   1.0000   1.0000   0.0000   0.0000   0.0000   0.0000
     0.0000   0.0000   0.0000   0.0000

          k = 0.4333-0.0385 0.0000 (  6476 PWs)   bands (ev):

   -20.9991 -14.4179 -12.5484  -8.5600  -0.5601   1.0673   2.3768   3.5489
     4.4983   5.9556   6.1058   7.0010

     occupation numbers 
     1.0000   1.0000   1.0000   1.0000   0.0000   0.0000   0.0000   0.0000
     0.0000   0.0000   0.0000   0.0000

          k = 0.4333-0.0192 0.0000 (  6476 PWs)   bands (ev):

   -21.0180 -14.2797 -12.6797  -8.5778  -0.5097   1.0396   2.3489   3.5222
     4.4683   6.0012   6.4377   6.9772

     occupation numbers 
     1.0000   1.0000   1.0000   1.0000   0.0000   0.0000   0.0000   0.0000
     0.0000   0.0000   0.0000   0.0000

          k = 0.4333 0.0000 0.0000 (  6484 PWs)   bands (ev):

   -21.0243 -14.2281 -12.7289  -8.5837  -0.4927   1.0304   2.3396   3.5133
     4.4582   5.9954   6.6395   6.9793

     occupation numbers 
     1.0000   1.0000   1.0000   1.0000   0.0000   0.0000   0.0000   0.0000
     0.0000   0.0000   0.0000   0.0000

          k = 0.4333 0.0192 0.0000 (  6476 PWs)   bands (ev):

   -21.0180 -14.2807 -12.6785  -8.5776  -0.5102   1.0396   2.3489   3.5222
     4.4683   6.0012   6.4391   6.9773

     occupation numbers 
     1.0000   1.0000   1.0000   1.0000   0.0000   0.0000   0.0000   0.0000
     0.0000   0.0000   0.0000   0.0000

          k = 0.4333 0.0385 0.0000 (  6476 PWs)   bands (ev):

   -20.9992 -14.4197 -12.5464  -8.5597  -0.5611   1.0673   2.3768   3.5489
     4.4983   5.9564   6.1068   7.0011

     occupation numbers 
     1.0000   1.0000   1.0000   1.0000   0.0000   0.0000   0.0000   0.0000
     0.0000   0.0000   0.0000   0.0000

          k = 0.4333 0.0577 0.0000 (  6474 PWs)   bands (ev):

   -20.9678 -14.6122 -12.3664  -8.5299  -0.6431   1.1133   2.4231   3.5932
     4.5472   5.5646   6.1036   7.0488

     occupation numbers 
     1.0000   1.0000   1.0000   1.0000   0.0000   0.0000   0.0000   0.0000
     0.0000   0.0000   0.0000   0.0000

          k = 0.4333 0.0770 0.0000 (  6478 PWs)   bands (ev):

   -20.9239 -14.8335 -12.1647  -8.4886  -0.7527   1.1778   2.4877   3.6548
     4.6119   5.1339   6.1664   7.1169

     occupation numbers 
     1.0000   1.0000   1.0000   1.0000   0.0000   0.0000   0.0000   0.0000
     0.0000   0.0000   0.0000   0.0000

          k = 0.4333 0.0962 0.0000 (  6485 PWs)   bands (ev):

   -20.8675 -15.0688 -11.9581  -8.4358  -0.8856   1.2606   2.5704   3.7327
     4.6345   4.7815   6.2508   7.2040

     occupation numbers 
     1.0000   1.0000   1.0000   1.0000   0.0000   0.0000   0.0000   0.0000
     0.0000   0.0000   0.0000   0.0000

          k = 0.4333 0.1155 0.0000 (  6489 PWs)   bands (ev):

   -20.7989 -15.3097 -11.7574  -8.3720  -1.0370   1.3619   2.6711   3.8221
     4.3104   4.8275   6.3541   7.3094

     occupation numbers 
     1.0000   1.0000   1.0000   1.0000   0.0000   0.0000   0.0000   0.0000
     0.0000   0.0000   0.0000   0.0000

          k = 0.4333 0.1347 0.0000 (  6490 PWs)   bands (ev):

   -20.7180 -15.5510 -11.5707  -8.2976  -1.2025   1.4816   2.7893   3.8527
     4.0431   4.9458   6.4753   7.4325

     occupation numbers 
     1.0000   1.0000   1.0000   1.0000   0.0000   0.0000   0.0000   0.0000
     0.0000   0.0000   0.0000   0.0000

          k = 0.4333 0.1540 0.0000 (  6488 PWs)   bands (ev):

   -20.6251 -15.7896 -11.4045  -8.2131  -1.3775   1.6197   2.9244   3.6044
     4.1111   5.0841   6.6139   7.5727

     occupation numbers 
     1.0000   1.0000   1.0000   1.0000   0.0000   0.0000   0.0000   0.0000
     0.0000   0.0000   0.0000   0.0000

          k = 0.4333 0.1732 0.0000 (  6487 PWs)   bands (ev):

   -20.5203 -16.0230 -11.2645  -8.1190  -1.5582   1.7761   3.0720   3.3489
     4.2551   5.2397   6.7695   7.7295

     occupation numbers 
     1.0000   1.0000   1.0000   1.0000   0.0000   0.0000   0.0000   0.0000
     0.0000   0.0000   0.0000   0.0000

          k = 0.4333 0.1925 0.0000 (  6497 PWs)   bands (ev):

   -20.4039 -16.2496 -11.1556  -8.0163  -1.7408   1.9510   3.1002   3.2762
     4.4223   5.4115   6.9418   7.9019

     occupation numbers 
     1.0000   1.0000   1.0000   1.0000   0.0000   0.0000   0.0000   0.0000
     0.0000   0.0000   0.0000   0.0000

          k = 0.4333 0.2117 0.0000 (  6498 PWs)   bands (ev):

   -20.2763 -16.4679 -11.0820  -7.9057  -1.9221   2.1443   2.9511   3.4527
     4.6086   5.5991   7.1304   7.6648

     occupation numbers 
     1.0000   1.0000   1.0000   1.0000   0.0000   0.0000   0.0000   0.0000
     0.0000   0.0000   0.0000   0.0000

          k = 0.4333 0.2309 0.0000 (  6490 PWs)   bands (ev):

   -20.1378 -16.6767 -11.0469  -7.7883  -2.0991   2.3559   2.8491   3.6581
     4.8131   5.8018   7.3236   7.3359

     occupation numbers 
     1.0000   1.0000   1.0000   1.0000   0.0000   0.0000   0.0000   0.0000
     0.0000   0.0000   0.0000   0.0000

          k = 0.4500 0.2598 0.0000 (  6508 PWs)   bands (ev):

   -19.6823 -17.2500 -11.0981  -7.4321  -2.5741   2.7846   3.0739   4.3582
     5.5057   6.3860   6.4731   7.5548

     occupation numbers 
     1.0000   1.0000   1.0000   1.0000   0.0000   0.0000   0.0000   0.0000
     0.0000   0.0000   0.0000   0.0000

          k = 0.4500 0.2791 0.0000 (  6507 PWs)   bands (ev):

   -19.5272 -17.4237 -11.1384  -7.3255  -2.7044   2.8060   3.3315   4.6091
     5.7536   6.0920   6.7063   7.2793

     occupation numbers 
     1.0000   1.0000   1.0000   1.0000   0.0000   0.0000   0.0000   0.0000
     0.0000   0.0000   0.0000   0.0000

          k = 0.4500 0.2983 0.0000 (  6503 PWs)   bands (ev):

   -19.3684 -17.5793 -11.2195  -7.2206  -2.8188   2.8885   3.6076   4.8769
     5.8159   6.0183   6.9170   7.0503

     occupation numbers 
     1.0000   1.0000   1.0000   1.0000   0.0000   0.0000   0.0000   0.0000
     0.0000   0.0000   0.0000   0.0000

          k = 0.4500 0.3175 0.0000 (  6505 PWs)   bands (ev):

   -19.2111 -17.7116 -11.3394  -7.1196  -2.9152   3.0301   3.9020   5.1612
     5.5583   6.2984   6.7516   7.2177

     occupation numbers 
     1.0000   1.0000   1.0000   1.0000   0.0000   0.0000   0.0000   0.0000
     0.0000   0.0000   0.0000   0.0000

          k = 0.4500 0.3368 0.0000 (  6501 PWs)   bands (ev):

   -19.0643 -17.8117 -11.4952  -7.0246  -2.9918   3.2276   4.2148   5.3189
     5.4615   6.5076   6.6106   7.4518

     occupation numbers 
     1.0000   1.0000   1.0000   1.0000   0.0000   0.0000   0.0000   0.0000
     0.0000   0.0000   0.0000   0.0000

          k = 0.4500 0.3560 0.0000 (  6498 PWs)   bands (ev):

   -18.9430 -17.8648 -11.6831  -6.9375  -3.0476   3.4770   4.5460   5.0981
     5.7761   6.3026   6.9117   7.4351

     occupation numbers 
     1.0000   1.0000   1.0000   1.0000   0.0000   0.0000   0.0000   0.0000
     0.0000   0.0000   0.0000   0.0000

          k = 0.4500 0.3753 0.0000 (  6500 PWs)   bands (ev):

   -18.8656 -17.8528 -11.8990  -6.8601  -3.0821   3.7734   4.8915   4.8997
     6.0954   6.1115   7.2000   7.2814

     occupation numbers 
     1.0000   1.0000   1.0000   1.0000   0.0000   0.0000   0.0000   0.0000
     0.0000   0.0000   0.0000   0.0000

          k = 0.4500 0.3945 0.0000 (  6506 PWs)   bands (ev):

   -18.8413 -17.7669 -12.1383  -6.7934  -3.0959   4.1117   4.7114   5.2635
     5.9208   6.4373   7.0610   7.5513

     occupation numbers 
     1.0000   1.0000   1.0000   1.0000   0.0000   0.0000   0.0000   0.0000
     0.0000   0.0000   0.0000   0.0000

          k = 0.4500 0.4138 0.0000 (  6492 PWs)   bands (ev):

   -18.8596 -17.6183 -12.3963  -6.7379  -3.0905   4.4863   4.5458   5.6495
     5.7548   6.7573   6.9055   7.4547

     occupation numbers 
     1.0000   1.0000   1.0000   1.0000   0.0000   0.0000   0.0000   0.0000
     0.0000   0.0000   0.0000   0.0000

          k = 0.4500 0.4330 0.0000 (  6488 PWs)   bands (ev):

   -18.9016 -17.4271 -12.6683  -6.6934  -3.0686   4.3984   4.8914   5.6062
     6.0536   6.7577   6.9763   7.4224

     occupation numbers 
     1.0000   1.0000   1.0000   1.0000   0.0000   0.0000   0.0000   0.0000
     0.0000   0.0000   0.0000   0.0000

          k = 0.4500 0.4523 0.0000 (  6486 PWs)   bands (ev):

   -18.9525 -17.2095 -12.9495  -6.6591  -3.0340   4.2695   5.3144   5.4809
     6.4745   6.6341   6.9300   7.6517

     occupation numbers 
     1.0000   1.0000   1.0000   1.0000   0.0000   0.0000   0.0000   0.0000
     0.0000   0.0000   0.0000   0.0000

          k = 0.4500 0.4715 0.0000 (  6476 PWs)   bands (ev):

   -19.0037 -16.9765 -13.2346  -6.6338  -2.9909   4.1589   5.3529   5.7738
     6.5281   6.7782   6.9320   7.9508

     occupation numbers 
     1.0000   1.0000   1.0000   1.0000   0.0000   0.0000   0.0000   0.0000
     0.0000   0.0000   0.0000   0.0000

          k = 0.4500 0.4907 0.0000 (  6478 PWs)   bands (ev):

   -19.0504 -16.7367 -13.5174  -6.6159  -2.9444   4.0668   5.2573   6.2111
     6.4490   6.6616   7.3806   8.1172

     occupation numbers 
     1.0000   1.0000   1.0000   1.0000   0.0000   0.0000   0.0000   0.0000
     0.0000   0.0000   0.0000   0.0000

          k = 0.4500 0.5100 0.0000 (  6463 PWs)   bands (ev):

   -19.0898 -16.4991 -13.7897  -6.6039  -2.8995   3.9931   5.1784   6.3417
     6.4857   6.7683   7.8528   8.1023

     occupation numbers 
     1.0000   1.0000   1.0000   1.0000   0.0000   0.0000   0.0000   0.0000
     0.0000   0.0000   0.0000   0.0000

          k = 0.4500 0.5292 0.0000 (  6455 PWs)   bands (ev):

   -19.1204 -16.2770 -14.0381  -6.5964  -2.8609   3.9378   5.1180   6.2903
     6.4132   7.2049   8.0439   8.3534

     occupation numbers 
     1.0000   1.0000   1.0000   1.0000   0.0000   0.0000   0.0000   0.0000
     0.0000   0.0000   0.0000   0.0000

          k = 0.4500 0.5485 0.0000 (  6438 PWs)   bands (ev):

   -19.1412 -16.0926 -14.2403  -6.5921  -2.8326   3.9009   5.0771   6.2494
     6.3547   7.6475   8.0092   8.6285

     occupation numbers 
     1.0000   1.0000   1.0000   1.0000   0.0000   0.0000   0.0000   0.0000
     0.0000   0.0000   0.0000   0.0000

          k = 0.4500 0.5677 0.0000 (  6434 PWs)   bands (ev):

   -19.1517 -15.9819 -14.3601  -6.5903  -2.8175   3.8825   5.0564   6.2269
     6.3255   7.9798   8.0676   8.4061

     occupation numbers 
     1.0000   1.0000   1.0000   1.0000   0.0000   0.0000   0.0000   0.0000
     0.0000   0.0000   0.0000   0.0000

          k = 0.4500 0.5870 0.0000 (  6434 PWs)   bands (ev):

   -19.1518 -15.9813 -14.3607  -6.5905  -2.8171   3.8825   5.0564   6.2269
     6.3255   7.9799   8.0660   8.4072

     occupation numbers 
     1.0000   1.0000   1.0000   1.0000   0.0000   0.0000   0.0000   0.0000
     0.0000   0.0000   0.0000   0.0000

          k = 0.4500 0.6062 0.0000 (  6438 PWs)   bands (ev):

   -19.1413 -16.0911 -14.2419  -6.5928  -2.8314   3.9009   5.0771   6.2493
     6.3545   7.6460   8.0089   8.6292

     occupation numbers 
     1.0000   1.0000   1.0000   1.0000   0.0000   0.0000   0.0000   0.0000
     0.0000   0.0000   0.0000   0.0000

          k = 0.4500 0.6255 0.0000 (  6455 PWs)   bands (ev):

   -19.1206 -16.2749 -14.0403  -6.5976  -2.8589   3.9378   5.1180   6.2904
     6.4129   7.2030   8.0436   8.3534

     occupation numbers 
     1.0000   1.0000   1.0000   1.0000   0.0000   0.0000   0.0000   0.0000
     0.0000   0.0000   0.0000   0.0000

          k = 0.4500 0.6447 0.0000 (  6463 PWs)   bands (ev):

   -19.0901 -16.4967 -13.7921  -6.6056  -2.8968   3.9931   5.1784   6.3420
     6.4854   6.7662   7.8528   8.1020

     occupation numbers 
     1.0000   1.0000   1.0000   1.0000   0.0000   0.0000   0.0000   0.0000
     0.0000   0.0000   0.0000   0.0000

          k = 0.4500 0.6640 0.0000 (  6478 PWs)   bands (ev):

   -19.0509 -16.7339 -13.5201  -6.6181  -2.9409   4.0668   5.2573   6.2102
     6.4484   6.6606   7.3807   8.1170

     occupation numbers 
     1.0000   1.0000   1.0000   1.0000   0.0000   0.0000   0.0000   0.0000
     0.0000   0.0000   0.0000   0.0000

          k = 0.4500 0.6832 0.0000 (  6476 PWs)   bands (ev):

   -19.0044 -16.9735 -13.2374  -6.6364  -2.9868   4.1589   5.3530   5.7722
     6.5280   6.7774   6.9319   7.9511

     occupation numbers 
     1.0000   1.0000   1.0000   1.0000   0.0000   0.0000   0.0000   0.0000
     0.0000   0.0000   0.0000   0.0000

          k = 0.4500 0.7024 0.0000 (  6486 PWs)   bands (ev):

   -18.9534 -17.2063 -12.9525  -6.6621  -3.0293   4.2695   5.3131   5.4806
     6.4745   6.6340   6.9292   7.6521

     occupation numbers 
     1.0000   1.0000   1.0000   1.0000   0.0000   0.0000   0.0000   0.0000
     0.0000   0.0000   0.0000   0.0000

          k = 0.4500 0.7217 0.0000 (  6488 PWs)   bands (ev):

   -18.9027 -17.4236 -12.6714  -6.6966  -3.0635   4.3984   4.8897   5.6062
     6.0536   6.7576   6.9757   7.4225

     occupation numbers 
     1.0000   1.0000   1.0000   1.0000   0.0000   0.0000   0.0000   0.0000
     0.0000   0.0000   0.0000   0.0000

          k = 0.4500 0.7409 0.0000 (  6492 PWs)   bands (ev):

   -18.8611 -17.6144 -12.3995  -6.7414  -3.0850   4.4846   4.5458   5.6495
     5.7548   6.7571   6.9055   7.4544

     occupation numbers 
     1.0000   1.0000   1.0000   1.0000   0.0000   0.0000   0.0000   0.0000
     0.0000   0.0000   0.0000   0.0000

          k = 0.4500 0.7602 0.0000 (  6506 PWs)   bands (ev):

   -18.8431 -17.7626 -12.1416  -6.7971  -3.0901   4.1100   4.7114   5.2635
     5.9208   6.4372   7.0610   7.5510

     occupation numbers 
     1.0000   1.0000   1.0000   1.0000   0.0000   0.0000   0.0000   0.0000
     0.0000   0.0000   0.0000   0.0000

          k = 0.4500 0.7794 0.0000 (  6500 PWs)   bands (ev):

   -18.8676 -17.8484 -11.9024  -6.8639  -3.0761   3.7717   4.8915   4.8997
     6.0953   6.1117   7.1998   7.2818

     occupation numbers 
     1.0000   1.0000   1.0000   1.0000   0.0000   0.0000   0.0000   0.0000
     0.0000   0.0000   0.0000   0.0000

          k = 0.4500 0.7987 0.0000 (  6498 PWs)   bands (ev):

   -18.9448 -17.8606 -11.6866  -6.9413  -3.0415   3.4753   4.5460   5.0981
     5.7761   6.3026   6.9118   7.4351

     occupation numbers 
     1.0000   1.0000   1.0000   1.0000   0.0000   0.0000   0.0000   0.0000
     0.0000   0.0000   0.0000   0.0000

          k = 0.4500 0.8179 0.0000 (  6501 PWs)   bands (ev):

   -19.0657 -17.8079 -11.4987  -7.0283  -2.9858   3.2260   4.2148   5.3189
     5.4615   6.5075   6.6109   7.4516

     occupation numbers 
     1.0000   1.0000   1.0000   1.0000   0.0000   0.0000   0.0000   0.0000
     0.0000   0.0000   0.0000   0.0000

          k = 0.4500-0.3175 0.0000 (  6505 PWs)   bands (ev):

   -19.2121 -17.7082 -11.3429  -7.1232  -2.9093   3.0285   3.9020   5.1612
     5.5583   6.2985   6.7517   7.2176

     occupation numbers 
     1.0000   1.0000   1.0000   1.0000   0.0000   0.0000   0.0000   0.0000
     0.0000   0.0000   0.0000   0.0000

          k = 0.4500-0.2983 0.0000 (  6503 PWs)   bands (ev):

   -19.3691 -17.5761 -11.2231  -7.2240  -2.8131   2.8869   3.6076   4.8769
     5.8159   6.0184   6.9169   7.0504

     occupation numbers 
     1.0000   1.0000   1.0000   1.0000   0.0000   0.0000   0.0000   0.0000
     0.0000   0.0000   0.0000   0.0000

          k = 0.4500-0.2791 0.0000 (  6507 PWs)   bands (ev):

   -19.5276 -17.4207 -11.1420  -7.3286  -2.6989   2.8044   3.3315   4.6091
     5.7537   6.0920   6.7062   7.2794

     occupation numbers 
     1.0000   1.0000   1.0000   1.0000   0.0000   0.0000   0.0000   0.0000
     0.0000   0.0000   0.0000   0.0000

          k = 0.4500-0.2598 0.0000 (  6508 PWs)   bands (ev):

   -19.6827 -17.2472 -11.1017  -7.4350  -2.5688   2.7830   3.0739   4.3583
     5.5058   6.3860   6.4731   7.5550

     occupation numbers 
     1.0000   1.0000   1.0000   1.0000   0.0000   0.0000   0.0000   0.0000
     0.0000   0.0000   0.0000   0.0000

          k = 0.4500-0.2406 0.0000 (  6501 PWs)   bands (ev):

   -19.8311 -17.0587 -11.1027  -7.5411  -2.4251   2.8221   2.8358   4.1247
     5.2750   6.2491   6.6993   7.7817

     occupation numbers 
     1.0000   1.0000   1.0000   1.0000   0.0000   0.0000   0.0000   0.0000
     0.0000   0.0000   0.0000   0.0000

          k = 0.4500-0.2213 0.0000 (  6503 PWs)   bands (ev):

   -19.9712 -16.8573 -11.1444  -7.6451  -2.2705   2.6136   2.9245   3.9089
     5.0617   6.0387   7.0303   7.5749

     occupation numbers 
     1.0000   1.0000   1.0000   1.0000   0.0000   0.0000   0.0000   0.0000
     0.0000   0.0000   0.0000   0.0000

          k = 0.4500-0.2021 0.0000 (  6511 PWs)   bands (ev):

   -20.1017 -16.6449 -11.2245  -7.7453  -2.1077   2.4111   3.0833   3.7116
     4.8661   5.8425   7.3743   7.3836

     occupation numbers 
     1.0000   1.0000   1.0000   1.0000   0.0000   0.0000   0.0000   0.0000
     0.0000   0.0000   0.0000   0.0000

          k = 0.4500-0.1828 0.0000 (  6505 PWs)   bands (ev):

   -20.2217 -16.4227 -11.3401  -7.8402  -1.9399   2.2271   3.2914   3.5378
     4.6886   5.6614   7.1968   7.7472

     occupation numbers 
     1.0000   1.0000   1.0000   1.0000   0.0000   0.0000   0.0000   0.0000
     0.0000   0.0000   0.0000   0.0000

          k = 0.4500-0.1636 0.0000 (  6489 PWs)   bands (ev):

   -20.3308 -16.1923 -11.4871  -7.9287  -1.7704   2.0614   3.3487   3.5828
     4.5301   5.4960   7.0317   7.9843

     occupation numbers 
     1.0000   1.0000   1.0000   1.0000   0.0000   0.0000   0.0000   0.0000
     0.0000   0.0000   0.0000   0.0000

          k = 0.4500-0.1443 0.0000 (  6492 PWs)   bands (ev):

   -20.4285 -15.9553 -11.6607  -8.0097  -1.6029   1.9141   3.2115   3.8813
     4.3946   5.3469   6.8831   7.8353

     occupation numbers 
     1.0000   1.0000   1.0000   1.0000   0.0000   0.0000   0.0000   0.0000
     0.0000   0.0000   0.0000   0.0000

          k = 0.4500-0.1251 0.0000 (  6492 PWs)   bands (ev):

   -20.5145 -15.7136 -11.8555  -8.0823  -1.4415   1.7852   3.0852   4.1607
     4.3434   5.2151   6.7514   7.7017

     occupation numbers 
     1.0000   1.0000   1.0000   1.0000   0.0000   0.0000   0.0000   0.0000
     0.0000   0.0000   0.0000   0.0000

          k = 0.4500-0.1058 0.0000 (  6491 PWs)   bands (ev):

   -20.5886 -15.4702 -12.0655  -8.1458  -1.2905   1.6748   2.9758   4.1279
     4.6546   5.1047   6.6372   7.5852

     occupation numbers 
     1.0000   1.0000   1.0000   1.0000   0.0000   0.0000   0.0000   0.0000
     0.0000   0.0000   0.0000   0.0000

          k = 0.4500-0.0866 0.0000 (  6491 PWs)   bands (ev):

   -20.6506 -15.2290 -12.2837  -8.1995  -1.1545   1.5827   2.8840   4.0458
     4.9523   5.1220   6.5410   7.4864

     occupation numbers 
     1.0000   1.0000   1.0000   1.0000   0.0000   0.0000   0.0000   0.0000
     0.0000   0.0000   0.0000   0.0000

          k = 0.4500-0.0674 0.0000 (  6475 PWs)   bands (ev):

   -20.7003 -14.9966 -12.5009  -8.2430  -1.0383   1.5090   2.8103   3.9764
     4.9038   5.5308   6.4642   7.4063

     occupation numbers 
     1.0000   1.0000   1.0000   1.0000   0.0000   0.0000   0.0000   0.0000
     0.0000   0.0000   0.0000   0.0000

          k = 0.4500-0.0481 0.0000 (  6469 PWs)   bands (ev):

   -20.7377 -14.7842 -12.7037  -8.2759  -0.9464   1.4538   2.7547   3.9236
     4.8457   5.9775   6.4107   7.3460

     occupation numbers 
     1.0000   1.0000   1.0000   1.0000   0.0000   0.0000   0.0000   0.0000
     0.0000   0.0000   0.0000   0.0000

          k = 0.4500-0.0289 0.0000 (  6462 PWs)   bands (ev):

   -20.7626 -14.6118 -12.8706  -8.2979  -0.8827   1.4169   2.7176   3.8881
     4.8051   6.3160   6.4798   7.3075

     occupation numbers 
     1.0000   1.0000   1.0000   1.0000   0.0000   0.0000   0.0000   0.0000
     0.0000   0.0000   0.0000   0.0000

          k = 0.4500-0.0096 0.0000 (  6470 PWs)   bands (ev):

   -20.7751 -14.5107 -12.9693  -8.3090  -0.8501   1.3985   2.6989   3.8703
     4.7845   6.3263   6.8132   7.2971

     occupation numbers 
     1.0000   1.0000   1.0000   1.0000   0.0000   0.0000   0.0000   0.0000
     0.0000   0.0000   0.0000   0.0000

          k = 0.4500 0.0096 0.0000 (  6470 PWs)   bands (ev):

   -20.7751 -14.5112 -12.9687  -8.3089  -0.8504   1.3985   2.6989   3.8703
     4.7845   6.3263   6.8141   7.2973

     occupation numbers 
     1.0000   1.0000   1.0000   1.0000   0.0000   0.0000   0.0000   0.0000
     0.0000   0.0000   0.0000   0.0000

          k = 0.4500 0.0289 0.0000 (  6462 PWs)   bands (ev):

   -20.7626 -14.6132 -12.8690  -8.2976  -0.8834   1.4169   2.7176   3.8881
     4.8051   6.3162   6.4813   7.3076

     occupation numbers 
     1.0000   1.0000   1.0000   1.0000   0.0000   0.0000   0.0000   0.0000
     0.0000   0.0000   0.0000   0.0000

          k = 0.4500 0.0481 0.0000 (  6469 PWs)   bands (ev):

   -20.7377 -14.7861 -12.7015  -8.2754  -0.9476   1.4538   2.7547   3.9235
     4.8457   5.9792   6.4109   7.3461

     occupation numbers 
     1.0000   1.0000   1.0000   1.0000   0.0000   0.0000   0.0000   0.0000
     0.0000   0.0000   0.0000   0.0000

          k = 0.4500 0.0674 0.0000 (  6475 PWs)   bands (ev):

   -20.7003 -14.9988 -12.4983  -8.2423  -1.0400   1.5090   2.8103   3.9764
     4.9037   5.5326   6.4642   7.4064

     occupation numbers 
     1.0000   1.0000   1.0000   1.0000   0.0000   0.0000   0.0000   0.0000
     0.0000   0.0000   0.0000   0.0000

          k = 0.4500 0.0866 0.0000 (  6491 PWs)   bands (ev):

   -20.6506 -15.2313 -12.2808  -8.1986  -1.1567   1.5827   2.8840   4.0458
     4.9525   5.1236   6.5411   7.4865

     occupation numbers 
     1.0000   1.0000   1.0000   1.0000   0.0000   0.0000   0.0000   0.0000
     0.0000   0.0000   0.0000   0.0000

          k = 0.4500 0.1058 0.0000 (  6491 PWs)   bands (ev):

   -20.5886 -15.4726 -12.0624  -8.1447  -1.2931   1.6748   2.9758   4.1278
     4.6563   5.1047   6.6372   7.5853

     occupation numbers 
     1.0000   1.0000   1.0000   1.0000   0.0000   0.0000   0.0000   0.0000
     0.0000   0.0000   0.0000   0.0000

          k = 0.4500 0.1251 0.0000 (  6492 PWs)   bands (ev):

   -20.5146 -15.7161 -11.8522  -8.0810  -1.4444   1.7852   3.0852   4.1612
     4.3445   5.2151   6.7514   7.7018

     occupation numbers 
     1.0000   1.0000   1.0000   1.0000   0.0000   0.0000   0.0000   0.0000
     0.0000   0.0000   0.0000   0.0000

          k = 0.4500 0.1443 0.0000 (  6492 PWs)   bands (ev):

   -20.4285 -15.9577 -11.6573  -8.0082  -1.6062   1.9141   3.2115   3.8828
     4.3947   5.3469   6.8831   7.8354

     occupation numbers 
     1.0000   1.0000   1.0000   1.0000   0.0000   0.0000   0.0000   0.0000
     0.0000   0.0000   0.0000   0.0000

          k = 0.4500 0.1636 0.0000 (  6489 PWs)   bands (ev):

   -20.3308 -16.1948 -11.4837  -7.9270  -1.7741   2.0614   3.3487   3.5843
     4.5302   5.4960   7.0317   7.9844

     occupation numbers 
     1.0000   1.0000   1.0000   1.0000   0.0000   0.0000   0.0000   0.0000
     0.0000   0.0000   0.0000   0.0000

          k = 0.4500 0.1828 0.0000 (  6505 PWs)   bands (ev):

   -20.2217 -16.4252 -11.3366  -7.8382  -1.9439   2.2271   3.2929   3.5379
     4.6886   5.6614   7.1968   7.7472

     occupation numbers 
     1.0000   1.0000   1.0000   1.0000   0.0000   0.0000   0.0000   0.0000
     0.0000   0.0000   0.0000   0.0000

          k = 0.4500 0.2021 0.0000 (  6511 PWs)   bands (ev):

   -20.1016 -16.6474 -11.2210  -7.7430  -2.1121   2.4111   3.0848   3.7115
     4.8661   5.8425   7.3742   7.3836

     occupation numbers 
     1.0000   1.0000   1.0000   1.0000   0.0000   0.0000   0.0000   0.0000
     0.0000   0.0000   0.0000   0.0000

          k = 0.4500 0.2213 0.0000 (  6503 PWs)   bands (ev):

   -19.9711 -16.8599 -11.1407  -7.6426  -2.2752   2.6136   2.9260   3.9089
     5.0617   6.0387   7.0303   7.5749

     occupation numbers 
     1.0000   1.0000   1.0000   1.0000   0.0000   0.0000   0.0000   0.0000
     0.0000   0.0000   0.0000   0.0000

          k = 0.4500 0.2406 0.0000 (  6501 PWs)   bands (ev):

   -19.8309 -17.0613 -11.0991  -7.5384  -2.4301   2.8235   2.8359   4.1247
     5.2750   6.2491   6.6993   7.7816

     occupation numbers 
     1.0000   1.0000   1.0000   1.0000   0.0000   0.0000   0.0000   0.0000
     0.0000   0.0000   0.0000   0.0000

          k = 0.4667 0.2694 0.0000 (  6524 PWs)   bands (ev):

   -19.3858 -17.5955 -11.1309  -7.2443  -2.8133   2.7686   3.5800   4.8512
     5.7883   5.9924   6.9038   7.0246

     occupation numbers 
     1.0000   1.0000   1.0000   1.0000   0.0000   0.0000   0.0000   0.0000
     0.0000   0.0000   0.0000   0.0000

          k = 0.4667 0.2887 0.0000 (  6520 PWs)   bands (ev):

   -19.2456 -17.7444 -11.1647  -7.1673  -2.9037   2.7931   3.8468   5.1102
     5.5032   6.2471   6.7074   7.1885

     occupation numbers 
     1.0000   1.0000   1.0000   1.0000   0.0000   0.0000   0.0000   0.0000
     0.0000   0.0000   0.0000   0.0000

          k = 0.4667 0.3079 0.0000 (  6512 PWs)   bands (ev):

   -19.1156 -17.8613 -11.2393  -7.0966  -2.9735   2.8788   4.1321   5.2362
     5.3859   6.4370   6.5355   7.4236

     occupation numbers 
     1.0000   1.0000   1.0000   1.0000   0.0000   0.0000   0.0000   0.0000
     0.0000   0.0000   0.0000   0.0000

          k = 0.4667 0.3272 0.0000 (  6514 PWs)   bands (ev):

   -19.0108 -17.9313 -11.3526  -7.0339  -3.0211   3.0236   4.4357   4.9878
     5.6770   6.2084   6.8112   7.3389

     occupation numbers 
     1.0000   1.0000   1.0000   1.0000   0.0000   0.0000   0.0000   0.0000
     0.0000   0.0000   0.0000   0.0000

          k = 0.4667 0.3464 0.0000 (  6480 PWs)   bands (ev):

   -18.9501 -17.9355 -11.5018  -6.9806  -3.0457   3.2243   4.7538   4.7617
     5.9664   6.0016   7.0774   7.1573

     occupation numbers 
     1.0000   1.0000   1.0000   1.0000   0.0000   0.0000   0.0000   0.0000
     0.0000   0.0000   0.0000   0.0000

          k = 0.4667 0.3657 0.0000 (  6498 PWs)   bands (ev):

   -18.9430 -17.8648 -11.6832  -6.9376  -3.0475   3.4769   4.5460   5.0981
     5.7761   6.3026   6.9117   7.4350

     occupation numbers 
     1.0000   1.0000   1.0000   1.0000   0.0000   0.0000   0.0000   0.0000
     0.0000   0.0000   0.0000   0.0000

          k = 0.4667 0.3849 0.0000 (  6500 PWs)   bands (ev):

   -18.9789 -17.7300 -11.8923  -6.9050  -3.0279   3.7766   4.3527   5.4567
     5.5857   6.6202   6.7347   7.4734

     occupation numbers 
     1.0000   1.0000   1.0000   1.0000   0.0000   0.0000   0.0000   0.0000
     0.0000   0.0000   0.0000   0.0000

          k = 0.4667 0.4041 0.0000 (  6494 PWs)   bands (ev):

   -19.0389 -17.5509 -12.1247  -6.8822  -2.9892   4.1178   4.1779   5.4123
     5.8337   6.5544   6.9330   7.3308

     occupation numbers 
     1.0000   1.0000   1.0000   1.0000   0.0000   0.0000   0.0000   0.0000
     0.0000   0.0000   0.0000   0.0000

          k = 0.4667 0.4234 0.0000 (  6490 PWs)   bands (ev):

   -19.1079 -17.3433 -12.3754  -6.8682  -2.9349   4.0213   4.4952   5.2566
     6.2286   6.4048   6.9987   7.4305

     occupation numbers 
     1.0000   1.0000   1.0000   1.0000   0.0000   0.0000   0.0000   0.0000
     0.0000   0.0000   0.0000   0.0000

          k = 0.4667 0.4426 0.0000 (  6488 PWs)   bands (ev):

   -19.1772 -17.1171 -12.6398  -6.8614  -2.8692   3.8832   4.8981   5.1231
     6.2720   6.6391   6.8644   7.7328

     occupation numbers 
     1.0000   1.0000   1.0000   1.0000   0.0000   0.0000   0.0000   0.0000
     0.0000   0.0000   0.0000   0.0000

          k = 0.4667 0.4619 0.0000 (  6492 PWs)   bands (ev):

   -19.2420 -16.8791 -12.9126  -6.8601  -2.7971   3.7635   4.9883   5.3428
     6.1583   6.7050   7.0776   7.9836

     occupation numbers 
     1.0000   1.0000   1.0000   1.0000   0.0000   0.0000   0.0000   0.0000
     0.0000   0.0000   0.0000   0.0000

          k = 0.4667 0.4811 0.0000 (  6486 PWs)   bands (ev):

   -19.2994 -16.6352 -13.1880  -6.8625  -2.7238   3.6622   4.8873   5.7775
     6.0734   6.5664   7.5245   8.0040

     occupation numbers 
     1.0000   1.0000   1.0000   1.0000   0.0000   0.0000   0.0000   0.0000
     0.0000   0.0000   0.0000   0.0000

          k = 0.4667 0.5004 0.0000 (  6474 PWs)   bands (ev):

   -19.3478 -16.3918 -13.4589  -6.8669  -2.6545   3.5793   4.8020   5.9508
     6.2580   6.4690   7.9066   8.0114

     occupation numbers 
     1.0000   1.0000   1.0000   1.0000   0.0000   0.0000   0.0000   0.0000
     0.0000   0.0000   0.0000   0.0000

          k = 0.4667 0.5196 0.0000 (  6455 PWs)   bands (ev):

   -19.3863 -16.1584 -13.7149  -6.8720  -2.5943   3.5148   4.7347   5.8992
     6.3111   6.7736   7.8451   8.4728

     occupation numbers 
     1.0000   1.0000   1.0000   1.0000   0.0000   0.0000   0.0000   0.0000
     0.0000   0.0000   0.0000   0.0000

          k = 0.4667 0.5389 0.0000 (  6443 PWs)   bands (ev):

   -19.4141 -15.9511 -13.9389  -6.8764  -2.5476   3.4687   4.6861   5.8560
     6.2414   7.2324   7.7881   8.6253

     occupation numbers 
     1.0000   1.0000   1.0000   1.0000   0.0000   0.0000   0.0000   0.0000
     0.0000   0.0000   0.0000   0.0000

          k = 0.4667 0.5581 0.0000 (  6438 PWs)   bands (ev):

   -19.4309 -15.7985 -14.1018  -6.8796  -2.5179   3.4411   4.6567   5.8293
     6.1953   7.6718   7.7599   8.4519

     occupation numbers 
     1.0000   1.0000   1.0000   1.0000   0.0000   0.0000   0.0000   0.0000
     0.0000   0.0000   0.0000   0.0000

          k = 0.4667 0.5774 0.0000 (  6452 PWs)   bands (ev):

   -19.4366 -15.7399 -14.1640  -6.8808  -2.5075   3.4319   4.6469   5.8204
     6.1795   7.7352   8.0260   8.1887

     occupation numbers 
     1.0000   1.0000   1.0000   1.0000   0.0000   0.0000   0.0000   0.0000
     0.0000   0.0000   0.0000   0.0000

          k = 0.4667 0.5966 0.0000 (  6438 PWs)   bands (ev):

   -19.4310 -15.7975 -14.1029  -6.8800  -2.5172   3.4411   4.6567   5.8294
     6.1953   7.6708   7.7594   8.4525

     occupation numbers 
     1.0000   1.0000   1.0000   1.0000   0.0000   0.0000   0.0000   0.0000
     0.0000   0.0000   0.0000   0.0000

          k = 0.4667 0.6158 0.0000 (  6443 PWs)   bands (ev):

   -19.4142 -15.9494 -13.9408  -6.8773  -2.5461   3.4687   4.6861   5.8561
     6.2412   7.2307   7.7878   8.6251

     occupation numbers 
     1.0000   1.0000   1.0000   1.0000   0.0000   0.0000   0.0000   0.0000
     0.0000   0.0000   0.0000   0.0000

          k = 0.4667 0.6351 0.0000 (  6455 PWs)   bands (ev):

   -19.3864 -16.1562 -13.7172  -6.8732  -2.5921   3.5148   4.7347   5.8993
     6.3110   6.7717   7.8447   8.4728

     occupation numbers 
     1.0000   1.0000   1.0000   1.0000   0.0000   0.0000   0.0000   0.0000
     0.0000   0.0000   0.0000   0.0000

          k = 0.4667 0.6543 0.0000 (  6474 PWs)   bands (ev):

   -19.3481 -16.3894 -13.4615  -6.8686  -2.6517   3.5793   4.8020   5.9511
     6.2566   6.4680   7.9063   8.0113

     occupation numbers 
     1.0000   1.0000   1.0000   1.0000   0.0000   0.0000   0.0000   0.0000
     0.0000   0.0000   0.0000   0.0000

          k = 0.4667 0.6736 0.0000 (  6486 PWs)   bands (ev):

   -19.2997 -16.6326 -13.1908  -6.8645  -2.7203   3.6622   4.8874   5.7763
     6.0730   6.5659   7.5245   8.0035

     occupation numbers 
     1.0000   1.0000   1.0000   1.0000   0.0000   0.0000   0.0000   0.0000
     0.0000   0.0000   0.0000   0.0000

          k = 0.4667 0.6928 0.0000 (  6492 PWs)   bands (ev):

   -19.2424 -16.8764 -12.9155  -6.8625  -2.7931   3.7635   4.9884   5.3412
     6.1582   6.7045   7.0776   7.9835

     occupation numbers 
     1.0000   1.0000   1.0000   1.0000   0.0000   0.0000   0.0000   0.0000
     0.0000   0.0000   0.0000   0.0000

          k = 0.4667 0.7121 0.0000 (  6488 PWs)   bands (ev):

   -19.1778 -17.1141 -12.6428  -6.8642  -2.8646   3.8832   4.8966   5.1229
     6.2719   6.6391   6.8640   7.7330

     occupation numbers 
     1.0000   1.0000   1.0000   1.0000   0.0000   0.0000   0.0000   0.0000
     0.0000   0.0000   0.0000   0.0000

          k = 0.4667 0.7313 0.0000 (  6490 PWs)   bands (ev):

   -19.1087 -17.3401 -12.3786  -6.8713  -2.9298   4.0213   4.4935   5.2566
     6.2286   6.4047   6.9983   7.4308

     occupation numbers 
     1.0000   1.0000   1.0000   1.0000   0.0000   0.0000   0.0000   0.0000
     0.0000   0.0000   0.0000   0.0000

          k = 0.4667 0.7506 0.0000 (  6494 PWs)   bands (ev):

   -19.0400 -17.5474 -12.1279  -6.8856  -2.9837   4.1162   4.1779   5.4123
     5.8337   6.5544   6.9329   7.3308

     occupation numbers 
     1.0000   1.0000   1.0000   1.0000   0.0000   0.0000   0.0000   0.0000
     0.0000   0.0000   0.0000   0.0000

          k = 0.4667 0.7698 0.0000 (  6500 PWs)   bands (ev):

   -18.9804 -17.7262 -11.8956  -6.9085  -3.0221   3.7749   4.3527   5.4567
     5.5857   6.6200   6.7349   7.4733

     occupation numbers 
     1.0000   1.0000   1.0000   1.0000   0.0000   0.0000   0.0000   0.0000
     0.0000   0.0000   0.0000   0.0000

          k = 0.4667 0.7890 0.0000 (  6498 PWs)   bands (ev):

   -18.9448 -17.8606 -11.6866  -6.9413  -3.0415   3.4753   4.5460   5.0981
     5.7761   6.3026   6.9118   7.4351

     occupation numbers 
     1.0000   1.0000   1.0000   1.0000   0.0000   0.0000   0.0000   0.0000
     0.0000   0.0000   0.0000   0.0000

          k = 0.4667 0.8083 0.0000 (  6480 PWs)   bands (ev):

   -18.9520 -17.9312 -11.5053  -6.9844  -3.0396   3.2227   4.7538   4.7617
     5.9662   6.0018   7.0772   7.1577

     occupation numbers 
     1.0000   1.0000   1.0000   1.0000   0.0000   0.0000   0.0000   0.0000
     0.0000   0.0000   0.0000   0.0000

          k = 0.4667 0.8275 0.0000 (  6514 PWs)   bands (ev):

   -19.0126 -17.9271 -11.3561  -7.0376  -3.0150   3.0220   4.4357   4.9878
     5.6770   6.2084   6.8113   7.3390

     occupation numbers 
     1.0000   1.0000   1.0000   1.0000   0.0000   0.0000   0.0000   0.0000
     0.0000   0.0000   0.0000   0.0000

          k = 0.4667-0.3079 0.0000 (  6512 PWs)   bands (ev):

   -19.1170 -17.8575 -11.2428  -7.1002  -2.9675   2.8772   4.1321   5.2362
     5.3859   6.4369   6.5357   7.4234

     occupation numbers 
     1.0000   1.0000   1.0000   1.0000   0.0000   0.0000   0.0000   0.0000
     0.0000   0.0000   0.0000   0.0000

          k = 0.4667-0.2887 0.0000 (  6520 PWs)   bands (ev):

   -19.2466 -17.7410 -11.1683  -7.1708  -2.8979   2.7916   3.8468   5.1102
     5.5032   6.2471   6.7075   7.1885

     occupation numbers 
     1.0000   1.0000   1.0000   1.0000   0.0000   0.0000   0.0000   0.0000
     0.0000   0.0000   0.0000   0.0000

          k = 0.4667-0.2694 0.0000 (  6524 PWs)   bands (ev):

   -19.3865 -17.5923 -11.1345  -7.2476  -2.8076   2.7671   3.5800   4.8512
     5.7883   5.9925   6.9037   7.0248

     occupation numbers 
     1.0000   1.0000   1.0000   1.0000   0.0000   0.0000   0.0000   0.0000
     0.0000   0.0000   0.0000   0.0000

          k = 0.4667-0.2502 0.0000 (  6507 PWs)   bands (ev):

   -19.5277 -17.4207 -11.1420  -7.3286  -2.6989   2.8044   3.3315   4.6091
     5.7537   6.0920   6.7062   7.2794

     occupation numbers 
     1.0000   1.0000   1.0000   1.0000   0.0000   0.0000   0.0000   0.0000
     0.0000   0.0000   0.0000   0.0000

          k = 0.4667-0.2309 0.0000 (  6505 PWs)   bands (ev):

   -19.6650 -17.2315 -11.1902  -7.4118  -2.5745   2.9028   3.1015   4.3843
     5.5319   6.4134   6.4909   7.5769

     occupation numbers 
     1.0000   1.0000   1.0000   1.0000   0.0000   0.0000   0.0000   0.0000
     0.0000   0.0000   0.0000   0.0000

          k = 0.4667-0.2117 0.0000 (  6499 PWs)   bands (ev):

   -19.7954 -17.0281 -11.2770  -7.4951  -2.4372   2.8896   3.0601   4.1771
     5.3276   6.2862   6.7544   7.8168

     occupation numbers 
     1.0000   1.0000   1.0000   1.0000   0.0000   0.0000   0.0000   0.0000
     0.0000   0.0000   0.0000   0.0000

          k = 0.4667-0.1925 0.0000 (  6503 PWs)   bands (ev):

   -19.9173 -16.8126 -11.3994  -7.5767  -2.2904   2.6964   3.2721   3.9882
     5.1409   6.0962   7.1128   7.6354

     occupation numbers 
     1.0000   1.0000   1.0000   1.0000   0.0000   0.0000   0.0000   0.0000
     0.0000   0.0000   0.0000   0.0000

          k = 0.4667-0.1732 0.0000 (  6501 PWs)   bands (ev):

   -20.0294 -16.5870 -11.5533  -7.6549  -2.1376   2.5215   3.5310   3.8213
     4.9723   5.9209   7.4594   7.4913

     occupation numbers 
     1.0000   1.0000   1.0000   1.0000   0.0000   0.0000   0.0000   0.0000
     0.0000   0.0000   0.0000   0.0000

          k = 0.4667-0.1540 0.0000 (  6491 PWs)   bands (ev):

   -20.1310 -16.3532 -11.7342  -7.7283  -1.9826   2.3651   3.6440   3.8635
     4.8226   5.7611   7.3022   7.8841

     occupation numbers 
     1.0000   1.0000   1.0000   1.0000   0.0000   0.0000   0.0000   0.0000
     0.0000   0.0000   0.0000   0.0000

          k = 0.4667-0.1347 0.0000 (  6497 PWs)   bands (ev):

   -20.2214 -16.1129 -11.9370  -7.7957  -1.8297   2.2270   3.5158   4.2006
     4.6962   5.6176   7.1597   8.0954

     occupation numbers 
     1.0000   1.0000   1.0000   1.0000   0.0000   0.0000   0.0000   0.0000
     0.0000   0.0000   0.0000   0.0000

          k = 0.4667-0.1155 0.0000 (  6494 PWs)   bands (ev):

   -20.3004 -15.8687 -12.1560  -7.8560  -1.6831   2.1073   3.3981   4.4931
     4.6745   5.4917   7.0339   7.9691

     occupation numbers 
     1.0000   1.0000   1.0000   1.0000   0.0000   0.0000   0.0000   0.0000
     0.0000   0.0000   0.0000   0.0000

          k = 0.4667-0.0962 0.0000 (  6487 PWs)   bands (ev):

   -20.3676 -15.6240 -12.3848  -7.9084  -1.5476   2.0060   3.2974   4.4505
     5.0302   5.3897   6.9255   7.8582

     occupation numbers 
     1.0000   1.0000   1.0000   1.0000   0.0000   0.0000   0.0000   0.0000
     0.0000   0.0000   0.0000   0.0000

          k = 0.4667-0.0770 0.0000 (  6475 PWs)   bands (ev):

   -20.4229 -15.3837 -12.6157  -7.9521  -1.4280   1.9231   3.2145   4.3759
     5.2580   5.5077   6.8355   7.7651

     occupation numbers 
     1.0000   1.0000   1.0000   1.0000   0.0000   0.0000   0.0000   0.0000
     0.0000   0.0000   0.0000   0.0000

          k = 0.4667-0.0577 0.0000 (  6462 PWs)   bands (ev):

   -20.4660 -15.1566 -12.8378  -7.9866  -1.3289   1.8587   3.1497   4.3150
     5.2000   5.9500   6.7656   7.6913

     occupation numbers 
     1.0000   1.0000   1.0000   1.0000   0.0000   0.0000   0.0000   0.0000
     0.0000   0.0000   0.0000   0.0000

          k = 0.4667-0.0385 0.0000 (  6465 PWs)   bands (ev):

   -20.4968 -14.9579 -13.0342  -8.0115  -1.2546   1.8126   3.1032   4.2709
     5.1488   6.4043   6.7224   7.6385

     occupation numbers 
     1.0000   1.0000   1.0000   1.0000   0.0000   0.0000   0.0000   0.0000
     0.0000   0.0000   0.0000   0.0000

          k = 0.4667-0.0192 0.0000 (  6455 PWs)   bands (ev):

   -20.5154 -14.8139 -13.1774  -8.0265  -1.2086   1.7850   3.0752   4.2443
     5.1169   6.6528   6.8807   7.6105

     occupation numbers 
     1.0000   1.0000   1.0000   1.0000   0.0000   0.0000   0.0000   0.0000
     0.0000   0.0000   0.0000   0.0000

          k = 0.4667 0.0000 0.0000 (  6446 PWs)   bands (ev):

   -20.5216 -14.7598 -13.2312  -8.0315  -1.1932   1.7758   3.0659   4.2354
     5.1061   6.6537   7.1171   7.6150

     occupation numbers 
     1.0000   1.0000   1.0000   1.0000   0.0000   0.0000   0.0000   0.0000
     0.0000   0.0000   0.0000   0.0000

          k = 0.4667 0.0192 0.0000 (  6455 PWs)   bands (ev):

   -20.5154 -14.8149 -13.1763  -8.0263  -1.2091   1.7850   3.0752   4.2443
     5.1168   6.6528   6.8821   7.6107

     occupation numbers 
     1.0000   1.0000   1.0000   1.0000   0.0000   0.0000   0.0000   0.0000
     0.0000   0.0000   0.0000   0.0000

          k = 0.4667 0.0385 0.0000 (  6465 PWs)   bands (ev):

   -20.4968 -14.9596 -13.0323  -8.0111  -1.2557   1.8126   3.1032   4.2709
     5.1488   6.4058   6.7226   7.6387

     occupation numbers 
     1.0000   1.0000   1.0000   1.0000   0.0000   0.0000   0.0000   0.0000
     0.0000   0.0000   0.0000   0.0000

          k = 0.4667 0.0577 0.0000 (  6462 PWs)   bands (ev):

   -20.4660 -15.1587 -12.8354  -7.9859  -1.3305   1.8587   3.1497   4.3149
     5.2000   5.9518   6.7657   7.6915

     occupation numbers 
     1.0000   1.0000   1.0000   1.0000   0.0000   0.0000   0.0000   0.0000
     0.0000   0.0000   0.0000   0.0000

          k = 0.4667 0.0770 0.0000 (  6475 PWs)   bands (ev):

   -20.4229 -15.3860 -12.6129  -7.9512  -1.4301   1.9231   3.2145   4.3758
     5.2580   5.5095   6.8356   7.7653

     occupation numbers 
     1.0000   1.0000   1.0000   1.0000   0.0000   0.0000   0.0000   0.0000
     0.0000   0.0000   0.0000   0.0000

          k = 0.4667 0.0962 0.0000 (  6487 PWs)   bands (ev):

   -20.3676 -15.6263 -12.3818  -7.9072  -1.5502   2.0060   3.2974   4.4504
     5.0319   5.3899   6.9256   7.8584

     occupation numbers 
     1.0000   1.0000   1.0000   1.0000   0.0000   0.0000   0.0000   0.0000
     0.0000   0.0000   0.0000   0.0000

          k = 0.4667 0.1155 0.0000 (  6494 PWs)   bands (ev):

   -20.3004 -15.8712 -12.1529  -7.8546  -1.6861   2.1073   3.3980   4.4934
     4.6758   5.4917   7.0339   7.9693

     occupation numbers 
     1.0000   1.0000   1.0000   1.0000   0.0000   0.0000   0.0000   0.0000
     0.0000   0.0000   0.0000   0.0000

          k = 0.4667 0.1347 0.0000 (  6497 PWs)   bands (ev):

   -20.2214 -16.1154 -11.9338  -7.7941  -1.8331   2.2270   3.5157   4.2021
     4.6964   5.6176   7.1597   8.0955

     occupation numbers 
     1.0000   1.0000   1.0000   1.0000   0.0000   0.0000   0.0000   0.0000
     0.0000   0.0000   0.0000   0.0000

          k = 0.4667 0.1540 0.0000 (  6491 PWs)   bands (ev):

   -20.1309 -16.3557 -11.7309  -7.7264  -1.9864   2.3651   3.6440   3.8650
     4.8227   5.7611   7.3023   7.8841

     occupation numbers 
     1.0000   1.0000   1.0000   1.0000   0.0000   0.0000   0.0000   0.0000
     0.0000   0.0000   0.0000   0.0000

          k = 0.4667 0.1732 0.0000 (  6501 PWs)   bands (ev):

   -20.0293 -16.5896 -11.5499  -7.6528  -2.1417   2.5215   3.5325   3.8213
     4.9723   5.9209   7.4594   7.4914

     occupation numbers 
     1.0000   1.0000   1.0000   1.0000   0.0000   0.0000   0.0000   0.0000
     0.0000   0.0000   0.0000   0.0000

          k = 0.4667 0.1925 0.0000 (  6503 PWs)   bands (ev):

   -19.9172 -16.8152 -11.3959  -7.5743  -2.2949   2.6964   3.2736   3.9882
     5.1409   6.0961   7.1128   7.6355

     occupation numbers 
     1.0000   1.0000   1.0000   1.0000   0.0000   0.0000   0.0000   0.0000
     0.0000   0.0000   0.0000   0.0000

          k = 0.4667 0.2117 0.0000 (  6499 PWs)   bands (ev):

   -19.7952 -17.0307 -11.2735  -7.4924  -2.4420   2.8896   3.0616   4.1771
     5.3275   6.2862   6.7544   7.8167

     occupation numbers 
     1.0000   1.0000   1.0000   1.0000   0.0000   0.0000   0.0000   0.0000
     0.0000   0.0000   0.0000   0.0000

          k = 0.4667 0.2309 0.0000 (  6505 PWs)   bands (ev):

   -19.6646 -17.2343 -11.1866  -7.4089  -2.5796   2.9043   3.1015   4.3843
     5.5319   6.4134   6.4909   7.5768

     occupation numbers 
     1.0000   1.0000   1.0000   1.0000   0.0000   0.0000   0.0000   0.0000
     0.0000   0.0000   0.0000   0.0000

          k = 0.4667 0.2502 0.0000 (  6507 PWs)   bands (ev):

   -19.5271 -17.4237 -11.1384  -7.3255  -2.7044   2.8060   3.3315   4.6091
     5.7536   6.0920   6.7062   7.2793

     occupation numbers 
     1.0000   1.0000   1.0000   1.0000   0.0000   0.0000   0.0000   0.0000
     0.0000   0.0000   0.0000   0.0000

          k = 0.4833 0.2791 0.0000 (  6512 PWs)   bands (ev):

   -19.1327 -17.8780 -11.1506  -7.1206  -2.9680   2.7589   4.1045   5.2086
     5.3606   6.4131   6.5103   7.4119

     occupation numbers 
     1.0000   1.0000   1.0000   1.0000   0.0000   0.0000   0.0000   0.0000
     0.0000   0.0000   0.0000   0.0000

          k = 0.4833 0.2983 0.0000 (  6508 PWs)   bands (ev):

   -19.0447 -17.9649 -11.1779  -7.0821  -3.0096   2.7866   4.3805   4.9327
     5.6269   6.1603   6.7608   7.2899

     occupation numbers 
     1.0000   1.0000   1.0000   1.0000   0.0000   0.0000   0.0000   0.0000
     0.0000   0.0000   0.0000   0.0000

          k = 0.4833 0.3175 0.0000 (  6510 PWs)   bands (ev):

   -19.0008 -17.9859 -11.2459  -7.0530  -3.0273   2.8755   4.6711   4.6788
     5.8886   5.9326   7.0034   7.0818

     occupation numbers 
     1.0000   1.0000   1.0000   1.0000   0.0000   0.0000   0.0000   0.0000
     0.0000   0.0000   0.0000   0.0000

          k = 0.4833 0.3368 0.0000 (  6514 PWs)   bands (ev):

   -19.0108 -17.9313 -11.3526  -7.0339  -3.0210   3.0235   4.4357   4.9878
     5.6770   6.2084   6.8113   7.3389

     occupation numbers 
     1.0000   1.0000   1.0000   1.0000   0.0000   0.0000   0.0000   0.0000
     0.0000   0.0000   0.0000   0.0000

          k = 0.4833 0.3560 0.0000 (  6501 PWs)   bands (ev):

   -19.0643 -17.8117 -11.4952  -7.0247  -2.9917   3.2275   4.2148   5.3189
     5.4615   6.5076   6.6107   7.4517

     occupation numbers 
     1.0000   1.0000   1.0000   1.0000   0.0000   0.0000   0.0000   0.0000
     0.0000   0.0000   0.0000   0.0000

          k = 0.4833 0.3753 0.0000 (  6499 PWs)   bands (ev):

   -19.1421 -17.6467 -11.6698  -7.0245  -2.9413   3.4833   4.0123   5.2625
     5.6685   6.4011   6.8341   7.2686

     occupation numbers 
     1.0000   1.0000   1.0000   1.0000   0.0000   0.0000   0.0000   0.0000
     0.0000   0.0000   0.0000   0.0000

          k = 0.4833 0.3945 0.0000 (  6491 PWs)   bands (ev):

   -19.2292 -17.4517 -11.8721  -7.0321  -2.8728   3.7857   3.8284   5.0810
     6.0362   6.2249   6.9907   7.2544

     occupation numbers 
     1.0000   1.0000   1.0000   1.0000   0.0000   0.0000   0.0000   0.0000
     0.0000   0.0000   0.0000   0.0000

          k = 0.4833 0.4138 0.0000 (  6492 PWs)   bands (ev):

   -19.3168 -17.2364 -12.0973  -7.0458  -2.7900   3.6625   4.1298   4.9174
     6.0652   6.4219   6.8473   7.5552

     occupation numbers 
     1.0000   1.0000   1.0000   1.0000   0.0000   0.0000   0.0000   0.0000
     0.0000   0.0000   0.0000   0.0000

          k = 0.4833 0.4330 0.0000 (  6492 PWs)   bands (ev):

   -19.3998 -17.0069 -12.3407  -7.0637  -2.6975   3.5152   4.5057   4.7753
     5.9235   6.6800   6.8300   7.8643

     occupation numbers 
     1.0000   1.0000   1.0000   1.0000   0.0000   0.0000   0.0000   0.0000
     0.0000   0.0000   0.0000   0.0000

          k = 0.4833 0.4523 0.0000 (  6498 PWs)   bands (ev):

   -19.4755 -16.7675 -12.5970  -7.0840  -2.6001   3.3863   4.6316   4.9302
     5.8008   6.5287   7.2498   7.9792

     occupation numbers 
     1.0000   1.0000   1.0000   1.0000   0.0000   0.0000   0.0000   0.0000
     0.0000   0.0000   0.0000   0.0000

          k = 0.4833 0.4715 0.0000 (  6494 PWs)   bands (ev):

   -19.5423 -16.5223 -12.8607  -7.1047  -2.5029   3.2758   4.5242   5.3514
     5.7049   6.3905   7.6860   7.8857

     occupation numbers 
     1.0000   1.0000   1.0000   1.0000   0.0000   0.0000   0.0000   0.0000
     0.0000   0.0000   0.0000   0.0000

          k = 0.4833 0.4907 0.0000 (  6472 PWs)   bands (ev):

   -19.5989 -16.2761 -13.1254  -7.1245  -2.4112   3.1837   4.4313   5.5699
     5.8464   6.2748   7.7676   8.1500

     occupation numbers 
     1.0000   1.0000   1.0000   1.0000   0.0000   0.0000   0.0000   0.0000
     0.0000   0.0000   0.0000   0.0000

          k = 0.4833 0.5100 0.0000 (  6443 PWs)   bands (ev):

   -19.6449 -16.0359 -13.3824  -7.1419  -2.3302   3.1101   4.3562   5.5147
     6.1241   6.3474   7.6737   8.4916

     occupation numbers 
     1.0000   1.0000   1.0000   1.0000   0.0000   0.0000   0.0000   0.0000
     0.0000   0.0000   0.0000   0.0000

          k = 0.4833 0.5292 0.0000 (  6445 PWs)   bands (ev):

   -19.6797 -15.8136 -13.6186  -7.1559  -2.2646   3.0548   4.2993   5.4636
     6.0657   6.7971   7.5995   8.4490

     occupation numbers 
     1.0000   1.0000   1.0000   1.0000   0.0000   0.0000   0.0000   0.0000
     0.0000   0.0000   0.0000   0.0000

          k = 0.4833 0.5485 0.0000 (  6442 PWs)   bands (ev):

   -19.7030 -15.6303 -13.8117  -7.1657  -2.2182   3.0179   4.2611   5.4285
     6.0126   7.2592   7.5508   8.3896

     occupation numbers 
     1.0000   1.0000   1.0000   1.0000   0.0000   0.0000   0.0000   0.0000
     0.0000   0.0000   0.0000   0.0000

          k = 0.4833 0.5677 0.0000 (  6444 PWs)   bands (ev):

   -19.7147 -15.5208 -13.9263  -7.1708  -2.1942   2.9995   4.2420   5.4108
     5.9848   7.5122   7.6973   8.2016

     occupation numbers 
     1.0000   1.0000   1.0000   1.0000   0.0000   0.0000   0.0000   0.0000
     0.0000   0.0000   0.0000   0.0000

          k = 0.4833 0.5870 0.0000 (  6444 PWs)   bands (ev):

   -19.7147 -15.5203 -13.9268  -7.1710  -2.1938   2.9995   4.2420   5.4108
     5.9847   7.5122   7.6960   8.2023

     occupation numbers 
     1.0000   1.0000   1.0000   1.0000   0.0000   0.0000   0.0000   0.0000
     0.0000   0.0000   0.0000   0.0000

          k = 0.4833 0.6062 0.0000 (  6442 PWs)   bands (ev):

   -19.7030 -15.6289 -13.8132  -7.1662  -2.2172   3.0179   4.2611   5.4285
     6.0125   7.2577   7.5505   8.3891

     occupation numbers 
     1.0000   1.0000   1.0000   1.0000   0.0000   0.0000   0.0000   0.0000
     0.0000   0.0000   0.0000   0.0000

          k = 0.4833 0.6255 0.0000 (  6445 PWs)   bands (ev):

   -19.6797 -15.8116 -13.6207  -7.1567  -2.2629   3.0548   4.2993   5.4636
     6.0656   6.7954   7.5992   8.4485

     occupation numbers 
     1.0000   1.0000   1.0000   1.0000   0.0000   0.0000   0.0000   0.0000
     0.0000   0.0000   0.0000   0.0000

          k = 0.4833 0.6447 0.0000 (  6443 PWs)   bands (ev):

   -19.6450 -16.0336 -13.3849  -7.1431  -2.3279   3.1101   4.3562   5.5148
     6.1240   6.3456   7.6733   8.4911

     occupation numbers 
     1.0000   1.0000   1.0000   1.0000   0.0000   0.0000   0.0000   0.0000
     0.0000   0.0000   0.0000   0.0000

          k = 0.4833 0.6640 0.0000 (  6472 PWs)   bands (ev):

   -19.5991 -16.2737 -13.1281  -7.1260  -2.4083   3.1837   4.4314   5.5701
     5.8447   6.2744   7.7672   8.1500

     occupation numbers 
     1.0000   1.0000   1.0000   1.0000   0.0000   0.0000   0.0000   0.0000
     0.0000   0.0000   0.0000   0.0000

          k = 0.4833 0.6832 0.0000 (  6494 PWs)   bands (ev):

   -19.5425 -16.5198 -12.8636  -7.1066  -2.4994   3.2758   4.5242   5.3500
     5.7045   6.3902   7.6860   7.8853

     occupation numbers 
     1.0000   1.0000   1.0000   1.0000   0.0000   0.0000   0.0000   0.0000
     0.0000   0.0000   0.0000   0.0000

          k = 0.4833 0.7024 0.0000 (  6498 PWs)   bands (ev):

   -19.4758 -16.7649 -12.6000  -7.0862  -2.5961   3.3863   4.6317   4.9285
     5.8007   6.5285   7.2498   7.9788

     occupation numbers 
     1.0000   1.0000   1.0000   1.0000   0.0000   0.0000   0.0000   0.0000
     0.0000   0.0000   0.0000   0.0000

          k = 0.4833 0.7217 0.0000 (  6492 PWs)   bands (ev):

   -19.4002 -17.0041 -12.3438  -7.0663  -2.6930   3.5152   4.5042   4.7752
     5.9234   6.6798   6.8300   7.8644

     occupation numbers 
     1.0000   1.0000   1.0000   1.0000   0.0000   0.0000   0.0000   0.0000
     0.0000   0.0000   0.0000   0.0000

          k = 0.4833 0.7409 0.0000 (  6492 PWs)   bands (ev):

   -19.3173 -17.2335 -12.1006  -7.0487  -2.7851   3.6625   4.1282   4.9174
     6.0652   6.4219   6.8471   7.5553

     occupation numbers 
     1.0000   1.0000   1.0000   1.0000   0.0000   0.0000   0.0000   0.0000
     0.0000   0.0000   0.0000   0.0000

          k = 0.4833 0.7602 0.0000 (  6491 PWs)   bands (ev):

   -19.2300 -17.4485 -11.8754  -7.0353  -2.8675   3.7841   3.8284   5.0810
     6.0362   6.2249   6.9905   7.2546

     occupation numbers 
     1.0000   1.0000   1.0000   1.0000   0.0000   0.0000   0.0000   0.0000
     0.0000   0.0000   0.0000   0.0000

          k = 0.4833 0.7794 0.0000 (  6499 PWs)   bands (ev):

   -19.1432 -17.6432 -11.6732  -7.0279  -2.9356   3.4817   4.0123   5.2625
     5.6685   6.4010   6.8341   7.2686

     occupation numbers 
     1.0000   1.0000   1.0000   1.0000   0.0000   0.0000   0.0000   0.0000
     0.0000   0.0000   0.0000   0.0000

          k = 0.4833 0.7987 0.0000 (  6501 PWs)   bands (ev):

   -19.0658 -17.8079 -11.4987  -7.0283  -2.9858   3.2260   4.2148   5.3189
     5.4615   6.5075   6.6109   7.4516

     occupation numbers 
     1.0000   1.0000   1.0000   1.0000   0.0000   0.0000   0.0000   0.0000
     0.0000   0.0000   0.0000   0.0000

          k = 0.4833 0.8179 0.0000 (  6514 PWs)   bands (ev):

   -19.0126 -17.9271 -11.3561  -7.0376  -3.0150   3.0220   4.4357   4.9878
     5.6770   6.2084   6.8113   7.3390

     occupation numbers 
     1.0000   1.0000   1.0000   1.0000   0.0000   0.0000   0.0000   0.0000
     0.0000   0.0000   0.0000   0.0000

          k = 0.4833 0.8372 0.0000 (  6510 PWs)   bands (ev):

   -19.0027 -17.9816 -11.2494  -7.0568  -3.0212   2.8739   4.6711   4.6789
     5.8884   5.9329   7.0032   7.0822

     occupation numbers 
     1.0000   1.0000   1.0000   1.0000   0.0000   0.0000   0.0000   0.0000
     0.0000   0.0000   0.0000   0.0000

          k = 0.4833-0.2983 0.0000 (  6508 PWs)   bands (ev):

   -19.0465 -17.9607 -11.1815  -7.0858  -3.0035   2.7850   4.3805   4.9327
     5.6269   6.1603   6.7609   7.2900

     occupation numbers 
     1.0000   1.0000   1.0000   1.0000   0.0000   0.0000   0.0000   0.0000
     0.0000   0.0000   0.0000   0.0000

          k = 0.4833-0.2791 0.0000 (  6512 PWs)   bands (ev):

   -19.1341 -17.8742 -11.1542  -7.1242  -2.9620   2.7574   4.1045   5.2086
     5.3606   6.4130   6.5106   7.4118

     occupation numbers 
     1.0000   1.0000   1.0000   1.0000   0.0000   0.0000   0.0000   0.0000
     0.0000   0.0000   0.0000   0.0000

          k = 0.4833-0.2598 0.0000 (  6520 PWs)   bands (ev):

   -19.2466 -17.7410 -11.1683  -7.1708  -2.8979   2.7916   3.8468   5.1102
     5.5032   6.2471   6.7075   7.1885

     occupation numbers 
     1.0000   1.0000   1.0000   1.0000   0.0000   0.0000   0.0000   0.0000
     0.0000   0.0000   0.0000   0.0000

          k = 0.4833-0.2406 0.0000 (  6503 PWs)   bands (ev):

   -19.3691 -17.5761 -11.2231  -7.2240  -2.8131   2.8869   3.6076   4.8769
     5.8159   6.0184   6.9169   7.0504

     occupation numbers 
     1.0000   1.0000   1.0000   1.0000   0.0000   0.0000   0.0000   0.0000
     0.0000   0.0000   0.0000   0.0000

          k = 0.4833-0.2213 0.0000 (  6503 PWs)   bands (ev):

   -19.4925 -17.3890 -11.3165  -7.2818  -2.7105   3.0413   3.3867   4.6608
     5.8057   6.1471   6.7374   7.3263

     occupation numbers 
     1.0000   1.0000   1.0000   1.0000   0.0000   0.0000   0.0000   0.0000
     0.0000   0.0000   0.0000   0.0000

          k = 0.4833-0.2021 0.0000 (  6503 PWs)   bands (ev):

   -19.6119 -17.1849 -11.4456  -7.3422  -2.5931   3.1840   3.2515   4.4623
     5.6103   6.4949   6.5423   7.6413

     occupation numbers 
     1.0000   1.0000   1.0000   1.0000   0.0000   0.0000   0.0000   0.0000
     0.0000   0.0000   0.0000   0.0000

          k = 0.4833-0.1828 0.0000 (  6503 PWs)   bands (ev):

   -19.7242 -16.9675 -11.6065  -7.4033  -2.4647   3.0001   3.5123   4.2819
     5.4326   6.3556   6.8645   7.8771

     occupation numbers 
     1.0000   1.0000   1.0000   1.0000   0.0000   0.0000   0.0000   0.0000
     0.0000   0.0000   0.0000   0.0000

          k = 0.4833-0.1636 0.0000 (  6501 PWs)   bands (ev):

   -19.8277 -16.7393 -11.7946  -7.4632  -2.3293   2.8344   3.8161   4.1229
     5.2729   6.1852   7.2503   7.7258

     occupation numbers 
     1.0000   1.0000   1.0000   1.0000   0.0000   0.0000   0.0000   0.0000
     0.0000   0.0000   0.0000   0.0000

          k = 0.4833-0.1443 0.0000 (  6499 PWs)   bands (ev):

   -19.9213 -16.5026 -12.0050  -7.5204  -2.1910   2.6871   3.9573   4.1844
     5.1322   6.0297   7.5710   7.6562

     occupation numbers 
     1.0000   1.0000   1.0000   1.0000   0.0000   0.0000   0.0000   0.0000
     0.0000   0.0000   0.0000   0.0000

          k = 0.4833-0.1251 0.0000 (  6497 PWs)   bands (ev):

   -20.0043 -16.2597 -12.2325  -7.5732  -2.0545   2.5582   3.8366   4.5556
     5.0153   5.8904   7.4344   8.0746

     occupation numbers 
     1.0000   1.0000   1.0000   1.0000   0.0000   0.0000   0.0000   0.0000
     0.0000   0.0000   0.0000   0.0000

          k = 0.4833-0.1058 0.0000 (  6483 PWs)   bands (ev):

   -20.0761 -16.0137 -12.4711  -7.6206  -1.9246   2.4477   3.7274   4.8413
     5.0373   5.7691   7.3128   8.2130

     occupation numbers 
     1.0000   1.0000   1.0000   1.0000   0.0000   0.0000   0.0000   0.0000
     0.0000   0.0000   0.0000   0.0000

          k = 0.4833-0.0866 0.0000 (  6479 PWs)   bands (ev):

   -20.1363 -15.7687 -12.7140  -7.6616  -1.8060   2.3557   3.6353   4.7895
     5.4270   5.6787   7.2085   8.1099

     occupation numbers 
     1.0000   1.0000   1.0000   1.0000   0.0000   0.0000   0.0000   0.0000
     0.0000   0.0000   0.0000   0.0000

          k = 0.4833-0.0674 0.0000 (  6459 PWs)   bands (ev):

   -20.1848 -15.5314 -12.9524  -7.6952  -1.7038   2.2820   3.5612   4.7225
     5.5521   5.9230   7.1233   8.0228

     occupation numbers 
     1.0000   1.0000   1.0000   1.0000   0.0000   0.0000   0.0000   0.0000
     0.0000   0.0000   0.0000   0.0000

          k = 0.4833-0.0481 0.0000 (  6449 PWs)   bands (ev):

   -20.2213 -15.3133 -13.1730  -7.7210  -1.6224   2.2267   3.5053   4.6702
     5.4932   6.3832   7.0592   7.9555

     occupation numbers 
     1.0000   1.0000   1.0000   1.0000   0.0000   0.0000   0.0000   0.0000
     0.0000   0.0000   0.0000   0.0000

          k = 0.4833-0.0289 0.0000 (  6448 PWs)   bands (ev):

   -20.2457 -15.1350 -13.3537  -7.7383  -1.5658   2.1899   3.4679   4.6349
     5.4490   6.8329   7.0293   7.9104

     occupation numbers 
     1.0000   1.0000   1.0000   1.0000   0.0000   0.0000   0.0000   0.0000
     0.0000   0.0000   0.0000   0.0000

          k = 0.4833-0.0096 0.0000 (  6446 PWs)   bands (ev):

   -20.2579 -15.0296 -13.4604  -7.7470  -1.5369   2.1715   3.4492   4.6171
     5.4263   6.9717   7.2709   7.8935

     occupation numbers 
     1.0000   1.0000   1.0000   1.0000   0.0000   0.0000   0.0000   0.0000
     0.0000   0.0000   0.0000   0.0000

          k = 0.4833 0.0096 0.0000 (  6446 PWs)   bands (ev):

   -20.2579 -15.0301 -13.4599  -7.7469  -1.5372   2.1715   3.4492   4.6171
     5.4263   6.9717   7.2720   7.8939

     occupation numbers 
     1.0000   1.0000   1.0000   1.0000   0.0000   0.0000   0.0000   0.0000
     0.0000   0.0000   0.0000   0.0000

          k = 0.4833 0.0289 0.0000 (  6448 PWs)   bands (ev):

   -20.2457 -15.1364 -13.3521  -7.7379  -1.5667   2.1899   3.4679   4.6348
     5.4490   6.8342   7.0297   7.9106

     occupation numbers 
     1.0000   1.0000   1.0000   1.0000   0.0000   0.0000   0.0000   0.0000
     0.0000   0.0000   0.0000   0.0000

          k = 0.4833 0.0481 0.0000 (  6449 PWs)   bands (ev):

   -20.2213 -15.3152 -13.1708  -7.7203  -1.6238   2.2267   3.5053   4.6701
     5.4932   6.3850   7.0594   7.9558

     occupation numbers 
     1.0000   1.0000   1.0000   1.0000   0.0000   0.0000   0.0000   0.0000
     0.0000   0.0000   0.0000   0.0000

          k = 0.4833 0.0674 0.0000 (  6459 PWs)   bands (ev):

   -20.1848 -15.5336 -12.9499  -7.6943  -1.7058   2.2820   3.5612   4.7224
     5.5521   5.9248   7.1234   8.0231

     occupation numbers 
     1.0000   1.0000   1.0000   1.0000   0.0000   0.0000   0.0000   0.0000
     0.0000   0.0000   0.0000   0.0000

          k = 0.4833 0.0866 0.0000 (  6479 PWs)   bands (ev):

   -20.1363 -15.7710 -12.7112  -7.6604  -1.8085   2.3557   3.6353   4.7894
     5.4284   5.6791   7.2087   8.1102

     occupation numbers 
     1.0000   1.0000   1.0000   1.0000   0.0000   0.0000   0.0000   0.0000
     0.0000   0.0000   0.0000   0.0000

          k = 0.4833 0.1058 0.0000 (  6483 PWs)   bands (ev):

   -20.0760 -16.0161 -12.4681  -7.6192  -1.9275   2.4477   3.7273   4.8413
     5.0390   5.7692   7.3129   8.2133

     occupation numbers 
     1.0000   1.0000   1.0000   1.0000   0.0000   0.0000   0.0000   0.0000
     0.0000   0.0000   0.0000   0.0000

          k = 0.4833 0.1251 0.0000 (  6497 PWs)   bands (ev):

   -20.0042 -16.2622 -12.2294  -7.5715  -2.0579   2.5582   3.8366   4.5571
     5.0155   5.8904   7.4345   8.0746

     occupation numbers 
     1.0000   1.0000   1.0000   1.0000   0.0000   0.0000   0.0000   0.0000
     0.0000   0.0000   0.0000   0.0000

          k = 0.4833 0.1443 0.0000 (  6499 PWs)   bands (ev):

   -19.9212 -16.5051 -12.0018  -7.5184  -2.1949   2.6871   3.9572   4.1860
     5.1323   6.0297   7.5710   7.6562

     occupation numbers 
     1.0000   1.0000   1.0000   1.0000   0.0000   0.0000   0.0000   0.0000
     0.0000   0.0000   0.0000   0.0000

          k = 0.4833 0.1636 0.0000 (  6501 PWs)   bands (ev):

   -19.8275 -16.7419 -11.7913  -7.4610  -2.3335   2.8344   3.8175   4.1229
     5.2729   6.1852   7.2503   7.7259

     occupation numbers 
     1.0000   1.0000   1.0000   1.0000   0.0000   0.0000   0.0000   0.0000
     0.0000   0.0000   0.0000   0.0000

          k = 0.4833 0.1828 0.0000 (  6503 PWs)   bands (ev):

   -19.7239 -16.9702 -11.6031  -7.4007  -2.4694   3.0001   3.5139   4.2819
     5.4326   6.3556   6.8645   7.8771

     occupation numbers 
     1.0000   1.0000   1.0000   1.0000   0.0000   0.0000   0.0000   0.0000
     0.0000   0.0000   0.0000   0.0000

          k = 0.4833 0.2021 0.0000 (  6503 PWs)   bands (ev):

   -19.6115 -17.1877 -11.4422  -7.3394  -2.5981   3.1840   3.2530   4.4623
     5.6103   6.4949   6.5423   7.6412

     occupation numbers 
     1.0000   1.0000   1.0000   1.0000   0.0000   0.0000   0.0000   0.0000
     0.0000   0.0000   0.0000   0.0000

          k = 0.4833 0.2213 0.0000 (  6503 PWs)   bands (ev):

   -19.4920 -17.3919 -11.3130  -7.2787  -2.7158   3.0428   3.3867   4.6608
     5.8057   6.1471   6.7374   7.3261

     occupation numbers 
     1.0000   1.0000   1.0000   1.0000   0.0000   0.0000   0.0000   0.0000
     0.0000   0.0000   0.0000   0.0000

          k = 0.4833 0.2406 0.0000 (  6503 PWs)   bands (ev):

   -19.3683 -17.5793 -11.2195  -7.2207  -2.8187   2.8884   3.6076   4.8769
     5.8159   6.0183   6.9170   7.0502

     occupation numbers 
     1.0000   1.0000   1.0000   1.0000   0.0000   0.0000   0.0000   0.0000
     0.0000   0.0000   0.0000   0.0000

          k = 0.4833 0.2598 0.0000 (  6520 PWs)   bands (ev):

   -19.2456 -17.7444 -11.1647  -7.1673  -2.9037   2.7931   3.8468   5.1102
     5.5032   6.2471   6.7074   7.1885

     occupation numbers 
     1.0000   1.0000   1.0000   1.0000   0.0000   0.0000   0.0000   0.0000
     0.0000   0.0000   0.0000   0.0000

          k =-0.5000-0.2887 0.0000 (  6508 PWs)   bands (ev):

   -19.0177 -18.0028 -11.1572  -7.0771  -3.0218   2.7556   4.6436   4.6512
     5.8626   5.9092   6.9787   7.0565

     occupation numbers 
     1.0000   1.0000   1.0000   1.0000   0.0000   0.0000   0.0000   0.0000
     0.0000   0.0000   0.0000   0.0000

          k =-0.5000-0.2694 0.0000 (  6508 PWs)   bands (ev):

   -19.0447 -17.9649 -11.1779  -7.0821  -3.0095   2.7866   4.3805   4.9327
     5.6269   6.1603   6.7608   7.2899

     occupation numbers 
     1.0000   1.0000   1.0000   1.0000   0.0000   0.0000   0.0000   0.0000
     0.0000   0.0000   0.0000   0.0000

          k =-0.5000-0.2502 0.0000 (  6512 PWs)   bands (ev):

   -19.1156 -17.8613 -11.2393  -7.0966  -2.9734   2.8787   4.1321   5.2362
     5.3859   6.4370   6.5355   7.4235

     occupation numbers 
     1.0000   1.0000   1.0000   1.0000   0.0000   0.0000   0.0000   0.0000
     0.0000   0.0000   0.0000   0.0000

          k =-0.5000-0.2309 0.0000 (  6505 PWs)   bands (ev):

   -19.2111 -17.7116 -11.3394  -7.1197  -2.9150   3.0300   3.9020   5.1612
     5.5583   6.2985   6.7516   7.2176

     occupation numbers 
     1.0000   1.0000   1.0000   1.0000   0.0000   0.0000   0.0000   0.0000
     0.0000   0.0000   0.0000   0.0000

          k =-0.5000-0.2117 0.0000 (  6509 PWs)   bands (ev):

   -19.3161 -17.5310 -11.4753  -7.1498  -2.8368   3.2371   3.6903   4.9538
     5.8985   6.0959   6.9516   7.1271

     occupation numbers 
     1.0000   1.0000   1.0000   1.0000   0.0000   0.0000   0.0000   0.0000
     0.0000   0.0000   0.0000   0.0000

          k =-0.5000-0.1925 0.0000 (  6501 PWs)   bands (ev):

   -19.4218 -17.3290 -11.6431  -7.1853  -2.7421   3.4931   3.4998   4.7639
     5.9096   6.2571   6.7916   7.4188

     occupation numbers 
     1.0000   1.0000   1.0000   1.0000   0.0000   0.0000   0.0000   0.0000
     0.0000   0.0000   0.0000   0.0000

          k =-0.5000-0.1732 0.0000 (  6503 PWs)   bands (ev):

   -19.5231 -17.1112 -11.8384  -7.2240  -2.6347   3.3221   3.8010   4.5920
     5.7409   6.6064   6.6407   7.7420

     occupation numbers 
     1.0000   1.0000   1.0000   1.0000   0.0000   0.0000   0.0000   0.0000
     0.0000   0.0000   0.0000   0.0000

          k =-0.5000-0.1540 0.0000 (  6501 PWs)   bands (ev):

   -19.6173 -16.8814 -12.0564  -7.2641  -2.5189   3.1656   4.1437   4.4414
     5.5902   6.4451   7.0297   7.9410

     occupation numbers 
     1.0000   1.0000   1.0000   1.0000   0.0000   0.0000   0.0000   0.0000
     0.0000   0.0000   0.0000   0.0000

          k =-0.5000-0.1347 0.0000 (  6495 PWs)   bands (ev):

   -19.7024 -16.6426 -12.2920  -7.3038  -2.3994   3.0275   4.2871   4.5427
     5.4585   6.2920   7.4421   7.8216

     occupation numbers 
     1.0000   1.0000   1.0000   1.0000   0.0000   0.0000   0.0000   0.0000
     0.0000   0.0000   0.0000   0.0000

          k =-0.5000-0.1155 0.0000 (  6488 PWs)   bands (ev):

   -19.7776 -16.3979 -12.5398  -7.3414  -2.2811   2.9078   4.1731   4.9422
     5.3518   6.1546   7.6853   7.8760

     occupation numbers 
     1.0000   1.0000   1.0000   1.0000   0.0000   0.0000   0.0000   0.0000
     0.0000   0.0000   0.0000   0.0000

          k =-0.5000-0.0962 0.0000 (  6474 PWs)   bands (ev):

   -19.8420 -16.1510 -12.7937  -7.3755  -2.1691   2.8066   4.0722   5.2003
     5.4319   6.0365   7.5678   8.3098

     occupation numbers 
     1.0000   1.0000   1.0000   1.0000   0.0000   0.0000   0.0000   0.0000
     0.0000   0.0000   0.0000   0.0000

          k =-0.5000-0.0770 0.0000 (  6458 PWs)   bands (ev):

   -19.8952 -15.9073 -13.0462  -7.4050  -2.0684   2.7237   3.9887   5.1444
     5.8215   5.9787   7.4662   8.3180

     occupation numbers 
     1.0000   1.0000   1.0000   1.0000   0.0000   0.0000   0.0000   0.0000
     0.0000   0.0000   0.0000   0.0000

          k =-0.5000-0.0577 0.0000 (  6463 PWs)   bands (ev):

   -19.9368 -15.6754 -13.2869  -7.4289  -1.9839   2.6592   3.9233   5.0852
     5.8275   6.3574   7.3845   8.2440

     occupation numbers 
     1.0000   1.0000   1.0000   1.0000   0.0000   0.0000   0.0000   0.0000
     0.0000   0.0000   0.0000   0.0000

          k =-0.5000-0.0385 0.0000 (  6442 PWs)   bands (ev):

   -19.9667 -15.4710 -13.4986  -7.4465  -1.9199   2.6132   3.8763   5.0415
     5.7708   6.8242   7.3263   8.1863

     occupation numbers 
     1.0000   1.0000   1.0000   1.0000   0.0000   0.0000   0.0000   0.0000
     0.0000   0.0000   0.0000   0.0000

          k =-0.5000-0.0192 0.0000 (  6452 PWs)   bands (ev):

   -19.9847 -15.3215 -13.6530  -7.4573  -1.8799   2.5855   3.8480   5.0150
     5.7341   7.2339   7.3336   8.1396

     occupation numbers 
     1.0000   1.0000   1.0000   1.0000   0.0000   0.0000   0.0000   0.0000
     0.0000   0.0000   0.0000   0.0000

          k =-0.5000 0.0000 0.0000 (  6442 PWs)   bands (ev):

   -19.9907 -15.2643 -13.7119  -7.4610  -1.8661   2.5763   3.8386   5.0062
     5.7216   7.2624   7.5828   8.0230

     occupation numbers 
     1.0000   1.0000   1.0000   1.0000   0.0000   0.0000   0.0000   0.0000
     0.0000   0.0000   0.0000   0.0000

          k =-0.5000 0.0192 0.0000 (  6452 PWs)   bands (ev):

   -19.9847 -15.3205 -13.6541  -7.4576  -1.8793   2.5855   3.8480   5.0151
     5.7341   7.2335   7.3325   8.1391

     occupation numbers 
     1.0000   1.0000   1.0000   1.0000   0.0000   0.0000   0.0000   0.0000
     0.0000   0.0000   0.0000   0.0000

          k =-0.5000 0.0385 0.0000 (  6442 PWs)   bands (ev):

   -19.9667 -15.4693 -13.5005  -7.4471  -1.9187   2.6132   3.8763   5.0416
     5.7707   6.8225   7.3260   8.1859

     occupation numbers 
     1.0000   1.0000   1.0000   1.0000   0.0000   0.0000   0.0000   0.0000
     0.0000   0.0000   0.0000   0.0000

          k =-0.5000 0.0577 0.0000 (  6463 PWs)   bands (ev):

   -19.9369 -15.6734 -13.2892  -7.4298  -1.9821   2.6592   3.9233   5.0853
     5.8275   6.3556   7.3843   8.2436

     occupation numbers 
     1.0000   1.0000   1.0000   1.0000   0.0000   0.0000   0.0000   0.0000
     0.0000   0.0000   0.0000   0.0000

          k =-0.5000 0.0770 0.0000 (  6458 PWs)   bands (ev):

   -19.8952 -15.9050 -13.0489  -7.4062  -2.0660   2.7237   3.9888   5.1445
     5.8206   5.9777   7.4660   8.3175

     occupation numbers 
     1.0000   1.0000   1.0000   1.0000   0.0000   0.0000   0.0000   0.0000
     0.0000   0.0000   0.0000   0.0000

          k =-0.5000 0.0962 0.0000 (  6474 PWs)   bands (ev):

   -19.8421 -16.1486 -12.7965  -7.3770  -2.1662   2.8066   4.0723   5.2004
     5.4302   6.0363   7.5676   8.3097

     occupation numbers 
     1.0000   1.0000   1.0000   1.0000   0.0000   0.0000   0.0000   0.0000
     0.0000   0.0000   0.0000   0.0000

          k =-0.5000 0.1155 0.0000 (  6488 PWs)   bands (ev):

   -19.7777 -16.3954 -12.5427  -7.3432  -2.2777   2.9078   4.1732   4.9408
     5.3516   6.1545   7.6851   7.8760

     occupation numbers 
     1.0000   1.0000   1.0000   1.0000   0.0000   0.0000   0.0000   0.0000
     0.0000   0.0000   0.0000   0.0000

          k =-0.5000 0.1347 0.0000 (  6495 PWs)   bands (ev):

   -19.7026 -16.6400 -12.2951  -7.3059  -2.3955   3.0275   4.2871   4.5410
     5.4584   6.2919   7.4421   7.8214

     occupation numbers 
     1.0000   1.0000   1.0000   1.0000   0.0000   0.0000   0.0000   0.0000
     0.0000   0.0000   0.0000   0.0000

          k =-0.5000 0.1540 0.0000 (  6501 PWs)   bands (ev):

   -19.6175 -16.8787 -12.0596  -7.2666  -2.5145   3.1656   4.1422   4.4413
     5.5901   6.4450   7.0297   7.9409

     occupation numbers 
     1.0000   1.0000   1.0000   1.0000   0.0000   0.0000   0.0000   0.0000
     0.0000   0.0000   0.0000   0.0000

          k =-0.5000 0.1732 0.0000 (  6503 PWs)   bands (ev):

   -19.5235 -17.1084 -11.8417  -7.2267  -2.6299   3.3221   3.7994   4.5920
     5.7409   6.6063   6.6407   7.7421

     occupation numbers 
     1.0000   1.0000   1.0000   1.0000   0.0000   0.0000   0.0000   0.0000
     0.0000   0.0000   0.0000   0.0000

          k =-0.5000 0.1925 0.0000 (  6501 PWs)   bands (ev):

   -19.4223 -17.3261 -11.6465  -7.1883  -2.7369   3.4921   3.4992   4.7639
     5.9096   6.2571   6.7915   7.4189

     occupation numbers 
     1.0000   1.0000   1.0000   1.0000   0.0000   0.0000   0.0000   0.0000
     0.0000   0.0000   0.0000   0.0000

          k =-0.5000 0.2117 0.0000 (  6509 PWs)   bands (ev):

   -19.3169 -17.5279 -11.4788  -7.1531  -2.8314   3.2356   3.6903   4.9538
     5.8985   6.0959   6.9514   7.1273

     occupation numbers 
     1.0000   1.0000   1.0000   1.0000   0.0000   0.0000   0.0000   0.0000
     0.0000   0.0000   0.0000   0.0000

          k =-0.5000 0.2309 0.0000 (  6505 PWs)   bands (ev):

   -19.2121 -17.7082 -11.3429  -7.1232  -2.9093   3.0285   3.9020   5.1612
     5.5583   6.2985   6.7517   7.2176

     occupation numbers 
     1.0000   1.0000   1.0000   1.0000   0.0000   0.0000   0.0000   0.0000
     0.0000   0.0000   0.0000   0.0000

          k =-0.5000 0.2502 0.0000 (  6512 PWs)   bands (ev):

   -19.1170 -17.8575 -11.2428  -7.1002  -2.9675   2.8772   4.1321   5.2362
     5.3859   6.4369   6.5357   7.4234

     occupation numbers 
     1.0000   1.0000   1.0000   1.0000   0.0000   0.0000   0.0000   0.0000
     0.0000   0.0000   0.0000   0.0000

          k =-0.5000 0.2694 0.0000 (  6508 PWs)   bands (ev):

   -19.0465 -17.9607 -11.1815  -7.0858  -3.0035   2.7850   4.3805   4.9327
     5.6269   6.1603   6.7609   7.2900

     occupation numbers 
     1.0000   1.0000   1.0000   1.0000   0.0000   0.0000   0.0000   0.0000
     0.0000   0.0000   0.0000   0.0000

          k =-0.5000-0.8660 0.0000 (  6508 PWs)   bands (ev):

   -19.0196 -17.9985 -11.1608  -7.0809  -3.0156   2.7541   4.6436   4.6512
     5.8625   5.9095   6.9785   7.0569

     occupation numbers 
     1.0000   1.0000   1.0000   1.0000   0.0000   0.0000   0.0000   0.0000
     0.0000   0.0000   0.0000   0.0000

     the Fermi energy is    -4.7021 ev
     (compare with:    -4.7020 eV, computed in scf)

     Writing all to output data dir /home/ubuntu/projects/Graphene-Band-Structure-Quantum-Espresso/outputs/bilayer/field_0.01Ry/bottom/data/bottom.save/ :
     XML data file, pseudopotentials, collected wavefunctions

     init_run     :      2.23s CPU      2.37s WALL (       1 calls)
     electrons    :   1365.48s CPU   1372.05s WALL (       1 calls)

     Called by init_run:
     wfcinit      :      0.00s CPU      0.00s WALL (       1 calls)
     wfcinit:atom :      0.37s CPU      0.39s WALL (     451 calls)
     wfcinit:wfcr :     19.90s CPU     20.01s WALL (     451 calls)
     potinit      :      0.56s CPU      0.61s WALL (       1 calls)
     hinit0       :      0.94s CPU      0.98s WALL (       1 calls)

     Called by electrons:
     c_bands      :   1365.45s CPU   1371.86s WALL (       1 calls)
     v_of_rho     :      0.11s CPU      0.15s WALL (       1 calls)
     v_h          :      0.01s CPU      0.01s WALL (       1 calls)
     v_xc         :      0.10s CPU      0.14s WALL (       1 calls)
     newd         :      0.13s CPU      0.14s WALL (       1 calls)
     PAW_pot      :      0.11s CPU      0.11s WALL (       1 calls)

     Called by c_bands:
     init_us_2    :      0.63s CPU      0.64s WALL (     451 calls)
     cegterg      :   1001.42s CPU   1006.87s WALL (    1667 calls)

     Called by sum_band:

     Called by *egterg:
     cdiaghg      :      7.72s CPU      7.80s WALL (   29639 calls)
     cegterg:over :    104.58s CPU    104.99s WALL (   29188 calls)
     cegterg:upda :     68.13s CPU     68.43s WALL (   29188 calls)
     cegterg:last :    209.65s CPU    210.29s WALL (   18754 calls)
     h_psi        :    559.98s CPU    563.80s WALL (   31306 calls)
     s_psi        :     47.14s CPU     47.45s WALL (   31306 calls)
     g_psi        :      6.17s CPU      6.21s WALL (   29188 calls)

     Called by h_psi:
     h_psi:calbec :     47.34s CPU     47.57s WALL (   31306 calls)
     vloc_psi     :    463.05s CPU    466.41s WALL (   31306 calls)
     add_vuspsi   :     47.33s CPU     47.56s WALL (   31306 calls)

     General routines
     calbec       :     47.18s CPU     47.45s WALL (   31306 calls)
     fft          :      0.69s CPU      0.70s WALL (      13 calls)
     ffts         :      0.25s CPU      0.26s WALL (       1 calls)
     fftw         :    407.44s CPU    410.05s WALL (  404110 calls)
     interpolate  :      0.26s CPU      0.26s WALL (       1 calls)

     Parallel routines

     PAW routines
     PAW_pot      :      0.11s CPU      0.11s WALL (       1 calls)

     PWSCF        :  22m48.70s CPU  22m57.64s WALL


   This run was terminated on:  12:22:49   7Sep2026            

=------------------------------------------------------------------------------=
   JOB DONE.
=------------------------------------------------------------------------------=
Note: The following floating-point exceptions are signalling: IEEE_DENORMAL
