
     Program PWSCF v.7.6 starts on  7Sep2026 at 11:59: 9 

     This program is part of the open-source Quantum ESPRESSO suite
     for quantum simulation of materials; please cite
         "P. Giannozzi et al., J. Phys.:Condens. Matter 21 395502 (2009);
         "P. Giannozzi et al., J. Phys.:Condens. Matter 29 465901 (2017);
         "P. Giannozzi et al., J. Chem. Phys. 152 154105 (2020);
          URL http://www.quantum-espresso.org", 
     in publications or presentations arising from this work. More details at
     http://www.quantum-espresso.org/quote

     Parallel version (MPI), running on     4 processors

     MPI processes distributed on     1 nodes
     2836 MiB available memory on the printing compute node when the environment starts

     Waiting for input...
     Reading input from standard input
Warning: card &CELL ignored
Warning: card &FCP ignored
Warning: card &RISM ignored

     Current dimensions of program PWSCF are:
     Max number of different atomic species (ntypx) = 10
     Max number of k-points (npk) =  40000
     Max angular momentum in pseudopotentials (lmaxx) =  4
     Presently no symmetry can be used with electric field

     file C.pbe-n-kjpaw_psl.1.0.0.UPF: wavefunction(s)  2S 2P renormalized

     K-points division:     npool     =       4
     Subspace diagonalization in iterative solution of the eigenvalue problem:
     a serial algorithm will be used


     G-vector sticks info
     --------------------
     sticks:   dense  smooth     PW     G-vecs:    dense   smooth      PW
     Sum         595     361    121               111671    52021   10519

     Using Slab Decomposition



     bravais-lattice index     =            0
     lattice parameter (alat)  =       4.6487  a.u.
     unit-cell volume          =     825.8174 (a.u.)^3
     number of atoms/cell      =            2
     number of atomic types    =            1
     number of electrons       =         8.00
     number of Kohn-Sham states=           10
     kinetic-energy cutoff     =      60.0000  Ry
     charge density cutoff     =     400.0000  Ry
     scf convergence threshold =      1.0E-08
     mixing beta               =       0.7000
     number of iterations used =            8  plain     mixing
     Exchange-correlation= SLA  PW   PBX  PBC
                           (   1   4   3   4   0   0   0)

     celldm(1)=   4.648726  celldm(2)=   0.000000  celldm(3)=   0.000000
     celldm(4)=   0.000000  celldm(5)=   0.000000  celldm(6)=   0.000000

     crystal axes: (cart. coord. in units of alat)
               a(1) = (   1.000000   0.000000   0.000000 )  
               a(2) = (  -0.500000   0.866025   0.000000 )  
               a(3) = (   0.000000   0.000000   9.491870 )  

     reciprocal axes: (cart. coord. in units 2 pi/alat)
               b(1) = (  1.000000  0.577351 -0.000000 )  
               b(2) = (  0.000000  1.154701  0.000000 )  
               b(3) = (  0.000000 -0.000000  0.105353 )  


     PseudoPot. # 1 for C  read from file:
     /home/ubuntu/projects/Graphene-Band-Structure-Quantum-Espresso/pseudo/C.pbe-n-kjpaw_psl.1.0.0.UPF
     MD5 check sum: 5f16ad9a65e90284d1d834d4ab3b0f7d
     Pseudo is Projector augmented-wave + core cor, Zval =  4.0
     Generated using &quot;atomic&quot; code by A. Dal Corso  v.6.3
     Shape of augmentation charge: PSQ
     Using radial grid of 1073 points,  4 beta functions with: 
                l(1) =   0
                l(2) =   0
                l(3) =   1
                l(4) =   1
     Q(r) pseudized with 0 coefficients 


     atomic species   valence    mass     pseudopotential
     C                 4.00    12.01100     C ( 1.00)

     No symmetry found


                                    s                        frac. trans.

      isym =  1     identity                                     

 cryst.   s( 1) = (     1          0          0      )
                  (     0          1          0      )
                  (     0          0          1      )

 cart.    s( 1) = (  1.0000000  0.0000000  0.0000000 )
                  (  0.0000000  1.0000000  0.0000000 )
                  (  0.0000000  0.0000000  1.0000000 )


   Cartesian axes

     site n.     atom                  positions (alat units)
         1        C      tau(   1) = (   0.0000662  -0.0000259   3.8964454  )
         2        C      tau(   2) = (   0.4999411   0.2887090   3.8960654  )

   Crystallographic axes

     site n.     atom                  positions (cryst. coord.)
         1        C      tau(   1) = (  0.0000513 -0.0000299  0.4105035  )
         2        C      tau(   2) = (  0.6666274  0.3333726  0.4104634  )

     number of k points=    74  Gaussian smearing, width (Ry)=  0.0100
                       cart. coord. in units 2pi/alat
        k(    1) = (   0.0000000   0.0000000   0.0000000), wk =   0.0138889
        k(    2) = (   0.0000000   0.0962251   0.0000000), wk =   0.0277778
        k(    3) = (   0.0000000   0.1924502   0.0000000), wk =   0.0277778
        k(    4) = (   0.0000000   0.2886753   0.0000000), wk =   0.0277778
        k(    5) = (   0.0000000   0.3849004   0.0000000), wk =   0.0277778
        k(    6) = (   0.0000000   0.4811254   0.0000000), wk =   0.0277778
        k(    7) = (   0.0000000  -0.5773505   0.0000000), wk =   0.0138889
        k(    8) = (   0.0833333   0.0481125   0.0000000), wk =   0.0277778
        k(    9) = (   0.0833333   0.1443376   0.0000000), wk =   0.0277778
        k(   10) = (   0.0833333   0.2405627   0.0000000), wk =   0.0277778
        k(   11) = (   0.0833333   0.3367878   0.0000000), wk =   0.0277778
        k(   12) = (   0.0833333   0.4330129   0.0000000), wk =   0.0277778
        k(   13) = (   0.0833333   0.5292380   0.0000000), wk =   0.0277778
        k(   14) = (   0.0833333  -0.5292380   0.0000000), wk =   0.0277778
        k(   15) = (   0.0833333  -0.4330129   0.0000000), wk =   0.0277778
        k(   16) = (   0.0833333  -0.3367878   0.0000000), wk =   0.0277778
        k(   17) = (   0.0833333  -0.2405627   0.0000000), wk =   0.0277778
        k(   18) = (   0.0833333  -0.1443376   0.0000000), wk =   0.0277778
        k(   19) = (   0.0833333  -0.0481125   0.0000000), wk =   0.0277778
        k(   20) = (   0.1666667   0.0962251   0.0000000), wk =   0.0277778
        k(   21) = (   0.1666667   0.1924502   0.0000000), wk =   0.0277778
        k(   22) = (   0.1666667   0.2886753   0.0000000), wk =   0.0277778
        k(   23) = (   0.1666667   0.3849004   0.0000000), wk =   0.0277778
        k(   24) = (   0.1666667   0.4811254   0.0000000), wk =   0.0277778
        k(   25) = (   0.1666667   0.5773505   0.0000000), wk =   0.0277778
        k(   26) = (   0.1666667  -0.4811254   0.0000000), wk =   0.0277778
        k(   27) = (   0.1666667  -0.3849004   0.0000000), wk =   0.0277778
        k(   28) = (   0.1666667  -0.2886753   0.0000000), wk =   0.0277778
        k(   29) = (   0.1666667  -0.1924502   0.0000000), wk =   0.0277778
        k(   30) = (   0.1666667  -0.0962251   0.0000000), wk =   0.0277778
        k(   31) = (   0.1666667  -0.0000000   0.0000000), wk =   0.0277778
        k(   32) = (   0.2500000   0.1443376   0.0000000), wk =   0.0277778
        k(   33) = (   0.2500000   0.2405627   0.0000000), wk =   0.0277778
        k(   34) = (   0.2500000   0.3367878   0.0000000), wk =   0.0277778
        k(   35) = (   0.2500000   0.4330129   0.0000000), wk =   0.0277778
        k(   36) = (   0.2500000   0.5292380   0.0000000), wk =   0.0277778
        k(   37) = (   0.2500000   0.6254631   0.0000000), wk =   0.0277778
        k(   38) = (   0.2500000  -0.4330129   0.0000000), wk =   0.0277778
        k(   39) = (   0.2500000  -0.3367878   0.0000000), wk =   0.0277778
        k(   40) = (   0.2500000  -0.2405627   0.0000000), wk =   0.0277778
        k(   41) = (   0.2500000  -0.1443376   0.0000000), wk =   0.0277778
        k(   42) = (   0.2500000  -0.0481125   0.0000000), wk =   0.0277778
        k(   43) = (   0.2500000   0.0481125   0.0000000), wk =   0.0277778
        k(   44) = (   0.3333333   0.1924502   0.0000000), wk =   0.0277778
        k(   45) = (   0.3333333   0.2886753   0.0000000), wk =   0.0277778
        k(   46) = (   0.3333333   0.3849004   0.0000000), wk =   0.0277778
        k(   47) = (   0.3333333   0.4811254   0.0000000), wk =   0.0277778
        k(   48) = (   0.3333333   0.5773505   0.0000000), wk =   0.0277778
        k(   49) = (   0.3333333   0.6735756   0.0000000), wk =   0.0277778
        k(   50) = (   0.3333333  -0.3849004   0.0000000), wk =   0.0277778
        k(   51) = (   0.3333333  -0.2886753   0.0000000), wk =   0.0277778
        k(   52) = (   0.3333333  -0.1924502   0.0000000), wk =   0.0277778
        k(   53) = (   0.3333333  -0.0962251   0.0000000), wk =   0.0277778
        k(   54) = (   0.3333333   0.0000000   0.0000000), wk =   0.0277778
        k(   55) = (   0.3333333   0.0962251   0.0000000), wk =   0.0277778
        k(   56) = (   0.4166667   0.2405627   0.0000000), wk =   0.0277778
        k(   57) = (   0.4166667   0.3367878   0.0000000), wk =   0.0277778
        k(   58) = (   0.4166667   0.4330129   0.0000000), wk =   0.0277778
        k(   59) = (   0.4166667   0.5292380   0.0000000), wk =   0.0277778
        k(   60) = (   0.4166667   0.6254631   0.0000000), wk =   0.0277778
        k(   61) = (   0.4166667   0.7216882   0.0000000), wk =   0.0277778
        k(   62) = (   0.4166667  -0.3367878   0.0000000), wk =   0.0277778
        k(   63) = (   0.4166667  -0.2405627   0.0000000), wk =   0.0277778
        k(   64) = (   0.4166667  -0.1443376   0.0000000), wk =   0.0277778
        k(   65) = (   0.4166667  -0.0481125   0.0000000), wk =   0.0277778
        k(   66) = (   0.4166667   0.0481125   0.0000000), wk =   0.0277778
        k(   67) = (   0.4166667   0.1443376   0.0000000), wk =   0.0277778
        k(   68) = (  -0.5000000  -0.2886753   0.0000000), wk =   0.0138889
        k(   69) = (  -0.5000000  -0.1924502   0.0000000), wk =   0.0277778
        k(   70) = (  -0.5000000  -0.0962251   0.0000000), wk =   0.0277778
        k(   71) = (  -0.5000000   0.0000000   0.0000000), wk =   0.0277778
        k(   72) = (  -0.5000000   0.0962251   0.0000000), wk =   0.0277778
        k(   73) = (  -0.5000000   0.1924502   0.0000000), wk =   0.0277778
        k(   74) = (  -0.5000000  -0.8660258   0.0000000), wk =   0.0138889

                       cryst. coord.
        k(    1) = (   0.0000000   0.0000000   0.0000000), wk =   0.0138889
        k(    2) = (   0.0000000   0.0833333   0.0000000), wk =   0.0277778
        k(    3) = (   0.0000000   0.1666667   0.0000000), wk =   0.0277778
        k(    4) = (   0.0000000   0.2500000   0.0000000), wk =   0.0277778
        k(    5) = (   0.0000000   0.3333333   0.0000000), wk =   0.0277778
        k(    6) = (   0.0000000   0.4166667   0.0000000), wk =   0.0277778
        k(    7) = (   0.0000000  -0.5000000   0.0000000), wk =   0.0138889
        k(    8) = (   0.0833333   0.0000000   0.0000000), wk =   0.0277778
        k(    9) = (   0.0833333   0.0833333   0.0000000), wk =   0.0277778
        k(   10) = (   0.0833333   0.1666667   0.0000000), wk =   0.0277778
        k(   11) = (   0.0833333   0.2500000   0.0000000), wk =   0.0277778
        k(   12) = (   0.0833333   0.3333333   0.0000000), wk =   0.0277778
        k(   13) = (   0.0833333   0.4166667   0.0000000), wk =   0.0277778
        k(   14) = (   0.0833333  -0.5000000   0.0000000), wk =   0.0277778
        k(   15) = (   0.0833333  -0.4166667   0.0000000), wk =   0.0277778
        k(   16) = (   0.0833333  -0.3333333   0.0000000), wk =   0.0277778
        k(   17) = (   0.0833333  -0.2500000   0.0000000), wk =   0.0277778
        k(   18) = (   0.0833333  -0.1666667   0.0000000), wk =   0.0277778
        k(   19) = (   0.0833333  -0.0833333   0.0000000), wk =   0.0277778
        k(   20) = (   0.1666667   0.0000000   0.0000000), wk =   0.0277778
        k(   21) = (   0.1666667   0.0833333   0.0000000), wk =   0.0277778
        k(   22) = (   0.1666667   0.1666667   0.0000000), wk =   0.0277778
        k(   23) = (   0.1666667   0.2500000   0.0000000), wk =   0.0277778
        k(   24) = (   0.1666667   0.3333333   0.0000000), wk =   0.0277778
        k(   25) = (   0.1666667   0.4166667   0.0000000), wk =   0.0277778
        k(   26) = (   0.1666667  -0.5000000   0.0000000), wk =   0.0277778
        k(   27) = (   0.1666667  -0.4166667   0.0000000), wk =   0.0277778
        k(   28) = (   0.1666667  -0.3333333   0.0000000), wk =   0.0277778
        k(   29) = (   0.1666667  -0.2500000   0.0000000), wk =   0.0277778
        k(   30) = (   0.1666667  -0.1666667   0.0000000), wk =   0.0277778
        k(   31) = (   0.1666667  -0.0833333   0.0000000), wk =   0.0277778
        k(   32) = (   0.2500000   0.0000000   0.0000000), wk =   0.0277778
        k(   33) = (   0.2500000   0.0833333   0.0000000), wk =   0.0277778
        k(   34) = (   0.2500000   0.1666667   0.0000000), wk =   0.0277778
        k(   35) = (   0.2500000   0.2500000   0.0000000), wk =   0.0277778
        k(   36) = (   0.2500000   0.3333333   0.0000000), wk =   0.0277778
        k(   37) = (   0.2500000   0.4166667   0.0000000), wk =   0.0277778
        k(   38) = (   0.2500000  -0.5000000   0.0000000), wk =   0.0277778
        k(   39) = (   0.2500000  -0.4166667   0.0000000), wk =   0.0277778
        k(   40) = (   0.2500000  -0.3333333   0.0000000), wk =   0.0277778
        k(   41) = (   0.2500000  -0.2500000   0.0000000), wk =   0.0277778
        k(   42) = (   0.2500000  -0.1666667   0.0000000), wk =   0.0277778
        k(   43) = (   0.2500000  -0.0833333   0.0000000), wk =   0.0277778
        k(   44) = (   0.3333333   0.0000000   0.0000000), wk =   0.0277778
        k(   45) = (   0.3333333   0.0833333   0.0000000), wk =   0.0277778
        k(   46) = (   0.3333333   0.1666667   0.0000000), wk =   0.0277778
        k(   47) = (   0.3333333   0.2500000   0.0000000), wk =   0.0277778
        k(   48) = (   0.3333333   0.3333333   0.0000000), wk =   0.0277778
        k(   49) = (   0.3333333   0.4166667   0.0000000), wk =   0.0277778
        k(   50) = (   0.3333333  -0.5000000   0.0000000), wk =   0.0277778
        k(   51) = (   0.3333333  -0.4166667   0.0000000), wk =   0.0277778
        k(   52) = (   0.3333333  -0.3333333   0.0000000), wk =   0.0277778
        k(   53) = (   0.3333333  -0.2500000   0.0000000), wk =   0.0277778
        k(   54) = (   0.3333333  -0.1666667   0.0000000), wk =   0.0277778
        k(   55) = (   0.3333333  -0.0833333   0.0000000), wk =   0.0277778
        k(   56) = (   0.4166667   0.0000000   0.0000000), wk =   0.0277778
        k(   57) = (   0.4166667   0.0833333   0.0000000), wk =   0.0277778
        k(   58) = (   0.4166667   0.1666667   0.0000000), wk =   0.0277778
        k(   59) = (   0.4166667   0.2500000   0.0000000), wk =   0.0277778
        k(   60) = (   0.4166667   0.3333333   0.0000000), wk =   0.0277778
        k(   61) = (   0.4166667   0.4166667   0.0000000), wk =   0.0277778
        k(   62) = (   0.4166667  -0.5000000   0.0000000), wk =   0.0277778
        k(   63) = (   0.4166667  -0.4166667   0.0000000), wk =   0.0277778
        k(   64) = (   0.4166667  -0.3333333   0.0000000), wk =   0.0277778
        k(   65) = (   0.4166667  -0.2500000   0.0000000), wk =   0.0277778
        k(   66) = (   0.4166667  -0.1666667   0.0000000), wk =   0.0277778
        k(   67) = (   0.4166667  -0.0833333   0.0000000), wk =   0.0277778
        k(   68) = (  -0.5000000   0.0000000   0.0000000), wk =   0.0138889
        k(   69) = (  -0.5000000   0.0833333   0.0000000), wk =   0.0277778
        k(   70) = (  -0.5000000   0.1666667   0.0000000), wk =   0.0277778
        k(   71) = (  -0.5000000   0.2500000   0.0000000), wk =   0.0277778
        k(   72) = (  -0.5000000   0.3333333   0.0000000), wk =   0.0277778
        k(   73) = (  -0.5000000   0.4166667   0.0000000), wk =   0.0277778
        k(   74) = (  -0.5000000  -0.5000000   0.0000000), wk =   0.0138889

     Dense  grid:   111671 G-vectors     FFT dimensions: (  30,  30, 288)

     Smooth grid:    52021 G-vectors     FFT dimensions: (  24,  24, 225)

     Dynamical RAM for                 wfc:       0.99 MB

     Dynamical RAM for     wfc (w. buffer):      19.78 MB

     Dynamical RAM for           str. fact:       1.70 MB

     Dynamical RAM for           local pot:       0.00 MB

     Dynamical RAM for          nlocal pot:       1.58 MB

     Dynamical RAM for                qrad:       0.46 MB

     Dynamical RAM for          rho,v,vnew:      11.04 MB

     Dynamical RAM for               rhoin:       3.68 MB

     Dynamical RAM for            rho*nmix:      27.26 MB

     Dynamical RAM for           G-vectors:       6.79 MB

     Dynamical RAM for          h,s,v(r/c):       0.02 MB

     Dynamical RAM for          <psi|beta>:       0.00 MB

     Dynamical RAM for                 psi:       1.98 MB

     Dynamical RAM for                hpsi:       1.98 MB

     Dynamical RAM for                spsi:       1.98 MB

     Dynamical RAM for      wfcinit/wfcrot:       1.98 MB

     Dynamical RAM for           addusdens:      20.45 MB

     Dynamical RAM for          addusforce:      20.87 MB

     Estimated static dynamical RAM per process >      58.33 MB

     Estimated max dynamical RAM per process >     106.47 MB

     Estimated total dynamical RAM >     344.09 MB
 ----2D----2D----2D----2D----2D----2D----2D----2D----2D----2D----2D----2D
  The code is running with the 2D cutoff
  Please refer to:
  Sohier, T., Calandra, M., & Mauri, F. (2017), 
  Density functional perturbation theory for gated two-dimensional heterostructures:
  Theoretical developments and application to flexural phonons in graphene.
  Physical Review B, 96(7), 75448. https://doi.org/10.1103/PhysRevB.96.075448
 ----2D----2D----2D----2D----2D----2D----2D----2D----2D----2D----2D----2D

     Adding external electric field
        E field amplitude [Ha a.u.]:  1.0000E-02
        Potential amp.        0.7943 Ry
        Total length         39.7126 bohr


     Check: negative core charge=   -0.000002

     Initial potential from superposition of free atoms

     starting charge       7.9999, renormalised to       8.0000

     negative rho (up, down):  1.246E-04 0.000E+00
     Starting wfcs are    8 randomized atomic wfcs +    2 random wfcs
     Checking if some PAW data can be deallocated... 

     total cpu time spent up to now is        3.1 secs

     Self-consistent Calculation

     iteration #  1     ecut=    60.00 Ry     beta= 0.70
     Davidson diagonalization with overlap

---- Real-time Memory Report at c_bands before calling an iterative solver
            89 MiB given to the printing process from OS
             0 MiB allocation reported by mallinfo(arena+hblkhd)
          2733 MiB available memory on the node where the printing process lives
------------------
     ethr =  1.00E-02,  avg # of iterations = 11.6

     negative rho (up, down):  1.326E-04 0.000E+00

     total cpu time spent up to now is       11.6 secs

     total energy              =     -36.85525587 Ry
     estimated scf accuracy    <       0.20497079 Ry

     iteration #  2     ecut=    60.00 Ry     beta= 0.70
     Davidson diagonalization with overlap

---- Real-time Memory Report at c_bands before calling an iterative solver
           122 MiB given to the printing process from OS
             0 MiB allocation reported by mallinfo(arena+hblkhd)
          2604 MiB available memory on the node where the printing process lives
------------------
     ethr =  2.56E-03,  avg # of iterations =  2.9

     negative rho (up, down):  1.354E-04 0.000E+00

     total cpu time spent up to now is       15.6 secs

     total energy              =     -36.88643233 Ry
     estimated scf accuracy    <       0.00393779 Ry

     iteration #  3     ecut=    60.00 Ry     beta= 0.70
     Davidson diagonalization with overlap

---- Real-time Memory Report at c_bands before calling an iterative solver
           123 MiB given to the printing process from OS
             0 MiB allocation reported by mallinfo(arena+hblkhd)
          2671 MiB available memory on the node where the printing process lives
------------------
     ethr =  4.92E-05,  avg # of iterations =  8.5

     negative rho (up, down):  1.379E-04 0.000E+00

     total cpu time spent up to now is       22.4 secs

     total energy              =     -36.88703974 Ry
     estimated scf accuracy    <       0.00199225 Ry

     iteration #  4     ecut=    60.00 Ry     beta= 0.70
     Davidson diagonalization with overlap

---- Real-time Memory Report at c_bands before calling an iterative solver
           125 MiB given to the printing process from OS
             0 MiB allocation reported by mallinfo(arena+hblkhd)
          2658 MiB available memory on the node where the printing process lives
------------------
     ethr =  2.49E-05,  avg # of iterations =  5.3

     negative rho (up, down):  1.432E-04 0.000E+00

     total cpu time spent up to now is       26.8 secs

     total energy              =     -36.88764992 Ry
     estimated scf accuracy    <       0.00023662 Ry

     iteration #  5     ecut=    60.00 Ry     beta= 0.70
     Davidson diagonalization with overlap

---- Real-time Memory Report at c_bands before calling an iterative solver
           127 MiB given to the printing process from OS
             0 MiB allocation reported by mallinfo(arena+hblkhd)
          2653 MiB available memory on the node where the printing process lives
------------------
     ethr =  2.96E-06,  avg # of iterations =  4.4

     negative rho (up, down):  1.437E-04 0.000E+00

     total cpu time spent up to now is       30.9 secs

     total energy              =     -36.88769420 Ry
     estimated scf accuracy    <       0.00000077 Ry

     iteration #  6     ecut=    60.00 Ry     beta= 0.70
     Davidson diagonalization with overlap

---- Real-time Memory Report at c_bands before calling an iterative solver
           128 MiB given to the printing process from OS
             0 MiB allocation reported by mallinfo(arena+hblkhd)
          2650 MiB available memory on the node where the printing process lives
------------------
     ethr =  9.67E-09,  avg # of iterations =  3.6

     negative rho (up, down):  1.438E-04 0.000E+00

     total cpu time spent up to now is       34.5 secs

     total energy              =     -36.88769521 Ry
     estimated scf accuracy    <       0.00000017 Ry

     iteration #  7     ecut=    60.00 Ry     beta= 0.70
     Davidson diagonalization with overlap

---- Real-time Memory Report at c_bands before calling an iterative solver
           130 MiB given to the printing process from OS
             0 MiB allocation reported by mallinfo(arena+hblkhd)
          2647 MiB available memory on the node where the printing process lives
------------------
     ethr =  2.11E-09,  avg # of iterations =  1.4

     negative rho (up, down):  1.438E-04 0.000E+00

     total cpu time spent up to now is       37.7 secs

     total energy              =     -36.88769523 Ry
     estimated scf accuracy    <       0.00000002 Ry

     iteration #  8     ecut=    60.00 Ry     beta= 0.70
     Davidson diagonalization with overlap

---- Real-time Memory Report at c_bands before calling an iterative solver
           131 MiB given to the printing process from OS
             0 MiB allocation reported by mallinfo(arena+hblkhd)
          2654 MiB available memory on the node where the printing process lives
------------------
     ethr =  2.67E-10,  avg # of iterations =  2.0

     negative rho (up, down):  1.438E-04 0.000E+00

     total cpu time spent up to now is       41.4 secs

     End of self-consistent calculation

          k = 0.0000 0.0000 0.0000 (  6469 PWs)   bands (ev):

   -24.2911 -12.3753  -7.7593  -7.7491  -3.6353  -2.2595  -1.0475   0.0157
     1.5021   2.4537

     occupation numbers 
     1.0000   1.0000   1.0000   1.0000   0.0000   0.0000   0.0000   0.0000
     0.0000   0.0000

          k = 0.0000 0.0962 0.0000 (  6478 PWs)   bands (ev):

   -24.1265 -12.1782  -8.4091  -8.0933  -3.4052  -2.0317  -0.8221   0.2396
     1.7272   2.6806

     occupation numbers 
     1.0000   1.0000   1.0000   1.0000   0.0000   0.0000   0.0000   0.0000
     0.0000   0.0000

          k = 0.0000 0.1925 0.0000 (  6486 PWs)   bands (ev):

   -23.6344 -11.5920 -10.0526  -8.8924  -2.7149  -1.3489  -0.1458   0.9097
     2.4009   3.3518

     occupation numbers 
     1.0000   1.0000   1.0000   1.0000   0.0000   0.0000   0.0000   0.0000
     0.0000   0.0000

          k = 0.0000 0.2887 0.0000 (  6494 PWs)   bands (ev):

   -22.8206 -12.1594 -10.6359  -9.7790  -1.5644  -0.2130   0.9793   1.9910
     2.6222   3.3782

     occupation numbers 
     1.0000   1.0000   1.0000   1.0000   0.0000   0.0000   0.0000   0.0000
     0.0000   0.0000

          k = 0.0000 0.3849 0.0000 (  6484 PWs)   bands (ev):

   -21.6972 -14.3720 -10.5178  -9.3602   0.0448   0.2332   1.3879   2.5395
     3.0924   3.6151

     occupation numbers 
     1.0000   1.0000   1.0000   1.0000   0.0000   0.0000   0.0000   0.0000
     0.0000   0.0000

          k = 0.0000 0.4811 0.0000 (  6486 PWs)   bands (ev):

   -20.2945 -16.4821 -10.9941  -7.9285  -1.9151   2.1173   2.8322   3.4260
     4.5823   5.5778

     occupation numbers 
     1.0000   1.0000   1.0000   1.0000   0.0000   0.0000   0.0000   0.0000
     0.0000   0.0000

          k = 0.0000-0.5774 0.0000 (  6508 PWs)   bands (ev):

   -19.0179 -18.0025 -11.1576  -7.0775  -3.0213   2.7554   4.6441   4.6518
     5.8631   5.9098

     occupation numbers 
     1.0000   1.0000   1.0000   1.0000   0.0000   0.0000   0.0000   0.0000
     0.0000   0.0000

          k = 0.0833 0.0481 0.0000 (  6478 PWs)   bands (ev):

   -24.1265 -12.1782  -8.4097  -8.0927  -3.4052  -2.0317  -0.8221   0.2396
     1.7273   2.6797

     occupation numbers 
     1.0000   1.0000   1.0000   1.0000   0.0000   0.0000   0.0000   0.0000
     0.0000   0.0000

          k = 0.0833 0.1443 0.0000 (  6487 PWs)   bands (ev):

   -23.7982 -11.7864  -9.4485  -8.7737  -2.9450  -1.5764  -0.3710   0.6869
     2.1774   3.1314

     occupation numbers 
     1.0000   1.0000   1.0000   1.0000   0.0000   0.0000   0.0000   0.0000
     0.0000   0.0000

          k = 0.0833 0.2406 0.0000 (  6474 PWs)   bands (ev):

   -23.1453 -11.1634 -11.0139  -9.7803  -2.0246  -0.6665   0.5306   1.5770
     3.0702   3.4485

     occupation numbers 
     1.0000   1.0000   1.0000   1.0000   0.0000   0.0000   0.0000   0.0000
     0.0000   0.0000

          k = 0.0833 0.3368 0.0000 (  6487 PWs)   bands (ev):

   -22.1765 -13.2443 -10.6734  -9.8916  -0.6440   0.6880   1.2728   1.8814
     2.9223   3.9455

     occupation numbers 
     1.0000   1.0000   1.0000   1.0000   0.0000   0.0000   0.0000   0.0000
     0.0000   0.0000

          k = 0.0833 0.4330 0.0000 (  6482 PWs)   bands (ev):

   -20.9105 -15.3763 -11.3127  -8.5036  -0.9609   1.1969   2.5113   3.5751
     3.7706   4.6871

     occupation numbers 
     1.0000   1.0000   1.0000   1.0000   0.0000   0.0000   0.0000   0.0000
     0.0000   0.0000

          k = 0.0833 0.5292 0.0000 (  6501 PWs)   bands (ev):

   -19.4220 -17.3289 -11.6434  -7.1853  -2.7421   3.4934   3.5002   4.7644
     5.9099   6.2578

     occupation numbers 
     1.0000   1.0000   1.0000   1.0000   0.0000   0.0000   0.0000   0.0000
     0.0000   0.0000

          k = 0.0833-0.5292 0.0000 (  6501 PWs)   bands (ev):

   -19.4219 -17.3288 -11.6435  -7.1856  -2.7416   3.4932   3.5001   4.7644
     5.9100   6.2579

     occupation numbers 
     1.0000   1.0000   1.0000   1.0000   0.0000   0.0000   0.0000   0.0000
     0.0000   0.0000

          k = 0.0833-0.4330 0.0000 (  6482 PWs)   bands (ev):

   -20.9104 -15.3760 -11.3131  -8.5039  -0.9600   1.1969   2.5113   3.5743
     3.7706   4.6871

     occupation numbers 
     1.0000   1.0000   1.0000   1.0000   0.0000   0.0000   0.0000   0.0000
     0.0000   0.0000

          k = 0.0833-0.3368 0.0000 (  6487 PWs)   bands (ev):

   -22.1764 -13.2433 -10.6746  -9.8918  -0.6440   0.6880   1.2740   1.8814
     2.9222   3.9435

     occupation numbers 
     1.0000   1.0000   1.0000   1.0000   0.0000   0.0000   0.0000   0.0000
     0.0000   0.0000

          k = 0.0833-0.2406 0.0000 (  6474 PWs)   bands (ev):

   -23.1452 -11.1605 -11.0141  -9.7834  -2.0246  -0.6665   0.5306   1.5770
     3.0702   3.4498

     occupation numbers 
     1.0000   1.0000   1.0000   1.0000   0.0000   0.0000   0.0000   0.0000
     0.0000   0.0000

          k = 0.0833-0.1443 0.0000 (  6487 PWs)   bands (ev):

   -23.7981 -11.7865  -9.4419  -8.7807  -2.9450  -1.5764  -0.3710   0.6869
     2.1774   3.1314

     occupation numbers 
     1.0000   1.0000   1.0000   1.0000   0.0000   0.0000   0.0000   0.0000
     0.0000   0.0000

          k = 0.0833-0.0481 0.0000 (  6478 PWs)   bands (ev):

   -24.1265 -12.1782  -8.4026  -8.1000  -3.4052  -2.0317  -0.8221   0.2396
     1.7272   2.6796

     occupation numbers 
     1.0000   1.0000   1.0000   1.0000   0.0000   0.0000   0.0000   0.0000
     0.0000   0.0000

          k = 0.1667 0.0962 0.0000 (  6486 PWs)   bands (ev):

   -23.6344 -11.5919 -10.0531  -8.8918  -2.7149  -1.3489  -0.1458   0.9097
     2.4009   3.3526

     occupation numbers 
     1.0000   1.0000   1.0000   1.0000   0.0000   0.0000   0.0000   0.0000
     0.0000   0.0000

          k = 0.1667 0.1925 0.0000 (  6474 PWs)   bands (ev):

   -23.1453 -11.1636 -11.0139  -9.7800  -2.0246  -0.6665   0.5306   1.5770
     3.0702   3.4486

     occupation numbers 
     1.0000   1.0000   1.0000   1.0000   0.0000   0.0000   0.0000   0.0000
     0.0000   0.0000

          k = 0.1667 0.2887 0.0000 (  6494 PWs)   bands (ev):

   -22.3374 -12.4975 -11.1514 -10.0714  -0.8741   0.4691   1.6566   1.7166
     2.6832   4.1926

     occupation numbers 
     1.0000   1.0000   1.0000   1.0000   0.0000   0.0000   0.0000   0.0000
     0.0000   0.0000

          k = 0.1667 0.3849 0.0000 (  6484 PWs)   bands (ev):

   -21.2248 -14.2313 -12.2144  -8.8109  -0.2450   0.7366   2.0538   3.2273
     4.2007   5.5780

     occupation numbers 
     1.0000   1.0000   1.0000   1.0000   0.0000   0.0000   0.0000   0.0000
     0.0000   0.0000

          k = 0.1667 0.4811 0.0000 (  6474 PWs)   bands (ev):

   -19.8421 -16.1514 -12.7933  -7.3750  -2.1704   2.8071   4.0728   5.2013
     5.4321   6.0366

     occupation numbers 
     1.0000   1.0000   1.0000   1.0000   0.0000   0.0000   0.0000   0.0000
     0.0000   0.0000

          k = 0.1667 0.5774 0.0000 (  6478 PWs)   bands (ev):

   -18.5956 -17.5993 -12.9792  -6.4760  -3.2460   5.3096   5.3322   5.3418
     6.3781   6.5037

     occupation numbers 
     1.0000   1.0000   1.0000   1.0000   0.0000   0.0000   0.0000   0.0000
     0.0000   0.0000

          k = 0.1667-0.4811 0.0000 (  6474 PWs)   bands (ev):

   -19.8420 -16.1508 -12.7941  -7.3758  -2.1687   2.8071   4.0728   5.2005
     5.4318   6.0362

     occupation numbers 
     1.0000   1.0000   1.0000   1.0000   0.0000   0.0000   0.0000   0.0000
     0.0000   0.0000

          k = 0.1667-0.3849 0.0000 (  6484 PWs)   bands (ev):

   -21.2247 -14.2292 -12.2168  -8.8115  -0.2427   0.7366   2.0538   3.2273
     4.2004   5.5745

     occupation numbers 
     1.0000   1.0000   1.0000   1.0000   0.0000   0.0000   0.0000   0.0000
     0.0000   0.0000

          k = 0.1667-0.2887 0.0000 (  6494 PWs)   bands (ev):

   -22.3373 -12.4926 -11.1568 -10.0719  -0.8741   0.4691   1.6566   1.7190
     2.6831   4.1924

     occupation numbers 
     1.0000   1.0000   1.0000   1.0000   0.0000   0.0000   0.0000   0.0000
     0.0000   0.0000

          k = 0.1667-0.1925 0.0000 (  6474 PWs)   bands (ev):

   -23.1452 -11.1579 -11.0142  -9.7865  -2.0246  -0.6665   0.5306   1.5769
     3.0701   3.4510

     occupation numbers 
     1.0000   1.0000   1.0000   1.0000   0.0000   0.0000   0.0000   0.0000
     0.0000   0.0000

          k = 0.1667-0.0962 0.0000 (  6486 PWs)   bands (ev):

   -23.6344 -11.5921 -10.0477  -8.8978  -2.7149  -1.3489  -0.1458   0.9096
     2.4008   3.3512

     occupation numbers 
     1.0000   1.0000   1.0000   1.0000   0.0000   0.0000   0.0000   0.0000
     0.0000   0.0000

          k = 0.1667-0.0000 0.0000 (  6487 PWs)   bands (ev):

   -23.7981 -11.7865  -9.4425  -8.7801  -2.9450  -1.5764  -0.3710   0.6869
     2.1774   3.1309

     occupation numbers 
     1.0000   1.0000   1.0000   1.0000   0.0000   0.0000   0.0000   0.0000
     0.0000   0.0000

          k = 0.2500 0.1443 0.0000 (  6494 PWs)   bands (ev):

   -22.8206 -12.1597 -10.6358  -9.7785  -1.5644  -0.2130   0.9793   1.9909
     2.6220   3.3785

     occupation numbers 
     1.0000   1.0000   1.0000   1.0000   0.0000   0.0000   0.0000   0.0000
     0.0000   0.0000

          k = 0.2500 0.2406 0.0000 (  6487 PWs)   bands (ev):

   -22.1765 -13.2445 -10.6731  -9.8915  -0.6440   0.6880   1.2726   1.8814
     2.9223   3.9457

     occupation numbers 
     1.0000   1.0000   1.0000   1.0000   0.0000   0.0000   0.0000   0.0000
     0.0000   0.0000

          k = 0.2500 0.3368 0.0000 (  6484 PWs)   bands (ev):

   -21.2248 -14.2314 -12.2142  -8.8108  -0.2451   0.7366   2.0538   3.2273
     4.2006   5.5782

     occupation numbers 
     1.0000   1.0000   1.0000   1.0000   0.0000   0.0000   0.0000   0.0000
     0.0000   0.0000

          k = 0.2500 0.4330 0.0000 (  6442 PWs)   bands (ev):

   -19.9909 -15.2676 -13.7084  -7.4597  -1.8691   2.5769   3.8392   5.0066
     5.7222   7.2640

     occupation numbers 
     1.0000   1.0000   1.0000   1.0000   0.0000   0.0000   0.0000   0.0000
     0.0000   0.0000

          k = 0.2500 0.5292 0.0000 (  6455 PWs)   bands (ev):

   -18.5600 -16.6970 -14.4198  -6.0648  -3.3989   4.8757   5.8488   6.5580
     7.1649   7.5933

     occupation numbers 
     1.0000   1.0000   1.0000   1.0000   0.0000   0.0000   0.0000   0.0000
     0.0000   0.0000

          k = 0.2500 0.6255 0.0000 (  6455 PWs)   bands (ev):

   -18.5602 -16.6958 -14.4209  -6.0662  -3.3969   4.8757   5.8483   6.5575
     7.1642   7.5950

     occupation numbers 
     1.0000   1.0000   1.0000   1.0000   0.0000   0.0000   0.0000   0.0000
     0.0000   0.0000

          k = 0.2500-0.4330 0.0000 (  6442 PWs)   bands (ev):

   -19.9908 -15.2640 -13.7123  -7.4612  -1.8659   2.5769   3.8391   5.0065
     5.7213   7.2631

     occupation numbers 
     1.0000   1.0000   1.0000   1.0000   0.0000   0.0000   0.0000   0.0000
     0.0000   0.0000

          k = 0.2500-0.3368 0.0000 (  6484 PWs)   bands (ev):

   -21.2246 -14.2274 -12.2190  -8.8119  -0.2417   0.7366   2.0538   3.2273
     4.2004   5.5738

     occupation numbers 
     1.0000   1.0000   1.0000   1.0000   0.0000   0.0000   0.0000   0.0000
     0.0000   0.0000

          k = 0.2500-0.2406 0.0000 (  6487 PWs)   bands (ev):

   -22.1764 -13.2407 -10.6780  -9.8923  -0.6440   0.6879   1.2755   1.8814
     2.9223   3.9417

     occupation numbers 
     1.0000   1.0000   1.0000   1.0000   0.0000   0.0000   0.0000   0.0000
     0.0000   0.0000

          k = 0.2500-0.1443 0.0000 (  6494 PWs)   bands (ev):

   -22.8205 -12.1558 -10.6362  -9.7834  -1.5644  -0.2130   0.9793   1.9907
     2.6243   3.3759

     occupation numbers 
     1.0000   1.0000   1.0000   1.0000   0.0000   0.0000   0.0000   0.0000
     0.0000   0.0000

          k = 0.2500-0.0481 0.0000 (  6474 PWs)   bands (ev):

   -23.1452 -11.1581 -11.0142  -9.7862  -2.0246  -0.6665   0.5306   1.5769
     3.0701   3.4510

     occupation numbers 
     1.0000   1.0000   1.0000   1.0000   0.0000   0.0000   0.0000   0.0000
     0.0000   0.0000

          k = 0.2500 0.0481 0.0000 (  6474 PWs)   bands (ev):

   -23.1452 -11.1610 -11.0141  -9.7829  -2.0246  -0.6665   0.5306   1.5770
     3.0702   3.4496

     occupation numbers 
     1.0000   1.0000   1.0000   1.0000   0.0000   0.0000   0.0000   0.0000
     0.0000   0.0000

          k = 0.3333 0.1925 0.0000 (  6484 PWs)   bands (ev):

   -21.6972 -14.3723 -10.5174  -9.3601   0.0448   0.2329   1.3879   2.5395
     3.0926   3.6151

     occupation numbers 
     1.0000   1.0000   1.0000   1.0000   0.0000   0.0000   0.0000   0.0000
     0.0000   0.0000

          k = 0.3333 0.2887 0.0000 (  6482 PWs)   bands (ev):

   -20.9105 -15.3765 -11.3124  -8.5035  -0.9612   1.1969   2.5113   3.5752
     3.7707   4.6871

     occupation numbers 
     1.0000   1.0000   1.0000   1.0000   0.0000   0.0000   0.0000   0.0000
     0.0000   0.0000

          k = 0.3333 0.3849 0.0000 (  6474 PWs)   bands (ev):

   -19.8421 -16.1516 -12.7930  -7.3748  -2.1706   2.8071   4.0728   5.2013
     5.4323   6.0366

     occupation numbers 
     1.0000   1.0000   1.0000   1.0000   0.0000   0.0000   0.0000   0.0000
     0.0000   0.0000

          k = 0.3333 0.4811 0.0000 (  6455 PWs)   bands (ev):

   -18.5600 -16.6972 -14.4196  -6.0646  -3.3992   4.8757   5.8488   6.5581
     7.1649   7.5934

     occupation numbers 
     1.0000   1.0000   1.0000   1.0000   0.0000   0.0000   0.0000   0.0000
     0.0000   0.0000

          k = 0.3333 0.5774 0.0000 (  6450 PWs)   bands (ev):

   -17.3371 -17.3337 -15.3290  -4.7043  -4.6997   5.8881   7.4084   7.4089
     7.4093   8.0899

     occupation numbers 
     1.0000   1.0000   1.0000   0.5095   0.4905   0.0000   0.0000   0.0000
     0.0000   0.0000

          k = 0.3333 0.6736 0.0000 (  6455 PWs)   bands (ev):

   -18.5607 -16.6936 -14.4229  -6.0678  -3.3945   4.8757   5.8481   6.5571
     7.1645   7.5930

     occupation numbers 
     1.0000   1.0000   1.0000   1.0000   0.0000   0.0000   0.0000   0.0000
     0.0000   0.0000

          k = 0.3333-0.3849 0.0000 (  6474 PWs)   bands (ev):

   -19.8421 -16.1486 -12.7967  -7.3771  -2.1661   2.8071   4.0728   5.2006
     5.4302   6.0361

     occupation numbers 
     1.0000   1.0000   1.0000   1.0000   0.0000   0.0000   0.0000   0.0000
     0.0000   0.0000

          k = 0.3333-0.2887 0.0000 (  6482 PWs)   bands (ev):

   -20.9104 -15.3737 -11.3163  -8.5050  -0.9573   1.1969   2.5113   3.5736
     3.7698   4.6871

     occupation numbers 
     1.0000   1.0000   1.0000   1.0000   0.0000   0.0000   0.0000   0.0000
     0.0000   0.0000

          k = 0.3333-0.1925 0.0000 (  6484 PWs)   bands (ev):

   -21.6970 -14.3694 -10.5216  -9.3611   0.0448   0.2358   1.3879   2.5395
     3.0905   3.6152

     occupation numbers 
     1.0000   1.0000   1.0000   1.0000   0.0000   0.0000   0.0000   0.0000
     0.0000   0.0000

          k = 0.3333-0.0962 0.0000 (  6487 PWs)   bands (ev):

   -22.1764 -13.2408 -10.6779  -9.8922  -0.6440   0.6879   1.2754   1.8814
     2.9223   3.9418

     occupation numbers 
     1.0000   1.0000   1.0000   1.0000   0.0000   0.0000   0.0000   0.0000
     0.0000   0.0000

          k = 0.3333 0.0000 0.0000 (  6494 PWs)   bands (ev):

   -22.3373 -12.4930 -11.1564 -10.0718  -0.8741   0.4691   1.6566   1.7188
     2.6831   4.1924

     occupation numbers 
     1.0000   1.0000   1.0000   1.0000   0.0000   0.0000   0.0000   0.0000
     0.0000   0.0000

          k = 0.3333 0.0962 0.0000 (  6487 PWs)   bands (ev):

   -22.1765 -13.2436 -10.6742  -9.8918  -0.6440   0.6880   1.2737   1.8814
     2.9222   3.9439

     occupation numbers 
     1.0000   1.0000   1.0000   1.0000   0.0000   0.0000   0.0000   0.0000
     0.0000   0.0000

          k = 0.4167 0.2406 0.0000 (  6486 PWs)   bands (ev):

   -20.2945 -16.4823 -10.9938  -7.9283  -1.9155   2.1173   2.8323   3.4260
     4.5823   5.5778

     occupation numbers 
     1.0000   1.0000   1.0000   1.0000   0.0000   0.0000   0.0000   0.0000
     0.0000   0.0000

          k = 0.4167 0.3368 0.0000 (  6501 PWs)   bands (ev):

   -19.4219 -17.3291 -11.6431  -7.1851  -2.7425   3.4935   3.5002   4.7644
     5.9099   6.2577

     occupation numbers 
     1.0000   1.0000   1.0000   1.0000   0.0000   0.0000   0.0000   0.0000
     0.0000   0.0000

          k = 0.4167 0.4330 0.0000 (  6478 PWs)   bands (ev):

   -18.5954 -17.5997 -12.9789  -6.4757  -3.2464   5.3098   5.3322   5.3418
     6.3781   6.5037

     occupation numbers 
     1.0000   1.0000   1.0000   1.0000   0.0000   0.0000   0.0000   0.0000
     0.0000   0.0000

          k = 0.4167 0.5292 0.0000 (  6455 PWs)   bands (ev):

   -18.5601 -16.6961 -14.4206  -6.0659  -3.3973   4.8757   5.8483   6.5576
     7.1643   7.5951

     occupation numbers 
     1.0000   1.0000   1.0000   1.0000   0.0000   0.0000   0.0000   0.0000
     0.0000   0.0000

          k = 0.4167 0.6255 0.0000 (  6455 PWs)   bands (ev):

   -18.5607 -16.6937 -14.4228  -6.0677  -3.3947   4.8757   5.8481   6.5572
     7.1645   7.5926

     occupation numbers 
     1.0000   1.0000   1.0000   1.0000   0.0000   0.0000   0.0000   0.0000
     0.0000   0.0000

          k = 0.4167 0.7217 0.0000 (  6478 PWs)   bands (ev):

   -18.5976 -17.5952 -12.9820  -6.4794  -3.2408   5.3079   5.3322   5.3418
     6.3781   6.5035

     occupation numbers 
     1.0000   1.0000   1.0000   1.0000   0.0000   0.0000   0.0000   0.0000
     0.0000   0.0000

          k = 0.4167-0.3368 0.0000 (  6501 PWs)   bands (ev):

   -19.4224 -17.3261 -11.6466  -7.1883  -2.7369   3.4922   3.4996   4.7644
     5.9100   6.2578

     occupation numbers 
     1.0000   1.0000   1.0000   1.0000   0.0000   0.0000   0.0000   0.0000
     0.0000   0.0000

          k = 0.4167-0.2406 0.0000 (  6486 PWs)   bands (ev):

   -20.2945 -16.4798 -10.9975  -7.9304  -1.9110   2.1173   2.8307   3.4260
     4.5823   5.5778

     occupation numbers 
     1.0000   1.0000   1.0000   1.0000   0.0000   0.0000   0.0000   0.0000
     0.0000   0.0000

          k = 0.4167-0.1443 0.0000 (  6482 PWs)   bands (ev):

   -20.9104 -15.3737 -11.3163  -8.5050  -0.9574   1.1969   2.5113   3.5737
     3.7698   4.6871

     occupation numbers 
     1.0000   1.0000   1.0000   1.0000   0.0000   0.0000   0.0000   0.0000
     0.0000   0.0000

          k = 0.4167-0.0481 0.0000 (  6484 PWs)   bands (ev):

   -21.2246 -14.2276 -12.2188  -8.8118  -0.2419   0.7366   2.0538   3.2273
     4.2004   5.5732

     occupation numbers 
     1.0000   1.0000   1.0000   1.0000   0.0000   0.0000   0.0000   0.0000
     0.0000   0.0000

          k = 0.4167 0.0481 0.0000 (  6484 PWs)   bands (ev):

   -21.2247 -14.2296 -12.2164  -8.8115  -0.2430   0.7366   2.0538   3.2272
     4.2004   5.5754

     occupation numbers 
     1.0000   1.0000   1.0000   1.0000   0.0000   0.0000   0.0000   0.0000
     0.0000   0.0000

          k = 0.4167 0.1443 0.0000 (  6482 PWs)   bands (ev):

   -20.9105 -15.3763 -11.3128  -8.5038  -0.9603   1.1969   2.5113   3.5744
     3.7707   4.6871

     occupation numbers 
     1.0000   1.0000   1.0000   1.0000   0.0000   0.0000   0.0000   0.0000
     0.0000   0.0000

          k =-0.5000-0.2887 0.0000 (  6508 PWs)   bands (ev):

   -19.0178 -18.0029 -11.1573  -7.0772  -3.0218   2.7555   4.6442   4.6518
     5.8631   5.9098

     occupation numbers 
     1.0000   1.0000   1.0000   1.0000   0.0000   0.0000   0.0000   0.0000
     0.0000   0.0000

          k =-0.5000-0.1925 0.0000 (  6501 PWs)   bands (ev):

   -19.4219 -17.3291 -11.6432  -7.1853  -2.7421   3.4933   3.5002   4.7644
     5.9100   6.2578

     occupation numbers 
     1.0000   1.0000   1.0000   1.0000   0.0000   0.0000   0.0000   0.0000
     0.0000   0.0000

          k =-0.5000-0.0962 0.0000 (  6474 PWs)   bands (ev):

   -19.8420 -16.1511 -12.7938  -7.3756  -2.1691   2.8071   4.0728   5.2006
     5.4320   6.0363

     occupation numbers 
     1.0000   1.0000   1.0000   1.0000   0.0000   0.0000   0.0000   0.0000
     0.0000   0.0000

          k =-0.5000 0.0000 0.0000 (  6442 PWs)   bands (ev):

   -19.9908 -15.2643 -13.7120  -7.4611  -1.8662   2.5769   3.8391   5.0065
     5.7213   7.2631

     occupation numbers 
     1.0000   1.0000   1.0000   1.0000   0.0000   0.0000   0.0000   0.0000
     0.0000   0.0000

          k =-0.5000 0.0962 0.0000 (  6474 PWs)   bands (ev):

   -19.8421 -16.1487 -12.7966  -7.3771  -2.1662   2.8071   4.0728   5.2007
     5.4303   6.0361

     occupation numbers 
     1.0000   1.0000   1.0000   1.0000   0.0000   0.0000   0.0000   0.0000
     0.0000   0.0000

          k =-0.5000 0.1925 0.0000 (  6501 PWs)   bands (ev):

   -19.4224 -17.3261 -11.6466  -7.1883  -2.7370   3.4922   3.4996   4.7644
     5.9100   6.2579

     occupation numbers 
     1.0000   1.0000   1.0000   1.0000   0.0000   0.0000   0.0000   0.0000
     0.0000   0.0000

          k =-0.5000-0.8660 0.0000 (  6508 PWs)   bands (ev):

   -19.0197 -17.9985 -11.1609  -7.0810  -3.0157   2.7540   4.6441   4.6518
     5.8630   5.9102

     occupation numbers 
     1.0000   1.0000   1.0000   1.0000   0.0000   0.0000   0.0000   0.0000
     0.0000   0.0000

     the Fermi energy is    -4.7020 ev

!    total energy              =     -36.88769524 Ry
     total all-electron energy =      -152.415890 Ry
     estimated scf accuracy    <          1.2E-09 Ry
     smearing contrib. (-TS)   =      -0.00015668 Ry
     internal energy E=F+TS    =     -36.88753857 Ry

     The total energy is F=E-TS. E is the sum of the following terms:
     one-electron contribution =    -427.38042582 Ry
     hartree contribution      =     214.43145487 Ry
     xc contribution           =      -9.28478939 Ry
     ewald contribution        =     197.40163803 Ry
     electric field correction =       0.27898761 Ry
     one-center paw contrib.   =     -12.33440387 Ry
      -> PAW hartree energy AE =       9.52677327 Ry
      -> PAW hartree energy PS =      -9.51809321 Ry
      -> PAW xc energy AE      =     -10.68297885 Ry
      -> PAW xc energy PS      =       4.50709642 Ry
      -> total E_H with PAW    =     214.44013492 Ry
      -> total E_XC with PAW   =     -15.46067182 Ry

     convergence has been achieved in   8 iterations

     negative rho (up, down):  1.438E-04 0.000E+00

     Forces acting on atoms (cartesian axes, Ry/au):

     atom    1 type  1   force =    -0.00055247    0.00026447   -0.00060993
     atom    2 type  1   force =     0.00055247   -0.00026447    0.00060993
     The non-local contrib.  to forces
     atom    1 type  1   force =    -0.00060949    0.00029222   -0.01147692
     atom    2 type  1   force =     0.00060949   -0.00029262   -0.00923476
     The ionic contribution  to forces
     atom    1 type  1   force =    -0.00214295    0.00102928    0.01302717
     atom    2 type  1   force =     0.00214295   -0.00102928   -0.01302717
     The local contribution  to forces
     atom    1 type  1   force =     0.00218253   -0.00104845   -0.08220002
     atom    2 type  1   force =    -0.00218252    0.00104850   -0.05714978
     The core correction contribution to forces
     atom    1 type  1   force =     0.00001783   -0.00000864    0.00019497
     atom    2 type  1   force =    -0.00001800    0.00000858    0.00017690
     The Hubbard contrib.    to forces
     atom    1 type  1   force =     0.00000000    0.00000000    0.00000000
     atom    2 type  1   force =     0.00000000    0.00000000    0.00000000
     The SCF correction term to forces
     atom    1 type  1   force =    -0.00000055   -0.00000007   -0.00009819
     atom    2 type  1   force =     0.00000039    0.00000023   -0.00009831

     Total force =     0.001222     Total SCF correction =     0.000139
     SCF correction compared to forces is large: reduce conv_thr to get better values

     Writing all to output data dir /home/ubuntu/projects/Graphene-Band-Structure-Quantum-Espresso/outputs/bilayer/field_0.01Ry/bottom/data/bottom.save/ :
     XML data file, charge density, pseudopotentials, collected wavefunctions

     init_run     :      2.82s CPU      2.97s WALL (       1 calls)
     electrons    :     37.95s CPU     38.26s WALL (       1 calls)
     forces       :      0.53s CPU      0.59s WALL (       1 calls)

     Called by init_run:
     wfcinit      :      0.77s CPU      0.78s WALL (       1 calls)
     wfcinit:atom :      0.01s CPU      0.01s WALL (      19 calls)
     wfcinit:wfcr :      0.72s CPU      0.73s WALL (      19 calls)
     potinit      :      0.53s CPU      0.61s WALL (       1 calls)
     hinit0       :      1.02s CPU      1.04s WALL (       1 calls)

     Called by electrons:
     c_bands      :     32.03s CPU     32.23s WALL (       8 calls)
     sum_band     :      3.61s CPU      3.65s WALL (       8 calls)
     v_of_rho     :      1.01s CPU      1.11s WALL (       9 calls)
     v_h          :      0.05s CPU      0.05s WALL (       9 calls)
     v_xc         :      1.09s CPU      1.23s WALL (      10 calls)
     newd         :      0.48s CPU      0.49s WALL (       9 calls)
     PAW_pot      :      0.96s CPU      0.97s WALL (       9 calls)
     mix_rho      :      0.11s CPU      0.11s WALL (       8 calls)

     Called by c_bands:
     init_us_2    :      0.44s CPU      0.44s WALL (     342 calls)
     cegterg      :     23.48s CPU     23.62s WALL (     152 calls)

     Called by sum_band:
     sum_band:wei :      0.00s CPU      0.00s WALL (       8 calls)
     sum_band:loo :      2.43s CPU      2.43s WALL (       8 calls)
     sum_band:buf :      0.03s CPU      0.03s WALL (     152 calls)
     sum_band:ini :      0.19s CPU      0.19s WALL (     152 calls)
     sum_band:cal :      0.37s CPU      0.37s WALL (     152 calls)
     sum_band:bec :      0.00s CPU      0.00s WALL (     152 calls)
     addusdens    :      0.28s CPU      0.30s WALL (       8 calls)
     addusd:skk   :      0.00s CPU      0.00s WALL (       8 calls)

     Called by *egterg:
     cdiaghg      :      0.19s CPU      0.19s WALL (     915 calls)
     cegterg:over :      1.92s CPU      1.92s WALL (     763 calls)
     cegterg:upda :      1.30s CPU      1.31s WALL (     763 calls)
     cegterg:last :      3.13s CPU      3.14s WALL (     407 calls)
     h_psi        :     15.46s CPU     15.58s WALL (     934 calls)
     s_psi        :      1.32s CPU      1.33s WALL (     934 calls)
     g_psi        :      0.13s CPU      0.13s WALL (     763 calls)

     Called by h_psi:
     h_psi:calbec :      1.28s CPU      1.29s WALL (     934 calls)
     vloc_psi     :     12.77s CPU     12.87s WALL (     934 calls)
     add_vuspsi   :      1.33s CPU      1.34s WALL (     934 calls)

     General routines
     calbec       :      1.86s CPU      1.87s WALL (    1162 calls)
     fft          :      1.12s CPU      1.12s WALL (     126 calls)
     ffts         :      0.28s CPU      0.28s WALL (      17 calls)
     fftw         :     12.72s CPU     12.80s WALL (   11410 calls)
     interpolate  :      0.31s CPU      0.31s WALL (       9 calls)

     Parallel routines

     PAW routines
     PAW_pot      :      0.96s CPU      0.97s WALL (       9 calls)

     PWSCF        :     41.46s CPU     42.08s WALL


   This run was terminated on:  11:59:51   7Sep2026            

=------------------------------------------------------------------------------=
   JOB DONE.
=------------------------------------------------------------------------------=
Note: The following floating-point exceptions are signalling: IEEE_DENORMAL
