
     Program PWSCF v.7.6 starts on  3Oct2026 at 18: 3: 1 

     This program is part of the open-source Quantum ESPRESSO suite
     for quantum simulation of materials; please cite
         "P. Giannozzi et al., J. Phys.:Condens. Matter 21 395502 (2009);
         "P. Giannozzi et al., J. Phys.:Condens. Matter 29 465901 (2017);
         "P. Giannozzi et al., J. Chem. Phys. 152 154105 (2020);
          URL http://www.quantum-espresso.org", 
     in publications or presentations arising from this work. More details at
     http://www.quantum-espresso.org/quote

     Parallel version (MPI), running on    16 processors

     MPI processes distributed on     1 nodes
     29864 MiB available memory on the printing compute node when the environment starts

     Waiting for input...
     Reading input from standard input
Warning: card &IONS ignored
Warning: card &CELL ignored
Warning: card &FCP ignored
Warning: card &RISM ignored

     Current dimensions of program PWSCF are:
     Max number of different atomic species (ntypx) = 10
     Max number of k-points (npk) =  40000
     Max angular momentum in pseudopotentials (lmaxx) =  4

     IMPORTANT: XC functional enforced from input :
     Exchange-correlation= VDW-DF2-C09
                           (   1   4  16   0   2   0   0)
     Any further DFT definition will be discarded
     Please, verify this is what you really want


     Atomic positions and unit cell read from directory:
     /home/ubuntu/projects/Graphene-Band-Structure-Quantum-Espresso/outputs/field_0/vdw-df2-c09/bottom/data/bottom.save/

     Message from routine setup:
     using ibrav=0 with symmetry is DISCOURAGED, use correct ibrav instead

     K-points division:     npool     =      16
     Subspace diagonalization in iterative solution of the eigenvalue problem:
     a serial algorithm will be used


     G-vector sticks info
     --------------------
     sticks:   dense  smooth     PW     G-vecs:    dense   smooth      PW
     Sum         535     535    163                94953    94953   15739

     Using Slab Decomposition



     bravais-lattice index     =            0
     lattice parameter (alat)  =       4.6487  a.u.
     unit-cell volume          =     825.8174 (a.u.)^3
     number of atoms/cell      =            2
     number of atomic types    =            1
     number of electrons       =         8.00
     number of Kohn-Sham states=           30
     kinetic-energy cutoff     =      90.0000  Ry
     charge density cutoff     =     360.0000  Ry
     Exchange-correlation= VDW-DF2-C09
                           (   1   4  16   0   2   0   0)

     celldm(1)=   4.648726  celldm(2)=   0.000000  celldm(3)=   0.000000
     celldm(4)=   0.000000  celldm(5)=   0.000000  celldm(6)=   0.000000

     crystal axes: (cart. coord. in units of alat)
               a(1) = (   1.000000   0.000000   0.000000 )  
               a(2) = (  -0.500000   0.866025   0.000000 )  
               a(3) = (   0.000000   0.000000   9.491870 )  

     reciprocal axes: (cart. coord. in units 2 pi/alat)
               b(1) = (  1.000000  0.577351 -0.000000 )  
               b(2) = (  0.000000  1.154701  0.000000 )  
               b(3) = (  0.000000 -0.000000  0.105353 )  


     PseudoPot. # 1 for C  read from file:
     /home/ubuntu/projects/Graphene-Band-Structure-Quantum-Espresso/pseudo/C.upf
     MD5 check sum: 34a24e64c0a39f27c6c36b90a16ac686
     Pseudo is Norm-conserving + core correction, Zval =  4.0
     Generated using ONCVPSP code by D. R. Hamann
     Using radial grid of 1248 points,  4 beta functions with: 
                l(1) =   0
                l(2) =   0
                l(3) =   1
                l(4) =   1

     atomic species   valence    mass     pseudopotential
     C                 4.00    12.01100     C ( 1.00)

      6 Sym. Ops. (no inversion) found


                                    s                        frac. trans.

      isym =  1     identity                                     

 cryst.   s( 1) = (     1          0          0      )
                  (     0          1          0      )
                  (     0          0          1      )

 cart.    s( 1) = (  1.0000000  0.0000000  0.0000000 )
                  (  0.0000000  1.0000000  0.0000000 )
                  (  0.0000000  0.0000000  1.0000000 )


      isym =  2     120 deg rotation - cryst. axis [0,0,1]       

 cryst.   s( 2) = (     0          1          0      )
                  (    -1         -1          0      )
                  (     0          0          1      )

 cart.    s( 2) = ( -0.5000000 -0.8660258  0.0000000 )
                  (  0.8660250 -0.5000000  0.0000000 )
                  (  0.0000000  0.0000000  1.0000000 )


      isym =  3     120 deg rotation - cryst. axis [0,0,-1]      

 cryst.   s( 3) = (    -1         -1          0      )
                  (     1          0          0      )
                  (     0          0          1      )

 cart.    s( 3) = ( -0.5000000  0.8660258  0.0000000 )
                  ( -0.8660250 -0.5000000  0.0000000 )
                  (  0.0000000  0.0000000  1.0000000 )


      isym =  4     inv. 180 deg rotation - cart. axis [1,0,0]   

 cryst.   s( 4) = (    -1          0          0      )
                  (     1          1          0      )
                  (     0          0          1      )

 cart.    s( 4) = ( -1.0000000  0.0000000  0.0000000 )
                  (  0.0000000  1.0000000  0.0000000 )
                  (  0.0000000  0.0000000  1.0000000 )


      isym =  5     inv. 180 deg rotation - cryst. axis [0,1,0]  

 cryst.   s( 5) = (     1          1          0      )
                  (     0         -1          0      )
                  (     0          0          1      )

 cart.    s( 5) = (  0.5000000  0.8660258  0.0000000 )
                  (  0.8660250 -0.5000000  0.0000000 )
                  (  0.0000000  0.0000000  1.0000000 )


      isym =  6     inv. 180 deg rotation - cryst. axis [1,1,0]  

 cryst.   s( 6) = (     0         -1          0      )
                  (    -1          0          0      )
                  (     0          0          1      )

 cart.    s( 6) = (  0.5000000 -0.8660258  0.0000000 )
                  ( -0.8660250 -0.5000000  0.0000000 )
                  (  0.0000000  0.0000000  1.0000000 )


   Cartesian axes

     site n.     atom                  positions (alat units)
         1        C      tau(   1) = (   0.0000000   0.0000000   4.0321860  )
         2        C      tau(   2) = (   0.5000000   0.2886752   4.0328411  )

   Crystallographic axes

     site n.     atom                  positions (cryst. coord.)
         1        C      tau(   1) = (  0.0000000  0.0000000  0.4248042  )
         2        C      tau(   2) = (  0.6666668  0.3333335  0.4248732  )

     number of k points=   507  Gaussian smearing, width (Ry)=  0.0100
                       cart. coord. in units 2pi/alat
        k(    1) = (   0.0000000   0.0000000   0.0000000), wk =   0.0003556
        k(    2) = (   0.0000000   0.0153960   0.0000000), wk =   0.0021333
        k(    3) = (   0.0000000   0.0307920   0.0000000), wk =   0.0021333
        k(    4) = (   0.0000000   0.0461880   0.0000000), wk =   0.0021333
        k(    5) = (   0.0000000   0.0615841   0.0000000), wk =   0.0021333
        k(    6) = (   0.0000000   0.0769801   0.0000000), wk =   0.0021333
        k(    7) = (   0.0000000   0.0923761   0.0000000), wk =   0.0021333
        k(    8) = (   0.0000000   0.1077721   0.0000000), wk =   0.0021333
        k(    9) = (   0.0000000   0.1231681   0.0000000), wk =   0.0021333
        k(   10) = (   0.0000000   0.1385641   0.0000000), wk =   0.0021333
        k(   11) = (   0.0000000   0.1539601   0.0000000), wk =   0.0021333
        k(   12) = (   0.0000000   0.1693562   0.0000000), wk =   0.0021333
        k(   13) = (   0.0000000   0.1847522   0.0000000), wk =   0.0021333
        k(   14) = (   0.0000000   0.2001482   0.0000000), wk =   0.0021333
        k(   15) = (   0.0000000   0.2155442   0.0000000), wk =   0.0021333
        k(   16) = (   0.0000000   0.2309402   0.0000000), wk =   0.0021333
        k(   17) = (   0.0000000   0.2463362   0.0000000), wk =   0.0021333
        k(   18) = (   0.0000000   0.2617322   0.0000000), wk =   0.0021333
        k(   19) = (   0.0000000   0.2771283   0.0000000), wk =   0.0021333
        k(   20) = (   0.0000000   0.2925243   0.0000000), wk =   0.0021333
        k(   21) = (   0.0000000   0.3079203   0.0000000), wk =   0.0021333
        k(   22) = (   0.0000000   0.3233163   0.0000000), wk =   0.0021333
        k(   23) = (   0.0000000   0.3387123   0.0000000), wk =   0.0021333
        k(   24) = (   0.0000000   0.3541083   0.0000000), wk =   0.0021333
        k(   25) = (   0.0000000   0.3695043   0.0000000), wk =   0.0021333
        k(   26) = (   0.0000000   0.3849004   0.0000000), wk =   0.0021333
        k(   27) = (   0.0000000   0.4002964   0.0000000), wk =   0.0021333
        k(   28) = (   0.0000000   0.4156924   0.0000000), wk =   0.0021333
        k(   29) = (   0.0000000   0.4310884   0.0000000), wk =   0.0021333
        k(   30) = (   0.0000000   0.4464844   0.0000000), wk =   0.0021333
        k(   31) = (   0.0000000   0.4618804   0.0000000), wk =   0.0021333
        k(   32) = (   0.0000000   0.4772764   0.0000000), wk =   0.0021333
        k(   33) = (   0.0000000   0.4926725   0.0000000), wk =   0.0021333
        k(   34) = (   0.0000000   0.5080685   0.0000000), wk =   0.0021333
        k(   35) = (   0.0000000   0.5234645   0.0000000), wk =   0.0021333
        k(   36) = (   0.0000000   0.5388605   0.0000000), wk =   0.0021333
        k(   37) = (   0.0000000   0.5542565   0.0000000), wk =   0.0021333
        k(   38) = (   0.0000000   0.5696525   0.0000000), wk =   0.0021333
        k(   39) = (   0.0133333   0.0230940   0.0000000), wk =   0.0021333
        k(   40) = (   0.0133333   0.0384900   0.0000000), wk =   0.0042667
        k(   41) = (   0.0133333   0.0538861   0.0000000), wk =   0.0042667
        k(   42) = (   0.0133333   0.0692821   0.0000000), wk =   0.0042667
        k(   43) = (   0.0133333   0.0846781   0.0000000), wk =   0.0042667
        k(   44) = (   0.0133333   0.1000741   0.0000000), wk =   0.0042667
        k(   45) = (   0.0133333   0.1154701   0.0000000), wk =   0.0042667
        k(   46) = (   0.0133333   0.1308661   0.0000000), wk =   0.0042667
        k(   47) = (   0.0133333   0.1462621   0.0000000), wk =   0.0042667
        k(   48) = (   0.0133333   0.1616582   0.0000000), wk =   0.0042667
        k(   49) = (   0.0133333   0.1770542   0.0000000), wk =   0.0042667
        k(   50) = (   0.0133333   0.1924502   0.0000000), wk =   0.0042667
        k(   51) = (   0.0133333   0.2078462   0.0000000), wk =   0.0042667
        k(   52) = (   0.0133333   0.2232422   0.0000000), wk =   0.0042667
        k(   53) = (   0.0133333   0.2386382   0.0000000), wk =   0.0042667
        k(   54) = (   0.0133333   0.2540342   0.0000000), wk =   0.0042667
        k(   55) = (   0.0133333   0.2694303   0.0000000), wk =   0.0042667
        k(   56) = (   0.0133333   0.2848263   0.0000000), wk =   0.0042667
        k(   57) = (   0.0133333   0.3002223   0.0000000), wk =   0.0042667
        k(   58) = (   0.0133333   0.3156183   0.0000000), wk =   0.0042667
        k(   59) = (   0.0133333   0.3310143   0.0000000), wk =   0.0042667
        k(   60) = (   0.0133333   0.3464103   0.0000000), wk =   0.0042667
        k(   61) = (   0.0133333   0.3618063   0.0000000), wk =   0.0042667
        k(   62) = (   0.0133333   0.3772024   0.0000000), wk =   0.0042667
        k(   63) = (   0.0133333   0.3925984   0.0000000), wk =   0.0042667
        k(   64) = (   0.0133333   0.4079944   0.0000000), wk =   0.0042667
        k(   65) = (   0.0133333   0.4233904   0.0000000), wk =   0.0042667
        k(   66) = (   0.0133333   0.4387864   0.0000000), wk =   0.0042667
        k(   67) = (   0.0133333   0.4541824   0.0000000), wk =   0.0042667
        k(   68) = (   0.0133333   0.4695784   0.0000000), wk =   0.0042667
        k(   69) = (   0.0133333   0.4849745   0.0000000), wk =   0.0042667
        k(   70) = (   0.0133333   0.5003705   0.0000000), wk =   0.0042667
        k(   71) = (   0.0133333   0.5157665   0.0000000), wk =   0.0042667
        k(   72) = (   0.0133333   0.5311625   0.0000000), wk =   0.0042667
        k(   73) = (   0.0133333   0.5465585   0.0000000), wk =   0.0042667
        k(   74) = (   0.0133333   0.5619545   0.0000000), wk =   0.0042667
        k(   75) = (   0.0133333   0.5773505   0.0000000), wk =   0.0021333
        k(   76) = (   0.0266667   0.0461880   0.0000000), wk =   0.0021333
        k(   77) = (   0.0266667   0.0615841   0.0000000), wk =   0.0042667
        k(   78) = (   0.0266667   0.0769801   0.0000000), wk =   0.0042667
        k(   79) = (   0.0266667   0.0923761   0.0000000), wk =   0.0042667
        k(   80) = (   0.0266667   0.1077721   0.0000000), wk =   0.0042667
        k(   81) = (   0.0266667   0.1231681   0.0000000), wk =   0.0042667
        k(   82) = (   0.0266667   0.1385641   0.0000000), wk =   0.0042667
        k(   83) = (   0.0266667   0.1539601   0.0000000), wk =   0.0042667
        k(   84) = (   0.0266667   0.1693562   0.0000000), wk =   0.0042667
        k(   85) = (   0.0266667   0.1847522   0.0000000), wk =   0.0042667
        k(   86) = (   0.0266667   0.2001482   0.0000000), wk =   0.0042667
        k(   87) = (   0.0266667   0.2155442   0.0000000), wk =   0.0042667
        k(   88) = (   0.0266667   0.2309402   0.0000000), wk =   0.0042667
        k(   89) = (   0.0266667   0.2463362   0.0000000), wk =   0.0042667
        k(   90) = (   0.0266667   0.2617322   0.0000000), wk =   0.0042667
        k(   91) = (   0.0266667   0.2771283   0.0000000), wk =   0.0042667
        k(   92) = (   0.0266667   0.2925243   0.0000000), wk =   0.0042667
        k(   93) = (   0.0266667   0.3079203   0.0000000), wk =   0.0042667
        k(   94) = (   0.0266667   0.3233163   0.0000000), wk =   0.0042667
        k(   95) = (   0.0266667   0.3387123   0.0000000), wk =   0.0042667
        k(   96) = (   0.0266667   0.3541083   0.0000000), wk =   0.0042667
        k(   97) = (   0.0266667   0.3695043   0.0000000), wk =   0.0042667
        k(   98) = (   0.0266667   0.3849004   0.0000000), wk =   0.0042667
        k(   99) = (   0.0266667   0.4002964   0.0000000), wk =   0.0042667
        k(  100) = (   0.0266667   0.4156924   0.0000000), wk =   0.0042667
        k(  101) = (   0.0266667   0.4310884   0.0000000), wk =   0.0042667
        k(  102) = (   0.0266667   0.4464844   0.0000000), wk =   0.0042667
        k(  103) = (   0.0266667   0.4618804   0.0000000), wk =   0.0042667
        k(  104) = (   0.0266667   0.4772764   0.0000000), wk =   0.0042667
        k(  105) = (   0.0266667   0.4926725   0.0000000), wk =   0.0042667
        k(  106) = (   0.0266667   0.5080685   0.0000000), wk =   0.0042667
        k(  107) = (   0.0266667   0.5234645   0.0000000), wk =   0.0042667
        k(  108) = (   0.0266667   0.5388605   0.0000000), wk =   0.0042667
        k(  109) = (   0.0266667   0.5542565   0.0000000), wk =   0.0042667
        k(  110) = (   0.0266667   0.5696525   0.0000000), wk =   0.0042667
        k(  111) = (   0.0400000   0.0692821   0.0000000), wk =   0.0021333
        k(  112) = (   0.0400000   0.0846781   0.0000000), wk =   0.0042667
        k(  113) = (   0.0400000   0.1000741   0.0000000), wk =   0.0042667
        k(  114) = (   0.0400000   0.1154701   0.0000000), wk =   0.0042667
        k(  115) = (   0.0400000   0.1308661   0.0000000), wk =   0.0042667
        k(  116) = (   0.0400000   0.1462621   0.0000000), wk =   0.0042667
        k(  117) = (   0.0400000   0.1616582   0.0000000), wk =   0.0042667
        k(  118) = (   0.0400000   0.1770542   0.0000000), wk =   0.0042667
        k(  119) = (   0.0400000   0.1924502   0.0000000), wk =   0.0042667
        k(  120) = (   0.0400000   0.2078462   0.0000000), wk =   0.0042667
        k(  121) = (   0.0400000   0.2232422   0.0000000), wk =   0.0042667
        k(  122) = (   0.0400000   0.2386382   0.0000000), wk =   0.0042667
        k(  123) = (   0.0400000   0.2540342   0.0000000), wk =   0.0042667
        k(  124) = (   0.0400000   0.2694303   0.0000000), wk =   0.0042667
        k(  125) = (   0.0400000   0.2848263   0.0000000), wk =   0.0042667
        k(  126) = (   0.0400000   0.3002223   0.0000000), wk =   0.0042667
        k(  127) = (   0.0400000   0.3156183   0.0000000), wk =   0.0042667
        k(  128) = (   0.0400000   0.3310143   0.0000000), wk =   0.0042667
        k(  129) = (   0.0400000   0.3464103   0.0000000), wk =   0.0042667
        k(  130) = (   0.0400000   0.3618063   0.0000000), wk =   0.0042667
        k(  131) = (   0.0400000   0.3772024   0.0000000), wk =   0.0042667
        k(  132) = (   0.0400000   0.3925984   0.0000000), wk =   0.0042667
        k(  133) = (   0.0400000   0.4079944   0.0000000), wk =   0.0042667
        k(  134) = (   0.0400000   0.4233904   0.0000000), wk =   0.0042667
        k(  135) = (   0.0400000   0.4387864   0.0000000), wk =   0.0042667
        k(  136) = (   0.0400000   0.4541824   0.0000000), wk =   0.0042667
        k(  137) = (   0.0400000   0.4695784   0.0000000), wk =   0.0042667
        k(  138) = (   0.0400000   0.4849745   0.0000000), wk =   0.0042667
        k(  139) = (   0.0400000   0.5003705   0.0000000), wk =   0.0042667
        k(  140) = (   0.0400000   0.5157665   0.0000000), wk =   0.0042667
        k(  141) = (   0.0400000   0.5311625   0.0000000), wk =   0.0042667
        k(  142) = (   0.0400000   0.5465585   0.0000000), wk =   0.0042667
        k(  143) = (   0.0400000   0.5619545   0.0000000), wk =   0.0042667
        k(  144) = (   0.0400000   0.5773505   0.0000000), wk =   0.0021333
        k(  145) = (   0.0533333   0.0923761   0.0000000), wk =   0.0021333
        k(  146) = (   0.0533333   0.1077721   0.0000000), wk =   0.0042667
        k(  147) = (   0.0533333   0.1231681   0.0000000), wk =   0.0042667
        k(  148) = (   0.0533333   0.1385641   0.0000000), wk =   0.0042667
        k(  149) = (   0.0533333   0.1539601   0.0000000), wk =   0.0042667
        k(  150) = (   0.0533333   0.1693562   0.0000000), wk =   0.0042667
        k(  151) = (   0.0533333   0.1847522   0.0000000), wk =   0.0042667
        k(  152) = (   0.0533333   0.2001482   0.0000000), wk =   0.0042667
        k(  153) = (   0.0533333   0.2155442   0.0000000), wk =   0.0042667
        k(  154) = (   0.0533333   0.2309402   0.0000000), wk =   0.0042667
        k(  155) = (   0.0533333   0.2463362   0.0000000), wk =   0.0042667
        k(  156) = (   0.0533333   0.2617322   0.0000000), wk =   0.0042667
        k(  157) = (   0.0533333   0.2771283   0.0000000), wk =   0.0042667
        k(  158) = (   0.0533333   0.2925243   0.0000000), wk =   0.0042667
        k(  159) = (   0.0533333   0.3079203   0.0000000), wk =   0.0042667
        k(  160) = (   0.0533333   0.3233163   0.0000000), wk =   0.0042667
        k(  161) = (   0.0533333   0.3387123   0.0000000), wk =   0.0042667
        k(  162) = (   0.0533333   0.3541083   0.0000000), wk =   0.0042667
        k(  163) = (   0.0533333   0.3695043   0.0000000), wk =   0.0042667
        k(  164) = (   0.0533333   0.3849004   0.0000000), wk =   0.0042667
        k(  165) = (   0.0533333   0.4002964   0.0000000), wk =   0.0042667
        k(  166) = (   0.0533333   0.4156924   0.0000000), wk =   0.0042667
        k(  167) = (   0.0533333   0.4310884   0.0000000), wk =   0.0042667
        k(  168) = (   0.0533333   0.4464844   0.0000000), wk =   0.0042667
        k(  169) = (   0.0533333   0.4618804   0.0000000), wk =   0.0042667
        k(  170) = (   0.0533333   0.4772764   0.0000000), wk =   0.0042667
        k(  171) = (   0.0533333   0.4926725   0.0000000), wk =   0.0042667
        k(  172) = (   0.0533333   0.5080685   0.0000000), wk =   0.0042667
        k(  173) = (   0.0533333   0.5234645   0.0000000), wk =   0.0042667
        k(  174) = (   0.0533333   0.5388605   0.0000000), wk =   0.0042667
        k(  175) = (   0.0533333   0.5542565   0.0000000), wk =   0.0042667
        k(  176) = (   0.0533333   0.5696525   0.0000000), wk =   0.0042667
        k(  177) = (   0.0666667   0.1154701   0.0000000), wk =   0.0021333
        k(  178) = (   0.0666667   0.1308661   0.0000000), wk =   0.0042667
        k(  179) = (   0.0666667   0.1462621   0.0000000), wk =   0.0042667
        k(  180) = (   0.0666667   0.1616582   0.0000000), wk =   0.0042667
        k(  181) = (   0.0666667   0.1770542   0.0000000), wk =   0.0042667
        k(  182) = (   0.0666667   0.1924502   0.0000000), wk =   0.0042667
        k(  183) = (   0.0666667   0.2078462   0.0000000), wk =   0.0042667
        k(  184) = (   0.0666667   0.2232422   0.0000000), wk =   0.0042667
        k(  185) = (   0.0666667   0.2386382   0.0000000), wk =   0.0042667
        k(  186) = (   0.0666667   0.2540342   0.0000000), wk =   0.0042667
        k(  187) = (   0.0666667   0.2694303   0.0000000), wk =   0.0042667
        k(  188) = (   0.0666667   0.2848263   0.0000000), wk =   0.0042667
        k(  189) = (   0.0666667   0.3002223   0.0000000), wk =   0.0042667
        k(  190) = (   0.0666667   0.3156183   0.0000000), wk =   0.0042667
        k(  191) = (   0.0666667   0.3310143   0.0000000), wk =   0.0042667
        k(  192) = (   0.0666667   0.3464103   0.0000000), wk =   0.0042667
        k(  193) = (   0.0666667   0.3618063   0.0000000), wk =   0.0042667
        k(  194) = (   0.0666667   0.3772024   0.0000000), wk =   0.0042667
        k(  195) = (   0.0666667   0.3925984   0.0000000), wk =   0.0042667
        k(  196) = (   0.0666667   0.4079944   0.0000000), wk =   0.0042667
        k(  197) = (   0.0666667   0.4233904   0.0000000), wk =   0.0042667
        k(  198) = (   0.0666667   0.4387864   0.0000000), wk =   0.0042667
        k(  199) = (   0.0666667   0.4541824   0.0000000), wk =   0.0042667
        k(  200) = (   0.0666667   0.4695784   0.0000000), wk =   0.0042667
        k(  201) = (   0.0666667   0.4849745   0.0000000), wk =   0.0042667
        k(  202) = (   0.0666667   0.5003705   0.0000000), wk =   0.0042667
        k(  203) = (   0.0666667   0.5157665   0.0000000), wk =   0.0042667
        k(  204) = (   0.0666667   0.5311625   0.0000000), wk =   0.0042667
        k(  205) = (   0.0666667   0.5465585   0.0000000), wk =   0.0042667
        k(  206) = (   0.0666667   0.5619545   0.0000000), wk =   0.0042667
        k(  207) = (   0.0666667   0.5773505   0.0000000), wk =   0.0021333
        k(  208) = (   0.0800000   0.1385641   0.0000000), wk =   0.0021333
        k(  209) = (   0.0800000   0.1539601   0.0000000), wk =   0.0042667
        k(  210) = (   0.0800000   0.1693562   0.0000000), wk =   0.0042667
        k(  211) = (   0.0800000   0.1847522   0.0000000), wk =   0.0042667
        k(  212) = (   0.0800000   0.2001482   0.0000000), wk =   0.0042667
        k(  213) = (   0.0800000   0.2155442   0.0000000), wk =   0.0042667
        k(  214) = (   0.0800000   0.2309402   0.0000000), wk =   0.0042667
        k(  215) = (   0.0800000   0.2463362   0.0000000), wk =   0.0042667
        k(  216) = (   0.0800000   0.2617322   0.0000000), wk =   0.0042667
        k(  217) = (   0.0800000   0.2771283   0.0000000), wk =   0.0042667
        k(  218) = (   0.0800000   0.2925243   0.0000000), wk =   0.0042667
        k(  219) = (   0.0800000   0.3079203   0.0000000), wk =   0.0042667
        k(  220) = (   0.0800000   0.3233163   0.0000000), wk =   0.0042667
        k(  221) = (   0.0800000   0.3387123   0.0000000), wk =   0.0042667
        k(  222) = (   0.0800000   0.3541083   0.0000000), wk =   0.0042667
        k(  223) = (   0.0800000   0.3695043   0.0000000), wk =   0.0042667
        k(  224) = (   0.0800000   0.3849004   0.0000000), wk =   0.0042667
        k(  225) = (   0.0800000   0.4002964   0.0000000), wk =   0.0042667
        k(  226) = (   0.0800000   0.4156924   0.0000000), wk =   0.0042667
        k(  227) = (   0.0800000   0.4310884   0.0000000), wk =   0.0042667
        k(  228) = (   0.0800000   0.4464844   0.0000000), wk =   0.0042667
        k(  229) = (   0.0800000   0.4618804   0.0000000), wk =   0.0042667
        k(  230) = (   0.0800000   0.4772764   0.0000000), wk =   0.0042667
        k(  231) = (   0.0800000   0.4926725   0.0000000), wk =   0.0042667
        k(  232) = (   0.0800000   0.5080685   0.0000000), wk =   0.0042667
        k(  233) = (   0.0800000   0.5234645   0.0000000), wk =   0.0042667
        k(  234) = (   0.0800000   0.5388605   0.0000000), wk =   0.0042667
        k(  235) = (   0.0800000   0.5542565   0.0000000), wk =   0.0042667
        k(  236) = (   0.0800000   0.5696525   0.0000000), wk =   0.0042667
        k(  237) = (   0.0933333   0.1616582   0.0000000), wk =   0.0021333
        k(  238) = (   0.0933333   0.1770542   0.0000000), wk =   0.0042667
        k(  239) = (   0.0933333   0.1924502   0.0000000), wk =   0.0042667
        k(  240) = (   0.0933333   0.2078462   0.0000000), wk =   0.0042667
        k(  241) = (   0.0933333   0.2232422   0.0000000), wk =   0.0042667
        k(  242) = (   0.0933333   0.2386382   0.0000000), wk =   0.0042667
        k(  243) = (   0.0933333   0.2540342   0.0000000), wk =   0.0042667
        k(  244) = (   0.0933333   0.2694303   0.0000000), wk =   0.0042667
        k(  245) = (   0.0933333   0.2848263   0.0000000), wk =   0.0042667
        k(  246) = (   0.0933333   0.3002223   0.0000000), wk =   0.0042667
        k(  247) = (   0.0933333   0.3156183   0.0000000), wk =   0.0042667
        k(  248) = (   0.0933333   0.3310143   0.0000000), wk =   0.0042667
        k(  249) = (   0.0933333   0.3464103   0.0000000), wk =   0.0042667
        k(  250) = (   0.0933333   0.3618063   0.0000000), wk =   0.0042667
        k(  251) = (   0.0933333   0.3772024   0.0000000), wk =   0.0042667
        k(  252) = (   0.0933333   0.3925984   0.0000000), wk =   0.0042667
        k(  253) = (   0.0933333   0.4079944   0.0000000), wk =   0.0042667
        k(  254) = (   0.0933333   0.4233904   0.0000000), wk =   0.0042667
        k(  255) = (   0.0933333   0.4387864   0.0000000), wk =   0.0042667
        k(  256) = (   0.0933333   0.4541824   0.0000000), wk =   0.0042667
        k(  257) = (   0.0933333   0.4695784   0.0000000), wk =   0.0042667
        k(  258) = (   0.0933333   0.4849745   0.0000000), wk =   0.0042667
        k(  259) = (   0.0933333   0.5003705   0.0000000), wk =   0.0042667
        k(  260) = (   0.0933333   0.5157665   0.0000000), wk =   0.0042667
        k(  261) = (   0.0933333   0.5311625   0.0000000), wk =   0.0042667
        k(  262) = (   0.0933333   0.5465585   0.0000000), wk =   0.0042667
        k(  263) = (   0.0933333   0.5619545   0.0000000), wk =   0.0042667
        k(  264) = (   0.0933333   0.5773505   0.0000000), wk =   0.0021333
        k(  265) = (   0.1066667   0.1847522   0.0000000), wk =   0.0021333
        k(  266) = (   0.1066667   0.2001482   0.0000000), wk =   0.0042667
        k(  267) = (   0.1066667   0.2155442   0.0000000), wk =   0.0042667
        k(  268) = (   0.1066667   0.2309402   0.0000000), wk =   0.0042667
        k(  269) = (   0.1066667   0.2463362   0.0000000), wk =   0.0042667
        k(  270) = (   0.1066667   0.2617322   0.0000000), wk =   0.0042667
        k(  271) = (   0.1066667   0.2771283   0.0000000), wk =   0.0042667
        k(  272) = (   0.1066667   0.2925243   0.0000000), wk =   0.0042667
        k(  273) = (   0.1066667   0.3079203   0.0000000), wk =   0.0042667
        k(  274) = (   0.1066667   0.3233163   0.0000000), wk =   0.0042667
        k(  275) = (   0.1066667   0.3387123   0.0000000), wk =   0.0042667
        k(  276) = (   0.1066667   0.3541083   0.0000000), wk =   0.0042667
        k(  277) = (   0.1066667   0.3695043   0.0000000), wk =   0.0042667
        k(  278) = (   0.1066667   0.3849004   0.0000000), wk =   0.0042667
        k(  279) = (   0.1066667   0.4002964   0.0000000), wk =   0.0042667
        k(  280) = (   0.1066667   0.4156924   0.0000000), wk =   0.0042667
        k(  281) = (   0.1066667   0.4310884   0.0000000), wk =   0.0042667
        k(  282) = (   0.1066667   0.4464844   0.0000000), wk =   0.0042667
        k(  283) = (   0.1066667   0.4618804   0.0000000), wk =   0.0042667
        k(  284) = (   0.1066667   0.4772764   0.0000000), wk =   0.0042667
        k(  285) = (   0.1066667   0.4926725   0.0000000), wk =   0.0042667
        k(  286) = (   0.1066667   0.5080685   0.0000000), wk =   0.0042667
        k(  287) = (   0.1066667   0.5234645   0.0000000), wk =   0.0042667
        k(  288) = (   0.1066667   0.5388605   0.0000000), wk =   0.0042667
        k(  289) = (   0.1066667   0.5542565   0.0000000), wk =   0.0042667
        k(  290) = (   0.1066667   0.5696525   0.0000000), wk =   0.0042667
        k(  291) = (   0.1200000   0.2078462   0.0000000), wk =   0.0021333
        k(  292) = (   0.1200000   0.2232422   0.0000000), wk =   0.0042667
        k(  293) = (   0.1200000   0.2386382   0.0000000), wk =   0.0042667
        k(  294) = (   0.1200000   0.2540342   0.0000000), wk =   0.0042667
        k(  295) = (   0.1200000   0.2694303   0.0000000), wk =   0.0042667
        k(  296) = (   0.1200000   0.2848263   0.0000000), wk =   0.0042667
        k(  297) = (   0.1200000   0.3002223   0.0000000), wk =   0.0042667
        k(  298) = (   0.1200000   0.3156183   0.0000000), wk =   0.0042667
        k(  299) = (   0.1200000   0.3310143   0.0000000), wk =   0.0042667
        k(  300) = (   0.1200000   0.3464103   0.0000000), wk =   0.0042667
        k(  301) = (   0.1200000   0.3618063   0.0000000), wk =   0.0042667
        k(  302) = (   0.1200000   0.3772024   0.0000000), wk =   0.0042667
        k(  303) = (   0.1200000   0.3925984   0.0000000), wk =   0.0042667
        k(  304) = (   0.1200000   0.4079944   0.0000000), wk =   0.0042667
        k(  305) = (   0.1200000   0.4233904   0.0000000), wk =   0.0042667
        k(  306) = (   0.1200000   0.4387864   0.0000000), wk =   0.0042667
        k(  307) = (   0.1200000   0.4541824   0.0000000), wk =   0.0042667
        k(  308) = (   0.1200000   0.4695784   0.0000000), wk =   0.0042667
        k(  309) = (   0.1200000   0.4849745   0.0000000), wk =   0.0042667
        k(  310) = (   0.1200000   0.5003705   0.0000000), wk =   0.0042667
        k(  311) = (   0.1200000   0.5157665   0.0000000), wk =   0.0042667
        k(  312) = (   0.1200000   0.5311625   0.0000000), wk =   0.0042667
        k(  313) = (   0.1200000   0.5465585   0.0000000), wk =   0.0042667
        k(  314) = (   0.1200000   0.5619545   0.0000000), wk =   0.0042667
        k(  315) = (   0.1200000   0.5773505   0.0000000), wk =   0.0021333
        k(  316) = (   0.1333333   0.2309402   0.0000000), wk =   0.0021333
        k(  317) = (   0.1333333   0.2463362   0.0000000), wk =   0.0042667
        k(  318) = (   0.1333333   0.2617322   0.0000000), wk =   0.0042667
        k(  319) = (   0.1333333   0.2771283   0.0000000), wk =   0.0042667
        k(  320) = (   0.1333333   0.2925243   0.0000000), wk =   0.0042667
        k(  321) = (   0.1333333   0.3079203   0.0000000), wk =   0.0042667
        k(  322) = (   0.1333333   0.3233163   0.0000000), wk =   0.0042667
        k(  323) = (   0.1333333   0.3387123   0.0000000), wk =   0.0042667
        k(  324) = (   0.1333333   0.3541083   0.0000000), wk =   0.0042667
        k(  325) = (   0.1333333   0.3695043   0.0000000), wk =   0.0042667
        k(  326) = (   0.1333333   0.3849004   0.0000000), wk =   0.0042667
        k(  327) = (   0.1333333   0.4002964   0.0000000), wk =   0.0042667
        k(  328) = (   0.1333333   0.4156924   0.0000000), wk =   0.0042667
        k(  329) = (   0.1333333   0.4310884   0.0000000), wk =   0.0042667
        k(  330) = (   0.1333333   0.4464844   0.0000000), wk =   0.0042667
        k(  331) = (   0.1333333   0.4618804   0.0000000), wk =   0.0042667
        k(  332) = (   0.1333333   0.4772764   0.0000000), wk =   0.0042667
        k(  333) = (   0.1333333   0.4926725   0.0000000), wk =   0.0042667
        k(  334) = (   0.1333333   0.5080685   0.0000000), wk =   0.0042667
        k(  335) = (   0.1333333   0.5234645   0.0000000), wk =   0.0042667
        k(  336) = (   0.1333333   0.5388605   0.0000000), wk =   0.0042667
        k(  337) = (   0.1333333   0.5542565   0.0000000), wk =   0.0042667
        k(  338) = (   0.1333333   0.5696525   0.0000000), wk =   0.0042667
        k(  339) = (   0.1466667   0.2540342   0.0000000), wk =   0.0021333
        k(  340) = (   0.1466667   0.2694303   0.0000000), wk =   0.0042667
        k(  341) = (   0.1466667   0.2848263   0.0000000), wk =   0.0042667
        k(  342) = (   0.1466667   0.3002223   0.0000000), wk =   0.0042667
        k(  343) = (   0.1466667   0.3156183   0.0000000), wk =   0.0042667
        k(  344) = (   0.1466667   0.3310143   0.0000000), wk =   0.0042667
        k(  345) = (   0.1466667   0.3464103   0.0000000), wk =   0.0042667
        k(  346) = (   0.1466667   0.3618063   0.0000000), wk =   0.0042667
        k(  347) = (   0.1466667   0.3772024   0.0000000), wk =   0.0042667
        k(  348) = (   0.1466667   0.3925984   0.0000000), wk =   0.0042667
        k(  349) = (   0.1466667   0.4079944   0.0000000), wk =   0.0042667
        k(  350) = (   0.1466667   0.4233904   0.0000000), wk =   0.0042667
        k(  351) = (   0.1466667   0.4387864   0.0000000), wk =   0.0042667
        k(  352) = (   0.1466667   0.4541824   0.0000000), wk =   0.0042667
        k(  353) = (   0.1466667   0.4695784   0.0000000), wk =   0.0042667
        k(  354) = (   0.1466667   0.4849745   0.0000000), wk =   0.0042667
        k(  355) = (   0.1466667   0.5003705   0.0000000), wk =   0.0042667
        k(  356) = (   0.1466667   0.5157665   0.0000000), wk =   0.0042667
        k(  357) = (   0.1466667   0.5311625   0.0000000), wk =   0.0042667
        k(  358) = (   0.1466667   0.5465585   0.0000000), wk =   0.0042667
        k(  359) = (   0.1466667   0.5619545   0.0000000), wk =   0.0042667
        k(  360) = (   0.1466667   0.5773505   0.0000000), wk =   0.0021333
        k(  361) = (   0.1600000   0.2771283   0.0000000), wk =   0.0021333
        k(  362) = (   0.1600000   0.2925243   0.0000000), wk =   0.0042667
        k(  363) = (   0.1600000   0.3079203   0.0000000), wk =   0.0042667
        k(  364) = (   0.1600000   0.3233163   0.0000000), wk =   0.0042667
        k(  365) = (   0.1600000   0.3387123   0.0000000), wk =   0.0042667
        k(  366) = (   0.1600000   0.3541083   0.0000000), wk =   0.0042667
        k(  367) = (   0.1600000   0.3695043   0.0000000), wk =   0.0042667
        k(  368) = (   0.1600000   0.3849004   0.0000000), wk =   0.0042667
        k(  369) = (   0.1600000   0.4002964   0.0000000), wk =   0.0042667
        k(  370) = (   0.1600000   0.4156924   0.0000000), wk =   0.0042667
        k(  371) = (   0.1600000   0.4310884   0.0000000), wk =   0.0042667
        k(  372) = (   0.1600000   0.4464844   0.0000000), wk =   0.0042667
        k(  373) = (   0.1600000   0.4618804   0.0000000), wk =   0.0042667
        k(  374) = (   0.1600000   0.4772764   0.0000000), wk =   0.0042667
        k(  375) = (   0.1600000   0.4926725   0.0000000), wk =   0.0042667
        k(  376) = (   0.1600000   0.5080685   0.0000000), wk =   0.0042667
        k(  377) = (   0.1600000   0.5234645   0.0000000), wk =   0.0042667
        k(  378) = (   0.1600000   0.5388605   0.0000000), wk =   0.0042667
        k(  379) = (   0.1600000   0.5542565   0.0000000), wk =   0.0042667
        k(  380) = (   0.1600000   0.5696525   0.0000000), wk =   0.0042667
        k(  381) = (   0.1733333   0.3002223   0.0000000), wk =   0.0021333
        k(  382) = (   0.1733333   0.3156183   0.0000000), wk =   0.0042667
        k(  383) = (   0.1733333   0.3310143   0.0000000), wk =   0.0042667
        k(  384) = (   0.1733333   0.3464103   0.0000000), wk =   0.0042667
        k(  385) = (   0.1733333   0.3618063   0.0000000), wk =   0.0042667
        k(  386) = (   0.1733333   0.3772024   0.0000000), wk =   0.0042667
        k(  387) = (   0.1733333   0.3925984   0.0000000), wk =   0.0042667
        k(  388) = (   0.1733333   0.4079944   0.0000000), wk =   0.0042667
        k(  389) = (   0.1733333   0.4233904   0.0000000), wk =   0.0042667
        k(  390) = (   0.1733333   0.4387864   0.0000000), wk =   0.0042667
        k(  391) = (   0.1733333   0.4541824   0.0000000), wk =   0.0042667
        k(  392) = (   0.1733333   0.4695784   0.0000000), wk =   0.0042667
        k(  393) = (   0.1733333   0.4849745   0.0000000), wk =   0.0042667
        k(  394) = (   0.1733333   0.5003705   0.0000000), wk =   0.0042667
        k(  395) = (   0.1733333   0.5157665   0.0000000), wk =   0.0042667
        k(  396) = (   0.1733333   0.5311625   0.0000000), wk =   0.0042667
        k(  397) = (   0.1733333   0.5465585   0.0000000), wk =   0.0042667
        k(  398) = (   0.1733333   0.5619545   0.0000000), wk =   0.0042667
        k(  399) = (   0.1733333   0.5773505   0.0000000), wk =   0.0021333
        k(  400) = (   0.1866667   0.3233163   0.0000000), wk =   0.0021333
        k(  401) = (   0.1866667   0.3387123   0.0000000), wk =   0.0042667
        k(  402) = (   0.1866667   0.3541083   0.0000000), wk =   0.0042667
        k(  403) = (   0.1866667   0.3695043   0.0000000), wk =   0.0042667
        k(  404) = (   0.1866667   0.3849004   0.0000000), wk =   0.0042667
        k(  405) = (   0.1866667   0.4002964   0.0000000), wk =   0.0042667
        k(  406) = (   0.1866667   0.4156924   0.0000000), wk =   0.0042667
        k(  407) = (   0.1866667   0.4310884   0.0000000), wk =   0.0042667
        k(  408) = (   0.1866667   0.4464844   0.0000000), wk =   0.0042667
        k(  409) = (   0.1866667   0.4618804   0.0000000), wk =   0.0042667
        k(  410) = (   0.1866667   0.4772764   0.0000000), wk =   0.0042667
        k(  411) = (   0.1866667   0.4926725   0.0000000), wk =   0.0042667
        k(  412) = (   0.1866667   0.5080685   0.0000000), wk =   0.0042667
        k(  413) = (   0.1866667   0.5234645   0.0000000), wk =   0.0042667
        k(  414) = (   0.1866667   0.5388605   0.0000000), wk =   0.0042667
        k(  415) = (   0.1866667   0.5542565   0.0000000), wk =   0.0042667
        k(  416) = (   0.1866667   0.5696525   0.0000000), wk =   0.0042667
        k(  417) = (   0.2000000   0.3464103   0.0000000), wk =   0.0021333
        k(  418) = (   0.2000000   0.3618063   0.0000000), wk =   0.0042667
        k(  419) = (   0.2000000   0.3772024   0.0000000), wk =   0.0042667
        k(  420) = (   0.2000000   0.3925984   0.0000000), wk =   0.0042667
        k(  421) = (   0.2000000   0.4079944   0.0000000), wk =   0.0042667
        k(  422) = (   0.2000000   0.4233904   0.0000000), wk =   0.0042667
        k(  423) = (   0.2000000   0.4387864   0.0000000), wk =   0.0042667
        k(  424) = (   0.2000000   0.4541824   0.0000000), wk =   0.0042667
        k(  425) = (   0.2000000   0.4695784   0.0000000), wk =   0.0042667
        k(  426) = (   0.2000000   0.4849745   0.0000000), wk =   0.0042667
        k(  427) = (   0.2000000   0.5003705   0.0000000), wk =   0.0042667
        k(  428) = (   0.2000000   0.5157665   0.0000000), wk =   0.0042667
        k(  429) = (   0.2000000   0.5311625   0.0000000), wk =   0.0042667
        k(  430) = (   0.2000000   0.5465585   0.0000000), wk =   0.0042667
        k(  431) = (   0.2000000   0.5619545   0.0000000), wk =   0.0042667
        k(  432) = (   0.2000000   0.5773505   0.0000000), wk =   0.0021333
        k(  433) = (   0.2133333   0.3695043   0.0000000), wk =   0.0021333
        k(  434) = (   0.2133333   0.3849004   0.0000000), wk =   0.0042667
        k(  435) = (   0.2133333   0.4002964   0.0000000), wk =   0.0042667
        k(  436) = (   0.2133333   0.4156924   0.0000000), wk =   0.0042667
        k(  437) = (   0.2133333   0.4310884   0.0000000), wk =   0.0042667
        k(  438) = (   0.2133333   0.4464844   0.0000000), wk =   0.0042667
        k(  439) = (   0.2133333   0.4618804   0.0000000), wk =   0.0042667
        k(  440) = (   0.2133333   0.4772764   0.0000000), wk =   0.0042667
        k(  441) = (   0.2133333   0.4926725   0.0000000), wk =   0.0042667
        k(  442) = (   0.2133333   0.5080685   0.0000000), wk =   0.0042667
        k(  443) = (   0.2133333   0.5234645   0.0000000), wk =   0.0042667
        k(  444) = (   0.2133333   0.5388605   0.0000000), wk =   0.0042667
        k(  445) = (   0.2133333   0.5542565   0.0000000), wk =   0.0042667
        k(  446) = (   0.2133333   0.5696525   0.0000000), wk =   0.0042667
        k(  447) = (   0.2266667   0.3925984   0.0000000), wk =   0.0021333
        k(  448) = (   0.2266667   0.4079944   0.0000000), wk =   0.0042667
        k(  449) = (   0.2266667   0.4233904   0.0000000), wk =   0.0042667
        k(  450) = (   0.2266667   0.4387864   0.0000000), wk =   0.0042667
        k(  451) = (   0.2266667   0.4541824   0.0000000), wk =   0.0042667
        k(  452) = (   0.2266667   0.4695784   0.0000000), wk =   0.0042667
        k(  453) = (   0.2266667   0.4849745   0.0000000), wk =   0.0042667
        k(  454) = (   0.2266667   0.5003705   0.0000000), wk =   0.0042667
        k(  455) = (   0.2266667   0.5157665   0.0000000), wk =   0.0042667
        k(  456) = (   0.2266667   0.5311625   0.0000000), wk =   0.0042667
        k(  457) = (   0.2266667   0.5465585   0.0000000), wk =   0.0042667
        k(  458) = (   0.2266667   0.5619545   0.0000000), wk =   0.0042667
        k(  459) = (   0.2266667   0.5773505   0.0000000), wk =   0.0021333
        k(  460) = (   0.2400000   0.4156924   0.0000000), wk =   0.0021333
        k(  461) = (   0.2400000   0.4310884   0.0000000), wk =   0.0042667
        k(  462) = (   0.2400000   0.4464844   0.0000000), wk =   0.0042667
        k(  463) = (   0.2400000   0.4618804   0.0000000), wk =   0.0042667
        k(  464) = (   0.2400000   0.4772764   0.0000000), wk =   0.0042667
        k(  465) = (   0.2400000   0.4926725   0.0000000), wk =   0.0042667
        k(  466) = (   0.2400000   0.5080685   0.0000000), wk =   0.0042667
        k(  467) = (   0.2400000   0.5234645   0.0000000), wk =   0.0042667
        k(  468) = (   0.2400000   0.5388605   0.0000000), wk =   0.0042667
        k(  469) = (   0.2400000   0.5542565   0.0000000), wk =   0.0042667
        k(  470) = (   0.2400000   0.5696525   0.0000000), wk =   0.0042667
        k(  471) = (   0.2533333   0.4387864   0.0000000), wk =   0.0021333
        k(  472) = (   0.2533333   0.4541824   0.0000000), wk =   0.0042667
        k(  473) = (   0.2533333   0.4695784   0.0000000), wk =   0.0042667
        k(  474) = (   0.2533333   0.4849745   0.0000000), wk =   0.0042667
        k(  475) = (   0.2533333   0.5003705   0.0000000), wk =   0.0042667
        k(  476) = (   0.2533333   0.5157665   0.0000000), wk =   0.0042667
        k(  477) = (   0.2533333   0.5311625   0.0000000), wk =   0.0042667
        k(  478) = (   0.2533333   0.5465585   0.0000000), wk =   0.0042667
        k(  479) = (   0.2533333   0.5619545   0.0000000), wk =   0.0042667
        k(  480) = (   0.2533333   0.5773505   0.0000000), wk =   0.0021333
        k(  481) = (   0.2666667   0.4618804   0.0000000), wk =   0.0021333
        k(  482) = (   0.2666667   0.4772764   0.0000000), wk =   0.0042667
        k(  483) = (   0.2666667   0.4926725   0.0000000), wk =   0.0042667
        k(  484) = (   0.2666667   0.5080685   0.0000000), wk =   0.0042667
        k(  485) = (   0.2666667   0.5234645   0.0000000), wk =   0.0042667
        k(  486) = (   0.2666667   0.5388605   0.0000000), wk =   0.0042667
        k(  487) = (   0.2666667   0.5542565   0.0000000), wk =   0.0042667
        k(  488) = (   0.2666667   0.5696525   0.0000000), wk =   0.0042667
        k(  489) = (   0.2800000   0.4849745   0.0000000), wk =   0.0021333
        k(  490) = (   0.2800000   0.5003705   0.0000000), wk =   0.0042667
        k(  491) = (   0.2800000   0.5157665   0.0000000), wk =   0.0042667
        k(  492) = (   0.2800000   0.5311625   0.0000000), wk =   0.0042667
        k(  493) = (   0.2800000   0.5465585   0.0000000), wk =   0.0042667
        k(  494) = (   0.2800000   0.5619545   0.0000000), wk =   0.0042667
        k(  495) = (   0.2800000   0.5773505   0.0000000), wk =   0.0021333
        k(  496) = (   0.2933333   0.5080685   0.0000000), wk =   0.0021333
        k(  497) = (   0.2933333   0.5234645   0.0000000), wk =   0.0042667
        k(  498) = (   0.2933333   0.5388605   0.0000000), wk =   0.0042667
        k(  499) = (   0.2933333   0.5542565   0.0000000), wk =   0.0042667
        k(  500) = (   0.2933333   0.5696525   0.0000000), wk =   0.0042667
        k(  501) = (   0.3066667   0.5311625   0.0000000), wk =   0.0021333
        k(  502) = (   0.3066667   0.5465585   0.0000000), wk =   0.0042667
        k(  503) = (   0.3066667   0.5619545   0.0000000), wk =   0.0042667
        k(  504) = (   0.3066667   0.5773505   0.0000000), wk =   0.0021333
        k(  505) = (   0.3200000   0.5542565   0.0000000), wk =   0.0021333
        k(  506) = (   0.3200000   0.5696525   0.0000000), wk =   0.0042667
        k(  507) = (   0.3333333   0.5773505   0.0000000), wk =   0.0007111

                       cryst. coord.
        k(    1) = (   0.0000000   0.0000000   0.0000000), wk =   0.0003556
        k(    2) = (   0.0000000   0.0133333   0.0000000), wk =   0.0021333
        k(    3) = (   0.0000000   0.0266667   0.0000000), wk =   0.0021333
        k(    4) = (   0.0000000   0.0400000   0.0000000), wk =   0.0021333
        k(    5) = (   0.0000000   0.0533333   0.0000000), wk =   0.0021333
        k(    6) = (   0.0000000   0.0666667   0.0000000), wk =   0.0021333
        k(    7) = (   0.0000000   0.0800000   0.0000000), wk =   0.0021333
        k(    8) = (   0.0000000   0.0933333   0.0000000), wk =   0.0021333
        k(    9) = (   0.0000000   0.1066667   0.0000000), wk =   0.0021333
        k(   10) = (   0.0000000   0.1200000   0.0000000), wk =   0.0021333
        k(   11) = (   0.0000000   0.1333333   0.0000000), wk =   0.0021333
        k(   12) = (   0.0000000   0.1466667   0.0000000), wk =   0.0021333
        k(   13) = (   0.0000000   0.1600000   0.0000000), wk =   0.0021333
        k(   14) = (   0.0000000   0.1733333   0.0000000), wk =   0.0021333
        k(   15) = (   0.0000000   0.1866667   0.0000000), wk =   0.0021333
        k(   16) = (   0.0000000   0.2000000   0.0000000), wk =   0.0021333
        k(   17) = (   0.0000000   0.2133333   0.0000000), wk =   0.0021333
        k(   18) = (   0.0000000   0.2266667   0.0000000), wk =   0.0021333
        k(   19) = (   0.0000000   0.2400000   0.0000000), wk =   0.0021333
        k(   20) = (   0.0000000   0.2533333   0.0000000), wk =   0.0021333
        k(   21) = (   0.0000000   0.2666667   0.0000000), wk =   0.0021333
        k(   22) = (   0.0000000   0.2800000   0.0000000), wk =   0.0021333
        k(   23) = (   0.0000000   0.2933333   0.0000000), wk =   0.0021333
        k(   24) = (   0.0000000   0.3066667   0.0000000), wk =   0.0021333
        k(   25) = (   0.0000000   0.3200000   0.0000000), wk =   0.0021333
        k(   26) = (   0.0000000   0.3333333   0.0000000), wk =   0.0021333
        k(   27) = (   0.0000000   0.3466667   0.0000000), wk =   0.0021333
        k(   28) = (   0.0000000   0.3600000   0.0000000), wk =   0.0021333
        k(   29) = (   0.0000000   0.3733333   0.0000000), wk =   0.0021333
        k(   30) = (   0.0000000   0.3866667   0.0000000), wk =   0.0021333
        k(   31) = (   0.0000000   0.4000000   0.0000000), wk =   0.0021333
        k(   32) = (   0.0000000   0.4133333   0.0000000), wk =   0.0021333
        k(   33) = (   0.0000000   0.4266667   0.0000000), wk =   0.0021333
        k(   34) = (   0.0000000   0.4400000   0.0000000), wk =   0.0021333
        k(   35) = (   0.0000000   0.4533333   0.0000000), wk =   0.0021333
        k(   36) = (   0.0000000   0.4666667   0.0000000), wk =   0.0021333
        k(   37) = (   0.0000000   0.4800000   0.0000000), wk =   0.0021333
        k(   38) = (   0.0000000   0.4933333   0.0000000), wk =   0.0021333
        k(   39) = (   0.0133333   0.0133333   0.0000000), wk =   0.0021333
        k(   40) = (   0.0133333   0.0266667   0.0000000), wk =   0.0042667
        k(   41) = (   0.0133333   0.0400000   0.0000000), wk =   0.0042667
        k(   42) = (   0.0133333   0.0533333   0.0000000), wk =   0.0042667
        k(   43) = (   0.0133333   0.0666667   0.0000000), wk =   0.0042667
        k(   44) = (   0.0133333   0.0800000   0.0000000), wk =   0.0042667
        k(   45) = (   0.0133333   0.0933333   0.0000000), wk =   0.0042667
        k(   46) = (   0.0133333   0.1066667   0.0000000), wk =   0.0042667
        k(   47) = (   0.0133333   0.1200000   0.0000000), wk =   0.0042667
        k(   48) = (   0.0133333   0.1333333   0.0000000), wk =   0.0042667
        k(   49) = (   0.0133333   0.1466667   0.0000000), wk =   0.0042667
        k(   50) = (   0.0133333   0.1600000   0.0000000), wk =   0.0042667
        k(   51) = (   0.0133333   0.1733333   0.0000000), wk =   0.0042667
        k(   52) = (   0.0133333   0.1866667   0.0000000), wk =   0.0042667
        k(   53) = (   0.0133333   0.2000000   0.0000000), wk =   0.0042667
        k(   54) = (   0.0133333   0.2133333   0.0000000), wk =   0.0042667
        k(   55) = (   0.0133333   0.2266667   0.0000000), wk =   0.0042667
        k(   56) = (   0.0133333   0.2400000   0.0000000), wk =   0.0042667
        k(   57) = (   0.0133333   0.2533333   0.0000000), wk =   0.0042667
        k(   58) = (   0.0133333   0.2666667   0.0000000), wk =   0.0042667
        k(   59) = (   0.0133333   0.2800000   0.0000000), wk =   0.0042667
        k(   60) = (   0.0133333   0.2933333   0.0000000), wk =   0.0042667
        k(   61) = (   0.0133333   0.3066667   0.0000000), wk =   0.0042667
        k(   62) = (   0.0133333   0.3200000   0.0000000), wk =   0.0042667
        k(   63) = (   0.0133333   0.3333333   0.0000000), wk =   0.0042667
        k(   64) = (   0.0133333   0.3466667   0.0000000), wk =   0.0042667
        k(   65) = (   0.0133333   0.3600000   0.0000000), wk =   0.0042667
        k(   66) = (   0.0133333   0.3733333   0.0000000), wk =   0.0042667
        k(   67) = (   0.0133333   0.3866667   0.0000000), wk =   0.0042667
        k(   68) = (   0.0133333   0.4000000   0.0000000), wk =   0.0042667
        k(   69) = (   0.0133333   0.4133333   0.0000000), wk =   0.0042667
        k(   70) = (   0.0133333   0.4266667   0.0000000), wk =   0.0042667
        k(   71) = (   0.0133333   0.4400000   0.0000000), wk =   0.0042667
        k(   72) = (   0.0133333   0.4533333   0.0000000), wk =   0.0042667
        k(   73) = (   0.0133333   0.4666667   0.0000000), wk =   0.0042667
        k(   74) = (   0.0133333   0.4800000   0.0000000), wk =   0.0042667
        k(   75) = (   0.0133333   0.4933333   0.0000000), wk =   0.0021333
        k(   76) = (   0.0266667   0.0266667   0.0000000), wk =   0.0021333
        k(   77) = (   0.0266667   0.0400000   0.0000000), wk =   0.0042667
        k(   78) = (   0.0266667   0.0533333   0.0000000), wk =   0.0042667
        k(   79) = (   0.0266667   0.0666667   0.0000000), wk =   0.0042667
        k(   80) = (   0.0266667   0.0800000   0.0000000), wk =   0.0042667
        k(   81) = (   0.0266667   0.0933333   0.0000000), wk =   0.0042667
        k(   82) = (   0.0266667   0.1066667   0.0000000), wk =   0.0042667
        k(   83) = (   0.0266667   0.1200000   0.0000000), wk =   0.0042667
        k(   84) = (   0.0266667   0.1333333   0.0000000), wk =   0.0042667
        k(   85) = (   0.0266667   0.1466667   0.0000000), wk =   0.0042667
        k(   86) = (   0.0266667   0.1600000   0.0000000), wk =   0.0042667
        k(   87) = (   0.0266667   0.1733333   0.0000000), wk =   0.0042667
        k(   88) = (   0.0266667   0.1866667   0.0000000), wk =   0.0042667
        k(   89) = (   0.0266667   0.2000000   0.0000000), wk =   0.0042667
        k(   90) = (   0.0266667   0.2133333   0.0000000), wk =   0.0042667
        k(   91) = (   0.0266667   0.2266667   0.0000000), wk =   0.0042667
        k(   92) = (   0.0266667   0.2400000   0.0000000), wk =   0.0042667
        k(   93) = (   0.0266667   0.2533333   0.0000000), wk =   0.0042667
        k(   94) = (   0.0266667   0.2666667   0.0000000), wk =   0.0042667
        k(   95) = (   0.0266667   0.2800000   0.0000000), wk =   0.0042667
        k(   96) = (   0.0266667   0.2933333   0.0000000), wk =   0.0042667
        k(   97) = (   0.0266667   0.3066667   0.0000000), wk =   0.0042667
        k(   98) = (   0.0266667   0.3200000   0.0000000), wk =   0.0042667
        k(   99) = (   0.0266667   0.3333333   0.0000000), wk =   0.0042667
        k(  100) = (   0.0266667   0.3466667   0.0000000), wk =   0.0042667
        k(  101) = (   0.0266667   0.3600000   0.0000000), wk =   0.0042667
        k(  102) = (   0.0266667   0.3733333   0.0000000), wk =   0.0042667
        k(  103) = (   0.0266667   0.3866667   0.0000000), wk =   0.0042667
        k(  104) = (   0.0266667   0.4000000   0.0000000), wk =   0.0042667
        k(  105) = (   0.0266667   0.4133333   0.0000000), wk =   0.0042667
        k(  106) = (   0.0266667   0.4266667   0.0000000), wk =   0.0042667
        k(  107) = (   0.0266667   0.4400000   0.0000000), wk =   0.0042667
        k(  108) = (   0.0266667   0.4533333   0.0000000), wk =   0.0042667
        k(  109) = (   0.0266667   0.4666667   0.0000000), wk =   0.0042667
        k(  110) = (   0.0266667   0.4800000   0.0000000), wk =   0.0042667
        k(  111) = (   0.0400000   0.0400000   0.0000000), wk =   0.0021333
        k(  112) = (   0.0400000   0.0533333   0.0000000), wk =   0.0042667
        k(  113) = (   0.0400000   0.0666667   0.0000000), wk =   0.0042667
        k(  114) = (   0.0400000   0.0800000   0.0000000), wk =   0.0042667
        k(  115) = (   0.0400000   0.0933333   0.0000000), wk =   0.0042667
        k(  116) = (   0.0400000   0.1066667   0.0000000), wk =   0.0042667
        k(  117) = (   0.0400000   0.1200000   0.0000000), wk =   0.0042667
        k(  118) = (   0.0400000   0.1333333   0.0000000), wk =   0.0042667
        k(  119) = (   0.0400000   0.1466667   0.0000000), wk =   0.0042667
        k(  120) = (   0.0400000   0.1600000   0.0000000), wk =   0.0042667
        k(  121) = (   0.0400000   0.1733333   0.0000000), wk =   0.0042667
        k(  122) = (   0.0400000   0.1866667   0.0000000), wk =   0.0042667
        k(  123) = (   0.0400000   0.2000000   0.0000000), wk =   0.0042667
        k(  124) = (   0.0400000   0.2133333   0.0000000), wk =   0.0042667
        k(  125) = (   0.0400000   0.2266667   0.0000000), wk =   0.0042667
        k(  126) = (   0.0400000   0.2400000   0.0000000), wk =   0.0042667
        k(  127) = (   0.0400000   0.2533333   0.0000000), wk =   0.0042667
        k(  128) = (   0.0400000   0.2666667   0.0000000), wk =   0.0042667
        k(  129) = (   0.0400000   0.2800000   0.0000000), wk =   0.0042667
        k(  130) = (   0.0400000   0.2933333   0.0000000), wk =   0.0042667
        k(  131) = (   0.0400000   0.3066667   0.0000000), wk =   0.0042667
        k(  132) = (   0.0400000   0.3200000   0.0000000), wk =   0.0042667
        k(  133) = (   0.0400000   0.3333333   0.0000000), wk =   0.0042667
        k(  134) = (   0.0400000   0.3466667   0.0000000), wk =   0.0042667
        k(  135) = (   0.0400000   0.3600000   0.0000000), wk =   0.0042667
        k(  136) = (   0.0400000   0.3733333   0.0000000), wk =   0.0042667
        k(  137) = (   0.0400000   0.3866667   0.0000000), wk =   0.0042667
        k(  138) = (   0.0400000   0.4000000   0.0000000), wk =   0.0042667
        k(  139) = (   0.0400000   0.4133333   0.0000000), wk =   0.0042667
        k(  140) = (   0.0400000   0.4266667   0.0000000), wk =   0.0042667
        k(  141) = (   0.0400000   0.4400000   0.0000000), wk =   0.0042667
        k(  142) = (   0.0400000   0.4533333   0.0000000), wk =   0.0042667
        k(  143) = (   0.0400000   0.4666667   0.0000000), wk =   0.0042667
        k(  144) = (   0.0400000   0.4800000   0.0000000), wk =   0.0021333
        k(  145) = (   0.0533333   0.0533333   0.0000000), wk =   0.0021333
        k(  146) = (   0.0533333   0.0666667   0.0000000), wk =   0.0042667
        k(  147) = (   0.0533333   0.0800000   0.0000000), wk =   0.0042667
        k(  148) = (   0.0533333   0.0933333   0.0000000), wk =   0.0042667
        k(  149) = (   0.0533333   0.1066667   0.0000000), wk =   0.0042667
        k(  150) = (   0.0533333   0.1200000   0.0000000), wk =   0.0042667
        k(  151) = (   0.0533333   0.1333333   0.0000000), wk =   0.0042667
        k(  152) = (   0.0533333   0.1466667   0.0000000), wk =   0.0042667
        k(  153) = (   0.0533333   0.1600000   0.0000000), wk =   0.0042667
        k(  154) = (   0.0533333   0.1733333   0.0000000), wk =   0.0042667
        k(  155) = (   0.0533333   0.1866667   0.0000000), wk =   0.0042667
        k(  156) = (   0.0533333   0.2000000   0.0000000), wk =   0.0042667
        k(  157) = (   0.0533333   0.2133333   0.0000000), wk =   0.0042667
        k(  158) = (   0.0533333   0.2266667   0.0000000), wk =   0.0042667
        k(  159) = (   0.0533333   0.2400000   0.0000000), wk =   0.0042667
        k(  160) = (   0.0533333   0.2533333   0.0000000), wk =   0.0042667
        k(  161) = (   0.0533333   0.2666667   0.0000000), wk =   0.0042667
        k(  162) = (   0.0533333   0.2800000   0.0000000), wk =   0.0042667
        k(  163) = (   0.0533333   0.2933333   0.0000000), wk =   0.0042667
        k(  164) = (   0.0533333   0.3066667   0.0000000), wk =   0.0042667
        k(  165) = (   0.0533333   0.3200000   0.0000000), wk =   0.0042667
        k(  166) = (   0.0533333   0.3333333   0.0000000), wk =   0.0042667
        k(  167) = (   0.0533333   0.3466667   0.0000000), wk =   0.0042667
        k(  168) = (   0.0533333   0.3600000   0.0000000), wk =   0.0042667
        k(  169) = (   0.0533333   0.3733333   0.0000000), wk =   0.0042667
        k(  170) = (   0.0533333   0.3866667   0.0000000), wk =   0.0042667
        k(  171) = (   0.0533333   0.4000000   0.0000000), wk =   0.0042667
        k(  172) = (   0.0533333   0.4133333   0.0000000), wk =   0.0042667
        k(  173) = (   0.0533333   0.4266667   0.0000000), wk =   0.0042667
        k(  174) = (   0.0533333   0.4400000   0.0000000), wk =   0.0042667
        k(  175) = (   0.0533333   0.4533333   0.0000000), wk =   0.0042667
        k(  176) = (   0.0533333   0.4666667   0.0000000), wk =   0.0042667
        k(  177) = (   0.0666667   0.0666667   0.0000000), wk =   0.0021333
        k(  178) = (   0.0666667   0.0800000   0.0000000), wk =   0.0042667
        k(  179) = (   0.0666667   0.0933333   0.0000000), wk =   0.0042667
        k(  180) = (   0.0666667   0.1066667   0.0000000), wk =   0.0042667
        k(  181) = (   0.0666667   0.1200000   0.0000000), wk =   0.0042667
        k(  182) = (   0.0666667   0.1333333   0.0000000), wk =   0.0042667
        k(  183) = (   0.0666667   0.1466667   0.0000000), wk =   0.0042667
        k(  184) = (   0.0666667   0.1600000   0.0000000), wk =   0.0042667
        k(  185) = (   0.0666667   0.1733333   0.0000000), wk =   0.0042667
        k(  186) = (   0.0666667   0.1866667   0.0000000), wk =   0.0042667
        k(  187) = (   0.0666667   0.2000000   0.0000000), wk =   0.0042667
        k(  188) = (   0.0666667   0.2133333   0.0000000), wk =   0.0042667
        k(  189) = (   0.0666667   0.2266667   0.0000000), wk =   0.0042667
        k(  190) = (   0.0666667   0.2400000   0.0000000), wk =   0.0042667
        k(  191) = (   0.0666667   0.2533333   0.0000000), wk =   0.0042667
        k(  192) = (   0.0666667   0.2666667   0.0000000), wk =   0.0042667
        k(  193) = (   0.0666667   0.2800000   0.0000000), wk =   0.0042667
        k(  194) = (   0.0666667   0.2933333   0.0000000), wk =   0.0042667
        k(  195) = (   0.0666667   0.3066667   0.0000000), wk =   0.0042667
        k(  196) = (   0.0666667   0.3200000   0.0000000), wk =   0.0042667
        k(  197) = (   0.0666667   0.3333333   0.0000000), wk =   0.0042667
        k(  198) = (   0.0666667   0.3466667   0.0000000), wk =   0.0042667
        k(  199) = (   0.0666667   0.3600000   0.0000000), wk =   0.0042667
        k(  200) = (   0.0666667   0.3733333   0.0000000), wk =   0.0042667
        k(  201) = (   0.0666667   0.3866667   0.0000000), wk =   0.0042667
        k(  202) = (   0.0666667   0.4000000   0.0000000), wk =   0.0042667
        k(  203) = (   0.0666667   0.4133333   0.0000000), wk =   0.0042667
        k(  204) = (   0.0666667   0.4266667   0.0000000), wk =   0.0042667
        k(  205) = (   0.0666667   0.4400000   0.0000000), wk =   0.0042667
        k(  206) = (   0.0666667   0.4533333   0.0000000), wk =   0.0042667
        k(  207) = (   0.0666667   0.4666667   0.0000000), wk =   0.0021333
        k(  208) = (   0.0800000   0.0800000   0.0000000), wk =   0.0021333
        k(  209) = (   0.0800000   0.0933333   0.0000000), wk =   0.0042667
        k(  210) = (   0.0800000   0.1066667   0.0000000), wk =   0.0042667
        k(  211) = (   0.0800000   0.1200000   0.0000000), wk =   0.0042667
        k(  212) = (   0.0800000   0.1333333   0.0000000), wk =   0.0042667
        k(  213) = (   0.0800000   0.1466667   0.0000000), wk =   0.0042667
        k(  214) = (   0.0800000   0.1600000   0.0000000), wk =   0.0042667
        k(  215) = (   0.0800000   0.1733333   0.0000000), wk =   0.0042667
        k(  216) = (   0.0800000   0.1866667   0.0000000), wk =   0.0042667
        k(  217) = (   0.0800000   0.2000000   0.0000000), wk =   0.0042667
        k(  218) = (   0.0800000   0.2133333   0.0000000), wk =   0.0042667
        k(  219) = (   0.0800000   0.2266667   0.0000000), wk =   0.0042667
        k(  220) = (   0.0800000   0.2400000   0.0000000), wk =   0.0042667
        k(  221) = (   0.0800000   0.2533333   0.0000000), wk =   0.0042667
        k(  222) = (   0.0800000   0.2666667   0.0000000), wk =   0.0042667
        k(  223) = (   0.0800000   0.2800000   0.0000000), wk =   0.0042667
        k(  224) = (   0.0800000   0.2933333   0.0000000), wk =   0.0042667
        k(  225) = (   0.0800000   0.3066667   0.0000000), wk =   0.0042667
        k(  226) = (   0.0800000   0.3200000   0.0000000), wk =   0.0042667
        k(  227) = (   0.0800000   0.3333333   0.0000000), wk =   0.0042667
        k(  228) = (   0.0800000   0.3466667   0.0000000), wk =   0.0042667
        k(  229) = (   0.0800000   0.3600000   0.0000000), wk =   0.0042667
        k(  230) = (   0.0800000   0.3733333   0.0000000), wk =   0.0042667
        k(  231) = (   0.0800000   0.3866667   0.0000000), wk =   0.0042667
        k(  232) = (   0.0800000   0.4000000   0.0000000), wk =   0.0042667
        k(  233) = (   0.0800000   0.4133333   0.0000000), wk =   0.0042667
        k(  234) = (   0.0800000   0.4266667   0.0000000), wk =   0.0042667
        k(  235) = (   0.0800000   0.4400000   0.0000000), wk =   0.0042667
        k(  236) = (   0.0800000   0.4533333   0.0000000), wk =   0.0042667
        k(  237) = (   0.0933333   0.0933333   0.0000000), wk =   0.0021333
        k(  238) = (   0.0933333   0.1066667   0.0000000), wk =   0.0042667
        k(  239) = (   0.0933333   0.1200000   0.0000000), wk =   0.0042667
        k(  240) = (   0.0933333   0.1333333   0.0000000), wk =   0.0042667
        k(  241) = (   0.0933333   0.1466667   0.0000000), wk =   0.0042667
        k(  242) = (   0.0933333   0.1600000   0.0000000), wk =   0.0042667
        k(  243) = (   0.0933333   0.1733333   0.0000000), wk =   0.0042667
        k(  244) = (   0.0933333   0.1866667   0.0000000), wk =   0.0042667
        k(  245) = (   0.0933333   0.2000000   0.0000000), wk =   0.0042667
        k(  246) = (   0.0933333   0.2133333   0.0000000), wk =   0.0042667
        k(  247) = (   0.0933333   0.2266667   0.0000000), wk =   0.0042667
        k(  248) = (   0.0933333   0.2400000   0.0000000), wk =   0.0042667
        k(  249) = (   0.0933333   0.2533333   0.0000000), wk =   0.0042667
        k(  250) = (   0.0933333   0.2666667   0.0000000), wk =   0.0042667
        k(  251) = (   0.0933333   0.2800000   0.0000000), wk =   0.0042667
        k(  252) = (   0.0933333   0.2933333   0.0000000), wk =   0.0042667
        k(  253) = (   0.0933333   0.3066667   0.0000000), wk =   0.0042667
        k(  254) = (   0.0933333   0.3200000   0.0000000), wk =   0.0042667
        k(  255) = (   0.0933333   0.3333333   0.0000000), wk =   0.0042667
        k(  256) = (   0.0933333   0.3466667   0.0000000), wk =   0.0042667
        k(  257) = (   0.0933333   0.3600000   0.0000000), wk =   0.0042667
        k(  258) = (   0.0933333   0.3733333   0.0000000), wk =   0.0042667
        k(  259) = (   0.0933333   0.3866667   0.0000000), wk =   0.0042667
        k(  260) = (   0.0933333   0.4000000   0.0000000), wk =   0.0042667
        k(  261) = (   0.0933333   0.4133333   0.0000000), wk =   0.0042667
        k(  262) = (   0.0933333   0.4266667   0.0000000), wk =   0.0042667
        k(  263) = (   0.0933333   0.4400000   0.0000000), wk =   0.0042667
        k(  264) = (   0.0933333   0.4533333   0.0000000), wk =   0.0021333
        k(  265) = (   0.1066667   0.1066667   0.0000000), wk =   0.0021333
        k(  266) = (   0.1066667   0.1200000   0.0000000), wk =   0.0042667
        k(  267) = (   0.1066667   0.1333333   0.0000000), wk =   0.0042667
        k(  268) = (   0.1066667   0.1466667   0.0000000), wk =   0.0042667
        k(  269) = (   0.1066667   0.1600000   0.0000000), wk =   0.0042667
        k(  270) = (   0.1066667   0.1733333   0.0000000), wk =   0.0042667
        k(  271) = (   0.1066667   0.1866667   0.0000000), wk =   0.0042667
        k(  272) = (   0.1066667   0.2000000   0.0000000), wk =   0.0042667
        k(  273) = (   0.1066667   0.2133333   0.0000000), wk =   0.0042667
        k(  274) = (   0.1066667   0.2266667   0.0000000), wk =   0.0042667
        k(  275) = (   0.1066667   0.2400000   0.0000000), wk =   0.0042667
        k(  276) = (   0.1066667   0.2533333   0.0000000), wk =   0.0042667
        k(  277) = (   0.1066667   0.2666667   0.0000000), wk =   0.0042667
        k(  278) = (   0.1066667   0.2800000   0.0000000), wk =   0.0042667
        k(  279) = (   0.1066667   0.2933333   0.0000000), wk =   0.0042667
        k(  280) = (   0.1066667   0.3066667   0.0000000), wk =   0.0042667
        k(  281) = (   0.1066667   0.3200000   0.0000000), wk =   0.0042667
        k(  282) = (   0.1066667   0.3333333   0.0000000), wk =   0.0042667
        k(  283) = (   0.1066667   0.3466667   0.0000000), wk =   0.0042667
        k(  284) = (   0.1066667   0.3600000   0.0000000), wk =   0.0042667
        k(  285) = (   0.1066667   0.3733333   0.0000000), wk =   0.0042667
        k(  286) = (   0.1066667   0.3866667   0.0000000), wk =   0.0042667
        k(  287) = (   0.1066667   0.4000000   0.0000000), wk =   0.0042667
        k(  288) = (   0.1066667   0.4133333   0.0000000), wk =   0.0042667
        k(  289) = (   0.1066667   0.4266667   0.0000000), wk =   0.0042667
        k(  290) = (   0.1066667   0.4400000   0.0000000), wk =   0.0042667
        k(  291) = (   0.1200000   0.1200000   0.0000000), wk =   0.0021333
        k(  292) = (   0.1200000   0.1333333   0.0000000), wk =   0.0042667
        k(  293) = (   0.1200000   0.1466667   0.0000000), wk =   0.0042667
        k(  294) = (   0.1200000   0.1600000   0.0000000), wk =   0.0042667
        k(  295) = (   0.1200000   0.1733333   0.0000000), wk =   0.0042667
        k(  296) = (   0.1200000   0.1866667   0.0000000), wk =   0.0042667
        k(  297) = (   0.1200000   0.2000000   0.0000000), wk =   0.0042667
        k(  298) = (   0.1200000   0.2133333   0.0000000), wk =   0.0042667
        k(  299) = (   0.1200000   0.2266667   0.0000000), wk =   0.0042667
        k(  300) = (   0.1200000   0.2400000   0.0000000), wk =   0.0042667
        k(  301) = (   0.1200000   0.2533333   0.0000000), wk =   0.0042667
        k(  302) = (   0.1200000   0.2666667   0.0000000), wk =   0.0042667
        k(  303) = (   0.1200000   0.2800000   0.0000000), wk =   0.0042667
        k(  304) = (   0.1200000   0.2933333   0.0000000), wk =   0.0042667
        k(  305) = (   0.1200000   0.3066667   0.0000000), wk =   0.0042667
        k(  306) = (   0.1200000   0.3200000   0.0000000), wk =   0.0042667
        k(  307) = (   0.1200000   0.3333333   0.0000000), wk =   0.0042667
        k(  308) = (   0.1200000   0.3466667   0.0000000), wk =   0.0042667
        k(  309) = (   0.1200000   0.3600000   0.0000000), wk =   0.0042667
        k(  310) = (   0.1200000   0.3733333   0.0000000), wk =   0.0042667
        k(  311) = (   0.1200000   0.3866667   0.0000000), wk =   0.0042667
        k(  312) = (   0.1200000   0.4000000   0.0000000), wk =   0.0042667
        k(  313) = (   0.1200000   0.4133333   0.0000000), wk =   0.0042667
        k(  314) = (   0.1200000   0.4266667   0.0000000), wk =   0.0042667
        k(  315) = (   0.1200000   0.4400000   0.0000000), wk =   0.0021333
        k(  316) = (   0.1333333   0.1333333   0.0000000), wk =   0.0021333
        k(  317) = (   0.1333333   0.1466667   0.0000000), wk =   0.0042667
        k(  318) = (   0.1333333   0.1600000   0.0000000), wk =   0.0042667
        k(  319) = (   0.1333333   0.1733333   0.0000000), wk =   0.0042667
        k(  320) = (   0.1333333   0.1866667   0.0000000), wk =   0.0042667
        k(  321) = (   0.1333333   0.2000000   0.0000000), wk =   0.0042667
        k(  322) = (   0.1333333   0.2133333   0.0000000), wk =   0.0042667
        k(  323) = (   0.1333333   0.2266667   0.0000000), wk =   0.0042667
        k(  324) = (   0.1333333   0.2400000   0.0000000), wk =   0.0042667
        k(  325) = (   0.1333333   0.2533333   0.0000000), wk =   0.0042667
        k(  326) = (   0.1333333   0.2666667   0.0000000), wk =   0.0042667
        k(  327) = (   0.1333333   0.2800000   0.0000000), wk =   0.0042667
        k(  328) = (   0.1333333   0.2933333   0.0000000), wk =   0.0042667
        k(  329) = (   0.1333333   0.3066667   0.0000000), wk =   0.0042667
        k(  330) = (   0.1333333   0.3200000   0.0000000), wk =   0.0042667
        k(  331) = (   0.1333333   0.3333333   0.0000000), wk =   0.0042667
        k(  332) = (   0.1333333   0.3466667   0.0000000), wk =   0.0042667
        k(  333) = (   0.1333333   0.3600000   0.0000000), wk =   0.0042667
        k(  334) = (   0.1333333   0.3733333   0.0000000), wk =   0.0042667
        k(  335) = (   0.1333333   0.3866667   0.0000000), wk =   0.0042667
        k(  336) = (   0.1333333   0.4000000   0.0000000), wk =   0.0042667
        k(  337) = (   0.1333333   0.4133333   0.0000000), wk =   0.0042667
        k(  338) = (   0.1333333   0.4266667   0.0000000), wk =   0.0042667
        k(  339) = (   0.1466667   0.1466667   0.0000000), wk =   0.0021333
        k(  340) = (   0.1466667   0.1600000   0.0000000), wk =   0.0042667
        k(  341) = (   0.1466667   0.1733333   0.0000000), wk =   0.0042667
        k(  342) = (   0.1466667   0.1866667   0.0000000), wk =   0.0042667
        k(  343) = (   0.1466667   0.2000000   0.0000000), wk =   0.0042667
        k(  344) = (   0.1466667   0.2133333   0.0000000), wk =   0.0042667
        k(  345) = (   0.1466667   0.2266667   0.0000000), wk =   0.0042667
        k(  346) = (   0.1466667   0.2400000   0.0000000), wk =   0.0042667
        k(  347) = (   0.1466667   0.2533333   0.0000000), wk =   0.0042667
        k(  348) = (   0.1466667   0.2666667   0.0000000), wk =   0.0042667
        k(  349) = (   0.1466667   0.2800000   0.0000000), wk =   0.0042667
        k(  350) = (   0.1466667   0.2933333   0.0000000), wk =   0.0042667
        k(  351) = (   0.1466667   0.3066667   0.0000000), wk =   0.0042667
        k(  352) = (   0.1466667   0.3200000   0.0000000), wk =   0.0042667
        k(  353) = (   0.1466667   0.3333333   0.0000000), wk =   0.0042667
        k(  354) = (   0.1466667   0.3466667   0.0000000), wk =   0.0042667
        k(  355) = (   0.1466667   0.3600000   0.0000000), wk =   0.0042667
        k(  356) = (   0.1466667   0.3733333   0.0000000), wk =   0.0042667
        k(  357) = (   0.1466667   0.3866667   0.0000000), wk =   0.0042667
        k(  358) = (   0.1466667   0.4000000   0.0000000), wk =   0.0042667
        k(  359) = (   0.1466667   0.4133333   0.0000000), wk =   0.0042667
        k(  360) = (   0.1466667   0.4266667   0.0000000), wk =   0.0021333
        k(  361) = (   0.1600000   0.1600000   0.0000000), wk =   0.0021333
        k(  362) = (   0.1600000   0.1733333   0.0000000), wk =   0.0042667
        k(  363) = (   0.1600000   0.1866667   0.0000000), wk =   0.0042667
        k(  364) = (   0.1600000   0.2000000   0.0000000), wk =   0.0042667
        k(  365) = (   0.1600000   0.2133333   0.0000000), wk =   0.0042667
        k(  366) = (   0.1600000   0.2266667   0.0000000), wk =   0.0042667
        k(  367) = (   0.1600000   0.2400000   0.0000000), wk =   0.0042667
        k(  368) = (   0.1600000   0.2533333   0.0000000), wk =   0.0042667
        k(  369) = (   0.1600000   0.2666667   0.0000000), wk =   0.0042667
        k(  370) = (   0.1600000   0.2800000   0.0000000), wk =   0.0042667
        k(  371) = (   0.1600000   0.2933333   0.0000000), wk =   0.0042667
        k(  372) = (   0.1600000   0.3066667   0.0000000), wk =   0.0042667
        k(  373) = (   0.1600000   0.3200000   0.0000000), wk =   0.0042667
        k(  374) = (   0.1600000   0.3333333   0.0000000), wk =   0.0042667
        k(  375) = (   0.1600000   0.3466667   0.0000000), wk =   0.0042667
        k(  376) = (   0.1600000   0.3600000   0.0000000), wk =   0.0042667
        k(  377) = (   0.1600000   0.3733333   0.0000000), wk =   0.0042667
        k(  378) = (   0.1600000   0.3866667   0.0000000), wk =   0.0042667
        k(  379) = (   0.1600000   0.4000000   0.0000000), wk =   0.0042667
        k(  380) = (   0.1600000   0.4133333   0.0000000), wk =   0.0042667
        k(  381) = (   0.1733333   0.1733333   0.0000000), wk =   0.0021333
        k(  382) = (   0.1733333   0.1866667   0.0000000), wk =   0.0042667
        k(  383) = (   0.1733333   0.2000000   0.0000000), wk =   0.0042667
        k(  384) = (   0.1733333   0.2133333   0.0000000), wk =   0.0042667
        k(  385) = (   0.1733333   0.2266667   0.0000000), wk =   0.0042667
        k(  386) = (   0.1733333   0.2400000   0.0000000), wk =   0.0042667
        k(  387) = (   0.1733333   0.2533333   0.0000000), wk =   0.0042667
        k(  388) = (   0.1733333   0.2666667   0.0000000), wk =   0.0042667
        k(  389) = (   0.1733333   0.2800000   0.0000000), wk =   0.0042667
        k(  390) = (   0.1733333   0.2933333   0.0000000), wk =   0.0042667
        k(  391) = (   0.1733333   0.3066667   0.0000000), wk =   0.0042667
        k(  392) = (   0.1733333   0.3200000   0.0000000), wk =   0.0042667
        k(  393) = (   0.1733333   0.3333333   0.0000000), wk =   0.0042667
        k(  394) = (   0.1733333   0.3466667   0.0000000), wk =   0.0042667
        k(  395) = (   0.1733333   0.3600000   0.0000000), wk =   0.0042667
        k(  396) = (   0.1733333   0.3733333   0.0000000), wk =   0.0042667
        k(  397) = (   0.1733333   0.3866667   0.0000000), wk =   0.0042667
        k(  398) = (   0.1733333   0.4000000   0.0000000), wk =   0.0042667
        k(  399) = (   0.1733333   0.4133333   0.0000000), wk =   0.0021333
        k(  400) = (   0.1866667   0.1866667   0.0000000), wk =   0.0021333
        k(  401) = (   0.1866667   0.2000000   0.0000000), wk =   0.0042667
        k(  402) = (   0.1866667   0.2133333   0.0000000), wk =   0.0042667
        k(  403) = (   0.1866667   0.2266667   0.0000000), wk =   0.0042667
        k(  404) = (   0.1866667   0.2400000   0.0000000), wk =   0.0042667
        k(  405) = (   0.1866667   0.2533333   0.0000000), wk =   0.0042667
        k(  406) = (   0.1866667   0.2666667   0.0000000), wk =   0.0042667
        k(  407) = (   0.1866667   0.2800000   0.0000000), wk =   0.0042667
        k(  408) = (   0.1866667   0.2933333   0.0000000), wk =   0.0042667
        k(  409) = (   0.1866667   0.3066667   0.0000000), wk =   0.0042667
        k(  410) = (   0.1866667   0.3200000   0.0000000), wk =   0.0042667
        k(  411) = (   0.1866667   0.3333333   0.0000000), wk =   0.0042667
        k(  412) = (   0.1866667   0.3466667   0.0000000), wk =   0.0042667
        k(  413) = (   0.1866667   0.3600000   0.0000000), wk =   0.0042667
        k(  414) = (   0.1866667   0.3733333   0.0000000), wk =   0.0042667
        k(  415) = (   0.1866667   0.3866667   0.0000000), wk =   0.0042667
        k(  416) = (   0.1866667   0.4000000   0.0000000), wk =   0.0042667
        k(  417) = (   0.2000000   0.2000000   0.0000000), wk =   0.0021333
        k(  418) = (   0.2000000   0.2133333   0.0000000), wk =   0.0042667
        k(  419) = (   0.2000000   0.2266667   0.0000000), wk =   0.0042667
        k(  420) = (   0.2000000   0.2400000   0.0000000), wk =   0.0042667
        k(  421) = (   0.2000000   0.2533333   0.0000000), wk =   0.0042667
        k(  422) = (   0.2000000   0.2666667   0.0000000), wk =   0.0042667
        k(  423) = (   0.2000000   0.2800000   0.0000000), wk =   0.0042667
        k(  424) = (   0.2000000   0.2933333   0.0000000), wk =   0.0042667
        k(  425) = (   0.2000000   0.3066667   0.0000000), wk =   0.0042667
        k(  426) = (   0.2000000   0.3200000   0.0000000), wk =   0.0042667
        k(  427) = (   0.2000000   0.3333333   0.0000000), wk =   0.0042667
        k(  428) = (   0.2000000   0.3466667   0.0000000), wk =   0.0042667
        k(  429) = (   0.2000000   0.3600000   0.0000000), wk =   0.0042667
        k(  430) = (   0.2000000   0.3733333   0.0000000), wk =   0.0042667
        k(  431) = (   0.2000000   0.3866667   0.0000000), wk =   0.0042667
        k(  432) = (   0.2000000   0.4000000   0.0000000), wk =   0.0021333
        k(  433) = (   0.2133333   0.2133333   0.0000000), wk =   0.0021333
        k(  434) = (   0.2133333   0.2266667   0.0000000), wk =   0.0042667
        k(  435) = (   0.2133333   0.2400000   0.0000000), wk =   0.0042667
        k(  436) = (   0.2133333   0.2533333   0.0000000), wk =   0.0042667
        k(  437) = (   0.2133333   0.2666667   0.0000000), wk =   0.0042667
        k(  438) = (   0.2133333   0.2800000   0.0000000), wk =   0.0042667
        k(  439) = (   0.2133333   0.2933333   0.0000000), wk =   0.0042667
        k(  440) = (   0.2133333   0.3066667   0.0000000), wk =   0.0042667
        k(  441) = (   0.2133333   0.3200000   0.0000000), wk =   0.0042667
        k(  442) = (   0.2133333   0.3333333   0.0000000), wk =   0.0042667
        k(  443) = (   0.2133333   0.3466667   0.0000000), wk =   0.0042667
        k(  444) = (   0.2133333   0.3600000   0.0000000), wk =   0.0042667
        k(  445) = (   0.2133333   0.3733333   0.0000000), wk =   0.0042667
        k(  446) = (   0.2133333   0.3866667   0.0000000), wk =   0.0042667
        k(  447) = (   0.2266667   0.2266667   0.0000000), wk =   0.0021333
        k(  448) = (   0.2266667   0.2400000   0.0000000), wk =   0.0042667
        k(  449) = (   0.2266667   0.2533333   0.0000000), wk =   0.0042667
        k(  450) = (   0.2266667   0.2666667   0.0000000), wk =   0.0042667
        k(  451) = (   0.2266667   0.2800000   0.0000000), wk =   0.0042667
        k(  452) = (   0.2266667   0.2933333   0.0000000), wk =   0.0042667
        k(  453) = (   0.2266667   0.3066667   0.0000000), wk =   0.0042667
        k(  454) = (   0.2266667   0.3200000   0.0000000), wk =   0.0042667
        k(  455) = (   0.2266667   0.3333333   0.0000000), wk =   0.0042667
        k(  456) = (   0.2266667   0.3466667   0.0000000), wk =   0.0042667
        k(  457) = (   0.2266667   0.3600000   0.0000000), wk =   0.0042667
        k(  458) = (   0.2266667   0.3733333   0.0000000), wk =   0.0042667
        k(  459) = (   0.2266667   0.3866667   0.0000000), wk =   0.0021333
        k(  460) = (   0.2400000   0.2400000   0.0000000), wk =   0.0021333
        k(  461) = (   0.2400000   0.2533333   0.0000000), wk =   0.0042667
        k(  462) = (   0.2400000   0.2666667   0.0000000), wk =   0.0042667
        k(  463) = (   0.2400000   0.2800000   0.0000000), wk =   0.0042667
        k(  464) = (   0.2400000   0.2933333   0.0000000), wk =   0.0042667
        k(  465) = (   0.2400000   0.3066667   0.0000000), wk =   0.0042667
        k(  466) = (   0.2400000   0.3200000   0.0000000), wk =   0.0042667
        k(  467) = (   0.2400000   0.3333333   0.0000000), wk =   0.0042667
        k(  468) = (   0.2400000   0.3466667   0.0000000), wk =   0.0042667
        k(  469) = (   0.2400000   0.3600000   0.0000000), wk =   0.0042667
        k(  470) = (   0.2400000   0.3733333   0.0000000), wk =   0.0042667
        k(  471) = (   0.2533333   0.2533333   0.0000000), wk =   0.0021333
        k(  472) = (   0.2533333   0.2666667   0.0000000), wk =   0.0042667
        k(  473) = (   0.2533333   0.2800000   0.0000000), wk =   0.0042667
        k(  474) = (   0.2533333   0.2933333   0.0000000), wk =   0.0042667
        k(  475) = (   0.2533333   0.3066667   0.0000000), wk =   0.0042667
        k(  476) = (   0.2533333   0.3200000   0.0000000), wk =   0.0042667
        k(  477) = (   0.2533333   0.3333333   0.0000000), wk =   0.0042667
        k(  478) = (   0.2533333   0.3466667   0.0000000), wk =   0.0042667
        k(  479) = (   0.2533333   0.3600000   0.0000000), wk =   0.0042667
        k(  480) = (   0.2533333   0.3733333   0.0000000), wk =   0.0021333
        k(  481) = (   0.2666667   0.2666667   0.0000000), wk =   0.0021333
        k(  482) = (   0.2666667   0.2800000   0.0000000), wk =   0.0042667
        k(  483) = (   0.2666667   0.2933333   0.0000000), wk =   0.0042667
        k(  484) = (   0.2666667   0.3066667   0.0000000), wk =   0.0042667
        k(  485) = (   0.2666667   0.3200000   0.0000000), wk =   0.0042667
        k(  486) = (   0.2666667   0.3333333   0.0000000), wk =   0.0042667
        k(  487) = (   0.2666667   0.3466667   0.0000000), wk =   0.0042667
        k(  488) = (   0.2666667   0.3600000   0.0000000), wk =   0.0042667
        k(  489) = (   0.2800000   0.2800000   0.0000000), wk =   0.0021333
        k(  490) = (   0.2800000   0.2933333   0.0000000), wk =   0.0042667
        k(  491) = (   0.2800000   0.3066667   0.0000000), wk =   0.0042667
        k(  492) = (   0.2800000   0.3200000   0.0000000), wk =   0.0042667
        k(  493) = (   0.2800000   0.3333333   0.0000000), wk =   0.0042667
        k(  494) = (   0.2800000   0.3466667   0.0000000), wk =   0.0042667
        k(  495) = (   0.2800000   0.3600000   0.0000000), wk =   0.0021333
        k(  496) = (   0.2933333   0.2933333   0.0000000), wk =   0.0021333
        k(  497) = (   0.2933333   0.3066667   0.0000000), wk =   0.0042667
        k(  498) = (   0.2933333   0.3200000   0.0000000), wk =   0.0042667
        k(  499) = (   0.2933333   0.3333333   0.0000000), wk =   0.0042667
        k(  500) = (   0.2933333   0.3466667   0.0000000), wk =   0.0042667
        k(  501) = (   0.3066667   0.3066667   0.0000000), wk =   0.0021333
        k(  502) = (   0.3066667   0.3200000   0.0000000), wk =   0.0042667
        k(  503) = (   0.3066667   0.3333333   0.0000000), wk =   0.0042667
        k(  504) = (   0.3066667   0.3466667   0.0000000), wk =   0.0021333
        k(  505) = (   0.3200000   0.3200000   0.0000000), wk =   0.0021333
        k(  506) = (   0.3200000   0.3333333   0.0000000), wk =   0.0042667
        k(  507) = (   0.3333333   0.3333333   0.0000000), wk =   0.0007111

     Dense  grid:    94953 G-vectors     FFT dimensions: (  30,  30, 270)

     Dynamical RAM for                 wfc:       5.45 MB

     Dynamical RAM for     wfc (w. buffer):     179.87 MB

     Dynamical RAM for           str. fact:       1.45 MB

     Dynamical RAM for           local pot:       0.00 MB

     Dynamical RAM for          nlocal pot:       2.91 MB

     Dynamical RAM for                qrad:       0.44 MB

     Dynamical RAM for          rho,v,vnew:       9.91 MB

     Dynamical RAM for           G-vectors:       6.16 MB

     Dynamical RAM for          h,s,v(r/c):       0.16 MB

     Dynamical RAM for          <psi|beta>:       0.01 MB

     Dynamical RAM for                 psi:      10.90 MB

     Dynamical RAM for                hpsi:      10.90 MB

     Dynamical RAM for      wfcinit/wfcrot:      10.92 MB

     Estimated static dynamical RAM per process >     212.89 MB

     Estimated max dynamical RAM per process >     234.87 MB

     Estimated total dynamical RAM >       3.67 GB

     The potential is recalculated from file :
     /home/ubuntu/projects/Graphene-Band-Structure-Quantum-Espresso/outputs/field_0/vdw-df2-c09/bottom/data/bottom.save/charge-density



     %%%%%%%%%%%%%%%%%%%%%%%%%%%%%%%%%%%%%%%%%%%%%%%%%%%%%%%%%%%%%%%%%%%%%%%%
     %                                                                      %
     % You are using vdW-DF, which was implemented by the Thonhauser group. %
     % Please cite the following two papers that made this development      %
     % possible and the two reviews that describe the various versions:     %
     %                                                                      %
     %   T. Thonhauser et al., PRL 115, 136402 (2015).                      %
     %   T. Thonhauser et al., PRB 76,  125112 (2007).                      %
     %   K. Berland et al., Rep. Prog. Phys. 78, 066501 (2015).             %
     %   D.C. Langreth et al., J. Phys.: Condens. Matter 21, 084203 (2009). %
     %                                                                      %
     % If you are calculating stress with vdW-DF, please also cite:         %
     %                                                                      %
     %   R. Sabatini et al., J. Phys.: Condens. Matter 24, 424209 (2012).   %
     %                                                                      %
     %   And for spin-polarized stress cases also:                          %
     %   C.M. Frostenson et al., Electr. Struct. 4, 014001 (2022).          %
     %                                                                      %
     %%%%%%%%%%%%%%%%%%%%%%%%%%%%%%%%%%%%%%%%%%%%%%%%%%%%%%%%%%%%%%%%%%%%%%%%

     %%%%%%%%%%%%%%%%%%%%%%%%%%%%%%%%%%%%%%%%%%%%%%%%%%%%%%%%%%%%%%%%%%%%%%%%
     %                                                                      %
     %  vdW-DF NEWS:                                                        %
     %                                                                      %
     %  * vdW-DF3-mc is now available. DOI: 10.1103/hp9d-4kpf               %
     %    use with input_dft = 'vdW-DF3-mc'                                 %
     %  * vdW-DF3 is now available. DOI: 10.1021/acs.jctc.0c00471           %
     %    use with input_dft = 'vdW-DF3-opt1' or 'vdW-DF3-opt2'             %
     %                                                                      %
     %  * Unscreened and range-separated hybrid vdW-DF-cx functionals       %
     %    DOI: 10.1063/1.4986522 and 10.1088/1361-648X/ac2ad2               %
     %    use with input_dft = 'vdW-DF-cx0' and 'vdW-DF-ahcx'               %
     %  * Unscreened and range-separated hybrid vdW-DF2-b86r functionals    %
     %    DOI: 10.1063/1.4986522 and DOI: 10.1103/PhysRevX.12.041003        %
     %    use with input_dft = 'vdW-DF2-br0' and 'vdW-DF2-ahbr'             %
     %                                                                      %
     %%%%%%%%%%%%%%%%%%%%%%%%%%%%%%%%%%%%%%%%%%%%%%%%%%%%%%%%%%%%%%%%%%%%%%%%


     Carrying out vdW-DF run using the following parameters:
     Nqs    =  20  Npoints =  1024  r_max =  100.000
     q_mesh =  0.00001000  0.04494208  0.09755937  0.15916263
               0.23128650  0.31572767  0.41458969  0.53033537
               0.66584808  0.82450364  1.01025438  1.22772762
               1.48234092  1.78043706  2.12944203  2.53805004
               3.01644009  3.57652955  4.23227104  5.00000000


     -----------------------------------------------
     Non-local corr. energy    =       0.10385226 Ry
     -----------------------------------------------

     Starting wfcs are    8 randomized atomic wfcs +   22 random wfcs

     Band Structure Calculation
     Davidson diagonalization with overlap

     Computing kpt #:     1  of    32 on this pool
     total cpu time spent up to now is       24.2 secs

     Computing kpt #:     2  of    32 on this pool
     total cpu time spent up to now is       37.2 secs

     Computing kpt #:     3  of    32 on this pool
     total cpu time spent up to now is       53.0 secs

     Computing kpt #:     4  of    32 on this pool
     total cpu time spent up to now is       65.8 secs

     Computing kpt #:     5  of    32 on this pool
     total cpu time spent up to now is       81.0 secs

     Computing kpt #:     6  of    32 on this pool
     total cpu time spent up to now is       93.9 secs

     Computing kpt #:     7  of    32 on this pool
     total cpu time spent up to now is      106.2 secs

     Computing kpt #:     8  of    32 on this pool
     total cpu time spent up to now is      119.8 secs

     Computing kpt #:     9  of    32 on this pool
     total cpu time spent up to now is      134.5 secs

     Computing kpt #:    10  of    32 on this pool
     total cpu time spent up to now is      149.2 secs

     Computing kpt #:    11  of    32 on this pool
     total cpu time spent up to now is      163.5 secs

     Computing kpt #:    12  of    32 on this pool
     total cpu time spent up to now is      177.3 secs

     Computing kpt #:    13  of    32 on this pool
     total cpu time spent up to now is      190.6 secs

     Computing kpt #:    14  of    32 on this pool
     total cpu time spent up to now is      204.0 secs

     Computing kpt #:    15  of    32 on this pool
     total cpu time spent up to now is      215.8 secs

     Computing kpt #:    16  of    32 on this pool
     total cpu time spent up to now is      228.5 secs

     Computing kpt #:    17  of    32 on this pool
     total cpu time spent up to now is      240.9 secs

     Computing kpt #:    18  of    32 on this pool
     total cpu time spent up to now is      253.0 secs

     Computing kpt #:    19  of    32 on this pool
     total cpu time spent up to now is      265.3 secs

     Computing kpt #:    20  of    32 on this pool
     total cpu time spent up to now is      280.4 secs

     Computing kpt #:    21  of    32 on this pool
     total cpu time spent up to now is      293.9 secs

     Computing kpt #:    22  of    32 on this pool
     total cpu time spent up to now is      306.7 secs

     Computing kpt #:    23  of    32 on this pool
     total cpu time spent up to now is      319.1 secs

     Computing kpt #:    24  of    32 on this pool
     total cpu time spent up to now is      332.3 secs

     Computing kpt #:    25  of    32 on this pool
     total cpu time spent up to now is      346.0 secs

     Computing kpt #:    26  of    32 on this pool
     total cpu time spent up to now is      359.1 secs

     Computing kpt #:    27  of    32 on this pool
     total cpu time spent up to now is      372.0 secs

     Computing kpt #:    28  of    32 on this pool
     total cpu time spent up to now is      385.3 secs

     Computing kpt #:    29  of    32 on this pool
     total cpu time spent up to now is      400.7 secs

     Computing kpt #:    30  of    32 on this pool
     total cpu time spent up to now is      413.6 secs

     Computing kpt #:    31  of    32 on this pool
     total cpu time spent up to now is      426.8 secs

     Computing kpt #:    32  of    32 on this pool
     total cpu time spent up to now is      433.9 secs

     ethr =  1.25E-10,  avg # of iterations = 46.8

     total cpu time spent up to now is      437.3 secs

     End of band structure calculation

          k = 0.0000 0.0000 0.0000 ( 11659 PWs)   bands (ev):

   -22.2873 -10.4026  -5.7481  -5.7481   0.2611   1.1276   1.7675   2.2995
     2.6871   3.8167   4.3012   5.7482   5.7483   5.9794   6.4977   8.6778
     8.8061   9.3161   9.9982  11.9107  12.7924  15.7350  16.8768  19.8782
    20.1123  21.4904  24.7997  25.7440  25.7440  26.6288

     occupation numbers 
     1.0000   1.0000   1.0000   1.0000   0.0000   0.0000   0.0000   0.0000
     0.0000   0.0000   0.0000   0.0000   0.0000   0.0000   0.0000   0.0000
     0.0000   0.0000   0.0000   0.0000   0.0000   0.0000   0.0000   0.0000
     0.0000   0.0000   0.0000   0.0000   0.0000   0.0000

          k = 0.0000 0.0154 0.0000 ( 11711 PWs)   bands (ev):

   -22.2831 -10.3975  -5.7657  -5.7575   0.2668   1.1334   1.7734   2.3054
     2.6929   3.8225   4.3069   5.7508   5.7669   5.9852   6.5037   8.6834
     8.7912   9.3220  10.0055  11.9162  12.7982  15.7402  16.8826  19.8922
    20.1164  21.4961  24.7943  25.6914  25.7006  26.6344

     occupation numbers 
     1.0000   1.0000   1.0000   1.0000   0.0000   0.0000   0.0000   0.0000
     0.0000   0.0000   0.0000   0.0000   0.0000   0.0000   0.0000   0.0000
     0.0000   0.0000   0.0000   0.0000   0.0000   0.0000   0.0000   0.0000
     0.0000   0.0000   0.0000   0.0000   0.0000   0.0000

          k = 0.0000 0.0308 0.0000 ( 11747 PWs)   bands (ev):

   -22.2704 -10.3823  -5.8182  -5.7854   0.2840   1.1507   1.7910   2.3230
     2.7104   3.8399   4.3241   5.7582   5.8224   6.0025   6.5217   8.7004
     8.7468   9.3394  10.0273  11.9327  12.8156  15.7558  16.8998  19.9338
    20.1284  21.5132  24.7695  25.5449  25.5792  26.6513

     occupation numbers 
     1.0000   1.0000   1.0000   1.0000   0.0000   0.0000   0.0000   0.0000
     0.0000   0.0000   0.0000   0.0000   0.0000   0.0000   0.0000   0.0000
     0.0000   0.0000   0.0000   0.0000   0.0000   0.0000   0.0000   0.0000
     0.0000   0.0000   0.0000   0.0000   0.0000   0.0000

          k = 0.0000 0.0462 0.0000 ( 11759 PWs)   bands (ev):

   -22.2494 -10.3569  -5.9046  -5.8313   0.3126   1.1797   1.8205   2.3522
     2.7396   3.8690   4.3529   5.7693   5.9143   6.0312   6.5516   8.6731
     8.7287   9.3686  10.0642  11.9601  12.8446  15.7816  16.9285  20.0022
    20.1480  21.5418  24.6913  25.3291  25.4200  26.6793

     occupation numbers 
     1.0000   1.0000   1.0000   1.0000   0.0000   0.0000   0.0000   0.0000
     0.0000   0.0000   0.0000   0.0000   0.0000   0.0000   0.0000   0.0000
     0.0000   0.0000   0.0000   0.0000   0.0000   0.0000   0.0000   0.0000
     0.0000   0.0000   0.0000   0.0000   0.0000   0.0000

          k = 0.0000 0.0616 0.0000 ( 11767 PWs)   bands (ev):

   -22.2199 -10.3214  -6.0237  -5.8941   0.3527   1.2201   1.8616   2.3932
     2.7805   3.9098   4.3931   5.7828   6.0415   6.0715   6.5934   8.5711
     8.7682   9.4093  10.1169  11.9985  12.8851  15.8176  16.9687  20.0960
    20.1743  21.5819  24.4995  25.0689  25.3017  26.7185

     occupation numbers 
     1.0000   1.0000   1.0000   1.0000   0.0000   0.0000   0.0000   0.0000
     0.0000   0.0000   0.0000   0.0000   0.0000   0.0000   0.0000   0.0000
     0.0000   0.0000   0.0000   0.0000   0.0000   0.0000   0.0000   0.0000
     0.0000   0.0000   0.0000   0.0000   0.0000   0.0000

          k = 0.0000 0.0770 0.0000 ( 11791 PWs)   bands (ev):

   -22.1820 -10.2759  -6.1735  -5.9725   0.4043   1.2722   1.9146   2.4460
     2.8331   3.9621   4.4449   5.7970   6.1233   6.2025   6.6468   8.4414
     8.8191   9.4616  10.1861  12.0478  12.9371  15.8636  17.0202  20.2059
    20.2133  21.6338  24.1801  24.7827  25.2648  26.7690

     occupation numbers 
     1.0000   1.0000   1.0000   1.0000   0.0000   0.0000   0.0000   0.0000
     0.0000   0.0000   0.0000   0.0000   0.0000   0.0000   0.0000   0.0000
     0.0000   0.0000   0.0000   0.0000   0.0000   0.0000   0.0000   0.0000
     0.0000   0.0000   0.0000   0.0000   0.0000   0.0000

          k = 0.0000 0.0924 0.0000 ( 11782 PWs)   bands (ev):

   -22.1356 -10.2202  -6.3520  -6.0649   0.4673   1.3358   1.9793   2.5104
     2.8973   4.0261   4.5081   5.8099   6.1866   6.3957   6.7118   8.2854
     8.8811   9.5255  10.2726  12.1079  13.0006  15.9194  17.0831  20.2405
    20.3512  21.6977  23.7847  24.4828  25.2823  26.8308

     occupation numbers 
     1.0000   1.0000   1.0000   1.0000   0.0000   0.0000   0.0000   0.0000
     0.0000   0.0000   0.0000   0.0000   0.0000   0.0000   0.0000   0.0000
     0.0000   0.0000   0.0000   0.0000   0.0000   0.0000   0.0000   0.0000
     0.0000   0.0000   0.0000   0.0000   0.0000   0.0000

          k = 0.0000 0.1078 0.0000 ( 11796 PWs)   bands (ev):

   -22.0809 -10.1546  -6.5568  -6.1698   0.5418   1.4109   2.0558   2.5865
     2.9732   4.1017   4.5828   5.8198   6.2613   6.6192   6.7882   8.1044
     8.9545   9.6009  10.3768  12.1788  13.0757  15.9847  17.1572  20.2745
    20.5063  21.7738  23.3600  24.1772  25.3264  26.9034

     occupation numbers 
     1.0000   1.0000   1.0000   1.0000   0.0000   0.0000   0.0000   0.0000
     0.0000   0.0000   0.0000   0.0000   0.0000   0.0000   0.0000   0.0000
     0.0000   0.0000   0.0000   0.0000   0.0000   0.0000   0.0000   0.0000
     0.0000   0.0000   0.0000   0.0000   0.0000   0.0000

          k = 0.0000 0.1232 0.0000 ( 11794 PWs)   bands (ev):

   -22.0179 -10.0789  -6.7855  -6.2853   0.6278   1.4976   2.1441   2.6744
     3.0608   4.1889   4.6688   5.8252   6.3474   6.8712   6.8760   7.8997
     9.0390   9.6878  10.4990  12.2603  13.1621  16.0590  17.2426  20.3017
    20.6739  21.8626  22.9356  23.8710  25.3808  26.6458

     occupation numbers 
     1.0000   1.0000   1.0000   1.0000   0.0000   0.0000   0.0000   0.0000
     0.0000   0.0000   0.0000   0.0000   0.0000   0.0000   0.0000   0.0000
     0.0000   0.0000   0.0000   0.0000   0.0000   0.0000   0.0000   0.0000
     0.0000   0.0000   0.0000   0.0000   0.0000   0.0000

          k = 0.0000 0.1386 0.0000 ( 11786 PWs)   bands (ev):

   -21.9464  -9.9933  -7.0356  -6.4097   0.7252   1.5958   2.2441   2.7739
     3.1601   4.2877   4.7663   5.8249   6.4447   6.9750   7.1496   7.6731
     9.1347   9.7861  10.6389  12.3524  13.2600  16.1418  17.3391  20.3116
    20.8478  21.9646  22.5344  23.5675  25.4293  25.9263

     occupation numbers 
     1.0000   1.0000   1.0000   1.0000   0.0000   0.0000   0.0000   0.0000
     0.0000   0.0000   0.0000   0.0000   0.0000   0.0000   0.0000   0.0000
     0.0000   0.0000   0.0000   0.0000   0.0000   0.0000   0.0000   0.0000
     0.0000   0.0000   0.0000   0.0000   0.0000   0.0000

          k = 0.0000 0.1540 0.0000 ( 11788 PWs)   bands (ev):

   -21.8666  -9.8979  -7.3046  -6.5412   0.8341   1.7054   2.3559   2.8851
     3.2711   4.3981   4.8749   5.8183   6.5532   7.0851   7.4264   7.4525
     9.2415   9.8957  10.7957  12.4548  13.3693  16.2324  17.4466  20.2870
    21.0197  22.0799  22.1810  23.2691  25.2281  25.4391

     occupation numbers 
     1.0000   1.0000   1.0000   1.0000   0.0000   0.0000   0.0000   0.0000
     0.0000   0.0000   0.0000   0.0000   0.0000   0.0000   0.0000   0.0000
     0.0000   0.0000   0.0000   0.0000   0.0000   0.0000   0.0000   0.0000
     0.0000   0.0000   0.0000   0.0000   0.0000   0.0000

          k = 0.0000 0.1694 0.0000 ( 11786 PWs)   bands (ev):

   -21.7785  -9.7926  -7.5902  -6.6783   0.9544   1.8266   2.4795   3.0080
     3.3937   4.5199   4.9944   5.8054   6.6716   7.1607   7.2081   7.7779
     9.3594  10.0167  10.9683  12.5676  13.4899  16.3296  17.5652  20.2036
    21.1769  21.9032  22.2079  22.9774  24.5610  25.3015

     occupation numbers 
     1.0000   1.0000   1.0000   1.0000   0.0000   0.0000   0.0000   0.0000
     0.0000   0.0000   0.0000   0.0000   0.0000   0.0000   0.0000   0.0000
     0.0000   0.0000   0.0000   0.0000   0.0000   0.0000   0.0000   0.0000
     0.0000   0.0000   0.0000   0.0000   0.0000   0.0000

          k = 0.0000 0.1848 0.0000 ( 11800 PWs)   bands (ev):

   -21.6821  -9.6777  -7.8903  -6.8194   1.0862   1.9591   2.6148   3.1426
     3.5280   4.6533   5.1242   5.7868   6.7814   6.9003   7.3397   8.1240
     9.4882  10.1490  11.1550  12.6903  13.6218  16.4319  17.6946  20.0415
    21.2988  21.7229  22.3440  22.6933  23.9442  24.8554

     occupation numbers 
     1.0000   1.0000   1.0000   1.0000   0.0000   0.0000   0.0000   0.0000
     0.0000   0.0000   0.0000   0.0000   0.0000   0.0000   0.0000   0.0000
     0.0000   0.0000   0.0000   0.0000   0.0000   0.0000   0.0000   0.0000
     0.0000   0.0000   0.0000   0.0000   0.0000   0.0000

          k = 0.0000 0.2001 0.0000 ( 11800 PWs)   bands (ev):

   -21.5775  -9.5531  -8.2027  -6.9630   1.2293   2.1030   2.7619   3.2888
     3.6739   4.7979   5.2627   5.7645   6.5671   6.9589   7.4838   8.4889
     9.6280  10.2927  11.3538  12.8227  13.7651  16.5370  17.8349  19.8045
    21.3461  21.6355  22.4179  22.4735  23.4227  24.2430

     occupation numbers 
     1.0000   1.0000   1.0000   1.0000   0.0000   0.0000   0.0000   0.0000
     0.0000   0.0000   0.0000   0.0000   0.0000   0.0000   0.0000   0.0000
     0.0000   0.0000   0.0000   0.0000   0.0000   0.0000   0.0000   0.0000
     0.0000   0.0000   0.0000   0.0000   0.0000   0.0000

          k = 0.0000 0.2155 0.0000 ( 11830 PWs)   bands (ev):

   -21.4646  -9.4190  -8.5256  -7.1078   1.3839   2.2582   2.9207   3.4466
     3.8314   4.9534   5.4050   5.7442   6.2580   7.1102   7.6392   8.8708
     9.7787  10.4477  11.5622  12.9646  13.9195  16.6412  17.9859  19.5197
    21.2493  21.6091  22.1516  22.5502  23.0928  23.6047

     occupation numbers 
     1.0000   1.0000   1.0000   1.0000   0.0000   0.0000   0.0000   0.0000
     0.0000   0.0000   0.0000   0.0000   0.0000   0.0000   0.0000   0.0000
     0.0000   0.0000   0.0000   0.0000   0.0000   0.0000   0.0000   0.0000
     0.0000   0.0000   0.0000   0.0000   0.0000   0.0000

          k = 0.0000 0.2309 0.0000 ( 11848 PWs)   bands (ev):

   -21.3435  -9.2756  -8.8573  -7.2528   1.5499   2.4246   3.0913   3.6159
     4.0005   5.1187   5.5278   5.7496   5.9360   7.2753   7.8061   9.2681
     9.9400  10.6140  11.7775  13.1153  14.0852  16.7385  18.1473  19.2177
    20.9510  21.5980  21.8951  22.5210  22.9206  22.9857

     occupation numbers 
     1.0000   1.0000   1.0000   1.0000   0.0000   0.0000   0.0000   0.0000
     0.0000   0.0000   0.0000   0.0000   0.0000   0.0000   0.0000   0.0000
     0.0000   0.0000   0.0000   0.0000   0.0000   0.0000   0.0000   0.0000
     0.0000   0.0000   0.0000   0.0000   0.0000   0.0000

          k = 0.0000 0.2463 0.0000 ( 11844 PWs)   bands (ev):

   -21.2143  -9.1961  -9.1229  -7.3968   1.7273   2.6019   3.2737   3.7966
     4.1811   5.2847   5.5692   5.6146   5.8432   7.4523   7.9843   9.6790
    10.1119  10.7916  11.9965  13.2742  14.2619  16.8190  18.3189  18.9244
    20.4952  21.5266  21.6485  22.2180  22.4278  22.5390

     occupation numbers 
     1.0000   1.0000   1.0000   1.0000   0.0000   0.0000   0.0000   0.0000
     0.0000   0.0000   0.0000   0.0000   0.0000   0.0000   0.0000   0.0000
     0.0000   0.0000   0.0000   0.0000   0.0000   0.0000   0.0000   0.0000
     0.0000   0.0000   0.0000   0.0000   0.0000   0.0000

          k = 0.0000 0.2617 0.0000 ( 11840 PWs)   bands (ev):

   -21.0770  -9.5406  -8.9612  -7.5388   1.9161   2.7898   3.4679   3.9881
     4.3732   5.2210   5.5240   5.5491   6.0088   7.6406   8.1739  10.1020
    10.2942  10.9804  12.2157  13.4405  14.4498  16.8664  18.5000  18.6632
    19.9656  21.2611  21.4122  21.5678  21.9801  22.2552

     occupation numbers 
     1.0000   1.0000   1.0000   1.0000   0.0000   0.0000   0.0000   0.0000
     0.0000   0.0000   0.0000   0.0000   0.0000   0.0000   0.0000   0.0000
     0.0000   0.0000   0.0000   0.0000   0.0000   0.0000   0.0000   0.0000
     0.0000   0.0000   0.0000   0.0000   0.0000   0.0000

          k = 0.0000 0.2771 0.0000 ( 11854 PWs)   bands (ev):

   -20.9315  -9.8895  -8.7907  -7.6781   2.1161   2.9873   3.6737   4.1887
     4.5763   4.8889   5.5093   5.7108   6.2020   7.8402   8.3750  10.4867
    10.5354  11.1805  12.4305  13.6128  14.6486  16.8574  18.4586  18.6875
    19.4145  20.7895  20.9012  21.1864  21.5291  21.7258

     occupation numbers 
     1.0000   1.0000   1.0000   1.0000   0.0000   0.0000   0.0000   0.0000
     0.0000   0.0000   0.0000   0.0000   0.0000   0.0000   0.0000   0.0000
     0.0000   0.0000   0.0000   0.0000   0.0000   0.0000   0.0000   0.0000
     0.0000   0.0000   0.0000   0.0000   0.0000   0.0000

          k = 0.0000 0.2925 0.0000 ( 11866 PWs)   bands (ev):

   -20.7781 -10.2416  -8.6116  -7.8139   2.3275   3.1921   3.8914   4.3719
     4.5700   4.7902   5.4645   5.9220   6.4115   8.0510   8.5874  10.6890
    10.9775  11.3918  12.6356  13.7891  14.8582  16.7702  18.3274  18.7838
    18.9632  20.2420  20.2466  20.9713  21.0041  21.1214

     occupation numbers 
     1.0000   1.0000   1.0000   1.0000   0.0000   0.0000   0.0000   0.0000
     0.0000   0.0000   0.0000   0.0000   0.0000   0.0000   0.0000   0.0000
     0.0000   0.0000   0.0000   0.0000   0.0000   0.0000   0.0000   0.0000
     0.0000   0.0000   0.0000   0.0000   0.0000   0.0000

          k = 0.0000 0.3079 0.0000 ( 11876 PWs)   bands (ev):

   -20.6168 -10.5959  -8.4242  -7.9454   2.5501   3.3948   4.1207   4.1672
     4.6570   5.0119   5.4204   6.1466   6.6345   8.2727   8.8113  10.9009
    11.4265  11.6142  12.8238  13.9661  15.0785  16.6029  18.2581  18.2938
    19.1193  19.5943  19.6994  20.4696  20.5069  20.7671

     occupation numbers 
     1.0000   1.0000   1.0000   1.0000   0.0000   0.0000   0.0000   0.0000
     0.0000   0.0000   0.0000   0.0000   0.0000   0.0000   0.0000   0.0000
     0.0000   0.0000   0.0000   0.0000   0.0000   0.0000   0.0000   0.0000
     0.0000   0.0000   0.0000   0.0000   0.0000   0.0000

          k = 0.0000 0.3233 0.0000 ( 11876 PWs)   bands (ev):

   -20.4476 -10.9513  -8.2289  -8.0722   2.7839   3.5216   3.9113   4.3618
     4.8893   5.2220   5.3986   6.3833   6.8700   8.5054   9.0464  11.1218
    11.8477  11.8807  12.9858  14.1383  15.3091  16.3765  17.7767  18.1970
    18.9552  19.1790  19.3341  19.9011  19.9720  20.5738

     occupation numbers 
     1.0000   1.0000   1.0000   1.0000   0.0000   0.0000   0.0000   0.0000
     0.0000   0.0000   0.0000   0.0000   0.0000   0.0000   0.0000   0.0000
     0.0000   0.0000   0.0000   0.0000   0.0000   0.0000   0.0000   0.0000
     0.0000   0.0000   0.0000   0.0000   0.0000   0.0000

          k = 0.0000 0.3387 0.0000 ( 11886 PWs)   bands (ev):

   -20.2706 -11.3069  -8.1937  -8.0259   3.0286   3.3179   3.9893   4.6144
     5.1385   5.2788   5.5420   6.6317   7.1176   8.7488   9.2929  11.3509
    12.0921  12.3380  13.1090  14.2952  15.5498  16.1203  17.2894  18.0444
    18.3327  18.7222  19.2819  19.5568  19.5802  20.3916

     occupation numbers 
     1.0000   1.0000   1.0000   1.0000   0.0000   0.0000   0.0000   0.0000
     0.0000   0.0000   0.0000   0.0000   0.0000   0.0000   0.0000   0.0000
     0.0000   0.0000   0.0000   0.0000   0.0000   0.0000   0.0000   0.0000
     0.0000   0.0000   0.0000   0.0000   0.0000   0.0000

          k = 0.0000 0.3541 0.0000 ( 11904 PWs)   bands (ev):

   -20.0858 -11.6621  -8.3094  -7.8159   2.9718   3.2850   4.2180   4.8781
     5.2431   5.4006   5.7911   6.8916   7.3769   9.0027   9.5507  11.5873
    12.3471  12.7964  13.1775  14.4154  15.7992  15.8669  16.8435  17.7108
    17.7241  18.3413  18.7111  19.2644  19.7930  20.2204

     occupation numbers 
     1.0000   1.0000   1.0000   1.0000   0.0000   0.0000   0.0000   0.0000
     0.0000   0.0000   0.0000   0.0000   0.0000   0.0000   0.0000   0.0000
     0.0000   0.0000   0.0000   0.0000   0.0000   0.0000   0.0000   0.0000
     0.0000   0.0000   0.0000   0.0000   0.0000   0.0000

          k = 0.0000 0.3695 0.0000 ( 11914 PWs)   bands (ev):

   -19.8935 -12.0159  -8.4189  -7.5993   2.6067   3.5516   4.4776   5.1419
     5.2111   5.6747   6.0614   7.1628   7.6479   9.2670   9.8196  11.8293
    12.6118  13.1736  13.2535  14.4567  15.6608  16.0517  16.4500  17.1337
    17.2551  17.9698  18.1538  19.0388  19.7299  20.0539

     occupation numbers 
     1.0000   1.0000   1.0000   1.0000   0.0000   0.0000   0.0000   0.0000
     0.0000   0.0000   0.0000   0.0000   0.0000   0.0000   0.0000   0.0000
     0.0000   0.0000   0.0000   0.0000   0.0000   0.0000   0.0000   0.0000
     0.0000   0.0000   0.0000   0.0000   0.0000   0.0000

          k = 0.0000 0.3849 0.0000 ( 11914 PWs)   bands (ev):

   -19.6938 -12.3677  -8.5218  -7.3770   2.2381   3.8288   4.7535   5.1490
     5.4479   5.9605   6.3455   7.4453   7.9304   9.5412  10.0997  12.0740
    12.8780  13.0895  13.7067  14.3657  15.5499  16.0534  16.3472  16.5755
    16.7631  17.5899  17.6267  18.7591  19.2336  19.8820

     occupation numbers 
     1.0000   1.0000   1.0000   1.0000   0.0000   0.0000   0.0000   0.0000
     0.0000   0.0000   0.0000   0.0000   0.0000   0.0000   0.0000   0.0000
     0.0000   0.0000   0.0000   0.0000   0.0000   0.0000   0.0000   0.0000
     0.0000   0.0000   0.0000   0.0000   0.0000   0.0000

          k = 0.0000 0.4003 0.0000 ( 11916 PWs)   bands (ev):

   -19.4867 -12.7169  -8.6179  -7.1499   1.8711   4.1158   5.0425   5.1090
     5.7464   6.2581   6.6420   7.7390   8.2243   9.8250  10.3909  12.3153
    12.8719  13.1940  14.1418  14.1532  15.5122  15.6867  16.0600  16.2822
    16.6182  17.1460  17.2227  18.4192  18.7485  19.7745

     occupation numbers 
     1.0000   1.0000   1.0000   1.0000   0.0000   0.0000   0.0000   0.0000
     0.0000   0.0000   0.0000   0.0000   0.0000   0.0000   0.0000   0.0000
     0.0000   0.0000   0.0000   0.0000   0.0000   0.0000   0.0000   0.0000
     0.0000   0.0000   0.0000   0.0000   0.0000   0.0000

          k = 0.0000 0.4157 0.0000 ( 11916 PWs)   bands (ev):

   -19.2725 -13.0628  -8.7068  -6.9190   1.5087   4.4102   5.0737   5.3436
     6.0578   6.5673   6.9504   8.0437   8.5297  10.1176  10.6930  12.5384
    12.6045  13.4856  13.8478  14.5895  15.2293  15.3995  15.6386  15.8980
    16.6858  16.8876  16.9311  18.0812  18.3041  19.6390

     occupation numbers 
     1.0000   1.0000   1.0000   1.0000   0.0000   0.0000   0.0000   0.0000
     0.0000   0.0000   0.0000   0.0000   0.0000   0.0000   0.0000   0.0000
     0.0000   0.0000   0.0000   0.0000   0.0000   0.0000   0.0000   0.0000
     0.0000   0.0000   0.0000   0.0000   0.0000   0.0000

          k = 0.0000 0.4311 0.0000 ( 11914 PWs)   bands (ev):

   -19.0514 -13.4047  -8.7884  -6.6858   1.1534   4.7013   5.0554   5.6561
     6.3811   6.8880   7.2706   8.3592   8.8463  10.4180  11.0058  12.2665
    12.6940  13.5723  13.7926  14.7140  15.0120  15.0430  15.2372  15.6992
    16.3236  16.6107  17.2022  17.7924  17.9173  19.3792

     occupation numbers 
     1.0000   1.0000   1.0000   1.0000   0.0000   0.0000   0.0000   0.0000
     0.0000   0.0000   0.0000   0.0000   0.0000   0.0000   0.0000   0.0000
     0.0000   0.0000   0.0000   0.0000   0.0000   0.0000   0.0000   0.0000
     0.0000   0.0000   0.0000   0.0000   0.0000   0.0000

          k = 0.0000 0.4465 0.0000 ( 11924 PWs)   bands (ev):

   -18.8238 -13.7420  -8.8623  -6.4523   0.8080   4.8998   5.1436   5.9797
     6.7162   7.2203   7.6024   8.6853   9.1741  10.7237  11.3282  11.8842
    12.6454  13.4678  14.1081  14.1876  14.5797  14.8064  15.4165  15.4916
    15.9682  16.4090  17.4285  17.5794  17.6488  19.0772

     occupation numbers 
     1.0000   1.0000   1.0000   1.0000   0.0000   0.0000   0.0000   0.0000
     0.0000   0.0000   0.0000   0.0000   0.0000   0.0000   0.0000   0.0000
     0.0000   0.0000   0.0000   0.0000   0.0000   0.0000   0.0000   0.0000
     0.0000   0.0000   0.0000   0.0000   0.0000   0.0000

          k = 0.0000 0.4619 0.0000 ( 11910 PWs)   bands (ev):

   -18.5901 -14.0739  -8.9285  -6.2208   0.4757   4.9177   5.4266   6.3142
     7.0631   7.5639   7.9457   9.0218   9.5130  11.0290  11.4624  11.6725
    12.3668  13.5470  13.6601  14.1231  14.3382  14.4474  15.1979  15.5969
    15.7981  16.2473  17.2350  17.4396  17.8383  18.8062

     occupation numbers 
     1.0000   1.0000   1.0000   1.0000   0.0000   0.0000   0.0000   0.0000
     0.0000   0.0000   0.0000   0.0000   0.0000   0.0000   0.0000   0.0000
     0.0000   0.0000   0.0000   0.0000   0.0000   0.0000   0.0000   0.0000
     0.0000   0.0000   0.0000   0.0000   0.0000   0.0000

          k = 0.0000 0.4773 0.0000 ( 11916 PWs)   bands (ev):

   -18.3510 -14.3994  -8.9867  -5.9948   0.1603   4.8997   5.7597   6.6592
     7.4218   7.9189   8.3005   9.3679   9.8627  11.0403  11.3077  12.0115
    12.0265  13.1427  13.4564  13.8731  13.8877  14.7750  14.8685  15.1999
    16.0796  16.1517  16.9428  17.3311  18.1189  18.6186

     occupation numbers 
     1.0000   1.0000   1.0000   1.0000   0.0000   0.0000   0.0000   0.0000
     0.0000   0.0000   0.0000   0.0000   0.0000   0.0000   0.0000   0.0000
     0.0000   0.0000   0.0000   0.0000   0.0000   0.0000   0.0000   0.0000
     0.0000   0.0000   0.0000   0.0000   0.0000   0.0000

          k = 0.0000 0.4927 0.0000 ( 11908 PWs)   bands (ev):

   -18.1076 -14.7174  -9.0368  -5.7784  -0.1335   4.8788   6.1101   7.0145
     7.7922   8.2851   8.6667   9.7226  10.2215  10.6071  11.3634  11.8818
    12.3657  12.6350  13.0375  13.3974  13.9039  14.6000  14.7717  15.1275
    15.8969  16.4714  16.6203  17.2092  18.3434  18.5336

     occupation numbers 
     1.0000   1.0000   1.0000   1.0000   0.0000   0.0000   0.0000   0.0000
     0.0000   0.0000   0.0000   0.0000   0.0000   0.0000   0.0000   0.0000
     0.0000   0.0000   0.0000   0.0000   0.0000   0.0000   0.0000   0.0000
     0.0000   0.0000   0.0000   0.0000   0.0000   0.0000

          k = 0.0000 0.5081 0.0000 ( 11912 PWs)   bands (ev):

   -17.8616 -15.0257  -9.0788  -5.5775  -0.3996   4.8597   6.4729   7.3798
     8.1743   8.6624   9.0440  10.0814  10.1634  10.5989  11.0438  12.0916
    12.1375  12.5903  12.7290  12.9250  13.7319  14.3414  14.5289  15.4765
    15.7142  16.2663  16.7512  17.0728  18.3378  18.5136

     occupation numbers 
     1.0000   1.0000   1.0000   1.0000   0.0000   0.0000   0.0000   0.0000
     0.0000   0.0000   0.0000   0.0000   0.0000   0.0000   0.0000   0.0000
     0.0000   0.0000   0.0000   0.0000   0.0000   0.0000   0.0000   0.0000
     0.0000   0.0000   0.0000   0.0000   0.0000   0.0000

          k = 0.0000 0.5235 0.0000 ( 11912 PWs)   bands (ev):

   -17.6167 -15.3207  -9.1124  -5.3992  -0.6303   4.8438   6.8467   7.7545
     8.5681   9.0502   9.4309   9.7305  10.3962  10.6976  10.9791  11.6513
    12.0476  12.4543  12.4604  13.1048  13.4074  13.9043  14.5495  15.5670
    15.8068  15.9142  16.9504  16.9848  18.1626  18.4883

     occupation numbers 
     1.0000   1.0000   1.0000   1.0000   0.0000   0.0000   0.0000   0.0000
     0.0000   0.0000   0.0000   0.0000   0.0000   0.0000   0.0000   0.0000
     0.0000   0.0000   0.0000   0.0000   0.0000   0.0000   0.0000   0.0000
     0.0000   0.0000   0.0000   0.0000   0.0000   0.0000

          k = 0.0000 0.5389 0.0000 ( 11924 PWs)   bands (ev):

   -17.3802 -15.5948  -9.1377  -5.2525  -0.8166   4.8316   7.2306   8.1377
     8.9734   9.2944   9.4468   9.8351  10.1772  10.8807  11.1760  11.3710
    11.6179  11.9940  12.6428  13.1247  13.4501  13.5041  14.4913  15.4837
    15.5000  16.2045  16.8637  17.1663  17.9178  18.4154

     occupation numbers 
     1.0000   1.0000   1.0000   1.0000   0.0000   0.0000   0.0000   0.0000
     0.0000   0.0000   0.0000   0.0000   0.0000   0.0000   0.0000   0.0000
     0.0000   0.0000   0.0000   0.0000   0.0000   0.0000   0.0000   0.0000
     0.0000   0.0000   0.0000   0.0000   0.0000   0.0000

          k = 0.0000 0.5543 0.0000 ( 11930 PWs)   bands (ev):

   -17.1700 -15.8302  -9.1546  -5.1470  -0.9485   4.8233   7.6232   8.5278
     8.8690   9.3914   9.7340   9.8967  10.2451  10.7127  11.1230  11.3026
    11.5406  11.7742  12.4629  13.0322  13.1989  13.8788  14.3323  15.0828
    15.5053  16.5656  16.8174  17.2905  17.6240  18.3176

     occupation numbers 
     1.0000   1.0000   1.0000   1.0000   0.0000   0.0000   0.0000   0.0000
     0.0000   0.0000   0.0000   0.0000   0.0000   0.0000   0.0000   0.0000
     0.0000   0.0000   0.0000   0.0000   0.0000   0.0000   0.0000   0.0000
     0.0000   0.0000   0.0000   0.0000   0.0000   0.0000

          k = 0.0000 0.5697 0.0000 ( 11940 PWs)   bands (ev):

   -17.0303 -15.9824  -9.1631  -5.0915  -1.0172   4.8191   8.0181   8.4577
     8.9134   9.3662   9.8201  10.2605  10.2858  10.6665  10.7198  11.0993
    11.6341  12.1186  12.1839  12.6058  13.3863  14.1670  14.2740  14.6804
    15.5262  16.8012  16.9149  17.3050  17.3537  18.2491

     occupation numbers 
     1.0000   1.0000   1.0000   1.0000   0.0000   0.0000   0.0000   0.0000
     0.0000   0.0000   0.0000   0.0000   0.0000   0.0000   0.0000   0.0000
     0.0000   0.0000   0.0000   0.0000   0.0000   0.0000   0.0000   0.0000
     0.0000   0.0000   0.0000   0.0000   0.0000   0.0000

          k = 0.0133 0.0231 0.0000 ( 11741 PWs)   bands (ev):

   -22.2746 -10.3873  -5.8006  -5.7763   0.2782   1.1449   1.7852   2.3171
     2.7046   3.8341   4.3184   5.7561   5.8037   5.9967   6.5157   8.6948
     8.7616   9.3336  10.0200  11.9272  12.8098  15.7506  16.8941  19.9200
    20.1244  21.5075  24.7792  25.5907  25.6197  26.6456

     occupation numbers 
     1.0000   1.0000   1.0000   1.0000   0.0000   0.0000   0.0000   0.0000
     0.0000   0.0000   0.0000   0.0000   0.0000   0.0000   0.0000   0.0000
     0.0000   0.0000   0.0000   0.0000   0.0000   0.0000   0.0000   0.0000
     0.0000   0.0000   0.0000   0.0000   0.0000   0.0000

          k = 0.0133 0.0385 0.0000 ( 11763 PWs)   bands (ev):

   -22.2578 -10.3671  -5.8698  -5.8135   0.3012   1.1681   1.8087   2.3405
     2.7280   3.8574   4.3414   5.7661   5.8765   6.0197   6.5397   8.7025
     8.7174   9.3569  10.0494  11.9492  12.8330  15.7713  16.9171  19.9750
    20.1403  21.5303  24.7265  25.4173  25.4742  26.6681

     occupation numbers 
     1.0000   1.0000   1.0000   1.0000   0.0000   0.0000   0.0000   0.0000
     0.0000   0.0000   0.0000   0.0000   0.0000   0.0000   0.0000   0.0000
     0.0000   0.0000   0.0000   0.0000   0.0000   0.0000   0.0000   0.0000
     0.0000   0.0000   0.0000   0.0000   0.0000   0.0000

          k = 0.0133 0.0539 0.0000 ( 11769 PWs)   bands (ev):

   -22.2325 -10.3366  -5.9721  -5.8683   0.3355   1.2028   1.8440   2.3757
     2.7630   3.8923   4.3759   5.7797   5.9848   6.0543   6.5755   8.6147
     8.7513   9.3918  10.0943  11.9821  12.8677  15.8022  16.9515  20.0561
    20.1632  21.5647  24.5816  25.2032  25.3244  26.7017

     occupation numbers 
     1.0000   1.0000   1.0000   1.0000   0.0000   0.0000   0.0000   0.0000
     0.0000   0.0000   0.0000   0.0000   0.0000   0.0000   0.0000   0.0000
     0.0000   0.0000   0.0000   0.0000   0.0000   0.0000   0.0000   0.0000
     0.0000   0.0000   0.0000   0.0000   0.0000   0.0000

          k = 0.0133 0.0693 0.0000 ( 11779 PWs)   bands (ev):

   -22.1988 -10.2961  -6.1060  -5.9394   0.3814   1.2491   1.8911   2.4225
     2.8097   3.9389   4.4219   5.7950   6.1003   6.1272   6.6231   8.4989
     8.7965   9.4384  10.1554  12.0259  12.9140  15.8432  16.9973  20.1616
    20.1921  21.6107  24.3048  24.9461  25.2563  26.7466

     occupation numbers 
     1.0000   1.0000   1.0000   1.0000   0.0000   0.0000   0.0000   0.0000
     0.0000   0.0000   0.0000   0.0000   0.0000   0.0000   0.0000   0.0000
     0.0000   0.0000   0.0000   0.0000   0.0000   0.0000   0.0000   0.0000
     0.0000   0.0000   0.0000   0.0000   0.0000   0.0000

          k = 0.0133 0.0847 0.0000 ( 11787 PWs)   bands (ev):

   -22.1567 -10.2455  -6.2695  -6.0255   0.4387   1.3069   1.9499   2.4811
     2.8681   3.9970   4.4794   5.8102   6.1578   6.3024   6.6823   8.3561
     8.8529   9.4965  10.2335  12.0806  12.9718  15.8941  17.0545  20.2252
    20.2892  21.6686  23.9335  24.6602  25.2587  26.8027

     occupation numbers 
     1.0000   1.0000   1.0000   1.0000   0.0000   0.0000   0.0000   0.0000
     0.0000   0.0000   0.0000   0.0000   0.0000   0.0000   0.0000   0.0000
     0.0000   0.0000   0.0000   0.0000   0.0000   0.0000   0.0000   0.0000
     0.0000   0.0000   0.0000   0.0000   0.0000   0.0000

          k = 0.0133 0.1001 0.0000 ( 11789 PWs)   bands (ev):

   -22.1062 -10.1849  -6.4605  -6.1248   0.5074   1.3763   2.0205   2.5514
     2.9382   4.0668   4.5483   5.8233   6.2268   6.5086   6.7531   8.1876
     8.9206   9.5662  10.3294  12.1461  13.0411  15.9546  17.1230  20.2594
    20.4358  21.7386  23.5190  24.3606  25.2967  26.8700

     occupation numbers 
     1.0000   1.0000   1.0000   1.0000   0.0000   0.0000   0.0000   0.0000
     0.0000   0.0000   0.0000   0.0000   0.0000   0.0000   0.0000   0.0000
     0.0000   0.0000   0.0000   0.0000   0.0000   0.0000   0.0000   0.0000
     0.0000   0.0000   0.0000   0.0000   0.0000   0.0000

          k = 0.0133 0.1155 0.0000 ( 11801 PWs)   bands (ev):

   -22.0473 -10.1142  -6.6766  -6.2357   0.5877   1.4572   2.1029   2.6334
     3.0200   4.1482   4.6287   5.8325   6.3072   6.7439   6.8353   7.9948
     8.9995   9.6473  10.4433  12.2223  13.1218  16.0244  17.2028  20.2899
    20.5972  21.8210  23.0944  24.0557  25.3508  26.9431

     occupation numbers 
     1.0000   1.0000   1.0000   1.0000   0.0000   0.0000   0.0000   0.0000
     0.0000   0.0000   0.0000   0.0000   0.0000   0.0000   0.0000   0.0000
     0.0000   0.0000   0.0000   0.0000   0.0000   0.0000   0.0000   0.0000
     0.0000   0.0000   0.0000   0.0000   0.0000   0.0000

          k = 0.0133 0.1309 0.0000 ( 11791 PWs)   bands (ev):

   -21.9800 -10.0336  -6.9152  -6.3563   0.6794   1.5496   2.1970   2.7271
     3.1134   4.2412   4.7205   5.8366   6.3990   6.9283   7.0069   7.7793
     9.0896   9.7399  10.5754  12.3090  13.2140  16.1029  17.2937  20.3082
    20.7682  21.9165  22.6836  23.7507  25.4073  26.2865

     occupation numbers 
     1.0000   1.0000   1.0000   1.0000   0.0000   0.0000   0.0000   0.0000
     0.0000   0.0000   0.0000   0.0000   0.0000   0.0000   0.0000   0.0000
     0.0000   0.0000   0.0000   0.0000   0.0000   0.0000   0.0000   0.0000
     0.0000   0.0000   0.0000   0.0000   0.0000   0.0000

          k = 0.0133 0.1463 0.0000 ( 11791 PWs)   bands (ev):

   -21.9044  -9.9431  -7.1741  -6.4850   0.7825   1.6535   2.3029   2.8324
     3.2185   4.3458   4.8235   5.8345   6.5019   7.0330   7.2948   7.5427
     9.1908   9.8439  10.7251  12.4063  13.3175  16.1895  17.3957  20.3003
    20.9417  22.0252  22.3094  23.4487  25.4460  25.5768

     occupation numbers 
     1.0000   1.0000   1.0000   1.0000   0.0000   0.0000   0.0000   0.0000
     0.0000   0.0000   0.0000   0.0000   0.0000   0.0000   0.0000   0.0000
     0.0000   0.0000   0.0000   0.0000   0.0000   0.0000   0.0000   0.0000
     0.0000   0.0000   0.0000   0.0000   0.0000   0.0000

          k = 0.0133 0.1617 0.0000 ( 11794 PWs)   bands (ev):

   -21.8205  -9.8427  -7.4508  -6.6199   0.8971   1.7689   2.4206   2.9495
     3.3353   4.4619   4.9377   5.8259   6.6156   7.1486   7.2874   7.6063
     9.3032   9.9592  10.8915  12.5138  13.4325  16.2833  17.5087  20.2444
    21.1073  21.9986  22.1472  23.1515  24.8927  25.4094

     occupation numbers 
     1.0000   1.0000   1.0000   1.0000   0.0000   0.0000   0.0000   0.0000
     0.0000   0.0000   0.0000   0.0000   0.0000   0.0000   0.0000   0.0000
     0.0000   0.0000   0.0000   0.0000   0.0000   0.0000   0.0000   0.0000
     0.0000   0.0000   0.0000   0.0000   0.0000   0.0000

          k = 0.0133 0.1771 0.0000 ( 11784 PWs)   bands (ev):

   -21.7282  -9.7326  -7.7431  -6.7596   1.0232   1.8958   2.5501   3.0782
     3.4638   4.5895   5.0625   5.8110   6.7368   7.0170   7.2764   7.9392
     9.4265  10.0859  11.0731  12.6315  13.5588  16.3830  17.6328  20.1163
    21.2494  21.7785  22.2801  22.8606  24.2473  25.1279

     occupation numbers 
     1.0000   1.0000   1.0000   1.0000   0.0000   0.0000   0.0000   0.0000
     0.0000   0.0000   0.0000   0.0000   0.0000   0.0000   0.0000   0.0000
     0.0000   0.0000   0.0000   0.0000   0.0000   0.0000   0.0000   0.0000
     0.0000   0.0000   0.0000   0.0000   0.0000   0.0000

          k = 0.0133 0.1925 0.0000 ( 11790 PWs)   bands (ev):

   -21.6277  -9.6128  -8.0488  -6.9025   1.1606   2.0340   2.6913   3.2186
     3.6039   4.7285   5.1972   5.7909   6.7035   6.8968   7.4147   8.2918
     9.5608  10.2239  11.2681  12.7591  13.6963  16.4866  17.7676  19.9084
    21.3399  21.6573  22.4159  22.5765  23.6698  24.5711

     occupation numbers 
     1.0000   1.0000   1.0000   1.0000   0.0000   0.0000   0.0000   0.0000
     0.0000   0.0000   0.0000   0.0000   0.0000   0.0000   0.0000   0.0000
     0.0000   0.0000   0.0000   0.0000   0.0000   0.0000   0.0000   0.0000
     0.0000   0.0000   0.0000   0.0000   0.0000   0.0000

          k = 0.0133 0.2078 0.0000 ( 11813 PWs)   bands (ev):

   -21.5189  -9.4835  -8.3660  -7.0472   1.3095   2.1836   2.8442   3.3706
     3.7556   4.8787   5.3391   5.7687   6.4073   7.0365   7.5644   8.6621
     9.7060  10.3732  11.4743  12.8961  13.8452  16.5910  17.9133  19.6402
    21.3249  21.6135  22.2995  22.5275  23.2286  23.9380

     occupation numbers 
     1.0000   1.0000   1.0000   1.0000   0.0000   0.0000   0.0000   0.0000
     0.0000   0.0000   0.0000   0.0000   0.0000   0.0000   0.0000   0.0000
     0.0000   0.0000   0.0000   0.0000   0.0000   0.0000   0.0000   0.0000
     0.0000   0.0000   0.0000   0.0000   0.0000   0.0000

          k = 0.0133 0.2232 0.0000 ( 11837 PWs)   bands (ev):

   -21.4020  -9.3447  -8.6928  -7.1926   1.4698   2.3444   3.0090   3.5342
     3.9189   5.0394   5.4787   5.7548   6.0910   7.1953   7.7256   9.0485
     9.8620  10.5339  11.6892  13.0423  14.0052  16.6915  18.0695  19.3431
    21.1288  21.6075  22.0303  22.5509  23.0243  23.3062

     occupation numbers 
     1.0000   1.0000   1.0000   1.0000   0.0000   0.0000   0.0000   0.0000
     0.0000   0.0000   0.0000   0.0000   0.0000   0.0000   0.0000   0.0000
     0.0000   0.0000   0.0000   0.0000   0.0000   0.0000   0.0000   0.0000
     0.0000   0.0000   0.0000   0.0000   0.0000   0.0000

          k = 0.0133 0.2386 0.0000 ( 11835 PWs)   bands (ev):

   -21.2768  -9.1967  -9.0276  -7.3375   1.6415   2.5162   3.1855   3.7092
     4.0938   5.2078   5.5732   5.7662   5.7927   7.3664   7.8981   9.4491
    10.0285  10.7059  11.9099  13.1971  14.1764  16.7801  18.2360  19.0447
    20.7407  21.5758  21.7792  22.4505  22.6851  22.7104

     occupation numbers 
     1.0000   1.0000   1.0000   1.0000   0.0000   0.0000   0.0000   0.0000
     0.0000   0.0000   0.0000   0.0000   0.0000   0.0000   0.0000   0.0000
     0.0000   0.0000   0.0000   0.0000   0.0000   0.0000   0.0000   0.0000
     0.0000   0.0000   0.0000   0.0000   0.0000   0.0000

          k = 0.0133 0.2540 0.0000 ( 11835 PWs)   bands (ev):

   -21.1435  -9.3689  -9.0395  -7.4808   1.8246   2.6989   3.3737   3.8954
     4.2802   5.3269   5.4920   5.5799   5.9268   7.5491   8.0820   9.8622
    10.2056  10.8892  12.1331  13.3595  14.3587  16.8436  18.4125  18.7690
    20.2393  21.3743  21.5912  21.9041  22.1988  22.4339

     occupation numbers 
     1.0000   1.0000   1.0000   1.0000   0.0000   0.0000   0.0000   0.0000
     0.0000   0.0000   0.0000   0.0000   0.0000   0.0000   0.0000   0.0000
     0.0000   0.0000   0.0000   0.0000   0.0000   0.0000   0.0000   0.0000
     0.0000   0.0000   0.0000   0.0000   0.0000   0.0000

          k = 0.0133 0.2694 0.0000 ( 11846 PWs)   bands (ev):

   -21.0021  -9.7153  -8.8734  -7.6218   2.0190   2.8918   3.5738   4.0920
     4.4778   5.0536   5.5476   5.6159   6.1079   7.7431   8.2774  10.2858
    10.3929  11.0838  12.3550  13.5286  14.5520  16.8619  18.5397  18.5976
    19.6941  20.9899  21.2384  21.3599  21.7755  22.0123

     occupation numbers 
     1.0000   1.0000   1.0000   1.0000   0.0000   0.0000   0.0000   0.0000
     0.0000   0.0000   0.0000   0.0000   0.0000   0.0000   0.0000   0.0000
     0.0000   0.0000   0.0000   0.0000   0.0000   0.0000   0.0000   0.0000
     0.0000   0.0000   0.0000   0.0000   0.0000   0.0000

          k = 0.0133 0.2848 0.0000 ( 11851 PWs)   bands (ev):

   -20.8527 -10.0655  -8.6986  -7.7596   2.2247   3.0934   3.7855   4.2933
     4.6858   4.7154   5.5051   5.8186   6.3096   7.9482   8.4841  10.5903
    10.7180  11.2897  12.5710  13.7027  14.7562  16.8112  18.3788  18.7806
    19.1497  20.4917  20.5748  21.0703  21.3298  21.4308

     occupation numbers 
     1.0000   1.0000   1.0000   1.0000   0.0000   0.0000   0.0000   0.0000
     0.0000   0.0000   0.0000   0.0000   0.0000   0.0000   0.0000   0.0000
     0.0000   0.0000   0.0000   0.0000   0.0000   0.0000   0.0000   0.0000
     0.0000   0.0000   0.0000   0.0000   0.0000   0.0000

          k = 0.0133 0.3002 0.0000 ( 11864 PWs)   bands (ev):

   -20.6954 -10.4185  -8.5153  -7.8936   2.4417   3.2994   4.0090   4.3165
     4.5623   4.9051   5.4599   6.0368   6.5259   8.1645   8.7022  10.7973
    11.1563  11.5071  12.7754  13.8791  14.9712  16.6795  18.2889  18.5600
    19.0248  19.9210  19.9556  20.6609  20.8180  20.9741

     occupation numbers 
     1.0000   1.0000   1.0000   1.0000   0.0000   0.0000   0.0000   0.0000
     0.0000   0.0000   0.0000   0.0000   0.0000   0.0000   0.0000   0.0000
     0.0000   0.0000   0.0000   0.0000   0.0000   0.0000   0.0000   0.0000
     0.0000   0.0000   0.0000   0.0000   0.0000   0.0000

          k = 0.0133 0.3156 0.0000 ( 11876 PWs)   bands (ev):

   -20.5301 -10.7731  -8.3239  -8.0229   2.6699   3.4851   4.0129   4.2442
     4.7744   5.1279   5.4202   6.2676   6.7552   8.3916   8.9317  11.0136
    11.5962  11.7373  12.9613  14.0536  15.1967  16.4792  18.0363  18.2358
    19.2202  19.2873  19.4274  20.1716  20.2061  20.7237

     occupation numbers 
     1.0000   1.0000   1.0000   1.0000   0.0000   0.0000   0.0000   0.0000
     0.0000   0.0000   0.0000   0.0000   0.0000   0.0000   0.0000   0.0000
     0.0000   0.0000   0.0000   0.0000   0.0000   0.0000   0.0000   0.0000
     0.0000   0.0000   0.0000   0.0000   0.0000   0.0000

          k = 0.0133 0.3310 0.0000 ( 11880 PWs)   bands (ev):

   -20.3570 -11.1285  -8.1473  -8.1247   2.9092   3.4578   3.9117   4.4911
     5.0164   5.2911   5.4512   6.5102   6.9967   8.6296   9.1725  11.2385
    11.9655  12.0480  13.1204  14.2183  15.4324  16.2370  17.5326  18.1411
    18.6469  18.9415  19.4322  19.6217  19.7234  20.4957

     occupation numbers 
     1.0000   1.0000   1.0000   1.0000   0.0000   0.0000   0.0000   0.0000
     0.0000   0.0000   0.0000   0.0000   0.0000   0.0000   0.0000   0.0000
     0.0000   0.0000   0.0000   0.0000   0.0000   0.0000   0.0000   0.0000
     0.0000   0.0000   0.0000   0.0000   0.0000   0.0000

          k = 0.0133 0.3464 0.0000 ( 11892 PWs)   bands (ev):

   -20.1761 -11.4837  -8.2660  -7.9181   3.1434   3.1635   4.1009   4.7494
     5.2722   5.2815   5.6675   6.7643   7.2501   8.8782   9.4246  11.4711
    12.2199  12.4722  13.2471  14.3581  15.6777  15.9827  17.0654  17.8951
    18.0308  18.5294  19.0013  19.3844  19.6894  20.2613

     occupation numbers 
     1.0000   1.0000   1.0000   1.0000   0.0000   0.0000   0.0000   0.0000
     0.0000   0.0000   0.0000   0.0000   0.0000   0.0000   0.0000   0.0000
     0.0000   0.0000   0.0000   0.0000   0.0000   0.0000   0.0000   0.0000
     0.0000   0.0000   0.0000   0.0000   0.0000   0.0000

          k = 0.0133 0.3618 0.0000 ( 11898 PWs)   bands (ev):

   -19.9876 -11.8380  -8.3787  -7.7048   2.7877   3.4213   4.3490   5.0179
     5.2411   5.5404   5.9289   7.0299   7.5153   9.1373   9.6880  11.7101
    12.4802  12.8482  13.3618  14.4423  15.7526  15.9305  16.6453  17.4306
    17.4869  18.1531  18.4337  19.1551  19.8697  20.0169

     occupation numbers 
     1.0000   1.0000   1.0000   1.0000   0.0000   0.0000   0.0000   0.0000
     0.0000   0.0000   0.0000   0.0000   0.0000   0.0000   0.0000   0.0000
     0.0000   0.0000   0.0000   0.0000   0.0000   0.0000   0.0000   0.0000
     0.0000   0.0000   0.0000   0.0000   0.0000   0.0000

          k = 0.0133 0.3772 0.0000 ( 11912 PWs)   bands (ev):

   -19.7915 -12.1907  -8.4851  -7.4852   2.4201   3.6933   4.6175   5.1857
     5.3108   5.8204   6.2063   7.3067   7.7920   9.4064   9.9625  11.9533
    12.7468  13.0300  13.5891  14.4198  15.5956  16.1551  16.3066  16.8531
    17.0090  17.7696  17.8902  18.9096  19.4889  19.8467

     occupation numbers 
     1.0000   1.0000   1.0000   1.0000   0.0000   0.0000   0.0000   0.0000
     0.0000   0.0000   0.0000   0.0000   0.0000   0.0000   0.0000   0.0000
     0.0000   0.0000   0.0000   0.0000   0.0000   0.0000   0.0000   0.0000
     0.0000   0.0000   0.0000   0.0000   0.0000   0.0000

          k = 0.0133 0.3926 0.0000 ( 11912 PWs)   bands (ev):

   -19.5881 -12.5411  -8.5847  -7.2604   2.0521   3.9756   4.9002   5.1476
     5.5999   6.1121   6.4966   7.5948   8.0803   9.6854  10.2482  12.1965
    12.9178  13.0709  13.9623  14.2579  15.5316  15.8913  16.3039  16.4936
    16.5201  17.3839  17.3940  18.5816  18.9912  19.7902

     occupation numbers 
     1.0000   1.0000   1.0000   1.0000   0.0000   0.0000   0.0000   0.0000
     0.0000   0.0000   0.0000   0.0000   0.0000   0.0000   0.0000   0.0000
     0.0000   0.0000   0.0000   0.0000   0.0000   0.0000   0.0000   0.0000
     0.0000   0.0000   0.0000   0.0000   0.0000   0.0000

          k = 0.0133 0.4080 0.0000 ( 11914 PWs)   bands (ev):

   -19.3774 -12.8886  -8.6773  -7.0312   1.6873   4.2670   5.1092   5.1954
     5.9050   6.4155   6.7991   7.8939   8.3799   9.9735  10.5448  12.4303
    12.7308  13.3412  13.9934  14.3709  15.4793  15.4819  15.8532  16.0721
    16.7448  16.9481  17.0447  18.2287  18.5249  19.7039

     occupation numbers 
     1.0000   1.0000   1.0000   1.0000   0.0000   0.0000   0.0000   0.0000
     0.0000   0.0000   0.0000   0.0000   0.0000   0.0000   0.0000   0.0000
     0.0000   0.0000   0.0000   0.0000   0.0000   0.0000   0.0000   0.0000
     0.0000   0.0000   0.0000   0.0000   0.0000   0.0000

          k = 0.0133 0.4234 0.0000 ( 11914 PWs)   bands (ev):

   -19.1598 -13.2324  -8.7626  -6.7990   1.3283   4.5631   5.0790   5.5022
     6.2224   6.7305   7.1134   8.2040   8.6909  10.2699  10.8523  12.4344
    12.6279  13.6416  13.6997  14.7620  14.9971  15.2456  15.4655  15.7849
    16.5159  16.7418  17.0663  17.9101  18.1083  19.4544

     occupation numbers 
     1.0000   1.0000   1.0000   1.0000   0.0000   0.0000   0.0000   0.0000
     0.0000   0.0000   0.0000   0.0000   0.0000   0.0000   0.0000   0.0000
     0.0000   0.0000   0.0000   0.0000   0.0000   0.0000   0.0000   0.0000
     0.0000   0.0000   0.0000   0.0000   0.0000   0.0000

          k = 0.0133 0.4388 0.0000 ( 11920 PWs)   bands (ev):

   -18.9354 -13.5719  -8.8404  -6.5654   0.9778   4.8354   5.0864   5.8203
     6.5516   7.0569   7.4394   8.5248   9.0131  10.5730  11.1701  12.0766
    12.6992  13.4926  13.9538  14.4519  14.8165  14.9796  15.2513  15.6004
    16.1670  16.5054  17.3417  17.6630  17.7619  19.1612

     occupation numbers 
     1.0000   1.0000   1.0000   1.0000   0.0000   0.0000   0.0000   0.0000
     0.0000   0.0000   0.0000   0.0000   0.0000   0.0000   0.0000   0.0000
     0.0000   0.0000   0.0000   0.0000   0.0000   0.0000   0.0000   0.0000
     0.0000   0.0000   0.0000   0.0000   0.0000   0.0000

          k = 0.0133 0.4542 0.0000 ( 11928 PWs)   bands (ev):

   -18.7047 -13.9065  -8.9105  -6.3325   0.6387   4.9368   5.2787   6.1493
     6.8926   7.3949   7.7770   8.8561   9.3465  10.8791  11.4929  11.6860
    12.5199  13.5013  13.9254  14.2752  14.3484  14.5776  15.3479  15.5482
    15.8512  16.3249  17.3785  17.4996  17.7107  18.8729

     occupation numbers 
     1.0000   1.0000   1.0000   1.0000   0.0000   0.0000   0.0000   0.0000
     0.0000   0.0000   0.0000   0.0000   0.0000   0.0000   0.0000   0.0000
     0.0000   0.0000   0.0000   0.0000   0.0000   0.0000   0.0000   0.0000
     0.0000   0.0000   0.0000   0.0000   0.0000   0.0000

          k = 0.0133 0.4696 0.0000 ( 11926 PWs)   bands (ev):

   -18.4682 -14.2353  -8.9728  -6.1033   0.3145   4.9286   5.5948   6.4890
     7.2454   7.7442   8.1260   9.1973   9.6908  11.1765  11.2558  11.8431
    12.1937  13.4044  13.5598  13.9520  14.1105  14.6113  15.0320  15.3844
    15.9840  16.1567  17.1113  17.3890  17.9834  18.6482

     occupation numbers 
     1.0000   1.0000   1.0000   1.0000   0.0000   0.0000   0.0000   0.0000
     0.0000   0.0000   0.0000   0.0000   0.0000   0.0000   0.0000   0.0000
     0.0000   0.0000   0.0000   0.0000   0.0000   0.0000   0.0000   0.0000
     0.0000   0.0000   0.0000   0.0000   0.0000   0.0000

          k = 0.0133 0.4850 0.0000 ( 11918 PWs)   bands (ev):

   -18.2268 -14.5571  -9.0270  -5.8815   0.0093   4.9083   5.9375   6.8391
     7.6099   8.1048   8.4865   9.5477  10.0455  10.8260  11.3911  11.9020
    12.1915  12.8918  13.2618  13.6380  13.9003  14.7205  14.9267  15.0119
    15.9794  16.2866  16.8202  17.2740  18.2521  18.5301

     occupation numbers 
     1.0000   1.0000   1.0000   1.0000   0.0000   0.0000   0.0000   0.0000
     0.0000   0.0000   0.0000   0.0000   0.0000   0.0000   0.0000   0.0000
     0.0000   0.0000   0.0000   0.0000   0.0000   0.0000   0.0000   0.0000
     0.0000   0.0000   0.0000   0.0000   0.0000   0.0000

          k = 0.0133 0.5004 0.0000 ( 11908 PWs)   bands (ev):

   -17.9819 -14.8705  -9.0731  -5.6720  -0.2714   4.8881   6.2943   7.1994
     7.9862   8.4765   8.8583   9.9051  10.3637  10.4374  11.2229  11.9738
    12.3888  12.5510  12.8135  13.1636  13.8444  14.5417  14.5588  15.3038
    15.7981  16.3933  16.6669  17.1328  18.3874  18.5077

     occupation numbers 
     1.0000   1.0000   1.0000   1.0000   0.0000   0.0000   0.0000   0.0000
     0.0000   0.0000   0.0000   0.0000   0.0000   0.0000   0.0000   0.0000
     0.0000   0.0000   0.0000   0.0000   0.0000   0.0000   0.0000   0.0000
     0.0000   0.0000   0.0000   0.0000   0.0000   0.0000

          k = 0.0133 0.5158 0.0000 ( 11906 PWs)   bands (ev):

   -17.7359 -15.1727  -9.1109  -5.4813  -0.5207   4.8705   6.6627   7.5692
     8.3742   8.8591   9.2410   9.9496  10.2580  10.7915  10.8570  11.8973
    12.1704  12.4294  12.6904  12.9219  13.5764  14.1253  14.5382  15.6340
    15.6547  16.0739  16.8727  16.9928  18.2781  18.5091

     occupation numbers 
     1.0000   1.0000   1.0000   1.0000   0.0000   0.0000   0.0000   0.0000
     0.0000   0.0000   0.0000   0.0000   0.0000   0.0000   0.0000   0.0000
     0.0000   0.0000   0.0000   0.0000   0.0000   0.0000   0.0000   0.0000
     0.0000   0.0000   0.0000   0.0000   0.0000   0.0000

          k = 0.0133 0.5312 0.0000 ( 11908 PWs)   bands (ev):

   -17.4939 -15.4586  -9.1404  -5.3175  -0.7304   4.8564   7.0415   7.9481
     8.7738   9.2516   9.5084   9.6427  10.3543  10.7256  11.1777  11.4169
    11.8408  12.2271  12.5699  13.2467  13.2978  13.6893  14.5276  15.5262
    15.6773  16.0292  16.8862  17.0693  18.0667  18.4553

     occupation numbers 
     1.0000   1.0000   1.0000   1.0000   0.0000   0.0000   0.0000   0.0000
     0.0000   0.0000   0.0000   0.0000   0.0000   0.0000   0.0000   0.0000
     0.0000   0.0000   0.0000   0.0000   0.0000   0.0000   0.0000   0.0000
     0.0000   0.0000   0.0000   0.0000   0.0000   0.0000

          k = 0.0133 0.5466 0.0000 ( 11920 PWs)   bands (ev):

   -17.2672 -15.7166  -9.1615  -5.1902  -0.8908   4.8461   7.4300   8.3349
     9.0830   9.1868   9.6466   9.9867  10.0428  10.9474  11.0583  11.4074
    11.5737  11.7719  12.6005  13.1194  13.2509  13.6872  14.4154  15.2851
    15.4970  16.3854  16.8268  17.2152  17.7994  18.3436

     occupation numbers 
     1.0000   1.0000   1.0000   1.0000   0.0000   0.0000   0.0000   0.0000
     0.0000   0.0000   0.0000   0.0000   0.0000   0.0000   0.0000   0.0000
     0.0000   0.0000   0.0000   0.0000   0.0000   0.0000   0.0000   0.0000
     0.0000   0.0000   0.0000   0.0000   0.0000   0.0000

          k = 0.0133 0.5620 0.0000 ( 11928 PWs)   bands (ev):

   -17.0843 -15.9183  -9.1742  -5.1087  -0.9921   4.8399   7.8257   8.6640
     8.7256   9.5593   9.6086  10.0839  10.4579  10.4904  10.9357  11.3231
    11.4640  11.9818  12.2920  12.8217  13.3005  14.0794  14.2415  14.8836
    15.5098  16.7389  16.8065  17.2921  17.5078  18.2373

     occupation numbers 
     1.0000   1.0000   1.0000   1.0000   0.0000   0.0000   0.0000   0.0000
     0.0000   0.0000   0.0000   0.0000   0.0000   0.0000   0.0000   0.0000
     0.0000   0.0000   0.0000   0.0000   0.0000   0.0000   0.0000   0.0000
     0.0000   0.0000   0.0000   0.0000   0.0000   0.0000

          k = 0.0133 0.5774 0.0000 ( 11936 PWs)   bands (ev):

   -17.0072 -16.0017  -9.1784  -5.0806  -1.0268   4.8378   8.1647   8.3168
     9.0395   9.2441  10.0411  10.0454  10.4651  10.5458  10.8731  10.8985
    11.7351  12.0225  12.3762  12.4191  13.4146  14.1416  14.4487  14.5108
    15.5193  16.8039  16.9996  17.1991  17.3854  18.1943

     occupation numbers 
     1.0000   1.0000   1.0000   1.0000   0.0000   0.0000   0.0000   0.0000
     0.0000   0.0000   0.0000   0.0000   0.0000   0.0000   0.0000   0.0000
     0.0000   0.0000   0.0000   0.0000   0.0000   0.0000   0.0000   0.0000
     0.0000   0.0000   0.0000   0.0000   0.0000   0.0000

          k = 0.0267 0.0462 0.0000 ( 11765 PWs)   bands (ev):

   -22.2367 -10.3417  -5.9543  -5.8601   0.3298   1.1970   1.8381   2.3698
     2.7572   3.8865   4.3701   5.7801   5.9643   6.0485   6.5696   8.6293
     8.7456   9.3860  10.0868  11.9766  12.8619  15.7971  16.9458  20.0427
    20.1594  21.5590  24.6016  25.2787  25.3131  26.6961

     occupation numbers 
     1.0000   1.0000   1.0000   1.0000   0.0000   0.0000   0.0000   0.0000
     0.0000   0.0000   0.0000   0.0000   0.0000   0.0000   0.0000   0.0000
     0.0000   0.0000   0.0000   0.0000   0.0000   0.0000   0.0000   0.0000
     0.0000   0.0000   0.0000   0.0000   0.0000   0.0000

          k = 0.0267 0.0616 0.0000 ( 11787 PWs)   bands (ev):

   -22.2072 -10.3062  -6.0705  -5.9242   0.3699   1.2375   1.8793   2.4108
     2.7980   3.9272   4.4104   5.7980   6.0850   6.0888   6.6113   8.5277
     8.7851   9.4268  10.1403  12.0150  12.9024  15.8330  16.9859  20.1355
    20.1850  21.5992  24.3483  25.0927  25.2181  26.7354

     occupation numbers 
     1.0000   1.0000   1.0000   1.0000   0.0000   0.0000   0.0000   0.0000
     0.0000   0.0000   0.0000   0.0000   0.0000   0.0000   0.0000   0.0000
     0.0000   0.0000   0.0000   0.0000   0.0000   0.0000   0.0000   0.0000
     0.0000   0.0000   0.0000   0.0000   0.0000   0.0000

          k = 0.0267 0.0770 0.0000 ( 11795 PWs)   bands (ev):

   -22.1693 -10.2607  -6.2169  -6.0042   0.4215   1.2895   1.9323   2.4635
     2.8506   3.9796   4.4621   5.8176   6.1406   6.2380   6.6647   8.3988
     8.8359   9.4791  10.2108  12.0642  12.9544  15.8788  17.0374  20.2153
    20.2514  21.6512  23.9944  24.8409  25.2187  26.7859

     occupation numbers 
     1.0000   1.0000   1.0000   1.0000   0.0000   0.0000   0.0000   0.0000
     0.0000   0.0000   0.0000   0.0000   0.0000   0.0000   0.0000   0.0000
     0.0000   0.0000   0.0000   0.0000   0.0000   0.0000   0.0000   0.0000
     0.0000   0.0000   0.0000   0.0000   0.0000   0.0000

          k = 0.0267 0.0924 0.0000 ( 11788 PWs)   bands (ev):

   -22.1230 -10.2051  -6.3915  -6.0985   0.4845   1.3531   1.9970   2.5280
     2.9148   4.0436   4.5254   5.8365   6.2038   6.4218   6.7297   8.2437
     8.8980   9.5430  10.2990  12.1242  13.0180  15.9344  17.1002  20.2479
    20.3877  21.7152  23.5908  24.5638  25.2569  26.8476

     occupation numbers 
     1.0000   1.0000   1.0000   1.0000   0.0000   0.0000   0.0000   0.0000
     0.0000   0.0000   0.0000   0.0000   0.0000   0.0000   0.0000   0.0000
     0.0000   0.0000   0.0000   0.0000   0.0000   0.0000   0.0000   0.0000
     0.0000   0.0000   0.0000   0.0000   0.0000   0.0000

          k = 0.0267 0.1078 0.0000 ( 11798 PWs)   bands (ev):

   -22.0683 -10.1394  -6.5923  -6.2054   0.5590   1.4283   2.0735   2.6041
     2.9908   4.1192   4.6001   5.8525   6.2785   6.6350   6.8062   8.0636
     8.9712   9.6184  10.4058  12.1950  13.0930  15.9994  17.1743  20.2784
    20.5408  21.7915  23.1713  24.2723  25.3137  26.9202

     occupation numbers 
     1.0000   1.0000   1.0000   1.0000   0.0000   0.0000   0.0000   0.0000
     0.0000   0.0000   0.0000   0.0000   0.0000   0.0000   0.0000   0.0000
     0.0000   0.0000   0.0000   0.0000   0.0000   0.0000   0.0000   0.0000
     0.0000   0.0000   0.0000   0.0000   0.0000   0.0000

          k = 0.0267 0.1232 0.0000 ( 11802 PWs)   bands (ev):

   -22.0052 -10.0638  -6.8169  -6.3229   0.6450   1.5149   2.1617   2.6919
     3.0784   4.2064   4.6862   5.8640   6.3646   6.8744   6.8957   7.8601
     9.0557   9.7053  10.5313  12.2764  13.1794  16.0733  17.2596  20.2998
    20.7060  21.8805  22.7594  23.9737  25.3779  26.6549

     occupation numbers 
     1.0000   1.0000   1.0000   1.0000   0.0000   0.0000   0.0000   0.0000
     0.0000   0.0000   0.0000   0.0000   0.0000   0.0000   0.0000   0.0000
     0.0000   0.0000   0.0000   0.0000   0.0000   0.0000   0.0000   0.0000
     0.0000   0.0000   0.0000   0.0000   0.0000   0.0000

          k = 0.0267 0.1386 0.0000 ( 11797 PWs)   bands (ev):

   -21.9338  -9.9782  -7.0630  -6.4493   0.7424   1.6131   2.2617   2.7915
     3.1777   4.3052   4.7837   5.8694   6.4620   6.9924   7.1437   7.6348
     9.1513   9.8036  10.6754  12.3683  13.2773  16.1555  17.3560  20.2996
    20.8772  21.9828  22.3773  23.6727  25.4365  25.9367

     occupation numbers 
     1.0000   1.0000   1.0000   1.0000   0.0000   0.0000   0.0000   0.0000
     0.0000   0.0000   0.0000   0.0000   0.0000   0.0000   0.0000   0.0000
     0.0000   0.0000   0.0000   0.0000   0.0000   0.0000   0.0000   0.0000
     0.0000   0.0000   0.0000   0.0000   0.0000   0.0000

          k = 0.0267 0.1540 0.0000 ( 11801 PWs)   bands (ev):

   -21.8540  -9.8828  -7.3282  -6.5827   0.8513   1.7228   2.3735   2.9027
     3.2886   4.4155   4.8924   5.8679   6.5705   7.1026   7.3894   7.4348
     9.2580   9.9133  10.8375  12.4706  13.3865  16.2453  17.4636  20.2581
    21.0458  22.0506  22.0985  23.3723  25.2392  25.4604

     occupation numbers 
     1.0000   1.0000   1.0000   1.0000   0.0000   0.0000   0.0000   0.0000
     0.0000   0.0000   0.0000   0.0000   0.0000   0.0000   0.0000   0.0000
     0.0000   0.0000   0.0000   0.0000   0.0000   0.0000   0.0000   0.0000
     0.0000   0.0000   0.0000   0.0000   0.0000   0.0000

          k = 0.0267 0.1694 0.0000 ( 11791 PWs)   bands (ev):

   -21.7660  -9.7776  -7.6102  -6.7216   0.9716   1.8439   2.4971   3.0256
     3.4112   4.5374   5.0121   5.8595   6.6889   7.1259   7.2249   7.7483
     9.3758  10.0343  11.0163  12.5831  13.5071  16.3413  17.5821  20.1506
    21.1996  21.8083  22.2264  23.0741  24.5723  25.3455

     occupation numbers 
     1.0000   1.0000   1.0000   1.0000   0.0000   0.0000   0.0000   0.0000
     0.0000   0.0000   0.0000   0.0000   0.0000   0.0000   0.0000   0.0000
     0.0000   0.0000   0.0000   0.0000   0.0000   0.0000   0.0000   0.0000
     0.0000   0.0000   0.0000   0.0000   0.0000   0.0000

          k = 0.0267 0.1848 0.0000 ( 11791 PWs)   bands (ev):

   -21.6696  -9.6627  -7.9069  -6.8643   1.1034   1.9764   2.6324   3.1601
     3.5455   4.6707   5.1423   5.8446   6.7864   6.8788   7.3572   8.0821
     9.5045  10.1667  11.2102  12.7055  13.6390  16.4419  17.7115  19.9631
    21.3181  21.6660  22.3623  22.7787  23.9554  24.9091

     occupation numbers 
     1.0000   1.0000   1.0000   1.0000   0.0000   0.0000   0.0000   0.0000
     0.0000   0.0000   0.0000   0.0000   0.0000   0.0000   0.0000   0.0000
     0.0000   0.0000   0.0000   0.0000   0.0000   0.0000   0.0000   0.0000
     0.0000   0.0000   0.0000   0.0000   0.0000   0.0000

          k = 0.0267 0.2001 0.0000 ( 11802 PWs)   bands (ev):

   -21.5649  -9.5381  -8.2163  -7.0094   1.2466   2.1203   2.7795   3.3063
     3.6915   4.8153   5.2817   5.8249   6.5370   6.9741   7.5012   8.4345
     9.6442  10.3104  11.4174  12.8375  13.7822  16.5444  17.8517  19.7089
    21.3627  21.6110  22.4850  22.4919  23.4330  24.2975

     occupation numbers 
     1.0000   1.0000   1.0000   1.0000   0.0000   0.0000   0.0000   0.0000
     0.0000   0.0000   0.0000   0.0000   0.0000   0.0000   0.0000   0.0000
     0.0000   0.0000   0.0000   0.0000   0.0000   0.0000   0.0000   0.0000
     0.0000   0.0000   0.0000   0.0000   0.0000   0.0000

          k = 0.0267 0.2155 0.0000 ( 11819 PWs)   bands (ev):

   -21.4521  -9.4041  -8.5364  -7.1557   1.4012   2.2755   2.9384   3.4641
     3.8490   4.9709   5.4267   5.8048   6.2286   7.1263   7.6566   8.8034
     9.7946  10.4655  11.6353  12.9788  13.9366  16.6447  18.0026  19.4184
    21.2643  21.6096  22.1949  22.5651  23.1029  23.6622

     occupation numbers 
     1.0000   1.0000   1.0000   1.0000   0.0000   0.0000   0.0000   0.0000
     0.0000   0.0000   0.0000   0.0000   0.0000   0.0000   0.0000   0.0000
     0.0000   0.0000   0.0000   0.0000   0.0000   0.0000   0.0000   0.0000
     0.0000   0.0000   0.0000   0.0000   0.0000   0.0000

          k = 0.0267 0.2309 0.0000 ( 11825 PWs)   bands (ev):

   -21.3310  -9.2607  -8.8656  -7.3018   1.5672   2.4419   3.1090   3.6335
     4.0181   5.1362   5.5609   5.8012   5.9082   7.2916   7.8234   9.1870
     9.9558  10.6319  11.8615  13.1288  14.1022  16.7359  18.1640  19.1210
    20.9658  21.6121  21.9140  22.5300  22.9378  23.0454

     occupation numbers 
     1.0000   1.0000   1.0000   1.0000   0.0000   0.0000   0.0000   0.0000
     0.0000   0.0000   0.0000   0.0000   0.0000   0.0000   0.0000   0.0000
     0.0000   0.0000   0.0000   0.0000   0.0000   0.0000   0.0000   0.0000
     0.0000   0.0000   0.0000   0.0000   0.0000   0.0000

          k = 0.0267 0.2463 0.0000 ( 11842 PWs)   bands (ev):

   -21.2018  -9.2022  -9.1081  -7.4469   1.7446   2.6192   3.2914   3.8141
     4.1988   5.3006   5.5878   5.6286   5.8727   7.4686   8.0016   9.5832
    10.1274  10.8097  12.0930  13.2868  14.2790  16.8068  18.3355  18.8411
    20.5101  21.4676  21.7365  22.2335  22.4750  22.5462

     occupation numbers 
     1.0000   1.0000   1.0000   1.0000   0.0000   0.0000   0.0000   0.0000
     0.0000   0.0000   0.0000   0.0000   0.0000   0.0000   0.0000   0.0000
     0.0000   0.0000   0.0000   0.0000   0.0000   0.0000   0.0000   0.0000
     0.0000   0.0000   0.0000   0.0000   0.0000   0.0000

          k = 0.0267 0.2617 0.0000 ( 11856 PWs)   bands (ev):

   -21.0645  -9.5446  -8.9465  -7.5900   1.9333   2.8071   3.4855   4.0057
     4.3909   5.2018   5.5364   5.6161   6.0298   7.6569   8.1912   9.9900
    10.3094  10.9989  12.3264  13.4518  14.4667  16.8400  18.5164  18.6019
    19.9804  21.1161  21.5851  21.6077  21.9966  22.2661

     occupation numbers 
     1.0000   1.0000   1.0000   1.0000   0.0000   0.0000   0.0000   0.0000
     0.0000   0.0000   0.0000   0.0000   0.0000   0.0000   0.0000   0.0000
     0.0000   0.0000   0.0000   0.0000   0.0000   0.0000   0.0000   0.0000
     0.0000   0.0000   0.0000   0.0000   0.0000   0.0000

          k = 0.0267 0.2771 0.0000 ( 11856 PWs)   bands (ev):

   -20.9191  -9.8917  -8.7760  -7.7301   2.1334   3.0047   3.6914   4.2062
     4.5942   4.8679   5.5797   5.7267   6.2209   7.8564   8.3922  10.4048
    10.5014  11.1994  12.5581  13.6223  14.6655  16.8132  18.4259  18.7037
    19.4294  20.6693  20.9187  21.2859  21.6315  21.7410

     occupation numbers 
     1.0000   1.0000   1.0000   1.0000   0.0000   0.0000   0.0000   0.0000
     0.0000   0.0000   0.0000   0.0000   0.0000   0.0000   0.0000   0.0000
     0.0000   0.0000   0.0000   0.0000   0.0000   0.0000   0.0000   0.0000
     0.0000   0.0000   0.0000   0.0000   0.0000   0.0000

          k = 0.0267 0.2925 0.0000 ( 11866 PWs)   bands (ev):

   -20.7657 -10.2422  -8.5970  -7.8666   2.3448   3.2095   3.9090   4.3823
     4.5573   4.8084   5.5363   5.9384   6.4297   8.0670   8.6046  10.7033
    10.8248  11.4115  12.7836  13.7960  14.8751  16.7108  18.3230  18.7987
    18.9794  20.1690  20.2596  20.8312  21.1376  21.2979

     occupation numbers 
     1.0000   1.0000   1.0000   1.0000   0.0000   0.0000   0.0000   0.0000
     0.0000   0.0000   0.0000   0.0000   0.0000   0.0000   0.0000   0.0000
     0.0000   0.0000   0.0000   0.0000   0.0000   0.0000   0.0000   0.0000
     0.0000   0.0000   0.0000   0.0000   0.0000   0.0000

          k = 0.0267 0.3079 0.0000 ( 11879 PWs)   bands (ev):

   -20.6044 -10.5951  -8.4096  -7.9988   2.5674   3.4116   4.1382   4.1514
     4.6726   5.0313   5.4922   6.1631   6.6524   8.2886   8.8284  10.9145
    11.2456  11.6356  12.9975  13.9694  15.0953  16.5380  18.2719  18.3088
    19.1354  19.6118  19.6571  20.3357  20.5235  20.9875

     occupation numbers 
     1.0000   1.0000   1.0000   1.0000   0.0000   0.0000   0.0000   0.0000
     0.0000   0.0000   0.0000   0.0000   0.0000   0.0000   0.0000   0.0000
     0.0000   0.0000   0.0000   0.0000   0.0000   0.0000   0.0000   0.0000
     0.0000   0.0000   0.0000   0.0000   0.0000   0.0000

          k = 0.0267 0.3233 0.0000 ( 11889 PWs)   bands (ev):

   -20.4352 -10.9492  -8.2143  -8.1261   2.8012   3.5292   3.9049   4.3795
     4.9060   5.2511   5.4615   6.3998   6.8877   8.5210   9.0636  11.1345
    11.6597  11.8737  13.1939  14.1362  15.3259  16.3178  17.7924  18.2107
    18.9727  19.1698  19.3499  19.8638  19.9178  20.6846

     occupation numbers 
     1.0000   1.0000   1.0000   1.0000   0.0000   0.0000   0.0000   0.0000
     0.0000   0.0000   0.0000   0.0000   0.0000   0.0000   0.0000   0.0000
     0.0000   0.0000   0.0000   0.0000   0.0000   0.0000   0.0000   0.0000
     0.0000   0.0000   0.0000   0.0000   0.0000   0.0000

          k = 0.0267 0.3387 0.0000 ( 11887 PWs)   bands (ev):

   -20.2583 -11.3038  -8.2481  -8.0114   3.0460   3.3093   4.0004   4.6322
     5.1555   5.3473   5.5659   6.6482   7.1351   8.7641   9.3100  11.3626
    12.0422  12.1404  13.3677  14.2849  15.5665  16.0776  17.3068  18.0363
    18.3503  18.7386  19.2984  19.4877  19.5958  20.3650

     occupation numbers 
     1.0000   1.0000   1.0000   1.0000   0.0000   0.0000   0.0000   0.0000
     0.0000   0.0000   0.0000   0.0000   0.0000   0.0000   0.0000   0.0000
     0.0000   0.0000   0.0000   0.0000   0.0000   0.0000   0.0000   0.0000
     0.0000   0.0000   0.0000   0.0000   0.0000   0.0000

          k = 0.0267 0.3541 0.0000 ( 11901 PWs)   bands (ev):

   -20.0736 -11.6579  -8.3642  -7.8014   2.9614   3.3024   4.2322   4.8961
     5.3170   5.4176   5.8098   6.9080   7.3943   9.0177   9.5677  11.5975
    12.3402  12.4673  13.5207  14.3931  15.8158  15.8474  16.8647  17.6901
    17.7418  18.3430  18.7279  19.2563  19.8079  20.0380

     occupation numbers 
     1.0000   1.0000   1.0000   1.0000   0.0000   0.0000   0.0000   0.0000
     0.0000   0.0000   0.0000   0.0000   0.0000   0.0000   0.0000   0.0000
     0.0000   0.0000   0.0000   0.0000   0.0000   0.0000   0.0000   0.0000
     0.0000   0.0000   0.0000   0.0000   0.0000   0.0000

          k = 0.0267 0.3695 0.0000 ( 11893 PWs)   bands (ev):

   -19.8813 -12.0108  -8.4740  -7.5849   2.5968   3.5691   4.4925   5.1668
     5.2790   5.6917   6.0794   7.1791   7.6652   9.2816   9.8366  11.8375
    12.6045  12.7546  13.6788  14.4209  15.6658  16.0691  16.4775  17.1519
    17.2428  17.9414  18.1713  19.0545  19.7451  19.8043

     occupation numbers 
     1.0000   1.0000   1.0000   1.0000   0.0000   0.0000   0.0000   0.0000
     0.0000   0.0000   0.0000   0.0000   0.0000   0.0000   0.0000   0.0000
     0.0000   0.0000   0.0000   0.0000   0.0000   0.0000   0.0000   0.0000
     0.0000   0.0000   0.0000   0.0000   0.0000   0.0000

          k = 0.0267 0.3849 0.0000 ( 11903 PWs)   bands (ev):

   -19.6816 -12.3619  -8.5773  -7.3627   2.2291   3.8465   4.7687   5.2238
     5.4662   5.9776   6.3632   7.4615   7.9477   9.5553  10.1167  12.0791
    12.8067  12.9518  13.8996  14.3254  15.5670  16.0924  16.3637  16.5962
    16.7640  17.5500  17.6459  18.7399  19.2498  19.7511

     occupation numbers 
     1.0000   1.0000   1.0000   1.0000   0.0000   0.0000   0.0000   0.0000
     0.0000   0.0000   0.0000   0.0000   0.0000   0.0000   0.0000   0.0000
     0.0000   0.0000   0.0000   0.0000   0.0000   0.0000   0.0000   0.0000
     0.0000   0.0000   0.0000   0.0000   0.0000   0.0000

          k = 0.0267 0.4003 0.0000 ( 11909 PWs)   bands (ev):

   -19.4746 -12.7103  -8.6736  -7.1355   1.8631   4.1338   5.0578   5.1842
     5.7642   6.2751   6.6596   7.7550   8.2416   9.8383  10.4078  12.3160
    12.7663  13.2095  14.1118  14.2010  15.5197  15.7334  16.0938  16.2953
    16.6344  17.1698  17.1921  18.3663  18.7660  19.7883

     occupation numbers 
     1.0000   1.0000   1.0000   1.0000   0.0000   0.0000   0.0000   0.0000
     0.0000   0.0000   0.0000   0.0000   0.0000   0.0000   0.0000   0.0000
     0.0000   0.0000   0.0000   0.0000   0.0000   0.0000   0.0000   0.0000
     0.0000   0.0000   0.0000   0.0000   0.0000   0.0000

          k = 0.0267 0.4157 0.0000 ( 11919 PWs)   bands (ev):

   -19.2605 -13.0556  -8.7628  -6.9046   1.5016   4.4292   5.1482   5.3588
     6.0755   6.5843   6.9679   8.0595   8.5469  10.1300  10.7098  12.5315
    12.5551  13.5021  13.8358  14.5322  15.2757  15.3906  15.7055  15.9125
    16.7211  16.8813  16.9476  18.0135  18.3249  19.5552

     occupation numbers 
     1.0000   1.0000   1.0000   1.0000   0.0000   0.0000   0.0000   0.0000
     0.0000   0.0000   0.0000   0.0000   0.0000   0.0000   0.0000   0.0000
     0.0000   0.0000   0.0000   0.0000   0.0000   0.0000   0.0000   0.0000
     0.0000   0.0000   0.0000   0.0000   0.0000   0.0000

          k = 0.0267 0.4311 0.0000 ( 11915 PWs)   bands (ev):

   -19.0395 -13.3969  -8.8445  -6.6715   1.1471   4.7249   5.1253   5.6712
     6.3987   6.9049   7.2881   8.3747   8.8635  10.4290  11.0224  12.2459
    12.6752  13.5807  13.8082  14.6802  14.8993  15.0423  15.3805  15.6854
    16.3838  16.6265  17.2183  17.7319  17.9444  19.2295

     occupation numbers 
     1.0000   1.0000   1.0000   1.0000   0.0000   0.0000   0.0000   0.0000
     0.0000   0.0000   0.0000   0.0000   0.0000   0.0000   0.0000   0.0000
     0.0000   0.0000   0.0000   0.0000   0.0000   0.0000   0.0000   0.0000
     0.0000   0.0000   0.0000   0.0000   0.0000   0.0000

          k = 0.0267 0.4465 0.0000 ( 11915 PWs)   bands (ev):

   -18.8119 -13.7337  -8.9186  -6.4379   0.8025   4.9550   5.1819   5.9946
     6.7339   7.2371   7.6198   8.7005   9.1913  10.7328  11.3446  11.8787
    12.6226  13.4845  14.1217  14.2008  14.5887  14.7595  15.3690  15.4657
    16.0790  16.4169  17.4573  17.5503  17.6757  18.9076

     occupation numbers 
     1.0000   1.0000   1.0000   1.0000   0.0000   0.0000   0.0000   0.0000
     0.0000   0.0000   0.0000   0.0000   0.0000   0.0000   0.0000   0.0000
     0.0000   0.0000   0.0000   0.0000   0.0000   0.0000   0.0000   0.0000
     0.0000   0.0000   0.0000   0.0000   0.0000   0.0000

          k = 0.0267 0.4619 0.0000 ( 11915 PWs)   bands (ev):

   -18.5783 -14.0652  -8.9849  -6.2065   0.4709   4.9914   5.4464   6.3288
     7.0808   7.5806   7.9631   9.0365   9.5301  11.0346  11.4647  11.6891
    12.3564  13.5505  13.6757  14.1393  14.3338  14.4636  15.1839  15.4483
    15.9302  16.2255  17.2956  17.4468  17.8528  18.6383

     occupation numbers 
     1.0000   1.0000   1.0000   1.0000   0.0000   0.0000   0.0000   0.0000
     0.0000   0.0000   0.0000   0.0000   0.0000   0.0000   0.0000   0.0000
     0.0000   0.0000   0.0000   0.0000   0.0000   0.0000   0.0000   0.0000
     0.0000   0.0000   0.0000   0.0000   0.0000   0.0000

          k = 0.0267 0.4773 0.0000 ( 11923 PWs)   bands (ev):

   -18.3393 -14.3903  -9.0432  -5.9803   0.1560   4.9756   5.7772   6.6735
     7.4394   7.9355   8.3179   9.3820   9.8796  11.0474  11.3058  12.0274
    12.0319  13.1593  13.4570  13.8810  13.8937  14.7878  14.8734  15.1724
    16.0399  16.1090  17.0332  17.3463  18.1360  18.4811

     occupation numbers 
     1.0000   1.0000   1.0000   1.0000   0.0000   0.0000   0.0000   0.0000
     0.0000   0.0000   0.0000   0.0000   0.0000   0.0000   0.0000   0.0000
     0.0000   0.0000   0.0000   0.0000   0.0000   0.0000   0.0000   0.0000
     0.0000   0.0000   0.0000   0.0000   0.0000   0.0000

          k = 0.0267 0.4927 0.0000 ( 11911 PWs)   bands (ev):

   -18.0960 -14.7079  -9.0934  -5.7638  -0.1374   4.9552   6.1270   7.0284
     7.8098   8.3015   8.6840   9.7356  10.2382  10.6174  11.3532  11.8990
    12.3819  12.6521  13.0479  13.4098  13.8875  14.6174  14.7671  15.1419
    15.8638  16.2967  16.7971  17.1968  18.3750  18.4585

     occupation numbers 
     1.0000   1.0000   1.0000   1.0000   0.0000   0.0000   0.0000   0.0000
     0.0000   0.0000   0.0000   0.0000   0.0000   0.0000   0.0000   0.0000
     0.0000   0.0000   0.0000   0.0000   0.0000   0.0000   0.0000   0.0000
     0.0000   0.0000   0.0000   0.0000   0.0000   0.0000

          k = 0.0267 0.5081 0.0000 ( 11907 PWs)   bands (ev):

   -17.8502 -15.0159  -9.1354  -5.5627  -0.4031   4.9363   6.4896   7.3931
     8.1920   8.6786   9.0613  10.0924  10.1754  10.6157  11.0438  12.0987
    12.1548  12.6060  12.7447  12.9395  13.7213  14.3473  14.5293  15.4874
    15.7052  16.2004  16.7933  17.0267  18.3972  18.5070

     occupation numbers 
     1.0000   1.0000   1.0000   1.0000   0.0000   0.0000   0.0000   0.0000
     0.0000   0.0000   0.0000   0.0000   0.0000   0.0000   0.0000   0.0000
     0.0000   0.0000   0.0000   0.0000   0.0000   0.0000   0.0000   0.0000
     0.0000   0.0000   0.0000   0.0000   0.0000   0.0000

          k = 0.0267 0.5235 0.0000 ( 11915 PWs)   bands (ev):

   -17.6054 -15.3106  -9.1692  -5.3843  -0.6337   4.9204   6.8632   7.7671
     8.5858   9.0660   9.4481   9.7439  10.3989  10.7108  10.9958  11.6687
    12.0563  12.4670  12.4699  13.1203  13.4122  13.9149  14.5253  15.5812
    15.7970  15.9195  16.8890  16.9545  18.2323  18.5025

     occupation numbers 
     1.0000   1.0000   1.0000   1.0000   0.0000   0.0000   0.0000   0.0000
     0.0000   0.0000   0.0000   0.0000   0.0000   0.0000   0.0000   0.0000
     0.0000   0.0000   0.0000   0.0000   0.0000   0.0000   0.0000   0.0000
     0.0000   0.0000   0.0000   0.0000   0.0000   0.0000

          k = 0.0267 0.5389 0.0000 ( 11913 PWs)   bands (ev):

   -17.3691 -15.5845  -9.1945  -5.2373  -0.8199   4.9082   7.2468   8.1494
     8.9910   9.3087   9.4618   9.8522  10.1817  10.8944  11.1935  11.3874
    11.6318  12.0101  12.6343  13.1420  13.4622  13.5199  14.4638  15.4834
    15.5120  16.2107  16.8148  17.1049  17.9954  18.3760

     occupation numbers 
     1.0000   1.0000   1.0000   1.0000   0.0000   0.0000   0.0000   0.0000
     0.0000   0.0000   0.0000   0.0000   0.0000   0.0000   0.0000   0.0000
     0.0000   0.0000   0.0000   0.0000   0.0000   0.0000   0.0000   0.0000
     0.0000   0.0000   0.0000   0.0000   0.0000   0.0000

          k = 0.0267 0.5543 0.0000 ( 11911 PWs)   bands (ev):

   -17.1590 -15.8196  -9.2114  -5.1316  -0.9519   4.8999   7.6392   8.5379
     8.8839   9.4089   9.7400   9.9143  10.2621  10.7302  11.1330  11.3181
    11.5570  11.7904  12.4637  13.0464  13.2013  13.8929  14.3229  15.0901
    15.4912  16.5583  16.8011  17.2072  17.7199  18.2149

     occupation numbers 
     1.0000   1.0000   1.0000   1.0000   0.0000   0.0000   0.0000   0.0000
     0.0000   0.0000   0.0000   0.0000   0.0000   0.0000   0.0000   0.0000
     0.0000   0.0000   0.0000   0.0000   0.0000   0.0000   0.0000   0.0000
     0.0000   0.0000   0.0000   0.0000   0.0000   0.0000

          k = 0.0267 0.5697 0.0000 ( 11927 PWs)   bands (ev):

   -17.0195 -15.9716  -9.2199  -5.0761  -1.0206   4.8958   8.0337   8.4732
     8.9198   9.3783   9.8376  10.2781  10.3011  10.6834  10.7348  11.1160
    11.6397  12.1308  12.1996  12.6210  13.3699  14.1798  14.2866  14.6917
    15.4898  16.8139  16.8636  17.2268  17.4806  18.1086

     occupation numbers 
     1.0000   1.0000   1.0000   1.0000   0.0000   0.0000   0.0000   0.0000
     0.0000   0.0000   0.0000   0.0000   0.0000   0.0000   0.0000   0.0000
     0.0000   0.0000   0.0000   0.0000   0.0000   0.0000   0.0000   0.0000
     0.0000   0.0000   0.0000   0.0000   0.0000   0.0000

          k = 0.0400 0.0693 0.0000 ( 11797 PWs)   bands (ev):

   -22.1735 -10.2657  -6.1986  -5.9977   0.4158   1.2838   1.9264   2.4577
     2.8448   3.9738   4.4564   5.8219   6.1348   6.2144   6.6588   8.4131
     8.8303   9.4733  10.2033  12.0587  12.9487  15.8737  17.0317  20.2119
    20.2387  21.6454  24.0100  24.9281  25.1873  26.7803

     occupation numbers 
     1.0000   1.0000   1.0000   1.0000   0.0000   0.0000   0.0000   0.0000
     0.0000   0.0000   0.0000   0.0000   0.0000   0.0000   0.0000   0.0000
     0.0000   0.0000   0.0000   0.0000   0.0000   0.0000   0.0000   0.0000
     0.0000   0.0000   0.0000   0.0000   0.0000   0.0000

          k = 0.0400 0.0847 0.0000 ( 11795 PWs)   bands (ev):

   -22.1314 -10.2152  -6.3550  -6.0871   0.4731   1.3416   1.9852   2.5162
     2.9032   4.0319   4.5139   5.8484   6.1923   6.3725   6.7180   8.2718
     8.8866   9.5314  10.2843  12.1133  13.0064  15.9243  17.0888  20.2417
    20.3634  21.7035  23.6163  24.7056  25.2177  26.8364

     occupation numbers 
     1.0000   1.0000   1.0000   1.0000   0.0000   0.0000   0.0000   0.0000
     0.0000   0.0000   0.0000   0.0000   0.0000   0.0000   0.0000   0.0000
     0.0000   0.0000   0.0000   0.0000   0.0000   0.0000   0.0000   0.0000
     0.0000   0.0000   0.0000   0.0000   0.0000   0.0000

          k = 0.0400 0.1001 0.0000 ( 11792 PWs)   bands (ev):

   -22.0809 -10.1546  -6.5380  -6.1904   0.5418   1.4109   2.0558   2.5865
     2.9732   4.1017   4.5829   5.8743   6.2613   6.5587   6.7888   8.1052
     8.9542   9.6011  10.3842  12.1786  13.0757  15.9843  17.1572  20.2705
    20.5063  21.7738  23.2021  24.4517  25.2745  26.9037

     occupation numbers 
     1.0000   1.0000   1.0000   1.0000   0.0000   0.0000   0.0000   0.0000
     0.0000   0.0000   0.0000   0.0000   0.0000   0.0000   0.0000   0.0000
     0.0000   0.0000   0.0000   0.0000   0.0000   0.0000   0.0000   0.0000
     0.0000   0.0000   0.0000   0.0000   0.0000   0.0000

          k = 0.0400 0.1155 0.0000 ( 11791 PWs)   bands (ev):

   -22.0221 -10.0839  -6.7457  -6.3055   0.6221   1.4918   2.1382   2.6685
     3.0550   4.1831   4.6634   5.8968   6.3417   6.7720   6.8711   7.9145
     9.0330   9.6822  10.5037  12.2546  13.1564  16.0534  17.2369  20.2918
    20.6633  21.8567  22.7913  24.1785  25.3439  26.9746

     occupation numbers 
     1.0000   1.0000   1.0000   1.0000   0.0000   0.0000   0.0000   0.0000
     0.0000   0.0000   0.0000   0.0000   0.0000   0.0000   0.0000   0.0000
     0.0000   0.0000   0.0000   0.0000   0.0000   0.0000   0.0000   0.0000
     0.0000   0.0000   0.0000   0.0000   0.0000   0.0000

          k = 0.0400 0.1309 0.0000 ( 11799 PWs)   bands (ev):

   -21.9548 -10.0034  -6.9761  -6.4304   0.7138   1.5842   2.2323   2.7622
     3.1485   4.2761   4.7552   5.9136   6.4335   6.9628   7.0135   7.7014
     9.1230   9.7749  10.6429  12.3411  13.2485  16.1309  17.3277  20.2941
    20.8291  21.9526  22.4058  23.8933  25.4160  26.3037

     occupation numbers 
     1.0000   1.0000   1.0000   1.0000   0.0000   0.0000   0.0000   0.0000
     0.0000   0.0000   0.0000   0.0000   0.0000   0.0000   0.0000   0.0000
     0.0000   0.0000   0.0000   0.0000   0.0000   0.0000   0.0000   0.0000
     0.0000   0.0000   0.0000   0.0000   0.0000   0.0000

          k = 0.0400 0.1463 0.0000 ( 11807 PWs)   bands (ev):

   -21.8792  -9.9129  -7.2268  -6.5632   0.8169   1.6882   2.3382   2.8676
     3.2536   4.3807   4.8585   5.9234   6.5365   7.0681   7.2772   7.4674
     9.2241   9.8789  10.8015  12.4380  13.3520  16.2162  17.4296  20.2589
    20.9964  22.0615  22.0714  23.6008  25.4751  25.5968

     occupation numbers 
     1.0000   1.0000   1.0000   1.0000   0.0000   0.0000   0.0000   0.0000
     0.0000   0.0000   0.0000   0.0000   0.0000   0.0000   0.0000   0.0000
     0.0000   0.0000   0.0000   0.0000   0.0000   0.0000   0.0000   0.0000
     0.0000   0.0000   0.0000   0.0000   0.0000   0.0000

          k = 0.0400 0.1617 0.0000 ( 11811 PWs)   bands (ev):

   -21.7953  -9.8126  -7.4959  -6.7021   0.9315   1.8035   2.4559   2.9846
     3.3704   4.4968   4.9729   5.9254   6.6502   7.1824   7.2163   7.5647
     9.3362   9.9943  10.9787  12.5452  13.4669  16.3080  17.5426  20.1617
    21.1554  21.8164  22.1841  23.3037  24.9140  25.4731

     occupation numbers 
     1.0000   1.0000   1.0000   1.0000   0.0000   0.0000   0.0000   0.0000
     0.0000   0.0000   0.0000   0.0000   0.0000   0.0000   0.0000   0.0000
     0.0000   0.0000   0.0000   0.0000   0.0000   0.0000   0.0000   0.0000
     0.0000   0.0000   0.0000   0.0000   0.0000   0.0000

          k = 0.0400 0.1771 0.0000 ( 11803 PWs)   bands (ev):

   -21.7031  -9.7026  -7.7809  -6.8455   1.0576   1.9304   2.5854   3.1133
     3.4989   4.6244   5.0982   5.9196   6.7699   6.9491   7.3114   7.8735
     9.4593  10.1210  11.1730  12.6623  13.5931  16.4047  17.6665  19.9853
    21.2906  21.6619  22.3170  23.0033  24.2687  25.2291

     occupation numbers 
     1.0000   1.0000   1.0000   1.0000   0.0000   0.0000   0.0000   0.0000
     0.0000   0.0000   0.0000   0.0000   0.0000   0.0000   0.0000   0.0000
     0.0000   0.0000   0.0000   0.0000   0.0000   0.0000   0.0000   0.0000
     0.0000   0.0000   0.0000   0.0000   0.0000   0.0000

          k = 0.0400 0.1925 0.0000 ( 11800 PWs)   bands (ev):

   -21.6026  -9.5829  -8.0800  -6.9918   1.1951   2.0686   2.7266   3.2537
     3.6390   4.7634   5.2338   5.9067   6.6457   6.9231   7.4497   8.2018
     9.5933  10.2592  11.3826  12.7891  13.7306  16.5039  17.8013  19.7392
    21.3747  21.6003  22.4519  22.6991  23.6898  24.6733

     occupation numbers 
     1.0000   1.0000   1.0000   1.0000   0.0000   0.0000   0.0000   0.0000
     0.0000   0.0000   0.0000   0.0000   0.0000   0.0000   0.0000   0.0000
     0.0000   0.0000   0.0000   0.0000   0.0000   0.0000   0.0000   0.0000
     0.0000   0.0000   0.0000   0.0000   0.0000   0.0000

          k = 0.0400 0.2078 0.0000 ( 11812 PWs)   bands (ev):

   -21.4939  -9.4536  -8.3912  -7.1396   1.3440   2.2182   2.8796   3.4057
     3.7908   4.9136   5.3782   5.8889   6.3471   7.0684   7.5993   8.5475
     9.7382  10.4086  11.6054  12.9252  13.8794  16.6018  17.9468  19.4531
    21.3554  21.6021  22.3896  22.5609  23.2463  24.0415

     occupation numbers 
     1.0000   1.0000   1.0000   1.0000   0.0000   0.0000   0.0000   0.0000
     0.0000   0.0000   0.0000   0.0000   0.0000   0.0000   0.0000   0.0000
     0.0000   0.0000   0.0000   0.0000   0.0000   0.0000   0.0000   0.0000
     0.0000   0.0000   0.0000   0.0000   0.0000   0.0000

          k = 0.0400 0.2232 0.0000 ( 11833 PWs)   bands (ev):

   -21.3769  -9.3150  -8.7126  -7.2877   1.5043   2.3790   3.0443   3.5693
     3.9541   5.0744   5.5262   5.8722   6.0336   7.2279   7.7604   8.9088
     9.8937  10.5695  11.8388  13.0701  14.0394  16.6921  18.1028  19.1574
    21.1580  21.6296  22.0771  22.5741  23.0468  23.4135

     occupation numbers 
     1.0000   1.0000   1.0000   1.0000   0.0000   0.0000   0.0000   0.0000
     0.0000   0.0000   0.0000   0.0000   0.0000   0.0000   0.0000   0.0000
     0.0000   0.0000   0.0000   0.0000   0.0000   0.0000   0.0000   0.0000
     0.0000   0.0000   0.0000   0.0000   0.0000   0.0000

          k = 0.0400 0.2386 0.0000 ( 11850 PWs)   bands (ev):

   -21.2518  -9.1670  -9.0425  -7.4351   1.6760   2.5509   3.2208   3.7444
     4.1291   5.2423   5.6542   5.7134   5.8803   7.3991   7.9328   9.2834
    10.0598  10.7417  12.0801  13.2231  14.2105  16.7648  18.2692  18.8772
    20.7702  21.5760  21.8303  22.4679  22.7148  22.8116

     occupation numbers 
     1.0000   1.0000   1.0000   1.0000   0.0000   0.0000   0.0000   0.0000
     0.0000   0.0000   0.0000   0.0000   0.0000   0.0000   0.0000   0.0000
     0.0000   0.0000   0.0000   0.0000   0.0000   0.0000   0.0000   0.0000
     0.0000   0.0000   0.0000   0.0000   0.0000   0.0000

          k = 0.0400 0.2540 0.0000 ( 11859 PWs)   bands (ev):

   -21.1186  -9.3795  -9.0099  -7.5806   1.8591   2.7335   3.4091   3.9306
     4.3156   5.3174   5.4859   5.7025   5.9772   7.5817   8.1166   9.6692
    10.2363  10.9253  12.3264  13.3834  14.3927  16.8043  18.4454  18.6357
    20.2689  21.2546  21.7797  21.9379  22.2545  22.4465

     occupation numbers 
     1.0000   1.0000   1.0000   1.0000   0.0000   0.0000   0.0000   0.0000
     0.0000   0.0000   0.0000   0.0000   0.0000   0.0000   0.0000   0.0000
     0.0000   0.0000   0.0000   0.0000   0.0000   0.0000   0.0000   0.0000
     0.0000   0.0000   0.0000   0.0000   0.0000   0.0000

          k = 0.0400 0.2694 0.0000 ( 11863 PWs)   bands (ev):

   -20.9773  -9.7220  -8.8439  -7.7235   2.0535   2.9265   3.6091   4.1271
     4.5134   5.0107   5.6465   5.6837   6.1479   7.7755   8.3119  10.0635
    10.4229  11.1202  12.5743  13.5494  14.5860  16.7901  18.4553  18.6302
    19.7237  20.8245  21.2732  21.5758  21.8594  22.0393

     occupation numbers 
     1.0000   1.0000   1.0000   1.0000   0.0000   0.0000   0.0000   0.0000
     0.0000   0.0000   0.0000   0.0000   0.0000   0.0000   0.0000   0.0000
     0.0000   0.0000   0.0000   0.0000   0.0000   0.0000   0.0000   0.0000
     0.0000   0.0000   0.0000   0.0000   0.0000   0.0000

          k = 0.0400 0.2848 0.0000 ( 11871 PWs)   bands (ev):

   -20.8279 -10.0687  -8.6692  -7.8630   2.2593   3.1282   3.8208   4.3269
     4.6742   4.7229   5.6461   5.8512   6.3467   7.9804   8.5186  10.4633
    10.6193  11.3267  12.8198  13.7191  14.7901  16.7065  18.3491  18.8125
    19.1797  20.3470  20.6098  21.0790  21.4625  21.6202

     occupation numbers 
     1.0000   1.0000   1.0000   1.0000   0.0000   0.0000   0.0000   0.0000
     0.0000   0.0000   0.0000   0.0000   0.0000   0.0000   0.0000   0.0000
     0.0000   0.0000   0.0000   0.0000   0.0000   0.0000   0.0000   0.0000
     0.0000   0.0000   0.0000   0.0000   0.0000   0.0000

          k = 0.0400 0.3002 0.0000 ( 11883 PWs)   bands (ev):

   -20.6706 -10.4186  -8.4860  -7.9984   2.4763   3.3339   4.0444   4.2884
     4.5872   4.9420   5.6029   6.0698   6.5619   8.1963   8.7366  10.8251
    10.8650  11.5448  13.0583  13.8893  15.0049  16.5556  18.3035  18.5894
    19.0572  19.8533  19.9560  20.5441  20.8510  21.3064

     occupation numbers 
     1.0000   1.0000   1.0000   1.0000   0.0000   0.0000   0.0000   0.0000
     0.0000   0.0000   0.0000   0.0000   0.0000   0.0000   0.0000   0.0000
     0.0000   0.0000   0.0000   0.0000   0.0000   0.0000   0.0000   0.0000
     0.0000   0.0000   0.0000   0.0000   0.0000   0.0000

          k = 0.0400 0.3156 0.0000 ( 11888 PWs)   bands (ev):

   -20.5054 -10.7705  -8.2947  -8.1290   2.7045   3.5147   3.9846   4.2796
     4.8074   5.1691   5.5608   6.3007   6.7907   8.4231   8.9660  11.0399
    11.2632  11.7748  13.2843  14.0546  15.2303  16.3576  18.0667  18.2690
    19.2523  19.3221  19.3775  20.0267  20.2394  20.9509

     occupation numbers 
     1.0000   1.0000   1.0000   1.0000   0.0000   0.0000   0.0000   0.0000
     0.0000   0.0000   0.0000   0.0000   0.0000   0.0000   0.0000   0.0000
     0.0000   0.0000   0.0000   0.0000   0.0000   0.0000   0.0000   0.0000
     0.0000   0.0000   0.0000   0.0000   0.0000   0.0000

          k = 0.0400 0.3310 0.0000 ( 11891 PWs)   bands (ev):

   -20.3323 -11.1234  -8.2544  -8.0956   2.9439   3.4486   3.9243   4.5265
     5.0502   5.3800   5.5455   6.5432   7.0319   8.6606   9.2068  11.2628
    11.6496  12.0176  13.4913  14.2054  15.4659  16.1380  17.5653  18.1513
    18.6819  18.9545  19.4632  19.5866  19.6553  20.5633

     occupation numbers 
     1.0000   1.0000   1.0000   1.0000   0.0000   0.0000   0.0000   0.0000
     0.0000   0.0000   0.0000   0.0000   0.0000   0.0000   0.0000   0.0000
     0.0000   0.0000   0.0000   0.0000   0.0000   0.0000   0.0000   0.0000
     0.0000   0.0000   0.0000   0.0000   0.0000   0.0000

          k = 0.0400 0.3464 0.0000 ( 11895 PWs)   bands (ev):

   -20.1516 -11.4765  -8.3741  -7.8892   3.1254   3.1954   4.1277   4.7850
     5.3063   5.4242   5.7087   6.7973   7.2851   8.9086   9.4588  11.4929
    12.0107  12.2741  13.6734  14.3247  15.7111  15.9226  17.1032  17.8636
    18.0660  18.5591  19.0347  19.3216  19.7198  20.1583

     occupation numbers 
     1.0000   1.0000   1.0000   1.0000   0.0000   0.0000   0.0000   0.0000
     0.0000   0.0000   0.0000   0.0000   0.0000   0.0000   0.0000   0.0000
     0.0000   0.0000   0.0000   0.0000   0.0000   0.0000   0.0000   0.0000
     0.0000   0.0000   0.0000   0.0000   0.0000   0.0000

          k = 0.0400 0.3618 0.0000 ( 11901 PWs)   bands (ev):

   -19.9631 -11.8289  -8.4876  -7.6759   2.7667   3.4561   4.3785   5.0545
     5.3882   5.5745   5.9654   7.0626   7.5501   9.1669   9.7221  11.7283
    12.3250  12.5430  13.8298  14.3822  15.7411  15.9641  16.6932  17.4526
    17.4663  18.1324  18.4678  19.1818  19.8155  19.8984

     occupation numbers 
     1.0000   1.0000   1.0000   1.0000   0.0000   0.0000   0.0000   0.0000
     0.0000   0.0000   0.0000   0.0000   0.0000   0.0000   0.0000   0.0000
     0.0000   0.0000   0.0000   0.0000   0.0000   0.0000   0.0000   0.0000
     0.0000   0.0000   0.0000   0.0000   0.0000   0.0000

          k = 0.0400 0.3772 0.0000 ( 11905 PWs)   bands (ev):

   -19.7672 -12.1799  -8.5946  -7.4565   2.4008   3.7284   4.6478   5.3125
     5.3689   5.8545   6.2419   7.3393   7.8267   9.4351   9.9965  11.9664
    12.5606  12.8146  13.9759  14.3403  15.6231  16.2002  16.3609  16.8910
    16.9965  17.7077  17.9264  18.9168  19.5202  19.7001

     occupation numbers 
     1.0000   1.0000   1.0000   1.0000   0.0000   0.0000   0.0000   0.0000
     0.0000   0.0000   0.0000   0.0000   0.0000   0.0000   0.0000   0.0000
     0.0000   0.0000   0.0000   0.0000   0.0000   0.0000   0.0000   0.0000
     0.0000   0.0000   0.0000   0.0000   0.0000   0.0000

          k = 0.0400 0.3926 0.0000 ( 11911 PWs)   bands (ev):

   -19.5639 -12.5288  -8.6948  -7.2317   2.0347   4.0111   4.9308   5.2969
     5.6357   6.1462   6.5319   7.6270   8.1149   9.7127  10.2820  12.2020
    12.6613  13.0884  14.1477  14.1858  15.5613  15.9777  16.3536  16.5265
    16.5342  17.3253  17.4264  18.5250  19.0245  19.7631

     occupation numbers 
     1.0000   1.0000   1.0000   1.0000   0.0000   0.0000   0.0000   0.0000
     0.0000   0.0000   0.0000   0.0000   0.0000   0.0000   0.0000   0.0000
     0.0000   0.0000   0.0000   0.0000   0.0000   0.0000   0.0000   0.0000
     0.0000   0.0000   0.0000   0.0000   0.0000   0.0000

          k = 0.0400 0.4080 0.0000 ( 11909 PWs)   bands (ev):

   -19.3534 -12.8749  -8.7879  -7.0026   1.6718   4.3034   5.2259   5.2583
     5.9404   6.4495   6.8342   7.9258   8.4144   9.9992  10.5785  12.4236
    12.5879  13.3746  13.9509  14.3660  15.4762  15.5625  15.9506  16.1065
    16.7810  17.0011  17.0082  18.1295  18.5625  19.7245

     occupation numbers 
     1.0000   1.0000   1.0000   1.0000   0.0000   0.0000   0.0000   0.0000
     0.0000   0.0000   0.0000   0.0000   0.0000   0.0000   0.0000   0.0000
     0.0000   0.0000   0.0000   0.0000   0.0000   0.0000   0.0000   0.0000
     0.0000   0.0000   0.0000   0.0000   0.0000   0.0000

          k = 0.0400 0.4234 0.0000 ( 11917 PWs)   bands (ev):

   -19.1358 -13.2175  -8.8737  -6.7704   1.3147   4.6027   5.2251   5.5325
     6.2577   6.7643   7.1484   8.2353   8.7253  10.2932  10.8857  12.3676
    12.6012  13.6737  13.6969  14.5834  15.0731  15.2319  15.6229  15.7906
    16.6084  16.7561  17.0976  17.7970  18.1553  19.3617

     occupation numbers 
     1.0000   1.0000   1.0000   1.0000   0.0000   0.0000   0.0000   0.0000
     0.0000   0.0000   0.0000   0.0000   0.0000   0.0000   0.0000   0.0000
     0.0000   0.0000   0.0000   0.0000   0.0000   0.0000   0.0000   0.0000
     0.0000   0.0000   0.0000   0.0000   0.0000   0.0000

          k = 0.0400 0.4388 0.0000 ( 11923 PWs)   bands (ev):

   -18.9116 -13.5560  -8.9518  -6.5367   0.9659   4.8954   5.2123   5.8502
     6.5869   7.0906   7.4743   8.5555   9.0474  10.5929  11.2032  12.0514
    12.6514  13.5245  13.9837  14.4553  14.7941  14.8249  15.3731  15.5572
    16.3141  16.5384  17.3772  17.5807  17.8237  18.9947

     occupation numbers 
     1.0000   1.0000   1.0000   1.0000   0.0000   0.0000   0.0000   0.0000
     0.0000   0.0000   0.0000   0.0000   0.0000   0.0000   0.0000   0.0000
     0.0000   0.0000   0.0000   0.0000   0.0000   0.0000   0.0000   0.0000
     0.0000   0.0000   0.0000   0.0000   0.0000   0.0000

          k = 0.0400 0.4542 0.0000 ( 11923 PWs)   bands (ev):

   -18.6811 -13.8896  -9.0222  -6.3038   0.6283   5.0701   5.3313   6.1788
     6.9279   7.4284   7.8118   8.8859   9.3807  10.8937  11.5227  11.6863
    12.4845  13.5246  13.9532  14.3012  14.3737  14.5458  15.3055  15.3575
    16.0774  16.3156  17.4742  17.4852  17.7422  18.6646

     occupation numbers 
     1.0000   1.0000   1.0000   1.0000   0.0000   0.0000   0.0000   0.0000
     0.0000   0.0000   0.0000   0.0000   0.0000   0.0000   0.0000   0.0000
     0.0000   0.0000   0.0000   0.0000   0.0000   0.0000   0.0000   0.0000
     0.0000   0.0000   0.0000   0.0000   0.0000   0.0000

          k = 0.0400 0.4696 0.0000 ( 11925 PWs)   bands (ev):

   -18.4448 -14.2175  -9.0847  -6.0745   0.3052   5.0775   5.6317   6.5179
     7.2807   7.7774   8.1608   9.2260   9.7248  11.1808  11.2653  11.8764
    12.1873  13.4367  13.5535  13.9859  14.1161  14.6400  15.0228  15.2709
    16.0234  16.0968  17.2487  17.4218  18.0139  18.4363

     occupation numbers 
     1.0000   1.0000   1.0000   1.0000   0.0000   0.0000   0.0000   0.0000
     0.0000   0.0000   0.0000   0.0000   0.0000   0.0000   0.0000   0.0000
     0.0000   0.0000   0.0000   0.0000   0.0000   0.0000   0.0000   0.0000
     0.0000   0.0000   0.0000   0.0000   0.0000   0.0000

          k = 0.0400 0.4850 0.0000 ( 11921 PWs)   bands (ev):

   -18.2036 -14.5386  -9.1391  -5.8524   0.0010   5.0595   5.9719   6.8672
     7.6452   8.1377   8.5212   9.5747  10.0792  10.8435  11.3727  11.9302
    12.2242  12.9255  13.2743  13.6586  13.8862  14.7473  14.9146  15.0251
    15.9070  16.1408  17.0106  17.2850  18.2943  18.3776

     occupation numbers 
     1.0000   1.0000   1.0000   1.0000   0.0000   0.0000   0.0000   0.0000
     0.0000   0.0000   0.0000   0.0000   0.0000   0.0000   0.0000   0.0000
     0.0000   0.0000   0.0000   0.0000   0.0000   0.0000   0.0000   0.0000
     0.0000   0.0000   0.0000   0.0000   0.0000   0.0000

          k = 0.0400 0.5004 0.0000 ( 11911 PWs)   bands (ev):

   -17.9589 -14.8512  -9.1853  -5.6426  -0.2789   5.0399   6.3279   7.2265
     8.0215   8.5090   8.8929   9.9292  10.3882  10.4688  11.2116  11.9994
    12.4231  12.5831  12.8394  13.1905  13.8108  14.5614  14.5676  15.3290
    15.7566  16.1942  16.8456  17.0823  18.4543  18.4793

     occupation numbers 
     1.0000   1.0000   1.0000   1.0000   0.0000   0.0000   0.0000   0.0000
     0.0000   0.0000   0.0000   0.0000   0.0000   0.0000   0.0000   0.0000
     0.0000   0.0000   0.0000   0.0000   0.0000   0.0000   0.0000   0.0000
     0.0000   0.0000   0.0000   0.0000   0.0000   0.0000

          k = 0.0400 0.5158 0.0000 ( 11915 PWs)   bands (ev):

   -17.7131 -15.1528  -9.2232  -5.4516  -0.5279   5.0226   6.6958   7.5950
     8.4094   8.8910   9.2754   9.9750  10.2746  10.8249  10.8671  11.9320
    12.1747  12.4637  12.7200  12.9535  13.5703  14.1420  14.5137  15.6438
    15.6679  16.0210  16.8697  16.8955  18.4029  18.5383

     occupation numbers 
     1.0000   1.0000   1.0000   1.0000   0.0000   0.0000   0.0000   0.0000
     0.0000   0.0000   0.0000   0.0000   0.0000   0.0000   0.0000   0.0000
     0.0000   0.0000   0.0000   0.0000   0.0000   0.0000   0.0000   0.0000
     0.0000   0.0000   0.0000   0.0000   0.0000   0.0000

          k = 0.0400 0.5312 0.0000 ( 11913 PWs)   bands (ev):

   -17.4714 -15.4381  -9.2528  -5.2874  -0.7373   5.0086   7.0742   7.9722
     8.8090   9.2825   9.5360   9.6771  10.3544  10.7593  11.2107  11.4518
    11.8645  12.2586  12.5660  13.2708  13.3279  13.7132  14.4719  15.5607
    15.6599  16.0513  16.7839  16.9876  18.2002  18.4501

     occupation numbers 
     1.0000   1.0000   1.0000   1.0000   0.0000   0.0000   0.0000   0.0000
     0.0000   0.0000   0.0000   0.0000   0.0000   0.0000   0.0000   0.0000
     0.0000   0.0000   0.0000   0.0000   0.0000   0.0000   0.0000   0.0000
     0.0000   0.0000   0.0000   0.0000   0.0000   0.0000

          k = 0.0400 0.5466 0.0000 ( 11909 PWs)   bands (ev):

   -17.2451 -15.6957  -9.2740  -5.1596  -0.8976   4.9983   7.4622   8.3565
     9.1122   9.2220   9.6733  10.0031  10.0771  10.9823  11.0796  11.4390
    11.6061  11.8046  12.5872  13.1455  13.2778  13.7166  14.3766  15.2928
    15.4995  16.3854  16.7677  17.0998  17.9412  18.2426

     occupation numbers 
     1.0000   1.0000   1.0000   1.0000   0.0000   0.0000   0.0000   0.0000
     0.0000   0.0000   0.0000   0.0000   0.0000   0.0000   0.0000   0.0000
     0.0000   0.0000   0.0000   0.0000   0.0000   0.0000   0.0000   0.0000
     0.0000   0.0000   0.0000   0.0000   0.0000   0.0000

          k = 0.0400 0.5620 0.0000 ( 11910 PWs)   bands (ev):

   -17.0625 -15.8969  -9.2867  -5.0778  -0.9990   4.9921   7.8573   8.6944
     8.7428   9.5770   9.6438  10.1164  10.4919  10.5255  10.9628  11.3563
    11.4835  12.0136  12.3048  12.8511  13.2850  14.1062  14.2470  14.9023
    15.4600  16.6909  16.8100  17.1812  17.6691  18.0600

     occupation numbers 
     1.0000   1.0000   1.0000   1.0000   0.0000   0.0000   0.0000   0.0000
     0.0000   0.0000   0.0000   0.0000   0.0000   0.0000   0.0000   0.0000
     0.0000   0.0000   0.0000   0.0000   0.0000   0.0000   0.0000   0.0000
     0.0000   0.0000   0.0000   0.0000   0.0000   0.0000

          k = 0.0400 0.5774 0.0000 ( 11925 PWs)   bands (ev):

   -16.9856 -15.9801  -9.2910  -5.0496  -1.0337   4.9900   8.1950   8.3488
     9.0415   9.2789  10.0762  10.0805  10.4906  10.5810  10.9064  10.9326
    11.7356  12.0575  12.4056  12.4515  13.3745  14.1763  14.4668  14.5406
    15.4463  16.8384  16.8443  17.2236  17.5110  17.9859

     occupation numbers 
     1.0000   1.0000   1.0000   1.0000   0.0000   0.0000   0.0000   0.0000
     0.0000   0.0000   0.0000   0.0000   0.0000   0.0000   0.0000   0.0000
     0.0000   0.0000   0.0000   0.0000   0.0000   0.0000   0.0000   0.0000
     0.0000   0.0000   0.0000   0.0000   0.0000   0.0000

          k = 0.0533 0.0924 0.0000 ( 11791 PWs)   bands (ev):

   -22.0851 -10.1596  -6.5191  -6.1862   0.5361   1.4052   2.0499   2.5807
     2.9674   4.0959   4.5772   5.8839   6.2556   6.5306   6.7829   8.1191
     8.9486   9.5953  10.3771  12.1732  13.0699  15.9793  17.1515  20.2677
    20.4946  21.7679  23.2100  24.5237  25.2552  26.8981

     occupation numbers 
     1.0000   1.0000   1.0000   1.0000   0.0000   0.0000   0.0000   0.0000
     0.0000   0.0000   0.0000   0.0000   0.0000   0.0000   0.0000   0.0000
     0.0000   0.0000   0.0000   0.0000   0.0000   0.0000   0.0000   0.0000
     0.0000   0.0000   0.0000   0.0000   0.0000   0.0000

          k = 0.0533 0.1078 0.0000 ( 11797 PWs)   bands (ev):

   -22.0305 -10.0940  -6.7078  -6.2989   0.6106   1.4803   2.1264   2.6568
     3.0433   4.1715   4.6519   5.9199   6.3302   6.7128   6.8594   7.9419
     9.0217   9.6707  10.4904  12.2437  13.1448  16.0434  17.2255  20.2871
    20.6416  21.8448  22.8021  24.3039  25.3178  26.9706

     occupation numbers 
     1.0000   1.0000   1.0000   1.0000   0.0000   0.0000   0.0000   0.0000
     0.0000   0.0000   0.0000   0.0000   0.0000   0.0000   0.0000   0.0000
     0.0000   0.0000   0.0000   0.0000   0.0000   0.0000   0.0000   0.0000
     0.0000   0.0000   0.0000   0.0000   0.0000   0.0000

          k = 0.0533 0.1232 0.0000 ( 11811 PWs)   bands (ev):

   -21.9674 -10.0185  -6.9197  -6.4230   0.6966   1.5669   2.2147   2.7446
     3.1310   4.2587   4.7382   5.9526   6.4163   6.9184   6.9482   7.7417
     9.1060   9.7576  10.6246  12.3248  13.2312  16.1160  17.3107  20.2890
    20.7994  21.9345  22.4154  24.0571  25.3938  26.6635

     occupation numbers 
     1.0000   1.0000   1.0000   1.0000   0.0000   0.0000   0.0000   0.0000
     0.0000   0.0000   0.0000   0.0000   0.0000   0.0000   0.0000   0.0000
     0.0000   0.0000   0.0000   0.0000   0.0000   0.0000   0.0000   0.0000
     0.0000   0.0000   0.0000   0.0000   0.0000   0.0000

          k = 0.0533 0.1386 0.0000 ( 11811 PWs)   bands (ev):

   -21.8960  -9.9330  -7.1529  -6.5562   0.7940   1.6651   2.3147   2.8441
     3.2303   4.3575   4.8358   5.9788   6.5138   7.0454   7.1510   7.5201
     9.2014   9.8560  10.7798  12.4163  13.3290  16.1965  17.4070  20.2556
    20.9620  22.0375  22.0760  23.7909  25.4712  25.9575

     occupation numbers 
     1.0000   1.0000   1.0000   1.0000   0.0000   0.0000   0.0000   0.0000
     0.0000   0.0000   0.0000   0.0000   0.0000   0.0000   0.0000   0.0000
     0.0000   0.0000   0.0000   0.0000   0.0000   0.0000   0.0000   0.0000
     0.0000   0.0000   0.0000   0.0000   0.0000   0.0000

          k = 0.0533 0.1540 0.0000 ( 11811 PWs)   bands (ev):

   -21.8163  -9.8376  -7.4057  -6.6963   0.9029   1.7747   2.4265   2.9554
     3.3412   4.4678   4.9448   5.9967   6.6223   7.1554   7.2790   7.4053
     9.3078   9.9657  10.9555  12.5180  13.4381  16.2837  17.5144  20.1621
    21.1209  21.8138  22.1538  23.5102  25.2655  25.5278

     occupation numbers 
     1.0000   1.0000   1.0000   1.0000   0.0000   0.0000   0.0000   0.0000
     0.0000   0.0000   0.0000   0.0000   0.0000   0.0000   0.0000   0.0000
     0.0000   0.0000   0.0000   0.0000   0.0000   0.0000   0.0000   0.0000
     0.0000   0.0000   0.0000   0.0000   0.0000   0.0000

          k = 0.0533 0.1694 0.0000 ( 11821 PWs)   bands (ev):

   -21.7282  -9.7325  -7.6760  -6.8415   1.0233   1.8958   2.5501   3.0783
     3.4639   4.5897   5.0650   6.0054   6.7406   7.0200   7.2774   7.6821
     9.4253  10.0868  11.1504  12.6297  13.5586  16.3760  17.6327  19.9900
    21.2643  21.6517  22.2819  23.2175  24.6007  25.4721

     occupation numbers 
     1.0000   1.0000   1.0000   1.0000   0.0000   0.0000   0.0000   0.0000
     0.0000   0.0000   0.0000   0.0000   0.0000   0.0000   0.0000   0.0000
     0.0000   0.0000   0.0000   0.0000   0.0000   0.0000   0.0000   0.0000
     0.0000   0.0000   0.0000   0.0000   0.0000   0.0000

          k = 0.0533 0.1848 0.0000 ( 11816 PWs)   bands (ev):

   -21.6319  -9.6177  -7.9618  -6.9901   1.1551   2.0284   2.6854   3.2128
     3.5982   4.7230   5.1960   6.0048   6.7315   6.8838   7.4099   7.9797
     9.5536  10.2193  11.3628  12.7511  13.6905  16.4711  17.7620  19.7466
    21.3726  21.5857  22.4172  22.9135  23.9829  25.0518

     occupation numbers 
     1.0000   1.0000   1.0000   1.0000   0.0000   0.0000   0.0000   0.0000
     0.0000   0.0000   0.0000   0.0000   0.0000   0.0000   0.0000   0.0000
     0.0000   0.0000   0.0000   0.0000   0.0000   0.0000   0.0000   0.0000
     0.0000   0.0000   0.0000   0.0000   0.0000   0.0000

          k = 0.0533 0.2001 0.0000 ( 11828 PWs)   bands (ev):

   -21.5273  -9.4933  -8.2612  -7.1406   1.2983   2.1723   2.8325   3.3590
     3.7442   4.8677   5.3372   5.9961   6.4446   7.0215   7.5538   8.2965
     9.6928  10.3632  11.5907  12.8818  13.8336  16.5653  17.9020  19.4613
    21.4091  21.5889  22.5435  22.5969  23.4566  24.4336

     occupation numbers 
     1.0000   1.0000   1.0000   1.0000   0.0000   0.0000   0.0000   0.0000
     0.0000   0.0000   0.0000   0.0000   0.0000   0.0000   0.0000   0.0000
     0.0000   0.0000   0.0000   0.0000   0.0000   0.0000   0.0000   0.0000
     0.0000   0.0000   0.0000   0.0000   0.0000   0.0000

          k = 0.0533 0.2155 0.0000 ( 11832 PWs)   bands (ev):

   -21.4145  -9.3594  -8.5723  -7.2916   1.4529   2.3275   2.9914   3.5168
     3.9018   5.0233   5.4867   5.9818   6.1397   7.1753   7.7090   8.6304
     9.8427  10.5184  11.8315  13.0214  13.9879  16.6526  18.0527  19.1653
    21.3071  21.6298  22.2661  22.6089  23.1244  23.7838

     occupation numbers 
     1.0000   1.0000   1.0000   1.0000   0.0000   0.0000   0.0000   0.0000
     0.0000   0.0000   0.0000   0.0000   0.0000   0.0000   0.0000   0.0000
     0.0000   0.0000   0.0000   0.0000   0.0000   0.0000   0.0000   0.0000
     0.0000   0.0000   0.0000   0.0000   0.0000   0.0000

          k = 0.0533 0.2309 0.0000 ( 11852 PWs)   bands (ev):

   -21.2935  -9.2162  -8.8933  -7.4421   1.6189   2.4938   3.1620   3.6862
     4.0710   5.1885   5.6386   5.8242   5.9693   7.3408   7.8756   8.9792
    10.0031  10.6850  12.0827  13.1692  14.1534  16.7236  18.2139  18.8848
    21.0090  21.6536  21.9477  22.5519  22.9876  23.1779

     occupation numbers 
     1.0000   1.0000   1.0000   1.0000   0.0000   0.0000   0.0000   0.0000
     0.0000   0.0000   0.0000   0.0000   0.0000   0.0000   0.0000   0.0000
     0.0000   0.0000   0.0000   0.0000   0.0000   0.0000   0.0000   0.0000
     0.0000   0.0000   0.0000   0.0000   0.0000   0.0000

          k = 0.0533 0.2463 0.0000 ( 11872 PWs)   bands (ev):

   -21.1644  -9.2227  -9.0637  -7.5910   1.7963   2.6712   3.3444   3.8669
     4.2518   5.3434   5.5193   5.7659   5.9871   7.5177   8.0536   9.3406
    10.1739  10.8629  12.3413  13.3242  14.3300  16.7636  18.3851  18.6432
    20.5541  21.4199  21.8514  22.2774  22.5620  22.5833

     occupation numbers 
     1.0000   1.0000   1.0000   1.0000   0.0000   0.0000   0.0000   0.0000
     0.0000   0.0000   0.0000   0.0000   0.0000   0.0000   0.0000   0.0000
     0.0000   0.0000   0.0000   0.0000   0.0000   0.0000   0.0000   0.0000
     0.0000   0.0000   0.0000   0.0000   0.0000   0.0000

          k = 0.0533 0.2617 0.0000 ( 11866 PWs)   bands (ev):

   -21.0271  -9.5587  -8.9022  -7.7373   1.9851   2.8591   3.5385   4.0585
     4.4440   5.1384   5.5783   5.8042   6.0997   7.7058   8.2431   9.7123
    10.3549  11.0522  12.6040  13.4851  14.5177  16.7537  18.4632  18.5656
    20.0247  20.9978  21.6369  21.8359  22.0461  22.2926

     occupation numbers 
     1.0000   1.0000   1.0000   1.0000   0.0000   0.0000   0.0000   0.0000
     0.0000   0.0000   0.0000   0.0000   0.0000   0.0000   0.0000   0.0000
     0.0000   0.0000   0.0000   0.0000   0.0000   0.0000   0.0000   0.0000
     0.0000   0.0000   0.0000   0.0000   0.0000   0.0000

          k = 0.0533 0.2771 0.0000 ( 11881 PWs)   bands (ev):

   -20.8818  -9.9000  -8.7319  -7.8804   2.1852   3.0568   3.7444   4.2585
     4.6476   4.8035   5.7751   5.7836   6.2794   7.9049   8.4440  10.0912
    10.5457  11.2530  12.8671  13.6498  14.7163  16.6791  18.3593  18.7523
    19.4739  20.5258  20.9711  21.3840  21.7853  21.8749

     occupation numbers 
     1.0000   1.0000   1.0000   1.0000   0.0000   0.0000   0.0000   0.0000
     0.0000   0.0000   0.0000   0.0000   0.0000   0.0000   0.0000   0.0000
     0.0000   0.0000   0.0000   0.0000   0.0000   0.0000   0.0000   0.0000
     0.0000   0.0000   0.0000   0.0000   0.0000   0.0000

          k = 0.0533 0.2925 0.0000 ( 11887 PWs)   bands (ev):

   -20.7286 -10.2455  -8.5530  -8.0194   2.3966   3.2616   3.9621   4.3922
     4.5392   4.8625   5.7462   5.9878   6.4848   8.1151   8.6563  10.4741
    10.7459  11.4652  13.1263  13.8154  14.9257  16.5416  18.3231  18.8430
    19.0278  20.0357  20.3121  20.8165  21.1861  21.6308

     occupation numbers 
     1.0000   1.0000   1.0000   1.0000   0.0000   0.0000   0.0000   0.0000
     0.0000   0.0000   0.0000   0.0000   0.0000   0.0000   0.0000   0.0000
     0.0000   0.0000   0.0000   0.0000   0.0000   0.0000   0.0000   0.0000
     0.0000   0.0000   0.0000   0.0000   0.0000   0.0000

          k = 0.0533 0.3079 0.0000 ( 11883 PWs)   bands (ev):

   -20.5673 -10.5938  -8.3659  -8.1538   2.6192   3.4618   4.1013   4.1915
     4.7207   5.0874   5.7041   6.2128   6.7061   8.3361   8.8799  10.8566
    10.9551  11.6889  13.3760  13.9768  15.1458  16.3605  18.3150  18.3534
    19.1835  19.5595  19.6644  20.2563  20.5731  21.2555

     occupation numbers 
     1.0000   1.0000   1.0000   1.0000   0.0000   0.0000   0.0000   0.0000
     0.0000   0.0000   0.0000   0.0000   0.0000   0.0000   0.0000   0.0000
     0.0000   0.0000   0.0000   0.0000   0.0000   0.0000   0.0000   0.0000
     0.0000   0.0000   0.0000   0.0000   0.0000   0.0000

          k = 0.0533 0.3233 0.0000 ( 11891 PWs)   bands (ev):

   -20.3983 -10.9439  -8.2830  -8.1707   2.8531   3.5437   3.8929   4.4326
     4.9565   5.3189   5.6644   6.4495   6.9407   8.5679   9.1150  11.1724
    11.2332  11.9242  13.6093  14.1257  15.3762  16.1606  17.8392  18.2526
    19.0251  19.1436  19.3970  19.7402  19.9679  20.8251

     occupation numbers 
     1.0000   1.0000   1.0000   1.0000   0.0000   0.0000   0.0000   0.0000
     0.0000   0.0000   0.0000   0.0000   0.0000   0.0000   0.0000   0.0000
     0.0000   0.0000   0.0000   0.0000   0.0000   0.0000   0.0000   0.0000
     0.0000   0.0000   0.0000   0.0000   0.0000   0.0000

          k = 0.0533 0.3387 0.0000 ( 11906 PWs)   bands (ev):

   -20.2214 -11.2950  -8.4065  -7.9680   3.0978   3.2799   4.0362   4.6853
     5.2065   5.5172   5.6686   6.6978   7.1877   8.8102   9.3613  11.3970
    11.5955  12.1712  13.8172  14.2477  15.6166  15.9658  17.3587  18.0231
    18.4028  18.7880  19.3477  19.3750  19.6426  20.3687

     occupation numbers 
     1.0000   1.0000   1.0000   1.0000   0.0000   0.0000   0.0000   0.0000
     0.0000   0.0000   0.0000   0.0000   0.0000   0.0000   0.0000   0.0000
     0.0000   0.0000   0.0000   0.0000   0.0000   0.0000   0.0000   0.0000
     0.0000   0.0000   0.0000   0.0000   0.0000   0.0000

          k = 0.0533 0.3541 0.0000 ( 11902 PWs)   bands (ev):

   -20.0369 -11.6460  -8.5240  -7.7581   2.9285   3.3544   4.2755   4.9496
     5.4688   5.5322   5.8681   6.9573   7.4467   9.0627   9.6189  11.6271
    11.9307  12.4297  13.9894  14.3195  15.8003  15.8661  16.9276  17.6422
    17.7946  18.3620  18.7784  19.2514  19.8521  19.9307

     occupation numbers 
     1.0000   1.0000   1.0000   1.0000   0.0000   0.0000   0.0000   0.0000
     0.0000   0.0000   0.0000   0.0000   0.0000   0.0000   0.0000   0.0000
     0.0000   0.0000   0.0000   0.0000   0.0000   0.0000   0.0000   0.0000
     0.0000   0.0000   0.0000   0.0000   0.0000   0.0000

          k = 0.0533 0.3695 0.0000 ( 11908 PWs)   bands (ev):

   -19.8448 -11.9962  -8.6350  -7.5418   2.5656   3.6214   4.5377   5.2246
     5.4949   5.7429   6.1335   7.2281   7.7174   9.3252   9.8876  11.8602
    12.2175  12.6982  14.1194  14.3120  15.6855  16.1208  16.5597  17.2056
    17.2076  17.8979  18.2235  19.1025  19.6727  19.7901

     occupation numbers 
     1.0000   1.0000   1.0000   1.0000   0.0000   0.0000   0.0000   0.0000
     0.0000   0.0000   0.0000   0.0000   0.0000   0.0000   0.0000   0.0000
     0.0000   0.0000   0.0000   0.0000   0.0000   0.0000   0.0000   0.0000
     0.0000   0.0000   0.0000   0.0000   0.0000   0.0000

          k = 0.0533 0.3849 0.0000 ( 11908 PWs)   bands (ev):

   -19.6452 -12.3447  -8.7393  -7.3196   2.2008   3.8991   4.8144   5.4390
     5.5259   6.0287   6.4164   7.5101   7.9997   9.5971  10.1675  12.0919
    12.4211  12.9747  14.2075  14.2174  15.6182  16.2053  16.4134  16.6594
    16.7635  17.4681  17.7034  18.7225  19.2977  19.7121

     occupation numbers 
     1.0000   1.0000   1.0000   1.0000   0.0000   0.0000   0.0000   0.0000
     0.0000   0.0000   0.0000   0.0000   0.0000   0.0000   0.0000   0.0000
     0.0000   0.0000   0.0000   0.0000   0.0000   0.0000   0.0000   0.0000
     0.0000   0.0000   0.0000   0.0000   0.0000   0.0000

          k = 0.0533 0.4003 0.0000 ( 11912 PWs)   bands (ev):

   -19.4384 -12.6910  -8.8365  -7.0926   1.8378   4.1871   5.1036   5.4057
     5.8176   6.3261   6.7124   7.8030   8.2935   9.8779  10.4584  12.3134
    12.4937  13.2585  14.0252  14.3130  15.5447  15.8499  16.2024  16.3349
    16.6829  17.1174  17.2421  18.2885  18.8182  19.8369

     occupation numbers 
     1.0000   1.0000   1.0000   1.0000   0.0000   0.0000   0.0000   0.0000
     0.0000   0.0000   0.0000   0.0000   0.0000   0.0000   0.0000   0.0000
     0.0000   0.0000   0.0000   0.0000   0.0000   0.0000   0.0000   0.0000
     0.0000   0.0000   0.0000   0.0000   0.0000   0.0000

          k = 0.0533 0.4157 0.0000 ( 11916 PWs)   bands (ev):

   -19.2244 -13.0343  -8.9263  -6.8618   1.4792   4.4845   5.3686   5.4044
     6.1285   6.6351   7.0205   8.1068   8.5986  10.1664  10.7601  12.4057
    12.5043  13.5517  13.8028  14.4359  15.3662  15.3693  15.8786  15.9577
    16.8274  16.8678  16.9983  17.8940  18.3868  19.5540

     occupation numbers 
     1.0000   1.0000   1.0000   1.0000   0.0000   0.0000   0.0000   0.0000
     0.0000   0.0000   0.0000   0.0000   0.0000   0.0000   0.0000   0.0000
     0.0000   0.0000   0.0000   0.0000   0.0000   0.0000   0.0000   0.0000
     0.0000   0.0000   0.0000   0.0000   0.0000   0.0000

          k = 0.0533 0.4311 0.0000 ( 11927 PWs)   bands (ev):

   -19.0037 -13.3739  -9.0087  -6.6286   1.1275   4.7877   5.3384   5.7163
     6.4517   6.9556   7.3405   8.4212   8.9151  10.4609  11.0723  12.1780
    12.6133  13.6084  13.8548  14.5223  14.8796  15.0364  15.5678  15.6600
    16.5512  16.6742  17.2664  17.6102  18.0258  19.1500

     occupation numbers 
     1.0000   1.0000   1.0000   1.0000   0.0000   0.0000   0.0000   0.0000
     0.0000   0.0000   0.0000   0.0000   0.0000   0.0000   0.0000   0.0000
     0.0000   0.0000   0.0000   0.0000   0.0000   0.0000   0.0000   0.0000
     0.0000   0.0000   0.0000   0.0000   0.0000   0.0000

          k = 0.0533 0.4465 0.0000 ( 11919 PWs)   bands (ev):

   -18.7764 -13.7092  -9.0832  -6.3950   0.7853   5.0750   5.3380   6.0391
     6.7868   7.2875   7.6722   8.7458   9.2426  10.7579  11.3932  11.8583
    12.5525  13.5348  14.1559  14.2370  14.6137  14.6347  15.3370  15.4001
    16.3000  16.4458  17.4923  17.5344  17.7641  18.7649

     occupation numbers 
     1.0000   1.0000   1.0000   1.0000   0.0000   0.0000   0.0000   0.0000
     0.0000   0.0000   0.0000   0.0000   0.0000   0.0000   0.0000   0.0000
     0.0000   0.0000   0.0000   0.0000   0.0000   0.0000   0.0000   0.0000
     0.0000   0.0000   0.0000   0.0000   0.0000   0.0000

          k = 0.0533 0.4619 0.0000 ( 11925 PWs)   bands (ev):

   -18.5430 -14.0392  -9.1499  -6.1634   0.4557   5.2017   5.5120   6.3725
     7.1337   7.6307   8.0154   9.0802   9.5812  11.0479  11.4692  11.7391
    12.3233  13.5628  13.7211  14.1880  14.3108  14.5122  15.1437  15.2544
    16.1030  16.1830  17.4620  17.4740  17.8962  18.4501

     occupation numbers 
     1.0000   1.0000   1.0000   1.0000   0.0000   0.0000   0.0000   0.0000
     0.0000   0.0000   0.0000   0.0000   0.0000   0.0000   0.0000   0.0000
     0.0000   0.0000   0.0000   0.0000   0.0000   0.0000   0.0000   0.0000
     0.0000   0.0000   0.0000   0.0000   0.0000   0.0000

          k = 0.0533 0.4773 0.0000 ( 11921 PWs)   bands (ev):

   -18.3043 -14.3632  -9.2086  -5.9370   0.1424   5.1979   5.8307   6.7161
     7.4923   7.9851   8.3700   9.4234   9.9304  11.0674  11.2940  12.0471
    12.0776  13.2089  13.4551  13.9010  13.9163  14.8206  14.8891  15.0964
    15.9488  16.0508  17.2390  17.3930  18.1868  18.3057

     occupation numbers 
     1.0000   1.0000   1.0000   1.0000   0.0000   0.0000   0.0000   0.0000
     0.0000   0.0000   0.0000   0.0000   0.0000   0.0000   0.0000   0.0000
     0.0000   0.0000   0.0000   0.0000   0.0000   0.0000   0.0000   0.0000
     0.0000   0.0000   0.0000   0.0000   0.0000   0.0000

          k = 0.0533 0.4927 0.0000 ( 11921 PWs)   bands (ev):

   -18.0613 -14.6796  -9.2591  -5.7201  -0.1497   5.1796   6.1781   7.0696
     7.8627   8.3506   8.7360   9.7735  10.2883  10.6474  11.3190  11.9505
    12.4303  12.7033  13.0770  13.4453  13.8432  14.6696  14.7475  15.1855
    15.7829  16.0938  17.0192  17.1810  18.3671  18.4596

     occupation numbers 
     1.0000   1.0000   1.0000   1.0000   0.0000   0.0000   0.0000   0.0000
     0.0000   0.0000   0.0000   0.0000   0.0000   0.0000   0.0000   0.0000
     0.0000   0.0000   0.0000   0.0000   0.0000   0.0000   0.0000   0.0000
     0.0000   0.0000   0.0000   0.0000   0.0000   0.0000

          k = 0.0533 0.5081 0.0000 ( 11917 PWs)   bands (ev):

   -17.8159 -14.9866  -9.3013  -5.5185  -0.4146   5.1614   6.5397   7.4325
     8.2448   8.7268   9.1131  10.1232  10.2109  10.6662  11.0413  12.1197
    12.2065  12.6530  12.7916  12.9826  13.6875  14.3619  14.5365  15.5165
    15.6866  16.0590  16.8860  16.9380  18.5148  18.5597

     occupation numbers 
     1.0000   1.0000   1.0000   1.0000   0.0000   0.0000   0.0000   0.0000
     0.0000   0.0000   0.0000   0.0000   0.0000   0.0000   0.0000   0.0000
     0.0000   0.0000   0.0000   0.0000   0.0000   0.0000   0.0000   0.0000
     0.0000   0.0000   0.0000   0.0000   0.0000   0.0000

          k = 0.0533 0.5235 0.0000 ( 11931 PWs)   bands (ev):

   -17.5715 -15.2804  -9.3352  -5.3394  -0.6446   5.1458   6.9125   7.8041
     8.6386   9.1130   9.4995   9.7838  10.4020  10.7520  11.0456  11.7209
    12.0787  12.4888  12.5156  13.1665  13.4258  13.9452  14.4641  15.6249
    15.7496  15.9497  16.7619  16.9002  18.4082  18.5477

     occupation numbers 
     1.0000   1.0000   1.0000   1.0000   0.0000   0.0000   0.0000   0.0000
     0.0000   0.0000   0.0000   0.0000   0.0000   0.0000   0.0000   0.0000
     0.0000   0.0000   0.0000   0.0000   0.0000   0.0000   0.0000   0.0000
     0.0000   0.0000   0.0000   0.0000   0.0000   0.0000

          k = 0.0533 0.5389 0.0000 ( 11915 PWs)   bands (ev):

   -17.3357 -15.5535  -9.3606  -5.1918  -0.8307   5.1337   7.2955   8.1831
     9.0437   9.3512   9.5058   9.9038  10.1930  10.9355  11.2459  11.4366
    11.6728  12.0582  12.6078  13.1940  13.4976  13.5670  14.3906  15.4777
    15.5503  16.2276  16.7119  16.9876  18.1687  18.3352

     occupation numbers 
     1.0000   1.0000   1.0000   1.0000   0.0000   0.0000   0.0000   0.0000
     0.0000   0.0000   0.0000   0.0000   0.0000   0.0000   0.0000   0.0000
     0.0000   0.0000   0.0000   0.0000   0.0000   0.0000   0.0000   0.0000
     0.0000   0.0000   0.0000   0.0000   0.0000   0.0000

          k = 0.0533 0.5543 0.0000 ( 11910 PWs)   bands (ev):

   -17.1261 -15.7878  -9.3776  -5.0855  -0.9627   5.1255   7.6870   8.5664
     8.9285   9.4617   9.7564   9.9670  10.3133  10.7828  11.1605  11.3651
    11.6061  11.8388  12.4626  13.0886  13.2099  13.9350  14.2988  15.1100
    15.4622  16.5247  16.7722  17.0926  17.8906  18.0862

     occupation numbers 
     1.0000   1.0000   1.0000   1.0000   0.0000   0.0000   0.0000   0.0000
     0.0000   0.0000   0.0000   0.0000   0.0000   0.0000   0.0000   0.0000
     0.0000   0.0000   0.0000   0.0000   0.0000   0.0000   0.0000   0.0000
     0.0000   0.0000   0.0000   0.0000   0.0000   0.0000

          k = 0.0533 0.5697 0.0000 ( 11903 PWs)   bands (ev):

   -16.9871 -15.9393  -9.3861  -5.0296  -1.0315   5.1213   8.0803   8.5196
     8.9357   9.4151   9.8904  10.3307  10.3466  10.7341  10.7794  11.1662
    11.6534  12.1673  12.2464  12.6664  13.3220  14.2196  14.3232  14.7251
    15.4030  16.7214  16.8543  17.2121  17.6377  17.9174

     occupation numbers 
     1.0000   1.0000   1.0000   1.0000   0.0000   0.0000   0.0000   0.0000
     0.0000   0.0000   0.0000   0.0000   0.0000   0.0000   0.0000   0.0000
     0.0000   0.0000   0.0000   0.0000   0.0000   0.0000   0.0000   0.0000
     0.0000   0.0000   0.0000   0.0000   0.0000   0.0000

          k = 0.0667 0.1155 0.0000 ( 11813 PWs)   bands (ev):

   -21.9716 -10.0235  -6.8999  -6.4214   0.6909   1.5612   2.2088   2.7388
     3.1251   4.2529   4.7325   5.9686   6.4106   6.8853   6.9416   7.7552
     9.1003   9.7519  10.6187  12.3193  13.2254  16.1111  17.3050  20.2871
    20.7894  21.9285  22.4175  24.1183  25.3836  26.8951

     occupation numbers 
     1.0000   1.0000   1.0000   1.0000   0.0000   0.0000   0.0000   0.0000
     0.0000   0.0000   0.0000   0.0000   0.0000   0.0000   0.0000   0.0000
     0.0000   0.0000   0.0000   0.0000   0.0000   0.0000   0.0000   0.0000
     0.0000   0.0000   0.0000   0.0000   0.0000   0.0000

          k = 0.0667 0.1309 0.0000 ( 11817 PWs)   bands (ev):

   -21.9044  -9.9430  -7.1133  -6.5551   0.7826   1.6535   2.3029   2.8324
     3.2186   4.3459   4.8245   6.0150   6.5024   7.0347   7.0780   7.5466
     9.1900   9.8445  10.7696  12.4053  13.3175  16.1866  17.3957  20.2528
    20.9443  22.0254  22.0759  23.9000  25.4637  26.2812

     occupation numbers 
     1.0000   1.0000   1.0000   1.0000   0.0000   0.0000   0.0000   0.0000
     0.0000   0.0000   0.0000   0.0000   0.0000   0.0000   0.0000   0.0000
     0.0000   0.0000   0.0000   0.0000   0.0000   0.0000   0.0000   0.0000
     0.0000   0.0000   0.0000   0.0000   0.0000   0.0000

          k = 0.0667 0.1463 0.0000 ( 11815 PWs)   bands (ev):

   -21.8289  -9.8527  -7.3468  -6.6974   0.8858   1.7574   2.4089   2.9378
     3.3237   4.4504   4.9280   6.0550   6.6055   7.1391   7.2922   7.3177
     9.2907   9.9486  10.9430  12.5016  13.4209  16.2689  17.4974  20.1595
    21.0992  21.8091  22.1355  23.6549  25.5450  25.6088

     occupation numbers 
     1.0000   1.0000   1.0000   1.0000   0.0000   0.0000   0.0000   0.0000
     0.0000   0.0000   0.0000   0.0000   0.0000   0.0000   0.0000   0.0000
     0.0000   0.0000   0.0000   0.0000   0.0000   0.0000   0.0000   0.0000
     0.0000   0.0000   0.0000   0.0000   0.0000   0.0000

          k = 0.0667 0.1617 0.0000 ( 11821 PWs)   bands (ev):

   -21.7450  -9.7525  -7.5989  -6.8458   1.0004   1.8728   2.5265   3.0549
     3.4406   4.5665   5.0428   6.0853   6.7194   7.0696   7.2554   7.5288
     9.4025  10.0640  11.1377  12.6078  13.5357  16.3565  17.6102  19.9878
    21.2444  21.6416  22.2582  23.3872  24.9384  25.5929

     occupation numbers 
     1.0000   1.0000   1.0000   1.0000   0.0000   0.0000   0.0000   0.0000
     0.0000   0.0000   0.0000   0.0000   0.0000   0.0000   0.0000   0.0000
     0.0000   0.0000   0.0000   0.0000   0.0000   0.0000   0.0000   0.0000
     0.0000   0.0000   0.0000   0.0000   0.0000   0.0000

          k = 0.0667 0.1771 0.0000 ( 11827 PWs)   bands (ev):

   -21.6528  -9.6426  -7.8679  -6.9983   1.1265   1.9996   2.6560   3.1836
     3.5691   4.6942   5.1687   6.1045   6.7924   6.8572   7.3821   7.7878
     9.5251  10.1909  11.3523  12.7238  13.6618  16.4470  17.7339  19.7435
    21.3654  21.5720  22.3906  23.0988  24.2965  25.4038

     occupation numbers 
     1.0000   1.0000   1.0000   1.0000   0.0000   0.0000   0.0000   0.0000
     0.0000   0.0000   0.0000   0.0000   0.0000   0.0000   0.0000   0.0000
     0.0000   0.0000   0.0000   0.0000   0.0000   0.0000   0.0000   0.0000
     0.0000   0.0000   0.0000   0.0000   0.0000   0.0000

          k = 0.0667 0.1925 0.0000 ( 11832 PWs)   bands (ev):

   -21.5524  -9.5231  -8.1522  -7.1530   1.2640   2.1378   2.7972   3.3240
     3.7092   4.8332   5.3055   6.1126   6.5197   6.9858   7.5201   8.0681
     9.6586  10.3291  11.5847  12.8491  13.7992  16.5366  17.8684  19.4561
    21.4369  21.5749  22.5238  22.7896  23.7143  24.8285

     occupation numbers 
     1.0000   1.0000   1.0000   1.0000   0.0000   0.0000   0.0000   0.0000
     0.0000   0.0000   0.0000   0.0000   0.0000   0.0000   0.0000   0.0000
     0.0000   0.0000   0.0000   0.0000   0.0000   0.0000   0.0000   0.0000
     0.0000   0.0000   0.0000   0.0000   0.0000   0.0000

          k = 0.0667 0.2078 0.0000 ( 11843 PWs)   bands (ev):

   -21.4438  -9.3940  -8.4497  -7.3085   1.4129   2.2874   2.9502   3.4760
     3.8610   4.9835   5.4524   6.1106   6.2247   7.1340   7.6694   8.3681
     9.8028  10.4786  11.8323  12.9832  13.9478  16.6197  18.0137  19.1577
    21.4100  21.6219  22.4582  22.6274  23.2619  24.1728

     occupation numbers 
     1.0000   1.0000   1.0000   1.0000   0.0000   0.0000   0.0000   0.0000
     0.0000   0.0000   0.0000   0.0000   0.0000   0.0000   0.0000   0.0000
     0.0000   0.0000   0.0000   0.0000   0.0000   0.0000   0.0000   0.0000
     0.0000   0.0000   0.0000   0.0000   0.0000   0.0000

          k = 0.0667 0.2232 0.0000 ( 11858 PWs)   bands (ev):

   -21.3269  -9.2555  -8.7589  -7.4635   1.5732   2.4482   3.1149   3.6396
     4.0245   5.1443   5.6075   5.9171   6.1020   7.2938   7.8302   8.6859
     9.9575  10.6396  12.0924  13.1254  14.1076  16.6868  18.1695  18.8753
    21.2126  21.6814  22.1113  22.6135  23.0730  23.4760

     occupation numbers 
     1.0000   1.0000   1.0000   1.0000   0.0000   0.0000   0.0000   0.0000
     0.0000   0.0000   0.0000   0.0000   0.0000   0.0000   0.0000   0.0000
     0.0000   0.0000   0.0000   0.0000   0.0000   0.0000   0.0000   0.0000
     0.0000   0.0000   0.0000   0.0000   0.0000   0.0000

          k = 0.0667 0.2386 0.0000 ( 11874 PWs)   bands (ev):

   -21.2019  -9.1079  -9.0778  -7.6169   1.7450   2.6201   3.2914   3.8147
     4.1995   5.3103   5.6041   5.7653   6.0938   7.4649   8.0023   9.0190
    10.1225  10.8118  12.3620  13.2749  14.2786  16.7238  18.3355  18.6330
    20.8274  21.5908  21.8906  22.4855  22.7738  22.9436

     occupation numbers 
     1.0000   1.0000   1.0000   1.0000   0.0000   0.0000   0.0000   0.0000
     0.0000   0.0000   0.0000   0.0000   0.0000   0.0000   0.0000   0.0000
     0.0000   0.0000   0.0000   0.0000   0.0000   0.0000   0.0000   0.0000
     0.0000   0.0000   0.0000   0.0000   0.0000   0.0000

          k = 0.0667 0.2540 0.0000 ( 11876 PWs)   bands (ev):

   -21.0687  -9.4051  -8.9509  -7.7678   1.9281   2.8028   3.4797   4.0009
     4.3861   5.2479   5.5224   5.8950   6.1174   7.6472   8.1859   9.3651
    10.2977  10.9955  12.6378  13.4302  14.4607  16.7127  18.4541  18.5113
    20.3275  21.1942  21.9292  22.0040  22.3467  22.4508

     occupation numbers 
     1.0000   1.0000   1.0000   1.0000   0.0000   0.0000   0.0000   0.0000
     0.0000   0.0000   0.0000   0.0000   0.0000   0.0000   0.0000   0.0000
     0.0000   0.0000   0.0000   0.0000   0.0000   0.0000   0.0000   0.0000
     0.0000   0.0000   0.0000   0.0000   0.0000   0.0000

          k = 0.0667 0.2694 0.0000 ( 11880 PWs)   bands (ev):

   -20.9275  -9.7390  -8.7851  -7.9153   2.1225   2.9958   3.6797   4.1974
     4.5842   4.9207   5.7103   5.9340   6.2376   7.8406   8.3810   9.7212
    10.4828  11.1905  12.9162  13.5894  14.6538  16.6397  18.3539  18.6953
    19.7827  20.7251  21.3427  21.7151  22.0138  22.0845

     occupation numbers 
     1.0000   1.0000   1.0000   1.0000   0.0000   0.0000   0.0000   0.0000
     0.0000   0.0000   0.0000   0.0000   0.0000   0.0000   0.0000   0.0000
     0.0000   0.0000   0.0000   0.0000   0.0000   0.0000   0.0000   0.0000
     0.0000   0.0000   0.0000   0.0000   0.0000   0.0000

          k = 0.0667 0.2848 0.0000 ( 11878 PWs)   bands (ev):

   -20.7783 -10.0782  -8.6106  -8.0587   2.3283   3.1977   3.8915   4.3905
     4.5957   4.7938   5.9144   5.9172   6.4237   8.0450   8.5875  10.0843
    10.6772  11.3968  13.1929  13.7494  14.8577  16.5078  18.3272  18.8761
    19.2397  20.2317  20.6797  21.1317  21.5240  21.9137

     occupation numbers 
     1.0000   1.0000   1.0000   1.0000   0.0000   0.0000   0.0000   0.0000
     0.0000   0.0000   0.0000   0.0000   0.0000   0.0000   0.0000   0.0000
     0.0000   0.0000   0.0000   0.0000   0.0000   0.0000   0.0000   0.0000
     0.0000   0.0000   0.0000   0.0000   0.0000   0.0000

          k = 0.0667 0.3002 0.0000 ( 11891 PWs)   bands (ev):

   -20.6211 -10.4213  -8.4276  -8.1975   2.5453   3.4028   4.1150   4.2207
     4.6463   5.0143   5.8789   6.1362   6.6350   8.2602   8.8053  10.4508
    10.8805  11.6146  13.4625  13.9054  15.0724  16.3366  18.3428  18.6478
    19.1219  19.7427  20.0260  20.5450  20.9161  21.5697

     occupation numbers 
     1.0000   1.0000   1.0000   1.0000   0.0000   0.0000   0.0000   0.0000
     0.0000   0.0000   0.0000   0.0000   0.0000   0.0000   0.0000   0.0000
     0.0000   0.0000   0.0000   0.0000   0.0000   0.0000   0.0000   0.0000
     0.0000   0.0000   0.0000   0.0000   0.0000   0.0000

          k = 0.0667 0.3156 0.0000 ( 11899 PWs)   bands (ev):

   -20.4560 -10.7673  -8.3311  -8.2365   2.7736   3.5681   3.9308   4.3503
     4.8743   5.2448   5.8384   6.3671   6.8621   8.4862   9.0346  10.8161
    11.0920  11.8437  13.7181  14.0495  15.2975  16.1512  18.1269  18.3354
    19.3049  19.3161  19.3916  19.9782  20.3057  21.1186

     occupation numbers 
     1.0000   1.0000   1.0000   1.0000   0.0000   0.0000   0.0000   0.0000
     0.0000   0.0000   0.0000   0.0000   0.0000   0.0000   0.0000   0.0000
     0.0000   0.0000   0.0000   0.0000   0.0000   0.0000   0.0000   0.0000
     0.0000   0.0000   0.0000   0.0000   0.0000   0.0000

          k = 0.0667 0.3310 0.0000 ( 11899 PWs)   bands (ev):

   -20.2831 -11.1150  -8.4591  -8.0377   3.0130   3.4176   3.9598   4.5973
     5.1182   5.4811   5.8011   6.6095   7.1024   8.7226   9.2752  11.1742
    11.3106  12.0841  13.9498  14.1692  15.5329  15.9754  17.6299  18.1797
    18.7519  18.9826  19.4896  19.5247  19.7224  20.6336

     occupation numbers 
     1.0000   1.0000   1.0000   1.0000   0.0000   0.0000   0.0000   0.0000
     0.0000   0.0000   0.0000   0.0000   0.0000   0.0000   0.0000   0.0000
     0.0000   0.0000   0.0000   0.0000   0.0000   0.0000   0.0000   0.0000
     0.0000   0.0000   0.0000   0.0000   0.0000   0.0000

          k = 0.0667 0.3464 0.0000 ( 11910 PWs)   bands (ev):

   -20.1025 -11.4635  -8.5809  -7.8314   3.0801   3.2641   4.1834   4.8559
     5.3745   5.6703   5.8216   6.8633   7.3552   8.9692   9.5270  11.5167
    11.5347  12.3358  14.1441  14.2453  15.7778  15.8313  17.1778  17.8300
    18.1362  18.6213  19.1011  19.2731  19.7802  20.1445

     occupation numbers 
     1.0000   1.0000   1.0000   1.0000   0.0000   0.0000   0.0000   0.0000
     0.0000   0.0000   0.0000   0.0000   0.0000   0.0000   0.0000   0.0000
     0.0000   0.0000   0.0000   0.0000   0.0000   0.0000   0.0000   0.0000
     0.0000   0.0000   0.0000   0.0000   0.0000   0.0000

          k = 0.0667 0.3618 0.0000 ( 11912 PWs)   bands (ev):

   -19.9143 -11.8118  -8.6963  -7.6184   2.7221   3.5255   4.4382   5.1261
     5.6428   5.6724   6.0411   7.1282   7.6198   9.2258   9.7901  11.7619
    11.8305  12.5984  14.2546  14.2852  15.7349  16.0311  16.7881  17.4025
    17.5374  18.1375  18.5357  19.2391  19.7306  19.9543

     occupation numbers 
     1.0000   1.0000   1.0000   1.0000   0.0000   0.0000   0.0000   0.0000
     0.0000   0.0000   0.0000   0.0000   0.0000   0.0000   0.0000   0.0000
     0.0000   0.0000   0.0000   0.0000   0.0000   0.0000   0.0000   0.0000
     0.0000   0.0000   0.0000   0.0000   0.0000   0.0000

          k = 0.0667 0.3772 0.0000 ( 11922 PWs)   bands (ev):

   -19.7186 -12.1592  -8.8049  -7.3992   2.3598   3.7980   4.7087   5.4065
     5.6356   5.9227   6.3137   7.4043   7.8962   9.4918  10.0643  11.9881
    12.0941  12.8709  14.1874  14.3584  15.6807  16.2814  16.4754  16.9669
    16.9709  17.6558  17.9983  18.9522  19.5817  19.6594

     occupation numbers 
     1.0000   1.0000   1.0000   1.0000   0.0000   0.0000   0.0000   0.0000
     0.0000   0.0000   0.0000   0.0000   0.0000   0.0000   0.0000   0.0000
     0.0000   0.0000   0.0000   0.0000   0.0000   0.0000   0.0000   0.0000
     0.0000   0.0000   0.0000   0.0000   0.0000   0.0000

          k = 0.0667 0.3926 0.0000 ( 11922 PWs)   bands (ev):

   -19.5155 -12.5049  -8.9064  -7.1745   1.9978   4.0812   4.9920   5.5843
     5.7103   6.2143   6.6027   7.6914   8.1841   9.7665  10.3496  12.2057
    12.2736  13.1522  14.0512  14.3775  15.6219  16.1284  16.4600  16.5598
    16.5936  17.2410  17.5106  18.4986  19.0900  19.7984

     occupation numbers 
     1.0000   1.0000   1.0000   1.0000   0.0000   0.0000   0.0000   0.0000
     0.0000   0.0000   0.0000   0.0000   0.0000   0.0000   0.0000   0.0000
     0.0000   0.0000   0.0000   0.0000   0.0000   0.0000   0.0000   0.0000
     0.0000   0.0000   0.0000   0.0000   0.0000   0.0000

          k = 0.0667 0.4080 0.0000 ( 11918 PWs)   bands (ev):

   -19.3052 -12.8482  -9.0006  -6.9455   1.6391   4.3746   5.2869   5.5489
     6.0115   6.5174   6.9045   7.9892   8.4835  10.0491  10.6457  12.3257
    12.3994  13.4414  13.8739  14.3875  15.4792  15.6761  16.1360  16.1755
    16.8515  16.9544  17.1132  18.0515  18.6366  19.7823

     occupation numbers 
     1.0000   1.0000   1.0000   1.0000   0.0000   0.0000   0.0000   0.0000
     0.0000   0.0000   0.0000   0.0000   0.0000   0.0000   0.0000   0.0000
     0.0000   0.0000   0.0000   0.0000   0.0000   0.0000   0.0000   0.0000
     0.0000   0.0000   0.0000   0.0000   0.0000   0.0000

          k = 0.0667 0.4234 0.0000 ( 11938 PWs)   bands (ev):

   -19.0880 -13.1883  -9.0872  -6.7133   1.2858   4.6771   5.5134   5.5930
     6.3284   6.8320   7.2185   8.2977   8.7942  10.3377  10.9524  12.2250
    12.5354  13.6986  13.7383  14.4216  15.1589  15.2071  15.8181  15.8234
    16.7865  16.7910  17.1602  17.6815  18.2486  19.3589

     occupation numbers 
     1.0000   1.0000   1.0000   1.0000   0.0000   0.0000   0.0000   0.0000
     0.0000   0.0000   0.0000   0.0000   0.0000   0.0000   0.0000   0.0000
     0.0000   0.0000   0.0000   0.0000   0.0000   0.0000   0.0000   0.0000
     0.0000   0.0000   0.0000   0.0000   0.0000   0.0000

          k = 0.0667 0.4388 0.0000 ( 11934 PWs)   bands (ev):

   -18.8641 -13.5246  -9.1662  -6.4797   0.9404   4.9845   5.4860   5.9099
     6.6575   7.1580   7.5442   8.6164   9.1160  10.6293  11.2689  11.9912
    12.5518  13.5891  14.0399  14.3933  14.6987  14.8357  15.4897  15.5035
    16.5420  16.6049  17.4465  17.4887  17.9479  18.9354

     occupation numbers 
     1.0000   1.0000   1.0000   1.0000   0.0000   0.0000   0.0000   0.0000
     0.0000   0.0000   0.0000   0.0000   0.0000   0.0000   0.0000   0.0000
     0.0000   0.0000   0.0000   0.0000   0.0000   0.0000   0.0000   0.0000
     0.0000   0.0000   0.0000   0.0000   0.0000   0.0000

          k = 0.0667 0.4542 0.0000 ( 11932 PWs)   bands (ev):

   -18.6339 -13.8562  -9.2372  -6.2466   0.6058   5.2660   5.4983   6.2374
     6.9985   7.4953   7.8816   8.9448   9.4490  10.9169  11.5738  11.6890
    12.4108  13.5738  13.9999  14.3345  14.4234  14.4887  15.2358  15.2487
    16.2967  16.3215  17.4821  17.6499  17.8090  18.5500

     occupation numbers 
     1.0000   1.0000   1.0000   1.0000   0.0000   0.0000   0.0000   0.0000
     0.0000   0.0000   0.0000   0.0000   0.0000   0.0000   0.0000   0.0000
     0.0000   0.0000   0.0000   0.0000   0.0000   0.0000   0.0000   0.0000
     0.0000   0.0000   0.0000   0.0000   0.0000   0.0000

          k = 0.0667 0.4696 0.0000 ( 11932 PWs)   bands (ev):

   -18.3980 -14.1823  -9.3002  -6.0170   0.2852   5.3603   5.7118   6.5752
     7.3512   7.8438   8.2304   9.2821   9.7927  11.1791  11.2805  11.9428
    12.1748  13.4998  13.5447  14.0541  14.1142  14.6953  15.0070  15.1214
    16.0268  16.0971  17.4710  17.4882  18.0747  18.2873

     occupation numbers 
     1.0000   1.0000   1.0000   1.0000   0.0000   0.0000   0.0000   0.0000
     0.0000   0.0000   0.0000   0.0000   0.0000   0.0000   0.0000   0.0000
     0.0000   0.0000   0.0000   0.0000   0.0000   0.0000   0.0000   0.0000
     0.0000   0.0000   0.0000   0.0000   0.0000   0.0000

          k = 0.0667 0.4850 0.0000 ( 11926 PWs)   bands (ev):

   -18.1572 -14.5018  -9.3551  -5.7945  -0.0170   5.3521   6.0419   6.9227
     7.7157   8.2033   8.5907   9.6267  10.1466  10.8761  11.3261  11.9888
    12.2894  12.9926  13.2921  13.6949  13.8704  14.8026  14.8575  15.0763
    15.8067  16.0182  17.2416  17.3201  18.2767  18.3725

     occupation numbers 
     1.0000   1.0000   1.0000   1.0000   0.0000   0.0000   0.0000   0.0000
     0.0000   0.0000   0.0000   0.0000   0.0000   0.0000   0.0000   0.0000
     0.0000   0.0000   0.0000   0.0000   0.0000   0.0000   0.0000   0.0000
     0.0000   0.0000   0.0000   0.0000   0.0000   0.0000

          k = 0.0667 0.5004 0.0000 ( 11920 PWs)   bands (ev):

   -17.9129 -14.8131  -9.4016  -5.5841  -0.2955   5.3345   6.3954   7.2797
     8.0920   8.5737   8.9621   9.9740  10.4346  10.5328  11.1822  12.0518
    12.4915  12.6470  12.8896  13.2423  13.7501  14.5581  14.6230  15.3770
    15.6992  16.0080  17.0216  17.0402  18.4389  18.6314

     occupation numbers 
     1.0000   1.0000   1.0000   1.0000   0.0000   0.0000   0.0000   0.0000
     0.0000   0.0000   0.0000   0.0000   0.0000   0.0000   0.0000   0.0000
     0.0000   0.0000   0.0000   0.0000   0.0000   0.0000   0.0000   0.0000
     0.0000   0.0000   0.0000   0.0000   0.0000   0.0000

          k = 0.0667 0.5158 0.0000 ( 11914 PWs)   bands (ev):

   -17.6677 -15.1133  -9.4398  -5.3923  -0.5435   5.3178   6.7621   7.6453
     8.4799   8.9541   9.3443  10.0250  10.3000  10.8867  10.8923  12.0013
    12.1812  12.5326  12.7779  13.0167  13.5549  14.1713  14.4837  15.6685
    15.6720  15.9543  16.7871  16.8955  18.6003  18.6136

     occupation numbers 
     1.0000   1.0000   1.0000   1.0000   0.0000   0.0000   0.0000   0.0000
     0.0000   0.0000   0.0000   0.0000   0.0000   0.0000   0.0000   0.0000
     0.0000   0.0000   0.0000   0.0000   0.0000   0.0000   0.0000   0.0000
     0.0000   0.0000   0.0000   0.0000   0.0000   0.0000

          k = 0.0667 0.5312 0.0000 ( 11911 PWs)   bands (ev):

   -17.4266 -15.3975  -9.4696  -5.2272  -0.7526   5.3041   7.1396   8.0184
     8.8794   9.3429   9.5907   9.7458  10.3490  10.8271  11.2767  11.5215
    11.9081  12.3211  12.5569  13.3202  13.3874  13.7592  14.3846  15.6143
    15.6298  16.0977  16.6625  16.9000  18.4002  18.4759

     occupation numbers 
     1.0000   1.0000   1.0000   1.0000   0.0000   0.0000   0.0000   0.0000
     0.0000   0.0000   0.0000   0.0000   0.0000   0.0000   0.0000   0.0000
     0.0000   0.0000   0.0000   0.0000   0.0000   0.0000   0.0000   0.0000
     0.0000   0.0000   0.0000   0.0000   0.0000   0.0000

          k = 0.0667 0.5466 0.0000 ( 11917 PWs)   bands (ev):

   -17.2009 -15.6539  -9.4910  -5.0986  -0.9128   5.2940   7.5265   8.3967
     9.1702   9.2923   9.7219  10.0361  10.1455  11.0523  11.1200  11.5022
    11.6707  11.8697  12.5555  13.2004  13.3302  13.7749  14.3134  15.3018
    15.5178  16.3750  16.7043  16.9906  18.1258  18.1889

     occupation numbers 
     1.0000   1.0000   1.0000   1.0000   0.0000   0.0000   0.0000   0.0000
     0.0000   0.0000   0.0000   0.0000   0.0000   0.0000   0.0000   0.0000
     0.0000   0.0000   0.0000   0.0000   0.0000   0.0000   0.0000   0.0000
     0.0000   0.0000   0.0000   0.0000   0.0000   0.0000

          k = 0.0667 0.5620 0.0000 ( 11918 PWs)   bands (ev):

   -17.0190 -15.8543  -9.5038  -5.0161  -1.0143   5.2878   7.9203   8.7548
     8.7722   9.6109   9.7141  10.1814  10.5597  10.5957  11.0148  11.4225
    11.5202  12.0771  12.3269  12.9094  13.2568  14.1586  14.2648  14.9371
    15.3954  16.5802  16.8326  17.1428  17.8377  17.9346

     occupation numbers 
     1.0000   1.0000   1.0000   1.0000   0.0000   0.0000   0.0000   0.0000
     0.0000   0.0000   0.0000   0.0000   0.0000   0.0000   0.0000   0.0000
     0.0000   0.0000   0.0000   0.0000   0.0000   0.0000   0.0000   0.0000
     0.0000   0.0000   0.0000   0.0000   0.0000   0.0000

          k = 0.0667 0.5774 0.0000 ( 11913 PWs)   bands (ev):

   -16.9424 -15.9371  -9.5080  -4.9877  -1.0491   5.2857   8.2552   8.4125
     9.0397   9.3485  10.1463  10.1509  10.5399  10.6514  10.9727  11.0008
    11.7317  12.1276  12.4638  12.5161  13.3015  14.2459  14.5001  14.5999
    15.3438  16.6512  16.9072  17.2713  17.6625  17.8223

     occupation numbers 
     1.0000   1.0000   1.0000   1.0000   0.0000   0.0000   0.0000   0.0000
     0.0000   0.0000   0.0000   0.0000   0.0000   0.0000   0.0000   0.0000
     0.0000   0.0000   0.0000   0.0000   0.0000   0.0000   0.0000   0.0000
     0.0000   0.0000   0.0000   0.0000   0.0000   0.0000

          k = 0.0800 0.1386 0.0000 ( 11807 PWs)   bands (ev):

   -21.8331  -9.8577  -7.3262  -6.6988   0.8800   1.7517   2.4030   2.9320
     3.3179   4.4446   4.9224   6.0781   6.5999   7.1342   7.2501   7.3307
     9.2850   9.9429  10.9390  12.4961  13.4151  16.2640  17.4918  20.1583
    21.0917  21.8070  22.1294  23.7073  25.5482  25.8183

     occupation numbers 
     1.0000   1.0000   1.0000   1.0000   0.0000   0.0000   0.0000   0.0000
     0.0000   0.0000   0.0000   0.0000   0.0000   0.0000   0.0000   0.0000
     0.0000   0.0000   0.0000   0.0000   0.0000   0.0000   0.0000   0.0000
     0.0000   0.0000   0.0000   0.0000   0.0000   0.0000

          k = 0.0800 0.1540 0.0000 ( 11817 PWs)   bands (ev):

   -21.7534  -9.7625  -7.5575  -6.8508   0.9889   1.8613   2.5148   3.0432
     3.4289   4.5550   5.0316   6.1358   6.7086   7.0948   7.2452   7.4403
     9.3911  10.0527  11.1321  12.5969  13.5242  16.3467  17.5989  19.9851
    21.2336  21.6356  22.2462  23.4816  25.2331  25.6327

     occupation numbers 
     1.0000   1.0000   1.0000   1.0000   0.0000   0.0000   0.0000   0.0000
     0.0000   0.0000   0.0000   0.0000   0.0000   0.0000   0.0000   0.0000
     0.0000   0.0000   0.0000   0.0000   0.0000   0.0000   0.0000   0.0000
     0.0000   0.0000   0.0000   0.0000   0.0000   0.0000

          k = 0.0800 0.1694 0.0000 ( 11821 PWs)   bands (ev):

   -21.6654  -9.6576  -7.8063  -7.0084   1.1093   1.9824   2.6383   3.1661
     3.5516   4.6768   5.1523   6.1834   6.8213   6.8492   7.3662   7.6515
     9.5080  10.1738  11.3475  12.7073  13.6445  16.4322  17.7171  19.7385
    21.3588  21.5625  22.3741  23.2257  24.6028  25.5766

     occupation numbers 
     1.0000   1.0000   1.0000   1.0000   0.0000   0.0000   0.0000   0.0000
     0.0000   0.0000   0.0000   0.0000   0.0000   0.0000   0.0000   0.0000
     0.0000   0.0000   0.0000   0.0000   0.0000   0.0000   0.0000   0.0000
     0.0000   0.0000   0.0000   0.0000   0.0000   0.0000

          k = 0.0800 0.1848 0.0000 ( 11840 PWs)   bands (ev):

   -21.5692  -9.5429  -8.0716  -7.1692   1.2411   2.1148   2.7737   3.3006
     3.6859   4.8102   5.2840   6.2180   6.5710   6.9614   7.4985   7.8856
     9.6357  10.3064  11.5830  12.8271  13.7762  16.5170  17.8460  19.4475
    21.4495  21.5638  22.5077  22.9407  23.9923  25.2130

     occupation numbers 
     1.0000   1.0000   1.0000   1.0000   0.0000   0.0000   0.0000   0.0000
     0.0000   0.0000   0.0000   0.0000   0.0000   0.0000   0.0000   0.0000
     0.0000   0.0000   0.0000   0.0000   0.0000   0.0000   0.0000   0.0000
     0.0000   0.0000   0.0000   0.0000   0.0000   0.0000

          k = 0.0800 0.2001 0.0000 ( 11847 PWs)   bands (ev):

   -21.4647  -9.4187  -8.3518  -7.3312   1.3843   2.2587   2.9208   3.4468
     3.8320   4.9549   5.4267   6.2386   6.2870   7.1041   7.6419   8.1425
     9.7741  10.4502  11.8361  12.9556  13.9191  16.5951  17.9858  19.1451
    21.4728  21.6126  22.6232  22.6339  23.4564  24.5706

     occupation numbers 
     1.0000   1.0000   1.0000   1.0000   0.0000   0.0000   0.0000   0.0000
     0.0000   0.0000   0.0000   0.0000   0.0000   0.0000   0.0000   0.0000
     0.0000   0.0000   0.0000   0.0000   0.0000   0.0000   0.0000   0.0000
     0.0000   0.0000   0.0000   0.0000   0.0000   0.0000

          k = 0.0800 0.2155 0.0000 ( 11855 PWs)   bands (ev):

   -21.3519  -9.2851  -8.6454  -7.4927   1.5390   2.4139   3.0796   3.6046
     3.9896   5.1107   5.5794   5.9890   6.2474   7.2583   7.7967   8.4211
     9.9231  10.6055  12.1037  13.0923  14.0733  16.6573  18.1361  18.8591
    21.3680  21.6856  22.2824  22.6772  23.1137  23.8593

     occupation numbers 
     1.0000   1.0000   1.0000   1.0000   0.0000   0.0000   0.0000   0.0000
     0.0000   0.0000   0.0000   0.0000   0.0000   0.0000   0.0000   0.0000
     0.0000   0.0000   0.0000   0.0000   0.0000   0.0000   0.0000   0.0000
     0.0000   0.0000   0.0000   0.0000   0.0000   0.0000

          k = 0.0800 0.2309 0.0000 ( 11870 PWs)   bands (ev):

   -21.2310  -9.1421  -8.9507  -7.6525   1.7050   2.5803   3.2503   3.7740
     4.1589   5.2756   5.6808   5.7417   6.2463   7.4236   7.9629   8.7194
    10.0823  10.7721  12.3828  13.2361  14.2386  16.6893  18.2968  18.6146
    21.0756  21.7165  21.9594  22.5574  23.0551  23.2009

     occupation numbers 
     1.0000   1.0000   1.0000   1.0000   0.0000   0.0000   0.0000   0.0000
     0.0000   0.0000   0.0000   0.0000   0.0000   0.0000   0.0000   0.0000
     0.0000   0.0000   0.0000   0.0000   0.0000   0.0000   0.0000   0.0000
     0.0000   0.0000   0.0000   0.0000   0.0000   0.0000

          k = 0.0800 0.2463 0.0000 ( 11886 PWs)   bands (ev):

   -21.1020  -9.2660  -8.9898  -7.8095   1.8825   2.7577   3.4327   3.9548
     4.3398   5.3351   5.4809   5.9046   6.2436   7.6001   8.1405   9.0348
    10.2517  10.9500  12.6700  13.3856  14.4151  16.6735  18.4356  18.4676
    20.6253  21.4012  21.9472  22.3267  22.5607  22.6989

     occupation numbers 
     1.0000   1.0000   1.0000   1.0000   0.0000   0.0000   0.0000   0.0000
     0.0000   0.0000   0.0000   0.0000   0.0000   0.0000   0.0000   0.0000
     0.0000   0.0000   0.0000   0.0000   0.0000   0.0000   0.0000   0.0000
     0.0000   0.0000   0.0000   0.0000   0.0000   0.0000

          k = 0.0800 0.2617 0.0000 ( 11886 PWs)   bands (ev):

   -20.9649  -9.5896  -8.8286  -7.9630   2.0712   2.9457   3.6268   4.1464
     4.5322   5.0216   5.6566   6.0430   6.2690   7.7877   8.3296   9.3643
    10.4308  11.1392  12.9615  13.5388  14.6025  16.5973  18.3382  18.6474
    20.0976  20.9426  21.7218  21.9963  22.1283  22.2926

     occupation numbers 
     1.0000   1.0000   1.0000   1.0000   0.0000   0.0000   0.0000   0.0000
     0.0000   0.0000   0.0000   0.0000   0.0000   0.0000   0.0000   0.0000
     0.0000   0.0000   0.0000   0.0000   0.0000   0.0000   0.0000   0.0000
     0.0000   0.0000   0.0000   0.0000   0.0000   0.0000

          k = 0.0800 0.2771 0.0000 ( 11890 PWs)   bands (ev):

   -20.8197  -9.9201  -8.6586  -8.1122   2.2713   3.1436   3.8327   4.3450
     4.6917   4.7367   5.8575   6.0906   6.3900   7.9862   8.5302   9.7048
    10.6193  11.3398  13.2533  13.6925  14.8009  16.4649  18.3187  18.8329
    19.5475  20.4494  21.0581  21.4699  21.8479  22.0856

     occupation numbers 
     1.0000   1.0000   1.0000   1.0000   0.0000   0.0000   0.0000   0.0000
     0.0000   0.0000   0.0000   0.0000   0.0000   0.0000   0.0000   0.0000
     0.0000   0.0000   0.0000   0.0000   0.0000   0.0000   0.0000   0.0000
     0.0000   0.0000   0.0000   0.0000   0.0000   0.0000

          k = 0.0800 0.2925 0.0000 ( 11900 PWs)   bands (ev):

   -20.6666 -10.2559  -8.4800  -8.2565   2.4828   3.3483   4.0504   4.3292
     4.5851   4.9516   6.0709   6.0754   6.5804   8.1956   8.7422  10.0529
    10.8167  11.5517  13.5401  13.8421  15.0101  16.2972  18.3519  18.9159
    19.1084  19.9486  20.3996  20.8693  21.2642  21.8655

     occupation numbers 
     1.0000   1.0000   1.0000   1.0000   0.0000   0.0000   0.0000   0.0000
     0.0000   0.0000   0.0000   0.0000   0.0000   0.0000   0.0000   0.0000
     0.0000   0.0000   0.0000   0.0000   0.0000   0.0000   0.0000   0.0000
     0.0000   0.0000   0.0000   0.0000   0.0000   0.0000

          k = 0.0800 0.3079 0.0000 ( 11901 PWs)   bands (ev):

   -20.5056 -10.5958  -8.3954  -8.2931   2.7054   3.5434   4.0144   4.2798
     4.8035   5.1779   6.0423   6.2961   6.7971   8.4156   8.9657  10.4045
    11.0220  11.7749  13.8153  13.9798  15.2299  16.1202  18.3899  18.4267
    19.2633  19.4769  19.7519  20.2769  20.6548  21.4215

     occupation numbers 
     1.0000   1.0000   1.0000   1.0000   0.0000   0.0000   0.0000   0.0000
     0.0000   0.0000   0.0000   0.0000   0.0000   0.0000   0.0000   0.0000
     0.0000   0.0000   0.0000   0.0000   0.0000   0.0000   0.0000   0.0000
     0.0000   0.0000   0.0000   0.0000   0.0000   0.0000

          k = 0.0800 0.3233 0.0000 ( 11901 PWs)   bands (ev):

   -20.3367 -10.9386  -8.5284  -8.0982   2.9393   3.5336   3.9032   4.5209
     5.0413   5.4143   6.0039   6.5327   7.0298   8.6460   9.2005  10.7550
    11.2343  12.0093  14.0687  14.0944  15.4600  15.9584  17.9158  18.3243
    19.1125  19.1196  19.4749  19.7154  20.0510  20.9247

     occupation numbers 
     1.0000   1.0000   1.0000   1.0000   0.0000   0.0000   0.0000   0.0000
     0.0000   0.0000   0.0000   0.0000   0.0000   0.0000   0.0000   0.0000
     0.0000   0.0000   0.0000   0.0000   0.0000   0.0000   0.0000   0.0000
     0.0000   0.0000   0.0000   0.0000   0.0000   0.0000

          k = 0.0800 0.3387 0.0000 ( 11907 PWs)   bands (ev):

   -20.1600 -11.2832  -8.6552  -7.8958   3.1828   3.2223   4.1022   4.7738
     5.2918   5.6561   5.9686   6.7805   7.2758   8.8867   9.4466  11.0979
    11.4520  12.2549  14.1671  14.2884  15.7001  15.8334  17.4434  18.0292
    18.4903  18.8710  19.3157  19.4291  19.7202  20.4131

     occupation numbers 
     1.0000   1.0000   1.0000   1.0000   0.0000   0.0000   0.0000   0.0000
     0.0000   0.0000   0.0000   0.0000   0.0000   0.0000   0.0000   0.0000
     0.0000   0.0000   0.0000   0.0000   0.0000   0.0000   0.0000   0.0000
     0.0000   0.0000   0.0000   0.0000   0.0000   0.0000

          k = 0.0800 0.3541 0.0000 ( 11908 PWs)   bands (ev):

   -19.9757 -11.6285  -8.7755  -7.6862   2.8684   3.4408   4.3494   5.0383
     5.5542   5.8448   5.9969   7.0396   7.5341   9.1372   9.7039  11.4243
    11.6726  12.5115  14.1836  14.4510  15.7597  15.9495  17.0303  17.6049
    17.8826  18.4181  18.8617  19.2791  19.9186  19.9246

     occupation numbers 
     1.0000   1.0000   1.0000   1.0000   0.0000   0.0000   0.0000   0.0000
     0.0000   0.0000   0.0000   0.0000   0.0000   0.0000   0.0000   0.0000
     0.0000   0.0000   0.0000   0.0000   0.0000   0.0000   0.0000   0.0000
     0.0000   0.0000   0.0000   0.0000   0.0000   0.0000

          k = 0.0800 0.3695 0.0000 ( 11918 PWs)   bands (ev):

   -19.7839 -11.9736  -8.8889  -7.4701   2.5097   3.7079   4.6138   5.3143
     5.8283   5.8439   6.2269   7.3098   7.8044   9.3971   9.9724  11.7207
    11.8920  12.7787  14.1360  14.5329  15.7312  16.2061  16.6945  17.1658
    17.2971  17.9021  18.3097  19.1838  19.6350  19.8622

     occupation numbers 
     1.0000   1.0000   1.0000   1.0000   0.0000   0.0000   0.0000   0.0000
     0.0000   0.0000   0.0000   0.0000   0.0000   0.0000   0.0000   0.0000
     0.0000   0.0000   0.0000   0.0000   0.0000   0.0000   0.0000   0.0000
     0.0000   0.0000   0.0000   0.0000   0.0000   0.0000

          k = 0.0800 0.3849 0.0000 ( 11916 PWs)   bands (ev):

   -19.5846 -12.3178  -8.9951  -7.2482   2.1502   3.9860   4.8911   5.6004
     5.8083   6.1140   6.5058   7.5909   8.0864   9.6656  10.2520  11.9656
    12.1034  13.0558  14.0342  14.5231  15.7034  16.3773  16.4974  16.7600
    16.7694  17.4206  17.7985  18.7497  19.3754  19.7405

     occupation numbers 
     1.0000   1.0000   1.0000   1.0000   0.0000   0.0000   0.0000   0.0000
     0.0000   0.0000   0.0000   0.0000   0.0000   0.0000   0.0000   0.0000
     0.0000   0.0000   0.0000   0.0000   0.0000   0.0000   0.0000   0.0000
     0.0000   0.0000   0.0000   0.0000   0.0000   0.0000

          k = 0.0800 0.4003 0.0000 ( 11918 PWs)   bands (ev):

   -19.3781 -12.6602  -9.0940  -7.0213   1.7925   4.2746   5.1801   5.7595
     5.9090   6.4112   6.8007   7.8828   8.3799   9.9418  10.5424  12.1257
    12.2940  13.3416  13.9005  14.4523  15.5939  15.9926  16.3911  16.4014
    16.7636  17.0489  17.3635  18.2696  18.9029  19.9164

     occupation numbers 
     1.0000   1.0000   1.0000   1.0000   0.0000   0.0000   0.0000   0.0000
     0.0000   0.0000   0.0000   0.0000   0.0000   0.0000   0.0000   0.0000
     0.0000   0.0000   0.0000   0.0000   0.0000   0.0000   0.0000   0.0000
     0.0000   0.0000   0.0000   0.0000   0.0000   0.0000

          k = 0.0800 0.4157 0.0000 ( 11930 PWs)   bands (ev):

   -19.1645 -13.0000  -9.1853  -6.7906   1.4390   4.5735   5.4803   5.7245
     6.2172   6.7198   7.1083   8.1852   8.6848  10.2239  10.8436  12.1607
    12.4393  13.6344  13.7641  14.3851  15.3532  15.4751  16.0367  16.0952
    16.8653  16.9946  17.0920  17.8283  18.4879  19.6021

     occupation numbers 
     1.0000   1.0000   1.0000   1.0000   0.0000   0.0000   0.0000   0.0000
     0.0000   0.0000   0.0000   0.0000   0.0000   0.0000   0.0000   0.0000
     0.0000   0.0000   0.0000   0.0000   0.0000   0.0000   0.0000   0.0000
     0.0000   0.0000   0.0000   0.0000   0.0000   0.0000

          k = 0.0800 0.4311 0.0000 ( 11934 PWs)   bands (ev):

   -18.9441 -13.3366  -9.2688  -6.5575   1.0919   4.8812   5.6906   5.7914
     6.5401   7.0399   7.4280   8.4978   9.0009  10.5091  11.1548  12.0488
    12.4987  13.6624  13.9301  14.3546  14.9531  15.0234  15.6611  15.7371
    16.7550  16.7883  17.3462  17.5191  18.1600  19.1556

     occupation numbers 
     1.0000   1.0000   1.0000   1.0000   0.0000   0.0000   0.0000   0.0000
     0.0000   0.0000   0.0000   0.0000   0.0000   0.0000   0.0000   0.0000
     0.0000   0.0000   0.0000   0.0000   0.0000   0.0000   0.0000   0.0000
     0.0000   0.0000   0.0000   0.0000   0.0000   0.0000

          k = 0.0800 0.4465 0.0000 ( 11942 PWs)   bands (ev):

   -18.7172 -13.6691  -9.3443  -6.3238   0.7538   5.1933   5.6655   6.1129
     6.8751   7.3713   7.7595   8.8201   9.3282  10.7914  11.4721  11.8130
    12.4355  13.6192  14.1615  14.2959  14.5357  14.6499  15.3349  15.3797
    16.5056  16.5369  17.4602  17.6384  17.9264  18.7263

     occupation numbers 
     1.0000   1.0000   1.0000   1.0000   0.0000   0.0000   0.0000   0.0000
     0.0000   0.0000   0.0000   0.0000   0.0000   0.0000   0.0000   0.0000
     0.0000   0.0000   0.0000   0.0000   0.0000   0.0000   0.0000   0.0000
     0.0000   0.0000   0.0000   0.0000   0.0000   0.0000

          k = 0.0800 0.4619 0.0000 ( 11926 PWs)   bands (ev):

   -18.4843 -13.9968  -9.4118  -6.0919   0.4277   5.4717   5.6879   6.4446
     7.2219   7.7138   8.1025   9.1512   9.6664  11.0560  11.4680  11.8224
    12.2678  13.5903  13.7891  14.2503  14.2697  14.5931  15.0928  15.1330
    16.1674  16.2666  17.5302  17.6996  17.9678  18.3620

     occupation numbers 
     1.0000   1.0000   1.0000   1.0000   0.0000   0.0000   0.0000   0.0000
     0.0000   0.0000   0.0000   0.0000   0.0000   0.0000   0.0000   0.0000
     0.0000   0.0000   0.0000   0.0000   0.0000   0.0000   0.0000   0.0000
     0.0000   0.0000   0.0000   0.0000   0.0000   0.0000

          k = 0.0800 0.4773 0.0000 ( 11928 PWs)   bands (ev):

   -18.2461 -14.3185  -9.4712  -5.8650   0.1174   5.5481   5.9262   6.7861
     7.5805   8.0674   8.4569   9.4897  10.0150  11.0957  11.2544  12.0810
    12.1598  13.2899  13.4474  13.9201  13.9678  14.8372  14.9205  15.0332
    15.8694  16.0506  17.4728  17.4820  18.2149  18.2690

     occupation numbers 
     1.0000   1.0000   1.0000   1.0000   0.0000   0.0000   0.0000   0.0000
     0.0000   0.0000   0.0000   0.0000   0.0000   0.0000   0.0000   0.0000
     0.0000   0.0000   0.0000   0.0000   0.0000   0.0000   0.0000   0.0000
     0.0000   0.0000   0.0000   0.0000   0.0000   0.0000

          k = 0.0800 0.4927 0.0000 ( 11928 PWs)   bands (ev):

   -18.0036 -14.6331  -9.5222  -5.6475  -0.1726   5.5385   6.2644   7.1368
     7.9509   8.4317   8.8227   9.8320  10.3714  10.6949  11.2528  12.0365
    12.5107  12.7880  13.1184  13.4990  13.7924  14.7001  14.7566  15.2587
    15.7019  15.9524  17.1969  17.2308  18.3446  18.5717

     occupation numbers 
     1.0000   1.0000   1.0000   1.0000   0.0000   0.0000   0.0000   0.0000
     0.0000   0.0000   0.0000   0.0000   0.0000   0.0000   0.0000   0.0000
     0.0000   0.0000   0.0000   0.0000   0.0000   0.0000   0.0000   0.0000
     0.0000   0.0000   0.0000   0.0000   0.0000   0.0000

          k = 0.0800 0.5081 0.0000 ( 11918 PWs)   bands (ev):

   -17.7588 -14.9383  -9.5648  -5.4450  -0.4360   5.5222   6.6234   7.4962
     8.3329   8.8062   9.1995  10.1653  10.2682  10.7503  11.0312  12.1549
    12.2925  12.7317  12.8688  13.0526  13.6350  14.3763  14.5673  15.5472
    15.6815  15.9305  16.8838  17.0031  18.5619  18.7894

     occupation numbers 
     1.0000   1.0000   1.0000   1.0000   0.0000   0.0000   0.0000   0.0000
     0.0000   0.0000   0.0000   0.0000   0.0000   0.0000   0.0000   0.0000
     0.0000   0.0000   0.0000   0.0000   0.0000   0.0000   0.0000   0.0000
     0.0000   0.0000   0.0000   0.0000   0.0000   0.0000

          k = 0.0800 0.5235 0.0000 ( 11916 PWs)   bands (ev):

   -17.5151 -15.2306  -9.5990  -5.2648  -0.6652   5.5073   6.9948   7.8629
     8.7266   9.1896   9.5850   9.8494  10.3923  10.8250  11.1286  11.8077
    12.1053  12.5312  12.5906  13.2429  13.4485  13.9908  14.4012  15.6550
    15.7007  16.0147  16.6599  16.8806  18.6262  18.6335

     occupation numbers 
     1.0000   1.0000   1.0000   1.0000   0.0000   0.0000   0.0000   0.0000
     0.0000   0.0000   0.0000   0.0000   0.0000   0.0000   0.0000   0.0000
     0.0000   0.0000   0.0000   0.0000   0.0000   0.0000   0.0000   0.0000
     0.0000   0.0000   0.0000   0.0000   0.0000   0.0000

          k = 0.0800 0.5389 0.0000 ( 11916 PWs)   bands (ev):

   -17.2800 -15.5022  -9.6247  -5.1161  -0.8510   5.4954   7.3765   8.2351
     9.1317   9.4213   9.5755   9.9896  10.2054  11.0039  11.3331  11.5183
    11.7381  12.1376  12.5646  13.2808  13.5535  13.6453  14.3039  15.4541
    15.6197  16.2537  16.6316  16.9021  18.3472  18.3698

     occupation numbers 
     1.0000   1.0000   1.0000   1.0000   0.0000   0.0000   0.0000   0.0000
     0.0000   0.0000   0.0000   0.0000   0.0000   0.0000   0.0000   0.0000
     0.0000   0.0000   0.0000   0.0000   0.0000   0.0000   0.0000   0.0000
     0.0000   0.0000   0.0000   0.0000   0.0000   0.0000

          k = 0.0800 0.5543 0.0000 ( 11915 PWs)   bands (ev):

   -17.0714 -15.7353  -9.6419  -5.0088  -0.9830   5.4873   7.7666   8.6073
     9.0024   9.5497   9.7791  10.0548  10.3985  10.8703  11.1995  11.4452
    11.6875  11.9193  12.4517  13.1574  13.2326  14.0037  14.2777  15.1357
    15.4508  16.4500  16.7695  17.0481  18.0363  18.0699

     occupation numbers 
     1.0000   1.0000   1.0000   1.0000   0.0000   0.0000   0.0000   0.0000
     0.0000   0.0000   0.0000   0.0000   0.0000   0.0000   0.0000   0.0000
     0.0000   0.0000   0.0000   0.0000   0.0000   0.0000   0.0000   0.0000
     0.0000   0.0000   0.0000   0.0000   0.0000   0.0000

          k = 0.0800 0.5697 0.0000 ( 11910 PWs)   bands (ev):

   -16.9330 -15.8859  -9.6505  -4.9523  -1.0520   5.4832   8.1578   8.5968
     8.9500   9.4786   9.9782  10.4184  10.4212  10.8185  10.8523  11.2496
    11.6674  12.2297  12.3238  12.7413  13.2549  14.2901  14.3806  14.7784
    15.3194  16.5439  16.9265  17.2542  17.7957  17.8127

     occupation numbers 
     1.0000   1.0000   1.0000   1.0000   0.0000   0.0000   0.0000   0.0000
     0.0000   0.0000   0.0000   0.0000   0.0000   0.0000   0.0000   0.0000
     0.0000   0.0000   0.0000   0.0000   0.0000   0.0000   0.0000   0.0000
     0.0000   0.0000   0.0000   0.0000   0.0000   0.0000

          k = 0.0933 0.1617 0.0000 ( 11833 PWs)   bands (ev):

   -21.6696  -9.6626  -7.7847  -7.0129   1.1036   1.9766   2.6325   3.1602
     3.5458   4.6711   5.1468   6.2143   6.8231   6.8545   7.3614   7.6009
     9.5023  10.1681  11.3461  12.7018  13.6388  16.4273  17.7114  19.7363
    21.3563  21.5591  22.3685  23.2711  24.7765  25.3932

     occupation numbers 
     1.0000   1.0000   1.0000   1.0000   0.0000   0.0000   0.0000   0.0000
     0.0000   0.0000   0.0000   0.0000   0.0000   0.0000   0.0000   0.0000
     0.0000   0.0000   0.0000   0.0000   0.0000   0.0000   0.0000   0.0000
     0.0000   0.0000   0.0000   0.0000   0.0000   0.0000

          k = 0.0933 0.1771 0.0000 ( 11834 PWs)   bands (ev):

   -21.5775  -9.5529  -8.0281  -7.1805   1.2297   2.1034   2.7619   3.2889
     3.6743   4.7987   5.2732   6.2837   6.5972   6.9489   7.4886   7.7799
     9.6243  10.2950  11.5829  12.8161  13.7647  16.5070  17.8348  19.4417
    21.4541  21.5578  22.4989  23.0244  24.2267  25.0116

     occupation numbers 
     1.0000   1.0000   1.0000   1.0000   0.0000   0.0000   0.0000   0.0000
     0.0000   0.0000   0.0000   0.0000   0.0000   0.0000   0.0000   0.0000
     0.0000   0.0000   0.0000   0.0000   0.0000   0.0000   0.0000   0.0000
     0.0000   0.0000   0.0000   0.0000   0.0000   0.0000

          k = 0.0933 0.1925 0.0000 ( 11855 PWs)   bands (ev):

   -21.4772  -9.4336  -8.2873  -7.3507   1.3672   2.2415   2.9031   3.4293
     3.8145   4.9378   5.4109   6.3231   6.3406   7.0860   7.6266   7.9820
     9.7569  10.4332  11.8395  12.9390  13.9019  16.5800  17.9690  19.1348
    21.5053  21.6058  22.6291  22.7419  23.6636  24.6999

     occupation numbers 
     1.0000   1.0000   1.0000   1.0000   0.0000   0.0000   0.0000   0.0000
     0.0000   0.0000   0.0000   0.0000   0.0000   0.0000   0.0000   0.0000
     0.0000   0.0000   0.0000   0.0000   0.0000   0.0000   0.0000   0.0000
     0.0000   0.0000   0.0000   0.0000   0.0000   0.0000

          k = 0.0933 0.2078 0.0000 ( 11859 PWs)   bands (ev):

   -21.3686  -9.3048  -8.5611  -7.5210   1.5162   2.3911   3.0561   3.5813
     3.9664   5.0882   5.5594   6.0380   6.3784   7.2344   7.7755   8.2095
     9.9000  10.5827  12.1130  13.0700  14.0504  16.6366  18.1139  18.8441
    21.4688  21.6832  22.4225  22.7268  23.1893  24.2394

     occupation numbers 
     1.0000   1.0000   1.0000   1.0000   0.0000   0.0000   0.0000   0.0000
     0.0000   0.0000   0.0000   0.0000   0.0000   0.0000   0.0000   0.0000
     0.0000   0.0000   0.0000   0.0000   0.0000   0.0000   0.0000   0.0000
     0.0000   0.0000   0.0000   0.0000   0.0000   0.0000

          k = 0.0933 0.2232 0.0000 ( 11867 PWs)   bands (ev):

   -21.2519  -9.1666  -8.8485  -7.6897   1.6765   2.5519   3.2209   3.7449
     4.1299   5.2491   5.7162   5.7420   6.4015   7.3939   7.9356   8.4620
    10.0535  10.7436  12.4000  13.2080  14.2100  16.6627  18.2692  18.5960
    21.2788  21.7637  22.0782  22.6248  23.0338  23.5500

     occupation numbers 
     1.0000   1.0000   1.0000   1.0000   0.0000   0.0000   0.0000   0.0000
     0.0000   0.0000   0.0000   0.0000   0.0000   0.0000   0.0000   0.0000
     0.0000   0.0000   0.0000   0.0000   0.0000   0.0000   0.0000   0.0000
     0.0000   0.0000   0.0000   0.0000   0.0000   0.0000

          k = 0.0933 0.2386 0.0000 ( 11880 PWs)   bands (ev):

   -21.1270  -9.1479  -9.0191  -7.8554   1.8483   2.7238   3.3974   3.9201
     4.3050   5.3884   5.4637   5.8860   6.4115   7.5646   8.1071   8.7376
    10.2169  10.9158  12.6967  13.3516  14.3808  16.6405  18.4153  18.4347
    20.9061  21.5982  21.9458  22.4145  22.8586  23.0572

     occupation numbers 
     1.0000   1.0000   1.0000   1.0000   0.0000   0.0000   0.0000   0.0000
     0.0000   0.0000   0.0000   0.0000   0.0000   0.0000   0.0000   0.0000
     0.0000   0.0000   0.0000   0.0000   0.0000   0.0000   0.0000   0.0000
     0.0000   0.0000   0.0000   0.0000   0.0000   0.0000

          k = 0.0933 0.2540 0.0000 ( 11884 PWs)   bands (ev):

   -20.9940  -9.4576  -8.8625  -8.0170   2.0314   2.9066   3.5856   4.1064
     4.4918   5.1035   5.6141   6.0570   6.4160   7.7463   8.2901   9.0333
    10.3901  11.0993  12.9996  13.4986  14.5626  16.5582  18.3186  18.6097
    20.4124  21.1641  22.0355  22.0844  22.3422  22.4495

     occupation numbers 
     1.0000   1.0000   1.0000   1.0000   0.0000   0.0000   0.0000   0.0000
     0.0000   0.0000   0.0000   0.0000   0.0000   0.0000   0.0000   0.0000
     0.0000   0.0000   0.0000   0.0000   0.0000   0.0000   0.0000   0.0000
     0.0000   0.0000   0.0000   0.0000   0.0000   0.0000

          k = 0.0933 0.2694 0.0000 ( 11894 PWs)   bands (ev):

   -20.8529  -9.7761  -8.6971  -8.1739   2.2258   3.0998   3.7857   4.3026
     4.6899   4.7791   5.8095   6.2079   6.4413   7.9389   8.4847   9.3456
    10.5726  11.2942  13.3045  13.6458  14.7555  16.4214  18.3034  18.7926
    19.8697  20.6808  21.4454  21.8142  22.0709  22.1480

     occupation numbers 
     1.0000   1.0000   1.0000   1.0000   0.0000   0.0000   0.0000   0.0000
     0.0000   0.0000   0.0000   0.0000   0.0000   0.0000   0.0000   0.0000
     0.0000   0.0000   0.0000   0.0000   0.0000   0.0000   0.0000   0.0000
     0.0000   0.0000   0.0000   0.0000   0.0000   0.0000

          k = 0.0933 0.2848 0.0000 ( 11906 PWs)   bands (ev):

   -20.7039 -10.1018  -8.5229  -8.3254   2.4316   3.3019   3.9975   4.4165
     4.5419   4.8999   6.0172   6.2715   6.5569   8.1423   8.6907   9.6708
    10.7638  11.5003  13.6064  13.7884  14.9591  16.2524  18.3476  18.9705
    19.3290  20.1774  20.7842  21.2122  21.6000  22.0881

     occupation numbers 
     1.0000   1.0000   1.0000   1.0000   0.0000   0.0000   0.0000   0.0000
     0.0000   0.0000   0.0000   0.0000   0.0000   0.0000   0.0000   0.0000
     0.0000   0.0000   0.0000   0.0000   0.0000   0.0000   0.0000   0.0000
     0.0000   0.0000   0.0000   0.0000   0.0000   0.0000

          k = 0.0933 0.3002 0.0000 ( 11910 PWs)   bands (ev):

   -20.5469 -10.4331  -8.4710  -8.3403   2.6486   3.5055   4.1058   4.2210
     4.7440   5.1211   6.2365   6.2635   6.7496   8.3564   8.9082  10.0049
    10.9629  11.7176  13.8984  13.9193  15.1735  16.0785  18.4160  18.7339
    19.2187  19.6815  20.1309  20.6083  21.0100  21.7097

     occupation numbers 
     1.0000   1.0000   1.0000   1.0000   0.0000   0.0000   0.0000   0.0000
     0.0000   0.0000   0.0000   0.0000   0.0000   0.0000   0.0000   0.0000
     0.0000   0.0000   0.0000   0.0000   0.0000   0.0000   0.0000   0.0000
     0.0000   0.0000   0.0000   0.0000   0.0000   0.0000

          k = 0.0933 0.3156 0.0000 ( 11914 PWs)   bands (ev):

   -20.3820 -10.7688  -8.6104  -8.1496   2.8769   3.6140   3.8781   4.4563
     4.9760   5.3533   6.2342   6.4673   6.9711   8.5808   9.1372  10.3435
    11.1687  11.9462  14.0243  14.1743  15.3983  15.9250  18.2153  18.4346
    19.2570  19.4108  19.4961  20.0169  20.4037  21.2203

     occupation numbers 
     1.0000   1.0000   1.0000   1.0000   0.0000   0.0000   0.0000   0.0000
     0.0000   0.0000   0.0000   0.0000   0.0000   0.0000   0.0000   0.0000
     0.0000   0.0000   0.0000   0.0000   0.0000   0.0000   0.0000   0.0000
     0.0000   0.0000   0.0000   0.0000   0.0000   0.0000

          k = 0.0933 0.3310 0.0000 ( 11917 PWs)   bands (ev):

   -20.2094 -11.1076  -8.7433  -7.9511   3.1162   3.3475   4.0316   4.7033
     5.2206   5.5956   6.1984   6.7093   7.2091   8.8154   9.3775  10.6812
    11.3796  12.1859  14.0918  14.4176  15.6332  15.8141  17.7240  18.2356
    18.8567  19.0324  19.4795  19.6152  19.8227  20.7040

     occupation numbers 
     1.0000   1.0000   1.0000   1.0000   0.0000   0.0000   0.0000   0.0000
     0.0000   0.0000   0.0000   0.0000   0.0000   0.0000   0.0000   0.0000
     0.0000   0.0000   0.0000   0.0000   0.0000   0.0000   0.0000   0.0000
     0.0000   0.0000   0.0000   0.0000   0.0000   0.0000

          k = 0.0933 0.3464 0.0000 ( 11909 PWs)   bands (ev):

   -20.0290 -11.4482  -8.8692  -7.7452   3.0025   3.3674   4.2711   4.9621
     5.4772   5.8438   6.1648   6.9624   7.4607   9.0597   9.6290  11.0113
    11.5930  12.4366  14.1071  14.6083  15.7602  15.8778  17.2863  17.8279
    18.2412  18.7182  19.1995  19.2777  19.8689  20.1834

     occupation numbers 
     1.0000   1.0000   1.0000   1.0000   0.0000   0.0000   0.0000   0.0000
     0.0000   0.0000   0.0000   0.0000   0.0000   0.0000   0.0000   0.0000
     0.0000   0.0000   0.0000   0.0000   0.0000   0.0000   0.0000   0.0000
     0.0000   0.0000   0.0000   0.0000   0.0000   0.0000

          k = 0.0933 0.3618 0.0000 ( 11907 PWs)   bands (ev):

   -19.8411 -11.7897  -8.9881  -7.5324   2.6487   3.6290   4.5295   5.2325
     5.7454   6.0420   6.1913   7.2266   7.7246   9.3133   9.8918  11.3246
    11.8049  12.6982  14.0680  14.7157  15.7584  16.1314  16.9266  17.3742
    17.6438  18.1945  18.6362  19.3293  19.7212  20.0325

     occupation numbers 
     1.0000   1.0000   1.0000   1.0000   0.0000   0.0000   0.0000   0.0000
     0.0000   0.0000   0.0000   0.0000   0.0000   0.0000   0.0000   0.0000
     0.0000   0.0000   0.0000   0.0000   0.0000   0.0000   0.0000   0.0000
     0.0000   0.0000   0.0000   0.0000   0.0000   0.0000

          k = 0.0933 0.3772 0.0000 ( 11916 PWs)   bands (ev):

   -19.6457 -12.1311  -9.0997  -7.3135   2.2928   3.9017   4.8009   5.5144
     6.0252   6.0449   6.4250   7.5018   8.0005   9.5753  10.1656  11.6069
    12.0085  12.9702  13.9874  14.7113  15.7713  16.3908  16.6491  16.9483
    17.0830  17.6692  18.1045  19.0253  19.6693  19.6828

     occupation numbers 
     1.0000   1.0000   1.0000   1.0000   0.0000   0.0000   0.0000   0.0000
     0.0000   0.0000   0.0000   0.0000   0.0000   0.0000   0.0000   0.0000
     0.0000   0.0000   0.0000   0.0000   0.0000   0.0000   0.0000   0.0000
     0.0000   0.0000   0.0000   0.0000   0.0000   0.0000

          k = 0.0933 0.3926 0.0000 ( 11916 PWs)   bands (ev):

   -19.4429 -12.4716  -9.2037  -7.0891   1.9375   4.1852   5.0841   5.8063
     6.0109   6.3165   6.7097   7.7876   8.2880   9.8448  10.4503  11.8363
    12.1925  13.2518  13.8870  14.6036  15.7151  16.3067  16.5974  16.6280
    16.7010  17.2058  17.6361  18.5322  19.1840  19.8668

     occupation numbers 
     1.0000   1.0000   1.0000   1.0000   0.0000   0.0000   0.0000   0.0000
     0.0000   0.0000   0.0000   0.0000   0.0000   0.0000   0.0000   0.0000
     0.0000   0.0000   0.0000   0.0000   0.0000   0.0000   0.0000   0.0000
     0.0000   0.0000   0.0000   0.0000   0.0000   0.0000

          k = 0.0933 0.4080 0.0000 ( 11918 PWs)   bands (ev):

   -19.2331 -12.8102  -9.2999  -6.8603   1.5852   4.4793   5.3784   5.9641
     6.1204   6.6192   7.0103   8.0839   8.5870  10.1200  10.7458  11.9801
    12.3376  13.5415  13.7911  14.4532  15.5063  15.8064  16.2791  16.3693
    16.9247  16.9536  17.2845  18.0476  18.7431  19.8624

     occupation numbers 
     1.0000   1.0000   1.0000   1.0000   0.0000   0.0000   0.0000   0.0000
     0.0000   0.0000   0.0000   0.0000   0.0000   0.0000   0.0000   0.0000
     0.0000   0.0000   0.0000   0.0000   0.0000   0.0000   0.0000   0.0000
     0.0000   0.0000   0.0000   0.0000   0.0000   0.0000

          k = 0.0933 0.4234 0.0000 ( 11938 PWs)   bands (ev):

   -19.0162 -13.1462  -9.3884  -6.6282   1.2379   4.7836   5.6835   5.9304
     6.4347   6.9333   7.3237   8.3902   8.8974  10.3981  11.0514  12.0006
    12.4163  13.7224  13.8347  14.3331  15.1903  15.2707  15.8859  16.0200
    16.8524  17.0308  17.2534  17.6333  18.3844  19.4056

     occupation numbers 
     1.0000   1.0000   1.0000   1.0000   0.0000   0.0000   0.0000   0.0000
     0.0000   0.0000   0.0000   0.0000   0.0000   0.0000   0.0000   0.0000
     0.0000   0.0000   0.0000   0.0000   0.0000   0.0000   0.0000   0.0000
     0.0000   0.0000   0.0000   0.0000   0.0000   0.0000

          k = 0.0933 0.4388 0.0000 ( 11928 PWs)   bands (ev):

   -18.7928 -13.4789  -9.4687  -6.3945   0.8980   5.0967   5.8980   5.9990
     6.7635   7.2587   7.6491   8.7062   9.2189  10.6734  11.3653  11.8805
    12.4044  13.6877  14.0972  14.2890  14.7557  14.8455  15.4896  15.6178
    16.7058  16.7940  17.4459  17.5464  18.1301  18.9522

     occupation numbers 
     1.0000   1.0000   1.0000   1.0000   0.0000   0.0000   0.0000   0.0000
     0.0000   0.0000   0.0000   0.0000   0.0000   0.0000   0.0000   0.0000
     0.0000   0.0000   0.0000   0.0000   0.0000   0.0000   0.0000   0.0000
     0.0000   0.0000   0.0000   0.0000   0.0000   0.0000

          k = 0.0933 0.4542 0.0000 ( 11924 PWs)   bands (ev):

   -18.5631 -13.8073  -9.5410  -6.1612   0.5680   5.4142   5.8745   6.3245
     7.1044   7.5953   7.9862   9.0309   9.5514  10.9343  11.5927  11.7341
    12.3060  13.6528  14.0232  14.3202  14.4964  14.5159  15.1792  15.2512
    16.3671  16.5022  17.5166  17.8409  17.9489  18.5287

     occupation numbers 
     1.0000   1.0000   1.0000   1.0000   0.0000   0.0000   0.0000   0.0000
     0.0000   0.0000   0.0000   0.0000   0.0000   0.0000   0.0000   0.0000
     0.0000   0.0000   0.0000   0.0000   0.0000   0.0000   0.0000   0.0000
     0.0000   0.0000   0.0000   0.0000   0.0000   0.0000

          k = 0.0933 0.4696 0.0000 ( 11924 PWs)   bands (ev):

   -18.3278 -14.1306  -9.6050  -5.9312   0.2514   5.6945   5.9017   6.6598
     7.4571   7.9428   8.3348   9.3628   9.8946  11.1495  11.2929  12.0423
    12.1660  13.5463  13.5879  14.0826  14.1574  14.7714  15.0003  15.0281
    16.0035  16.2033  17.5885  17.7277  18.1652  18.2272

     occupation numbers 
     1.0000   1.0000   1.0000   1.0000   0.0000   0.0000   0.0000   0.0000
     0.0000   0.0000   0.0000   0.0000   0.0000   0.0000   0.0000   0.0000
     0.0000   0.0000   0.0000   0.0000   0.0000   0.0000   0.0000   0.0000
     0.0000   0.0000   0.0000   0.0000   0.0000   0.0000

          k = 0.0933 0.4850 0.0000 ( 11933 PWs)   bands (ev):

   -18.0876 -14.4476  -9.6606  -5.7080  -0.0477   5.7644   6.1532   7.0041
     7.8215   8.3010   8.6948   9.6989  10.2475  10.9192  11.2391  12.0811
    12.3868  13.0915  13.3068  13.7347  13.8819  14.7636  14.8891  15.1655
    15.7377  15.9785  17.3902  17.4726  18.2556  18.4755

     occupation numbers 
     1.0000   1.0000   1.0000   1.0000   0.0000   0.0000   0.0000   0.0000
     0.0000   0.0000   0.0000   0.0000   0.0000   0.0000   0.0000   0.0000
     0.0000   0.0000   0.0000   0.0000   0.0000   0.0000   0.0000   0.0000
     0.0000   0.0000   0.0000   0.0000   0.0000   0.0000

          k = 0.0933 0.5004 0.0000 ( 11931 PWs)   bands (ev):

   -17.8441 -14.7566  -9.7078  -5.4967  -0.3239   5.7552   6.4978   7.3569
     8.1977   8.6694   9.0659  10.0302  10.4984  10.6307  11.1277  12.1334
    12.5932  12.7423  12.9611  13.3141  13.6884  14.5347  14.7123  15.4426
    15.6671  15.8875  17.0479  17.1959  18.4763  18.7818

     occupation numbers 
     1.0000   1.0000   1.0000   1.0000   0.0000   0.0000   0.0000   0.0000
     0.0000   0.0000   0.0000   0.0000   0.0000   0.0000   0.0000   0.0000
     0.0000   0.0000   0.0000   0.0000   0.0000   0.0000   0.0000   0.0000
     0.0000   0.0000   0.0000   0.0000   0.0000   0.0000

          k = 0.0933 0.5158 0.0000 ( 11931 PWs)   bands (ev):

   -17.5997 -15.0548  -9.7465  -5.3036  -0.5706   5.7404   6.8618   7.7169
     8.5856   9.0468   9.4476  10.0976  10.3153  10.9222  10.9920  12.1049
    12.1909  12.6366  12.8615  13.1110  13.5360  14.2042  14.4830  15.6076
    15.7292  15.9582  16.7372  16.9647  18.6960  18.8640

     occupation numbers 
     1.0000   1.0000   1.0000   1.0000   0.0000   0.0000   0.0000   0.0000
     0.0000   0.0000   0.0000   0.0000   0.0000   0.0000   0.0000   0.0000
     0.0000   0.0000   0.0000   0.0000   0.0000   0.0000   0.0000   0.0000
     0.0000   0.0000   0.0000   0.0000   0.0000   0.0000

          k = 0.0933 0.5312 0.0000 ( 11927 PWs)   bands (ev):

   -17.3594 -15.3371  -9.7767  -5.1372  -0.7790   5.7273   7.2375   8.0822
     8.9850   9.4296   9.6713   9.8488  10.3289  10.9294  11.3752  11.6260
    11.9632  12.4133  12.5509  13.3982  13.4744  13.8237  14.3110  15.5336
    15.7333  16.1711  16.5907  16.8652  18.5400  18.6165

     occupation numbers 
     1.0000   1.0000   1.0000   1.0000   0.0000   0.0000   0.0000   0.0000
     0.0000   0.0000   0.0000   0.0000   0.0000   0.0000   0.0000   0.0000
     0.0000   0.0000   0.0000   0.0000   0.0000   0.0000   0.0000   0.0000
     0.0000   0.0000   0.0000   0.0000   0.0000   0.0000

          k = 0.0933 0.5466 0.0000 ( 11922 PWs)   bands (ev):

   -17.1347 -15.5920  -9.7983  -5.0072  -0.9392   5.7174   7.6228   8.4485
     9.2563   9.3978   9.7798  10.0898  10.2481  11.1571  11.1760  11.5973
    11.7670  11.9667  12.5077  13.2883  13.4053  13.8613  14.2610  15.2997
    15.5692  16.3502  16.6866  16.9537  18.2017  18.3155

     occupation numbers 
     1.0000   1.0000   1.0000   1.0000   0.0000   0.0000   0.0000   0.0000
     0.0000   0.0000   0.0000   0.0000   0.0000   0.0000   0.0000   0.0000
     0.0000   0.0000   0.0000   0.0000   0.0000   0.0000   0.0000   0.0000
     0.0000   0.0000   0.0000   0.0000   0.0000   0.0000

          k = 0.0933 0.5620 0.0000 ( 11930 PWs)   bands (ev):

   -16.9538 -15.7910  -9.8112  -4.9237  -1.0408   5.7113   8.0145   8.8011
     8.8454   9.6594   9.8196  10.2789  10.6613  10.7009  11.0857  11.5212
    11.5711  12.1715  12.3561  12.9949  13.2342  14.2336  14.3087  14.9820
    15.3640  16.4385  16.8898  17.1770  17.8954  18.0079

     occupation numbers 
     1.0000   1.0000   1.0000   1.0000   0.0000   0.0000   0.0000   0.0000
     0.0000   0.0000   0.0000   0.0000   0.0000   0.0000   0.0000   0.0000
     0.0000   0.0000   0.0000   0.0000   0.0000   0.0000   0.0000   0.0000
     0.0000   0.0000   0.0000   0.0000   0.0000   0.0000

          k = 0.0933 0.5774 0.0000 ( 11923 PWs)   bands (ev):

   -16.8777 -15.8732  -9.8156  -4.8948  -1.0757   5.7093   8.3451   8.5078
     9.0220   9.4530  10.2515  10.2564  10.6101  10.7570  11.0717  11.1028
    11.7182  12.2327  12.5493  12.6125  13.2210  14.3502  14.5427  14.6876
    15.2694  16.4637  17.0104  17.3393  17.7454  17.8256

     occupation numbers 
     1.0000   1.0000   1.0000   1.0000   0.0000   0.0000   0.0000   0.0000
     0.0000   0.0000   0.0000   0.0000   0.0000   0.0000   0.0000   0.0000
     0.0000   0.0000   0.0000   0.0000   0.0000   0.0000   0.0000   0.0000
     0.0000   0.0000   0.0000   0.0000   0.0000   0.0000

          k = 0.1067 0.1848 0.0000 ( 11847 PWs)   bands (ev):

   -21.4814  -9.4385  -8.2645  -7.3584   1.3615   2.2358   2.8972   3.4235
     3.8087   4.9320   5.4056   6.3366   6.3790   7.0800   7.6221   7.9221
     9.7511  10.4275  11.8409  12.9335  13.8962  16.5749  17.9634  19.1309
    21.5152  21.6033  22.6279  22.7834  23.7712  24.5782

     occupation numbers 
     1.0000   1.0000   1.0000   1.0000   0.0000   0.0000   0.0000   0.0000
     0.0000   0.0000   0.0000   0.0000   0.0000   0.0000   0.0000   0.0000
     0.0000   0.0000   0.0000   0.0000   0.0000   0.0000   0.0000   0.0000
     0.0000   0.0000   0.0000   0.0000   0.0000   0.0000

          k = 0.1067 0.2001 0.0000 ( 11859 PWs)   bands (ev):

   -21.3770  -9.3146  -8.5155  -7.5388   1.5047   2.3796   3.0443   3.5697
     3.9547   5.0769   5.5492   6.0628   6.4601   7.2224   7.7662   8.0862
     9.8885  10.5714  12.1182  13.0588  14.0389  16.6260  18.1027  18.8355
    21.5170  21.6808  22.5019  22.7500  23.2691  24.2633

     occupation numbers 
     1.0000   1.0000   1.0000   1.0000   0.0000   0.0000   0.0000   0.0000
     0.0000   0.0000   0.0000   0.0000   0.0000   0.0000   0.0000   0.0000
     0.0000   0.0000   0.0000   0.0000   0.0000   0.0000   0.0000   0.0000
     0.0000   0.0000   0.0000   0.0000   0.0000   0.0000

          k = 0.1067 0.2155 0.0000 ( 11877 PWs)   bands (ev):

   -21.2644  -9.1813  -8.7808  -7.7186   1.6594   2.5348   3.2032   3.7275
     4.1125   5.2329   5.7031   5.7763   6.5235   7.3760   7.9208   8.2777
    10.0361  10.7265  12.4111  13.1911  14.1929  16.6460  18.2526  18.5828
    21.4136  21.7751  22.1819  22.7161  22.9490  23.9023

     occupation numbers 
     1.0000   1.0000   1.0000   1.0000   0.0000   0.0000   0.0000   0.0000
     0.0000   0.0000   0.0000   0.0000   0.0000   0.0000   0.0000   0.0000
     0.0000   0.0000   0.0000   0.0000   0.0000   0.0000   0.0000   0.0000
     0.0000   0.0000   0.0000   0.0000   0.0000   0.0000

          k = 0.1067 0.2309 0.0000 ( 11871 PWs)   bands (ev):

   -21.1437  -9.0598  -9.0384  -7.8958   1.8255   2.7012   3.3738   3.8969
     4.2818   5.3946   5.4824   5.8689   6.5670   7.5408   8.0862   8.4988
    10.1937  10.8930  12.7157  13.3287  14.3580  16.6168  18.3988  18.4127
    21.1458  21.7602  21.9370  22.3859  23.0238  23.2486

     occupation numbers 
     1.0000   1.0000   1.0000   1.0000   0.0000   0.0000   0.0000   0.0000
     0.0000   0.0000   0.0000   0.0000   0.0000   0.0000   0.0000   0.0000
     0.0000   0.0000   0.0000   0.0000   0.0000   0.0000   0.0000   0.0000
     0.0000   0.0000   0.0000   0.0000   0.0000   0.0000

          k = 0.1067 0.2463 0.0000 ( 11896 PWs)   bands (ev):

   -21.0148  -9.3509  -8.8868  -8.0686   2.0029   2.8786   3.5562   4.0778
     4.4628   5.1643   5.5829   6.0428   6.5929   7.7166   8.2629   8.7479
    10.3609  11.0708  13.0283  13.4695  14.5341  16.5272  18.3009  18.5826
    20.7154  21.3673  22.0244  22.1369  22.5664  22.7970

     occupation numbers 
     1.0000   1.0000   1.0000   1.0000   0.0000   0.0000   0.0000   0.0000
     0.0000   0.0000   0.0000   0.0000   0.0000   0.0000   0.0000   0.0000
     0.0000   0.0000   0.0000   0.0000   0.0000   0.0000   0.0000   0.0000
     0.0000   0.0000   0.0000   0.0000   0.0000   0.0000

          k = 0.1067 0.2617 0.0000 ( 11892 PWs)   bands (ev):

   -20.8778  -9.6531  -8.7259  -8.2360   2.1917   3.0669   3.7504   4.2695
     4.6553   4.8476   5.7730   6.2215   6.6080   7.9032   8.4511   9.0217
    10.5373  11.2599  13.3445  13.6101  14.7213  16.3837  18.2870  18.7613
    20.1957  20.9078  21.8139  22.0148  22.0739  22.2426

     occupation numbers 
     1.0000   1.0000   1.0000   1.0000   0.0000   0.0000   0.0000   0.0000
     0.0000   0.0000   0.0000   0.0000   0.0000   0.0000   0.0000   0.0000
     0.0000   0.0000   0.0000   0.0000   0.0000   0.0000   0.0000   0.0000
     0.0000   0.0000   0.0000   0.0000   0.0000   0.0000

          k = 0.1067 0.2771 0.0000 ( 11900 PWs)   bands (ev):

   -20.7329  -9.9647  -8.5563  -8.3973   2.3918   3.2650   3.9563   4.4534
     4.5425   4.8597   5.9751   6.3866   6.6340   8.1007   8.6509   9.3158
    10.7223  11.4603  13.6597  13.7454  14.9194  16.2103  18.3370  18.9449
    19.6487  20.4157  21.1779  21.5590  21.7597  22.1658

     occupation numbers 
     1.0000   1.0000   1.0000   1.0000   0.0000   0.0000   0.0000   0.0000
     0.0000   0.0000   0.0000   0.0000   0.0000   0.0000   0.0000   0.0000
     0.0000   0.0000   0.0000   0.0000   0.0000   0.0000   0.0000   0.0000
     0.0000   0.0000   0.0000   0.0000   0.0000   0.0000

          k = 0.1067 0.2925 0.0000 ( 11910 PWs)   bands (ev):

   -20.5800 -10.2841  -8.5520  -8.3781   2.6032   3.4697   4.1738   4.1884
     4.6959   5.0753   6.1886   6.4733   6.7390   8.3087   8.8623   9.6257
    10.9150  11.6719  13.8670  13.9686  15.1282  16.0353  18.4226  19.0152
    19.2213  19.9126  20.5215  20.9547  21.3428  21.7806

     occupation numbers 
     1.0000   1.0000   1.0000   1.0000   0.0000   0.0000   0.0000   0.0000
     0.0000   0.0000   0.0000   0.0000   0.0000   0.0000   0.0000   0.0000
     0.0000   0.0000   0.0000   0.0000   0.0000   0.0000   0.0000   0.0000
     0.0000   0.0000   0.0000   0.0000   0.0000   0.0000

          k = 0.1067 0.3079 0.0000 ( 11916 PWs)   bands (ev):

   -20.4192 -10.6097  -8.6996  -8.1917   2.8259   3.6441   3.8972   4.4034
     4.9222   5.3023   6.4134   6.4764   6.9313   8.5270   9.0852   9.9466
    11.1142  11.8946  13.9643  14.2623  15.3476  15.8853  18.4983  18.5267
    19.3741  19.4389  19.8743  20.3525  20.7627  21.4924

     occupation numbers 
     1.0000   1.0000   1.0000   1.0000   0.0000   0.0000   0.0000   0.0000
     0.0000   0.0000   0.0000   0.0000   0.0000   0.0000   0.0000   0.0000
     0.0000   0.0000   0.0000   0.0000   0.0000   0.0000   0.0000   0.0000
     0.0000   0.0000   0.0000   0.0000   0.0000   0.0000

          k = 0.1067 0.3233 0.0000 ( 11912 PWs)   bands (ev):

   -20.2505 -10.9401  -8.8401  -7.9972   3.0597   3.4587   3.9714   4.6446
     5.1611   5.5404   6.4523   6.6495   7.1570   8.7554   9.3196  10.2733
    11.3181  12.1285  14.0230  14.5294  15.5772  15.7832  18.0195  18.4264
    19.1232  19.2344  19.5822  19.7678  20.1651  20.9919

     occupation numbers 
     1.0000   1.0000   1.0000   1.0000   0.0000   0.0000   0.0000   0.0000
     0.0000   0.0000   0.0000   0.0000   0.0000   0.0000   0.0000   0.0000
     0.0000   0.0000   0.0000   0.0000   0.0000   0.0000   0.0000   0.0000
     0.0000   0.0000   0.0000   0.0000   0.0000   0.0000

          k = 0.1067 0.3387 0.0000 ( 11914 PWs)   bands (ev):

   -20.0742 -11.2740  -8.9731  -7.7952   3.1223   3.3053   4.2033   4.8975
     5.4118   5.7888   6.4196   6.8967   7.4002   8.9935   9.5653  10.6000
    11.5240  12.3735  14.0326  14.7500  15.7434  15.8168  17.5571  18.0710
    18.6126  18.9875  19.3192  19.5401  19.8271  20.4712

     occupation numbers 
     1.0000   1.0000   1.0000   1.0000   0.0000   0.0000   0.0000   0.0000
     0.0000   0.0000   0.0000   0.0000   0.0000   0.0000   0.0000   0.0000
     0.0000   0.0000   0.0000   0.0000   0.0000   0.0000   0.0000   0.0000
     0.0000   0.0000   0.0000   0.0000   0.0000   0.0000

          k = 0.1067 0.3541 0.0000 ( 11911 PWs)   bands (ev):

   -19.8902 -11.6099  -9.0986  -7.5860   2.7746   3.5612   4.4560   5.1621
     5.6741   6.0439   6.3875   7.1550   7.6571   9.2407   9.8222  10.9194
    11.7277  12.6293  13.9945  14.8922  15.7630  16.0659  17.1682  17.6092
    18.0054  18.5158  18.9763  19.3450  19.9543  20.0185

     occupation numbers 
     1.0000   1.0000   1.0000   1.0000   0.0000   0.0000   0.0000   0.0000
     0.0000   0.0000   0.0000   0.0000   0.0000   0.0000   0.0000   0.0000
     0.0000   0.0000   0.0000   0.0000   0.0000   0.0000   0.0000   0.0000
     0.0000   0.0000   0.0000   0.0000   0.0000   0.0000

          k = 0.1067 0.3695 0.0000 ( 11913 PWs)   bands (ev):

   -19.6987 -11.9470  -9.2164  -7.3703   2.4235   3.8285   4.7217   5.4384
     5.9480   6.2594   6.4046   7.4240   7.9266   9.4961  10.0902  11.2217
    11.9225  12.8958  13.9246  14.9162  15.8128  16.3240  16.8754  17.1540
    17.4237  17.9689  18.4275  19.2976  19.6460  19.9496

     occupation numbers 
     1.0000   1.0000   1.0000   1.0000   0.0000   0.0000   0.0000   0.0000
     0.0000   0.0000   0.0000   0.0000   0.0000   0.0000   0.0000   0.0000
     0.0000   0.0000   0.0000   0.0000   0.0000   0.0000   0.0000   0.0000
     0.0000   0.0000   0.0000   0.0000   0.0000   0.0000

          k = 0.1067 0.3849 0.0000 ( 11922 PWs)   bands (ev):

   -19.4998 -12.2841  -9.3263  -7.1487   2.0721   4.1067   4.9991   5.7262
     6.2334   6.2729   6.6353   7.7037   8.2080   9.7587  10.3692  11.4923
    12.0976  13.1725  13.8461  14.8070  15.8227  16.5730  16.6258  16.7690
    16.9309  17.4476  17.9284  18.8231  19.4754  19.7992

     occupation numbers 
     1.0000   1.0000   1.0000   1.0000   0.0000   0.0000   0.0000   0.0000
     0.0000   0.0000   0.0000   0.0000   0.0000   0.0000   0.0000   0.0000
     0.0000   0.0000   0.0000   0.0000   0.0000   0.0000   0.0000   0.0000
     0.0000   0.0000   0.0000   0.0000   0.0000   0.0000

          k = 0.1067 0.4003 0.0000 ( 11918 PWs)   bands (ev):

   -19.2937 -12.6203  -9.4282  -6.9221   1.7225   4.3956   5.2875   6.0243
     6.2409   6.5302   6.9253   7.9938   8.5010  10.0266  10.6589  11.7087
    12.2370  13.4583  13.7825  14.6101  15.6751  16.1474  16.4954  16.6355
    16.8761  17.0327  17.5322  18.3159  19.0128  20.0098

     occupation numbers 
     1.0000   1.0000   1.0000   1.0000   0.0000   0.0000   0.0000   0.0000
     0.0000   0.0000   0.0000   0.0000   0.0000   0.0000   0.0000   0.0000
     0.0000   0.0000   0.0000   0.0000   0.0000   0.0000   0.0000   0.0000
     0.0000   0.0000   0.0000   0.0000   0.0000   0.0000

          k = 0.1067 0.4157 0.0000 ( 11935 PWs)   bands (ev):

   -19.0806 -12.9548  -9.5220  -6.6916   1.3764   4.6952   5.5865   6.1960
     6.3440   6.8383   7.2316   8.2939   8.8054  10.2969  10.9588  11.8390
    12.3212  13.7493  13.7525  14.4042  15.3685  15.6088  16.1515  16.3167
    16.8971  17.1564  17.2799  17.8400  18.6202  19.6673

     occupation numbers 
     1.0000   1.0000   1.0000   1.0000   0.0000   0.0000   0.0000   0.0000
     0.0000   0.0000   0.0000   0.0000   0.0000   0.0000   0.0000   0.0000
     0.0000   0.0000   0.0000   0.0000   0.0000   0.0000   0.0000   0.0000
     0.0000   0.0000   0.0000   0.0000   0.0000   0.0000

          k = 0.1067 0.4311 0.0000 ( 11935 PWs)   bands (ev):

   -18.8607 -13.2866  -9.6076  -6.4585   1.0362   5.0048   5.8959   6.1640
     6.6641   7.1577   7.5507   8.6034   9.1211  10.5641  11.2673  11.8482
    12.3373  13.7506  14.0273  14.2679  15.0207  15.0718  15.7180  15.9054
    16.8698  17.0540  17.4570  17.4948  18.3379  19.2042

     occupation numbers 
     1.0000   1.0000   1.0000   1.0000   0.0000   0.0000   0.0000   0.0000
     0.0000   0.0000   0.0000   0.0000   0.0000   0.0000   0.0000   0.0000
     0.0000   0.0000   0.0000   0.0000   0.0000   0.0000   0.0000   0.0000
     0.0000   0.0000   0.0000   0.0000   0.0000   0.0000

          k = 0.1067 0.4465 0.0000 ( 11941 PWs)   bands (ev):

   -18.6344 -13.6150  -9.6849  -6.2246   0.7042   5.3234   6.1331   6.2152
     6.9987   7.4882   7.8817   8.9214   9.4479  10.8179  11.5644  11.7404
    12.2909  13.7379  14.0763  14.3976  14.5751  14.6956  15.3212  15.4805
    16.6029  16.7683  17.4806  17.7581  18.1514  18.7528

     occupation numbers 
     1.0000   1.0000   1.0000   1.0000   0.0000   0.0000   0.0000   0.0000
     0.0000   0.0000   0.0000   0.0000   0.0000   0.0000   0.0000   0.0000
     0.0000   0.0000   0.0000   0.0000   0.0000   0.0000   0.0000   0.0000
     0.0000   0.0000   0.0000   0.0000   0.0000   0.0000

          k = 0.1067 0.4619 0.0000 ( 11941 PWs)   bands (ev):

   -18.4021 -13.9390  -9.7539  -5.9924   0.3832   5.6467   6.1106   6.5440
     7.3454   7.8296   8.2244   9.2463   9.7854  11.0352  11.4472  11.9389
    12.2095  13.6449  13.8493  14.1802  14.3849  14.7057  15.0658  15.1217
    16.2080  16.4337  17.6214  17.9695  18.0670  18.3519

     occupation numbers 
     1.0000   1.0000   1.0000   1.0000   0.0000   0.0000   0.0000   0.0000
     0.0000   0.0000   0.0000   0.0000   0.0000   0.0000   0.0000   0.0000
     0.0000   0.0000   0.0000   0.0000   0.0000   0.0000   0.0000   0.0000
     0.0000   0.0000   0.0000   0.0000   0.0000   0.0000

          k = 0.1067 0.4773 0.0000 ( 11929 PWs)   bands (ev):

   -18.1646 -14.2575  -9.8144  -5.7649   0.0771   5.9349   6.1367   6.8818
     7.7040   8.1816   8.5785   9.5754  10.1332  11.1236  11.1674  12.1454
    12.2745  13.3974  13.4463  13.9163  14.0596  14.7965  14.9783  15.0861
    15.8504  16.1181  17.5866  17.7291  18.1970  18.3765

     occupation numbers 
     1.0000   1.0000   1.0000   1.0000   0.0000   0.0000   0.0000   0.0000
     0.0000   0.0000   0.0000   0.0000   0.0000   0.0000   0.0000   0.0000
     0.0000   0.0000   0.0000   0.0000   0.0000   0.0000   0.0000   0.0000
     0.0000   0.0000   0.0000   0.0000   0.0000   0.0000

          k = 0.1067 0.4927 0.0000 ( 11939 PWs)   bands (ev):

   -17.9230 -14.5692  -9.8664  -5.5465  -0.2096   6.0075   6.3921   7.2277
     8.0742   8.5437   8.9439   9.9012  10.4864  10.7553  11.1529  12.1573
    12.6222  12.9051  13.1651  13.5594  13.7766  14.6255  14.8783  15.3621
    15.6668  15.9023  17.2593  17.4357  18.3792  18.6867

     occupation numbers 
     1.0000   1.0000   1.0000   1.0000   0.0000   0.0000   0.0000   0.0000
     0.0000   0.0000   0.0000   0.0000   0.0000   0.0000   0.0000   0.0000
     0.0000   0.0000   0.0000   0.0000   0.0000   0.0000   0.0000   0.0000
     0.0000   0.0000   0.0000   0.0000   0.0000   0.0000

          k = 0.1067 0.5081 0.0000 ( 11937 PWs)   bands (ev):

   -17.6791 -14.8718  -9.9098  -5.3426  -0.4709   5.9995   6.7419   7.5805
     8.4562   8.9149   9.3202  10.1994  10.3440  10.8678  11.0169  12.2095
    12.4122  12.8427  12.9739  13.1460  13.5911  14.3761  14.6383  15.5498
    15.7150  15.8974  16.8955  17.1416  18.6423  18.9914

     occupation numbers 
     1.0000   1.0000   1.0000   1.0000   0.0000   0.0000   0.0000   0.0000
     0.0000   0.0000   0.0000   0.0000   0.0000   0.0000   0.0000   0.0000
     0.0000   0.0000   0.0000   0.0000   0.0000   0.0000   0.0000   0.0000
     0.0000   0.0000   0.0000   0.0000   0.0000   0.0000

          k = 0.1067 0.5235 0.0000 ( 11943 PWs)   bands (ev):

   -17.4363 -15.1618  -9.9445  -5.1609  -0.6989   5.9865   7.1102   7.9383
     8.8499   9.2923   9.7042   9.9387  10.3546  10.9340  11.2444  11.9290
    12.1276  12.6073  12.6923  13.3482  13.4893  14.0436  14.3825  15.5372
    15.8105  16.1103  16.6249  16.9219  18.7361  18.8623

     occupation numbers 
     1.0000   1.0000   1.0000   1.0000   0.0000   0.0000   0.0000   0.0000
     0.0000   0.0000   0.0000   0.0000   0.0000   0.0000   0.0000   0.0000
     0.0000   0.0000   0.0000   0.0000   0.0000   0.0000   0.0000   0.0000
     0.0000   0.0000   0.0000   0.0000   0.0000   0.0000

          k = 0.1067 0.5389 0.0000 ( 11933 PWs)   bands (ev):

   -17.2023 -15.4314  -9.9706  -5.0104  -0.8844   5.9753   7.4898   8.2973
     9.2547   9.5177   9.6616  10.1096  10.2154  11.1002  11.4549  11.6321
    11.8237  12.2472  12.5235  13.4025  13.6246  13.7538  14.2494  15.4010
    15.7241  16.2963  16.6128  16.8901  18.4042  18.5687

     occupation numbers 
     1.0000   1.0000   1.0000   1.0000   0.0000   0.0000   0.0000   0.0000
     0.0000   0.0000   0.0000   0.0000   0.0000   0.0000   0.0000   0.0000
     0.0000   0.0000   0.0000   0.0000   0.0000   0.0000   0.0000   0.0000
     0.0000   0.0000   0.0000   0.0000   0.0000   0.0000

          k = 0.1067 0.5543 0.0000 ( 11934 PWs)   bands (ev):

   -16.9947 -15.6627  -9.9881  -4.9016  -1.0165   5.9674   7.8777   8.6474
     9.1046   9.6728   9.8033  10.1777  10.5175  10.9928  11.2433  11.5605
    11.8004  12.0312  12.4347  13.2499  13.2865  14.0965  14.2895  15.1563
    15.4854  16.3620  16.8139  17.0820  18.0550  18.2478

     occupation numbers 
     1.0000   1.0000   1.0000   1.0000   0.0000   0.0000   0.0000   0.0000
     0.0000   0.0000   0.0000   0.0000   0.0000   0.0000   0.0000   0.0000
     0.0000   0.0000   0.0000   0.0000   0.0000   0.0000   0.0000   0.0000
     0.0000   0.0000   0.0000   0.0000   0.0000   0.0000

          k = 0.1067 0.5697 0.0000 ( 11934 PWs)   bands (ev):

   -16.8573 -15.8121  -9.9968  -4.8442  -1.0857   5.9634   8.2656   8.7041
     8.9428   9.5727  10.1012  10.5226  10.5412  10.9362  10.9512  11.3658
    11.6765  12.3218  12.4306  12.8443  13.2027  14.3949  14.4518  14.8491
    15.2863  16.3789  17.0329  17.3272  17.7816  17.9673

     occupation numbers 
     1.0000   1.0000   1.0000   1.0000   0.0000   0.0000   0.0000   0.0000
     0.0000   0.0000   0.0000   0.0000   0.0000   0.0000   0.0000   0.0000
     0.0000   0.0000   0.0000   0.0000   0.0000   0.0000   0.0000   0.0000
     0.0000   0.0000   0.0000   0.0000   0.0000   0.0000

          k = 0.1200 0.2078 0.0000 ( 11877 PWs)   bands (ev):

   -21.2686  -9.1862  -8.7569  -7.7296   1.6537   2.5291   3.1973   3.7217
     4.1067   5.2274   5.6983   5.7882   6.5714   7.3701   7.9168   8.2082
    10.0303  10.7209  12.4149  13.1854  14.1871  16.6403  18.2470  18.5780
    21.4608  21.7771  22.2215  22.8043  22.8636  23.9628

     occupation numbers 
     1.0000   1.0000   1.0000   1.0000   0.0000   0.0000   0.0000   0.0000
     0.0000   0.0000   0.0000   0.0000   0.0000   0.0000   0.0000   0.0000
     0.0000   0.0000   0.0000   0.0000   0.0000   0.0000   0.0000   0.0000
     0.0000   0.0000   0.0000   0.0000   0.0000   0.0000

          k = 0.1200 0.2232 0.0000 ( 11873 PWs)   bands (ev):

   -21.1520  -9.0485  -9.0116  -7.9199   1.8141   2.6899   3.3621   3.8853
     4.2702   5.3889   5.5009   5.8595   6.6651   7.5288   8.0777   8.3579
    10.1820  10.8816  12.7256  13.3172  14.3465  16.6045  18.3897  18.4016
    21.2963  21.8637  21.9198  22.3435  22.9597  23.6229

     occupation numbers 
     1.0000   1.0000   1.0000   1.0000   0.0000   0.0000   0.0000   0.0000
     0.0000   0.0000   0.0000   0.0000   0.0000   0.0000   0.0000   0.0000
     0.0000   0.0000   0.0000   0.0000   0.0000   0.0000   0.0000   0.0000
     0.0000   0.0000   0.0000   0.0000   0.0000   0.0000

          k = 0.1200 0.2386 0.0000 ( 11880 PWs)   bands (ev):

   -21.0273  -9.2799  -8.9013  -8.1068   1.9858   2.8618   3.5386   4.0605
     4.4454   5.2018   5.5635   6.0306   6.7362   7.6987   8.2486   8.5410
    10.3433  11.0537  13.0460  13.4519  14.5170  16.5073  18.2889  18.5662
    20.9751  21.5209  21.9734  22.0027  22.9366  23.0603

     occupation numbers 
     1.0000   1.0000   1.0000   1.0000   0.0000   0.0000   0.0000   0.0000
     0.0000   0.0000   0.0000   0.0000   0.0000   0.0000   0.0000   0.0000
     0.0000   0.0000   0.0000   0.0000   0.0000   0.0000   0.0000   0.0000
     0.0000   0.0000   0.0000   0.0000   0.0000   0.0000

          k = 0.1200 0.2540 0.0000 ( 11894 PWs)   bands (ev):

   -20.8945  -9.5608  -8.7452  -8.2882   2.1689   3.0448   3.7269   4.2471
     4.6322   4.8948   5.7484   6.2110   6.7845   7.8793   8.4301   8.7586
    10.5137  11.2371  13.3719  13.5859  14.6985  16.3563  18.2739  18.7401
    20.5117  21.1017  21.7062  22.0883  22.2805  22.5483

     occupation numbers 
     1.0000   1.0000   1.0000   1.0000   0.0000   0.0000   0.0000   0.0000
     0.0000   0.0000   0.0000   0.0000   0.0000   0.0000   0.0000   0.0000
     0.0000   0.0000   0.0000   0.0000   0.0000   0.0000   0.0000   0.0000
     0.0000   0.0000   0.0000   0.0000   0.0000   0.0000

          k = 0.1200 0.2694 0.0000 ( 11904 PWs)   bands (ev):

   -20.7536  -9.8534  -8.5802  -8.4629   2.3634   3.2383   3.9269   4.4412
     4.5833   4.8308   5.9447   6.3975   6.8152   8.0708   8.6231   9.0071
    10.6925  11.4317  13.6978  13.7149  14.8910  16.1764  18.3257  18.9213
    19.9802  20.6398  21.4688  21.6285  21.8715  22.2185

     occupation numbers 
     1.0000   1.0000   1.0000   1.0000   0.0000   0.0000   0.0000   0.0000
     0.0000   0.0000   0.0000   0.0000   0.0000   0.0000   0.0000   0.0000
     0.0000   0.0000   0.0000   0.0000   0.0000   0.0000   0.0000   0.0000
     0.0000   0.0000   0.0000   0.0000   0.0000   0.0000

          k = 0.1200 0.2848 0.0000 ( 11902 PWs)   bands (ev):

   -20.6048 -10.1562  -8.6298  -8.4065   2.5691   3.4408   4.1387   4.2545
     4.6592   5.0408   6.1524   6.5764   6.8460   8.2727   8.8278   9.2812
    10.8788  11.6375  13.8274  14.0215  15.0942  15.9975  18.4196  19.0939
    19.4460  20.1498  20.9196  21.2983  21.3077  21.8356

     occupation numbers 
     1.0000   1.0000   1.0000   1.0000   0.0000   0.0000   0.0000   0.0000
     0.0000   0.0000   0.0000   0.0000   0.0000   0.0000   0.0000   0.0000
     0.0000   0.0000   0.0000   0.0000   0.0000   0.0000   0.0000   0.0000
     0.0000   0.0000   0.0000   0.0000   0.0000   0.0000

          k = 0.1200 0.3002 0.0000 ( 11916 PWs)   bands (ev):

   -20.4481 -10.4677  -8.7887  -8.2244   2.7861   3.6390   3.9432   4.3623
     4.8800   5.2623   6.3714   6.6914   6.9377   8.4850   9.0444   9.5751
    11.0713  11.8545  13.9154  14.3325  15.3081  15.8472  18.5262  18.8446
    19.3467  19.6580  20.2700  20.6999  21.0360  21.2951

     occupation numbers 
     1.0000   1.0000   1.0000   1.0000   0.0000   0.0000   0.0000   0.0000
     0.0000   0.0000   0.0000   0.0000   0.0000   0.0000   0.0000   0.0000
     0.0000   0.0000   0.0000   0.0000   0.0000   0.0000   0.0000   0.0000
     0.0000   0.0000   0.0000   0.0000   0.0000   0.0000

          k = 0.1200 0.3156 0.0000 ( 11920 PWs)   bands (ev):

   -20.2835 -10.7861  -8.9393  -8.0342   3.0144   3.5531   3.9209   4.5976
     5.1132   5.4952   6.6015   6.7107   7.1258   8.7072   9.2726   9.8829
    11.2681  12.0827  13.9642  14.6215  15.5324  15.7492  18.3286  18.5661
    19.2432  19.5342  19.6355  20.1032  20.5207  21.0153

     occupation numbers 
     1.0000   1.0000   1.0000   1.0000   0.0000   0.0000   0.0000   0.0000
     0.0000   0.0000   0.0000   0.0000   0.0000   0.0000   0.0000   0.0000
     0.0000   0.0000   0.0000   0.0000   0.0000   0.0000   0.0000   0.0000
     0.0000   0.0000   0.0000   0.0000   0.0000   0.0000

          k = 0.1200 0.3310 0.0000 ( 11918 PWs)   bands (ev):

   -20.1112 -11.1100  -9.0816  -7.8362   3.2240   3.2562   4.1462   4.8447
     5.3580   5.7393   6.6937   6.8427   7.3548   8.9389   9.5123  10.1986
    11.4664  12.3219  13.9653  14.8714  15.7182  15.7667  17.8433  18.3219
    18.9961  19.1066  19.5347  19.7289  19.9547  20.7454

     occupation numbers 
     1.0000   1.0000   1.0000   1.0000   0.0000   0.0000   0.0000   0.0000
     0.0000   0.0000   0.0000   0.0000   0.0000   0.0000   0.0000   0.0000
     0.0000   0.0000   0.0000   0.0000   0.0000   0.0000   0.0000   0.0000
     0.0000   0.0000   0.0000   0.0000   0.0000   0.0000

          k = 0.1200 0.3464 0.0000 ( 11929 PWs)   bands (ev):

   -19.9312 -11.4379  -9.2154  -7.6308   2.8850   3.5047   4.3935   5.1034
     5.6145   5.9938   6.6651   7.0949   7.6028   9.1795   9.7633  10.5155
    11.6616  12.5720  13.9234  15.0525  15.7521  16.0108  17.4223  17.8700
    18.3807  18.8493  19.3244  19.3264  19.9772  20.2313

     occupation numbers 
     1.0000   1.0000   1.0000   1.0000   0.0000   0.0000   0.0000   0.0000
     0.0000   0.0000   0.0000   0.0000   0.0000   0.0000   0.0000   0.0000
     0.0000   0.0000   0.0000   0.0000   0.0000   0.0000   0.0000   0.0000
     0.0000   0.0000   0.0000   0.0000   0.0000   0.0000

          k = 0.1200 0.3618 0.0000 ( 11935 PWs)   bands (ev):

   -19.7436 -11.7684  -9.3408  -7.4186   2.5401   3.7664   4.6537   5.3740
     5.8825   6.2559   6.6347   7.3579   7.8651   9.4282  10.0255  10.8257
    11.8468  12.8329  13.8570  15.1196  15.8284  16.2645  17.1000  17.3922
    17.7845  18.3000  18.7659  19.4478  19.7374  20.0905

     occupation numbers 
     1.0000   1.0000   1.0000   1.0000   0.0000   0.0000   0.0000   0.0000
     0.0000   0.0000   0.0000   0.0000   0.0000   0.0000   0.0000   0.0000
     0.0000   0.0000   0.0000   0.0000   0.0000   0.0000   0.0000   0.0000
     0.0000   0.0000   0.0000   0.0000   0.0000   0.0000

          k = 0.1200 0.3772 0.0000 ( 11918 PWs)   bands (ev):

   -19.5486 -12.1003  -9.4577  -7.2000   2.1939   4.0391   4.9252   5.6561
     6.1620   6.4923   6.6391   7.6314   8.1399   9.6837  10.2986  11.1189
    12.0117  13.1042  13.7911  15.0361  15.8968  16.5273  16.8657  16.9583
    17.2376  17.7498  18.2404  19.1293  19.7253  19.7564

     occupation numbers 
     1.0000   1.0000   1.0000   1.0000   0.0000   0.0000   0.0000   0.0000
     0.0000   0.0000   0.0000   0.0000   0.0000   0.0000   0.0000   0.0000
     0.0000   0.0000   0.0000   0.0000   0.0000   0.0000   0.0000   0.0000
     0.0000   0.0000   0.0000   0.0000   0.0000   0.0000

          k = 0.1200 0.3926 0.0000 ( 11922 PWs)   bands (ev):

   -19.3464 -12.4325  -9.5663  -6.9760   1.8484   4.3228   5.2077   5.9498
     6.4528   6.5254   6.8578   7.9152   8.4268   9.9441  10.5824  11.3797
    12.1422  13.3854  13.7498  14.8260  15.8420  16.4919  16.6553  16.7989
    16.8964  17.2453  17.7968  18.6133  19.2897  19.9248

     occupation numbers 
     1.0000   1.0000   1.0000   1.0000   0.0000   0.0000   0.0000   0.0000
     0.0000   0.0000   0.0000   0.0000   0.0000   0.0000   0.0000   0.0000
     0.0000   0.0000   0.0000   0.0000   0.0000   0.0000   0.0000   0.0000
     0.0000   0.0000   0.0000   0.0000   0.0000   0.0000

          k = 0.1200 0.4080 0.0000 ( 11939 PWs)   bands (ev):

   -19.1370 -12.7640  -9.6663  -6.7475   1.5052   4.6172   5.5006   6.2541
     6.4958   6.7549   7.1526   8.2089   8.7252  10.2061  10.8762  11.5857
    12.2241  13.6747  13.7498  14.5645  15.5722  15.9604  16.4174  16.6142
    16.9440  17.0849  17.5055  18.1073  18.8656  19.9063

     occupation numbers 
     1.0000   1.0000   1.0000   1.0000   0.0000   0.0000   0.0000   0.0000
     0.0000   0.0000   0.0000   0.0000   0.0000   0.0000   0.0000   0.0000
     0.0000   0.0000   0.0000   0.0000   0.0000   0.0000   0.0000   0.0000
     0.0000   0.0000   0.0000   0.0000   0.0000   0.0000

          k = 0.1200 0.4234 0.0000 ( 11943 PWs)   bands (ev):

   -18.9208 -13.0939  -9.7578  -6.5155   1.1663   4.9221   5.8037   6.4526
     6.5799   7.0682   7.4644   8.5117   9.0350  10.4644  11.1786  11.7060
    12.2526  13.7873  13.9630  14.3309  15.2099  15.4145  15.9983  16.2168
    16.9492  17.3052  17.3765  17.6571  18.5438  19.4582

     occupation numbers 
     1.0000   1.0000   1.0000   1.0000   0.0000   0.0000   0.0000   0.0000
     0.0000   0.0000   0.0000   0.0000   0.0000   0.0000   0.0000   0.0000
     0.0000   0.0000   0.0000   0.0000   0.0000   0.0000   0.0000   0.0000
     0.0000   0.0000   0.0000   0.0000   0.0000   0.0000

          k = 0.1200 0.4388 0.0000 ( 11941 PWs)   bands (ev):

   -18.6979 -13.4211  -9.8407  -6.2818   0.8339   5.2370   6.1167   6.4228
     6.9052   7.3926   7.7891   8.8228   9.3559  10.7090  11.4775  11.7181
    12.2385  13.8210  14.0841  14.3318  14.8690  14.8824  15.5457  15.7694
    16.8413  17.0463  17.4628  17.6729  18.3466  19.0009

     occupation numbers 
     1.0000   1.0000   1.0000   1.0000   0.0000   0.0000   0.0000   0.0000
     0.0000   0.0000   0.0000   0.0000   0.0000   0.0000   0.0000   0.0000
     0.0000   0.0000   0.0000   0.0000   0.0000   0.0000   0.0000   0.0000
     0.0000   0.0000   0.0000   0.0000   0.0000   0.0000

          k = 0.1200 0.4542 0.0000 ( 11943 PWs)   bands (ev):

   -18.4690 -13.7448  -9.9151  -6.0483   0.5106   5.5611   6.3933   6.4390
     7.2456   7.7278   8.1258   9.1406   9.6877  10.9213  11.5290  11.8525
    12.2061  13.7659  13.9592  14.3783  14.5934  14.6302  15.1774  15.3388
    16.4604  16.7053  17.5932  17.9754  18.1958  18.5594

     occupation numbers 
     1.0000   1.0000   1.0000   1.0000   0.0000   0.0000   0.0000   0.0000
     0.0000   0.0000   0.0000   0.0000   0.0000   0.0000   0.0000   0.0000
     0.0000   0.0000   0.0000   0.0000   0.0000   0.0000   0.0000   0.0000
     0.0000   0.0000   0.0000   0.0000   0.0000   0.0000

          k = 0.1200 0.4696 0.0000 ( 11945 PWs)   bands (ev):

   -18.2344 -14.0639  -9.9808  -5.8177   0.1995   5.8904   6.3715   6.7699
     7.5982   8.0736   8.4740   9.4619  10.0300  11.0689  11.2887  12.1747
    12.1878  13.5794  13.6776  14.0319  14.2958  14.8648  15.0277  15.0495
    16.0479  16.3427  17.7228  17.9861  18.2223  18.2820

     occupation numbers 
     1.0000   1.0000   1.0000   1.0000   0.0000   0.0000   0.0000   0.0000
     0.0000   0.0000   0.0000   0.0000   0.0000   0.0000   0.0000   0.0000
     0.0000   0.0000   0.0000   0.0000   0.0000   0.0000   0.0000   0.0000
     0.0000   0.0000   0.0000   0.0000   0.0000   0.0000

          k = 0.1200 0.4850 0.0000 ( 11941 PWs)   bands (ev):

   -17.9951 -14.3772 -10.0378  -5.5936  -0.0953   6.1908   6.3919   7.1087
     7.9626   8.4293   8.8335   9.7804  10.3812  10.9641  11.1145  12.2093
    12.5159  13.2181  13.3264  13.7571  13.9495  14.6850  15.0094  15.2872
    15.7338  16.0253  17.4966  17.6990  18.2850  18.5856

     occupation numbers 
     1.0000   1.0000   1.0000   1.0000   0.0000   0.0000   0.0000   0.0000
     0.0000   0.0000   0.0000   0.0000   0.0000   0.0000   0.0000   0.0000
     0.0000   0.0000   0.0000   0.0000   0.0000   0.0000   0.0000   0.0000
     0.0000   0.0000   0.0000   0.0000   0.0000   0.0000

          k = 0.1200 0.5004 0.0000 ( 11941 PWs)   bands (ev):

   -17.7525 -14.6830 -10.0861  -5.3809  -0.3684   6.2749   6.6423   7.4541
     8.3387   8.7940   9.2042  10.0782  10.5737  10.7629  11.0596  12.2478
    12.7265  12.8681  13.0520  13.3960  13.6695  14.4863  14.8381  15.5236
    15.6881  15.8681  17.1115  17.3766  18.5443  18.8783

     occupation numbers 
     1.0000   1.0000   1.0000   1.0000   0.0000   0.0000   0.0000   0.0000
     0.0000   0.0000   0.0000   0.0000   0.0000   0.0000   0.0000   0.0000
     0.0000   0.0000   0.0000   0.0000   0.0000   0.0000   0.0000   0.0000
     0.0000   0.0000   0.0000   0.0000   0.0000   0.0000

          k = 0.1200 0.5158 0.0000 ( 11945 PWs)   bands (ev):

   -17.5091 -14.9783 -10.1257  -5.1862  -0.6131   6.2690   6.9961   7.8039
     8.7265   9.1652   9.5851  10.1897  10.2933  10.9886  11.1251  12.2155
    12.2423  12.7759  12.9651  13.2360  13.5397  14.2273  14.5379  15.5211
    15.8248  16.0418  16.7569  17.0787  18.8173  19.0525

     occupation numbers 
     1.0000   1.0000   1.0000   1.0000   0.0000   0.0000   0.0000   0.0000
     0.0000   0.0000   0.0000   0.0000   0.0000   0.0000   0.0000   0.0000
     0.0000   0.0000   0.0000   0.0000   0.0000   0.0000   0.0000   0.0000
     0.0000   0.0000   0.0000   0.0000   0.0000   0.0000

          k = 0.1200 0.5312 0.0000 ( 11947 PWs)   bands (ev):

   -17.2700 -15.2581 -10.1565  -5.0177  -0.8207   6.2578   7.3683   8.1545
     9.1258   9.5341   9.7756   9.9860  10.2913  11.0666  11.5060  11.7649
    12.0205  12.5327  12.5771  13.5094  13.5848  13.9012  14.2943  15.4327
    15.8714  16.2717  16.5854  16.9024  18.6243  18.8212

     occupation numbers 
     1.0000   1.0000   1.0000   1.0000   0.0000   0.0000   0.0000   0.0000
     0.0000   0.0000   0.0000   0.0000   0.0000   0.0000   0.0000   0.0000
     0.0000   0.0000   0.0000   0.0000   0.0000   0.0000   0.0000   0.0000
     0.0000   0.0000   0.0000   0.0000   0.0000   0.0000

          k = 0.1200 0.5466 0.0000 ( 11942 PWs)   bands (ev):

   -17.0465 -15.5108 -10.1785  -4.8857  -0.9808   6.2486   7.7509   8.4978
     9.3690   9.5385   9.8247  10.1790  10.3846  11.2464  11.2967  11.7250
    11.8942  12.0945  12.4694  13.4126  13.4972  13.9740  14.2574  15.2746
    15.6628  16.3394  16.7268  16.9959  18.2552  18.5009

     occupation numbers 
     1.0000   1.0000   1.0000   1.0000   0.0000   0.0000   0.0000   0.0000
     0.0000   0.0000   0.0000   0.0000   0.0000   0.0000   0.0000   0.0000
     0.0000   0.0000   0.0000   0.0000   0.0000   0.0000   0.0000   0.0000
     0.0000   0.0000   0.0000   0.0000   0.0000   0.0000

          k = 0.1200 0.5620 0.0000 ( 11938 PWs)   bands (ev):

   -16.8668 -15.7080 -10.1918  -4.8007  -1.0828   6.2427   8.1395   8.8081
     8.9643   9.7252   9.9602  10.4092  10.7963  10.8410  11.1667  11.6403
    11.6519  12.2958  12.4020  13.1050  13.2517  14.3255  14.3924  15.0293
    15.3927  16.3190  16.9855  17.2542  17.9155  18.1828

     occupation numbers 
     1.0000   1.0000   1.0000   1.0000   0.0000   0.0000   0.0000   0.0000
     0.0000   0.0000   0.0000   0.0000   0.0000   0.0000   0.0000   0.0000
     0.0000   0.0000   0.0000   0.0000   0.0000   0.0000   0.0000   0.0000
     0.0000   0.0000   0.0000   0.0000   0.0000   0.0000

          k = 0.1200 0.5774 0.0000 ( 11947 PWs)   bands (ev):

   -16.7913 -15.7894 -10.1962  -4.7712  -1.1179   6.2407   8.4638   8.6342
     8.9705   9.5922  10.3916  10.3970  10.6975  10.8979  11.2028  11.2385
    11.7015  12.3728  12.6599  12.7399  13.1754  14.4893  14.5849  14.8021
    15.2570  16.3096  17.1480  17.4217  17.7310  18.0029

     occupation numbers 
     1.0000   1.0000   1.0000   1.0000   0.0000   0.0000   0.0000   0.0000
     0.0000   0.0000   0.0000   0.0000   0.0000   0.0000   0.0000   0.0000
     0.0000   0.0000   0.0000   0.0000   0.0000   0.0000   0.0000   0.0000
     0.0000   0.0000   0.0000   0.0000   0.0000   0.0000

          k = 0.1333 0.2309 0.0000 ( 11879 PWs)   bands (ev):

   -21.0314  -9.2547  -8.9062  -8.1211   1.9801   2.8562   3.5327   4.0548
     4.4396   5.2146   5.5570   6.0261   6.7932   7.6927   8.2454   8.4616
    10.3374  11.0480  13.0520  13.4460  14.5113  16.5005  18.2846  18.5608
    21.0959  21.5815  21.8782  21.9901  22.9922  23.3018

     occupation numbers 
     1.0000   1.0000   1.0000   1.0000   0.0000   0.0000   0.0000   0.0000
     0.0000   0.0000   0.0000   0.0000   0.0000   0.0000   0.0000   0.0000
     0.0000   0.0000   0.0000   0.0000   0.0000   0.0000   0.0000   0.0000
     0.0000   0.0000   0.0000   0.0000   0.0000   0.0000

          k = 0.1333 0.2463 0.0000 ( 11908 PWs)   bands (ev):

   -20.9028  -9.5104  -8.7548  -8.3187   2.1575   3.0337   3.7151   4.2358
     4.6207   4.9188   5.7360   6.2034   6.8990   7.8674   8.4227   8.6001
    10.5018  11.2257  13.3858  13.5737  14.6871  16.3419  18.2667  18.7294
    20.7659  21.2202  21.4756  22.0697  22.6853  22.8296

     occupation numbers 
     1.0000   1.0000   1.0000   1.0000   0.0000   0.0000   0.0000   0.0000
     0.0000   0.0000   0.0000   0.0000   0.0000   0.0000   0.0000   0.0000
     0.0000   0.0000   0.0000   0.0000   0.0000   0.0000   0.0000   0.0000
     0.0000   0.0000   0.0000   0.0000   0.0000   0.0000

          k = 0.1333 0.2617 0.0000 ( 11896 PWs)   bands (ev):

   -20.7661  -9.7789  -8.5945  -8.5101   2.3463   3.2222   3.9093   4.4276
     4.6148   4.8135   5.9264   6.3903   6.9777   8.0528   8.6086   8.7795
    10.6745  11.4145  13.6940  13.7233  14.8739  16.1546  18.3175  18.9063
    20.2988  20.8115  21.1841  22.0073  22.0171  22.3870

     occupation numbers 
     1.0000   1.0000   1.0000   1.0000   0.0000   0.0000   0.0000   0.0000
     0.0000   0.0000   0.0000   0.0000   0.0000   0.0000   0.0000   0.0000
     0.0000   0.0000   0.0000   0.0000   0.0000   0.0000   0.0000   0.0000
     0.0000   0.0000   0.0000   0.0000   0.0000   0.0000

          k = 0.1333 0.2771 0.0000 ( 11914 PWs)   bands (ev):

   -20.6214 -10.0597  -8.6935  -8.4255   2.5464   3.4209   4.1152   4.3009
     4.6341   5.0178   6.1282   6.5843   7.0315   8.2486   8.8049   8.9983
    10.8545  11.6146  13.8004  14.0574  15.0715  15.9698  18.4143  19.0862
    19.7701  20.3603  20.9533  21.3498  21.5915  22.0852

     occupation numbers 
     1.0000   1.0000   1.0000   1.0000   0.0000   0.0000   0.0000   0.0000
     0.0000   0.0000   0.0000   0.0000   0.0000   0.0000   0.0000   0.0000
     0.0000   0.0000   0.0000   0.0000   0.0000   0.0000   0.0000   0.0000
     0.0000   0.0000   0.0000   0.0000   0.0000   0.0000

          k = 0.1333 0.2925 0.0000 ( 11909 PWs)   bands (ev):

   -20.4687 -10.3516  -8.8677  -8.2479   2.7578   3.6251   3.9879   4.3329
     4.8496   5.2336   6.3412   6.7757   7.0739   8.4547   9.0134   9.2496
    11.0404  11.8259  13.8791  14.3834  15.2799  15.8164  18.5351  19.1347
    19.3663  19.8823  20.6587  20.7800  21.0333  21.5734

     occupation numbers 
     1.0000   1.0000   1.0000   1.0000   0.0000   0.0000   0.0000   0.0000
     0.0000   0.0000   0.0000   0.0000   0.0000   0.0000   0.0000   0.0000
     0.0000   0.0000   0.0000   0.0000   0.0000   0.0000   0.0000   0.0000
     0.0000   0.0000   0.0000   0.0000   0.0000   0.0000

          k = 0.1333 0.3079 0.0000 ( 11929 PWs)   bands (ev):

   -20.3082 -10.6532  -9.0322  -8.0620   2.9804   3.6298   3.8794   4.5623
     5.0771   5.4610   6.5653   6.9202   7.1544   8.6707   9.2346   9.5258
    11.2301  12.0483  13.9177  14.6921  15.4987  15.7189  18.6403  18.6486
    19.4196  19.5133  20.0301  20.4473  20.5605  20.9679

     occupation numbers 
     1.0000   1.0000   1.0000   1.0000   0.0000   0.0000   0.0000   0.0000
     0.0000   0.0000   0.0000   0.0000   0.0000   0.0000   0.0000   0.0000
     0.0000   0.0000   0.0000   0.0000   0.0000   0.0000   0.0000   0.0000
     0.0000   0.0000   0.0000   0.0000   0.0000   0.0000

          k = 0.1333 0.3233 0.0000 ( 11923 PWs)   bands (ev):

   -20.1399 -10.9629  -9.1869  -7.8681   3.2137   3.3118   4.0999   4.8035
     5.3161   5.6997   6.8005   6.9629   7.3337   8.8961   9.4680   9.8199
    11.4207  12.2817  13.9091  14.9691  15.6921  15.7277  18.1446  18.5554
    19.1492  19.3900  19.7110  19.8597  20.2643  20.4841

     occupation numbers 
     1.0000   1.0000   1.0000   1.0000   0.0000   0.0000   0.0000   0.0000
     0.0000   0.0000   0.0000   0.0000   0.0000   0.0000   0.0000   0.0000
     0.0000   0.0000   0.0000   0.0000   0.0000   0.0000   0.0000   0.0000
     0.0000   0.0000   0.0000   0.0000   0.0000   0.0000

          k = 0.1333 0.3387 0.0000 ( 11925 PWs)   bands (ev):

   -19.9640 -11.2789  -9.3318  -7.6667   2.9776   3.4595   4.3423   5.0565
     5.5667   5.9497   6.9555   7.0466   7.5646   9.1302   9.7131  10.1246
    11.6073  12.5261  13.8606  15.1888  15.7342  15.9665  17.6916  18.1475
    18.7689  19.1353  19.3544  19.6626  19.9518  20.2853

     occupation numbers 
     1.0000   1.0000   1.0000   1.0000   0.0000   0.0000   0.0000   0.0000
     0.0000   0.0000   0.0000   0.0000   0.0000   0.0000   0.0000   0.0000
     0.0000   0.0000   0.0000   0.0000   0.0000   0.0000   0.0000   0.0000
     0.0000   0.0000   0.0000   0.0000   0.0000   0.0000

          k = 0.1333 0.3541 0.0000 ( 11933 PWs)   bands (ev):

   -19.7804 -11.5997  -9.4672  -7.4581   2.6401   3.7156   4.5970   5.3211
     5.8288   6.2103   6.9320   7.3035   7.8172   9.3721   9.9694  10.4324
    11.7827  12.7814  13.7930  15.3072  15.8267  16.2151  17.3292  17.6601
    18.1619  18.6502  19.1145  19.4269  19.9822  19.9829

     occupation numbers 
     1.0000   1.0000   1.0000   1.0000   0.0000   0.0000   0.0000   0.0000
     0.0000   0.0000   0.0000   0.0000   0.0000   0.0000   0.0000   0.0000
     0.0000   0.0000   0.0000   0.0000   0.0000   0.0000   0.0000   0.0000
     0.0000   0.0000   0.0000   0.0000   0.0000   0.0000

          k = 0.1333 0.3695 0.0000 ( 11939 PWs)   bands (ev):

   -19.5894 -11.9238  -9.5931  -7.2429   2.3005   3.9828   4.8627   5.5975
     6.1022   6.4794   6.9042   7.5708   8.0845   9.6204  10.2366  10.7347
    11.9367  13.0472  13.7329  15.2711  15.9346  16.4733  17.0855  17.1882
    17.5837  18.0863  18.5699  19.4349  19.6442  19.8193

     occupation numbers 
     1.0000   1.0000   1.0000   1.0000   0.0000   0.0000   0.0000   0.0000
     0.0000   0.0000   0.0000   0.0000   0.0000   0.0000   0.0000   0.0000
     0.0000   0.0000   0.0000   0.0000   0.0000   0.0000   0.0000   0.0000
     0.0000   0.0000   0.0000   0.0000   0.0000   0.0000

          k = 0.1333 0.3849 0.0000 ( 11925 PWs)   bands (ev):

   -19.3910 -12.2497  -9.7097  -7.0218   1.9606   4.2609   5.1392   5.8856
     6.3871   6.7355   6.8973   7.8482   8.3647   9.8729  10.5142  11.0204
    12.0564  13.3232  13.7053  15.0760  15.9759  16.7405  16.8081  16.8249
    17.1407  17.5416  18.0823  18.9243  19.5096  19.8198

     occupation numbers 
     1.0000   1.0000   1.0000   1.0000   0.0000   0.0000   0.0000   0.0000
     0.0000   0.0000   0.0000   0.0000   0.0000   0.0000   0.0000   0.0000
     0.0000   0.0000   0.0000   0.0000   0.0000   0.0000   0.0000   0.0000
     0.0000   0.0000   0.0000   0.0000   0.0000   0.0000

          k = 0.1333 0.4003 0.0000 ( 11932 PWs)   bands (ev):

   -19.1854 -12.5764  -9.8172  -6.7956   1.6219   4.5499   5.4260   6.1852
     6.6832   6.7996   7.0929   8.1354   8.6568  10.1264  10.8015  11.2741
    12.1315  13.6084  13.7268  14.7889  15.7924  16.3225  16.6185  16.8976
    17.0194  17.0815  17.7310  18.4057  19.0986  19.7157

     occupation numbers 
     1.0000   1.0000   1.0000   1.0000   0.0000   0.0000   0.0000   0.0000
     0.0000   0.0000   0.0000   0.0000   0.0000   0.0000   0.0000   0.0000
     0.0000   0.0000   0.0000   0.0000   0.0000   0.0000   0.0000   0.0000
     0.0000   0.0000   0.0000   0.0000   0.0000   0.0000

          k = 0.1333 0.4157 0.0000 ( 11931 PWs)   bands (ev):

   -18.9729 -12.9026  -9.9156  -6.5654   1.2860   4.8496   5.7228   6.4957
     6.7733   6.9904   7.3916   8.4315   8.9605  10.3751  11.0961  11.4745
    12.1631  13.7952  13.8992  14.4891  15.4313  15.7729  16.3023  16.5389
    16.9720  17.3040  17.5359  17.9096  18.7359  19.5633

     occupation numbers 
     1.0000   1.0000   1.0000   1.0000   0.0000   0.0000   0.0000   0.0000
     0.0000   0.0000   0.0000   0.0000   0.0000   0.0000   0.0000   0.0000
     0.0000   0.0000   0.0000   0.0000   0.0000   0.0000   0.0000   0.0000
     0.0000   0.0000   0.0000   0.0000   0.0000   0.0000

          k = 0.1333 0.4311 0.0000 ( 11945 PWs)   bands (ev):

   -18.7537 -13.2273 -10.0050  -6.3324   0.9550   5.1598   6.0293   6.7308
     6.8284   7.3087   7.7089   8.7356   9.2755  10.6092  11.3834  11.6038
    12.1668  13.8778  14.1282  14.2987  15.0557  15.2285  15.8321  16.0889
    17.0184  17.3206  17.5278  17.5958  18.5044  19.2364

     occupation numbers 
     1.0000   1.0000   1.0000   1.0000   0.0000   0.0000   0.0000   0.0000
     0.0000   0.0000   0.0000   0.0000   0.0000   0.0000   0.0000   0.0000
     0.0000   0.0000   0.0000   0.0000   0.0000   0.0000   0.0000   0.0000
     0.0000   0.0000   0.0000   0.0000   0.0000   0.0000

          k = 0.1333 0.4465 0.0000 ( 11953 PWs)   bands (ev):

   -18.5282 -13.5495 -10.0854  -6.0984   0.6312   5.4800   6.3449   6.7042
     7.1580   7.6377   8.0391   9.0458   9.6015  10.8127  11.5118  11.7808
    12.1680  13.8911  13.9957  14.5390  14.7069  14.7605  15.3830  15.6265
    16.7377  16.9971  17.5475  17.8917  18.3763  18.7942

     occupation numbers 
     1.0000   1.0000   1.0000   1.0000   0.0000   0.0000   0.0000   0.0000
     0.0000   0.0000   0.0000   0.0000   0.0000   0.0000   0.0000   0.0000
     0.0000   0.0000   0.0000   0.0000   0.0000   0.0000   0.0000   0.0000
     0.0000   0.0000   0.0000   0.0000   0.0000   0.0000

          k = 0.1333 0.4619 0.0000 ( 11927 PWs)   bands (ev):

   -18.2968 -13.8681 -10.1568  -5.8657   0.3172   5.8094   6.6689   6.6761
     7.5043   7.9771   8.3812   9.3591   9.9381  10.9623  11.3874  12.0885
    12.1931  13.7382  13.8307  14.2180  14.5342  14.8496  15.0918  15.2052
    16.3050  16.6166  17.7436  18.1788  18.2333  18.3741

     occupation numbers 
     1.0000   1.0000   1.0000   1.0000   0.0000   0.0000   0.0000   0.0000
     0.0000   0.0000   0.0000   0.0000   0.0000   0.0000   0.0000   0.0000
     0.0000   0.0000   0.0000   0.0000   0.0000   0.0000   0.0000   0.0000
     0.0000   0.0000   0.0000   0.0000   0.0000   0.0000

          k = 0.1333 0.4773 0.0000 ( 11951 PWs)   bands (ev):

   -18.0602 -14.1820 -10.2194  -5.6374   0.0168   6.1447   6.6547   7.0004
     7.8627   8.3263   8.7349   9.6690  10.2844  11.0379  11.1377  12.2527
    12.4215  13.4790  13.5130  13.8893  14.1950  14.8029  15.0736  15.2115
    15.9029  16.2417  17.7324  17.9681  18.2086  18.4774

     occupation numbers 
     1.0000   1.0000   1.0000   1.0000   0.0000   0.0000   0.0000   0.0000
     0.0000   0.0000   0.0000   0.0000   0.0000   0.0000   0.0000   0.0000
     0.0000   0.0000   0.0000   0.0000   0.0000   0.0000   0.0000   0.0000
     0.0000   0.0000   0.0000   0.0000   0.0000   0.0000

          k = 0.1333 0.4927 0.0000 ( 11955 PWs)   bands (ev):

   -17.8196 -14.4895 -10.2730  -5.4176  -0.2656   6.4594   6.6673   7.3379
     8.2329   8.6843   9.0997   9.9607  10.6296  10.8236  11.0446  12.3128
    12.7635  13.0513  13.2224  13.6075  13.8311  14.5615  15.0347  15.4953
    15.6943  15.9452  17.3617  17.6429  18.4320  18.7158

     occupation numbers 
     1.0000   1.0000   1.0000   1.0000   0.0000   0.0000   0.0000   0.0000
     0.0000   0.0000   0.0000   0.0000   0.0000   0.0000   0.0000   0.0000
     0.0000   0.0000   0.0000   0.0000   0.0000   0.0000   0.0000   0.0000
     0.0000   0.0000   0.0000   0.0000   0.0000   0.0000

          k = 0.1333 0.5081 0.0000 ( 11947 PWs)   bands (ev):

   -17.5767 -14.7886 -10.3177  -5.2120  -0.5240   6.5639   6.9034   7.6792
     8.6148   9.0487   9.4753  10.1947  10.4330  11.0184  11.0283  12.2947
    12.5643  12.9868  13.1003  13.2587  13.5942  14.3538  14.7557  15.5511
    15.7970  15.9719  16.9643  17.3051  18.7169  18.8147

     occupation numbers 
     1.0000   1.0000   1.0000   1.0000   0.0000   0.0000   0.0000   0.0000
     0.0000   0.0000   0.0000   0.0000   0.0000   0.0000   0.0000   0.0000
     0.0000   0.0000   0.0000   0.0000   0.0000   0.0000   0.0000   0.0000
     0.0000   0.0000   0.0000   0.0000   0.0000   0.0000

          k = 0.1333 0.5235 0.0000 ( 11947 PWs)   bands (ev):

   -17.3353 -15.0754 -10.3534  -5.0281  -0.7505   6.5608   7.2601   8.0206
     9.0083   9.4129   9.8564  10.0492  10.2886  11.0807  11.3925  12.0841
    12.1575  12.7289  12.8156  13.4798  13.5656  14.0921  14.4327  15.4388
    15.9550  16.2314  16.6538  17.0233  18.8216  18.8372

     occupation numbers 
     1.0000   1.0000   1.0000   1.0000   0.0000   0.0000   0.0000   0.0000
     0.0000   0.0000   0.0000   0.0000   0.0000   0.0000   0.0000   0.0000
     0.0000   0.0000   0.0000   0.0000   0.0000   0.0000   0.0000   0.0000
     0.0000   0.0000   0.0000   0.0000   0.0000   0.0000

          k = 0.1333 0.5389 0.0000 ( 11935 PWs)   bands (ev):

   -17.1026 -15.3422 -10.3802  -4.8752  -0.9355   6.5516   7.6355   8.3547
     9.4128   9.6384   9.7427  10.2388  10.2637  11.2266  11.6111  11.7773
    11.9264  12.3846  12.5239  13.5591  13.7017  13.8916  14.2586  15.3271
    15.8643  16.3699  16.6536  16.9528  18.4656  18.7477

     occupation numbers 
     1.0000   1.0000   1.0000   1.0000   0.0000   0.0000   0.0000   0.0000
     0.0000   0.0000   0.0000   0.0000   0.0000   0.0000   0.0000   0.0000
     0.0000   0.0000   0.0000   0.0000   0.0000   0.0000   0.0000   0.0000
     0.0000   0.0000   0.0000   0.0000   0.0000   0.0000

          k = 0.1333 0.5543 0.0000 ( 11952 PWs)   bands (ev):

   -16.8964 -15.5713 -10.3981  -4.7642  -1.0681   6.5444   8.0199   8.6634
     9.2340   9.8309   9.8321  10.3358  10.6701  11.1500  11.2930  11.7122
    11.9431  12.1738  12.4401  13.3609  13.3869  14.2090  14.3551  15.1620
    15.5733  16.3139  16.9027  17.1663  18.1012  18.4259

     occupation numbers 
     1.0000   1.0000   1.0000   1.0000   0.0000   0.0000   0.0000   0.0000
     0.0000   0.0000   0.0000   0.0000   0.0000   0.0000   0.0000   0.0000
     0.0000   0.0000   0.0000   0.0000   0.0000   0.0000   0.0000   0.0000
     0.0000   0.0000   0.0000   0.0000   0.0000   0.0000

          k = 0.1333 0.5697 0.0000 ( 11950 PWs)   bands (ev):

   -16.7600 -15.7191 -10.4071  -4.7055  -1.1376   6.5405   8.4029   8.8407
     8.8895   9.7025  10.2592  10.6480  10.6988  11.0739  11.0868  11.5140
    11.6946  12.4493  12.5647  12.9732  13.2064  14.5235  14.5360  14.9364
    15.3199  16.2602  17.1717  17.4158  17.7933  18.1507

     occupation numbers 
     1.0000   1.0000   1.0000   1.0000   0.0000   0.0000   0.0000   0.0000
     0.0000   0.0000   0.0000   0.0000   0.0000   0.0000   0.0000   0.0000
     0.0000   0.0000   0.0000   0.0000   0.0000   0.0000   0.0000   0.0000
     0.0000   0.0000   0.0000   0.0000   0.0000   0.0000

          k = 0.1467 0.2540 0.0000 ( 11937 PWs)   bands (ev):

   -20.7702  -9.7525  -8.5993  -8.5276   2.3406   3.2168   3.9034   4.4226
     4.6258   4.8078   5.9203   6.3869   7.0441   8.0467   8.6078   8.6885
    10.6685  11.4088  13.6878  13.7311  14.8682  16.1471  18.3146  18.9012
    20.4862  20.8787  20.9970  22.0121  22.4168  22.4642

     occupation numbers 
     1.0000   1.0000   1.0000   1.0000   0.0000   0.0000   0.0000   0.0000
     0.0000   0.0000   0.0000   0.0000   0.0000   0.0000   0.0000   0.0000
     0.0000   0.0000   0.0000   0.0000   0.0000   0.0000   0.0000   0.0000
     0.0000   0.0000   0.0000   0.0000   0.0000   0.0000

          k = 0.1467 0.2694 0.0000 ( 11921 PWs)   bands (ev):

   -20.6296 -10.0068  -8.7301  -8.4349   2.5350   3.4108   4.1034   4.3249
     4.6212   5.0062   6.1160   6.5803   7.1618   8.2366   8.7940   8.8269
    10.8422  11.6032  13.7867  14.0755  15.0602  15.9553  18.4107  19.0788
    20.0703  20.4930  20.6438  21.7161  21.7697  22.2017

     occupation numbers 
     1.0000   1.0000   1.0000   1.0000   0.0000   0.0000   0.0000   0.0000
     0.0000   0.0000   0.0000   0.0000   0.0000   0.0000   0.0000   0.0000
     0.0000   0.0000   0.0000   0.0000   0.0000   0.0000   0.0000   0.0000
     0.0000   0.0000   0.0000   0.0000   0.0000   0.0000

          k = 0.1467 0.2848 0.0000 ( 11921 PWs)   bands (ev):

   -20.4811 -10.2736  -8.9237  -8.2619   2.7407   3.6143   4.0180   4.3153
     4.8312   5.2163   6.3230   6.7815   7.2483   8.4365   8.9700   9.0313
    11.0217  11.8087  13.8569  14.4144  15.2629  15.7966  18.5367  19.2385
    19.5802  20.0641  20.3968  21.1056  21.2752  21.7765

     occupation numbers 
     1.0000   1.0000   1.0000   1.0000   0.0000   0.0000   0.0000   0.0000
     0.0000   0.0000   0.0000   0.0000   0.0000   0.0000   0.0000   0.0000
     0.0000   0.0000   0.0000   0.0000   0.0000   0.0000   0.0000   0.0000
     0.0000   0.0000   0.0000   0.0000   0.0000   0.0000

          k = 0.1467 0.3002 0.0000 ( 11923 PWs)   bands (ev):

   -20.3247 -10.5524  -9.1068  -8.0805   2.9577   3.6876   3.8459   4.5388
     5.0529   5.4380   6.5411   6.9836   7.3117   8.6463   9.1738   9.2616
    11.2045  12.0254  13.8857  14.7400  15.4761  15.6965  18.6708  18.9687
    19.5034  19.6101  20.1895  20.4550  20.7561  21.3388

     occupation numbers 
     1.0000   1.0000   1.0000   1.0000   0.0000   0.0000   0.0000   0.0000
     0.0000   0.0000   0.0000   0.0000   0.0000   0.0000   0.0000   0.0000
     0.0000   0.0000   0.0000   0.0000   0.0000   0.0000   0.0000   0.0000
     0.0000   0.0000   0.0000   0.0000   0.0000   0.0000

          k = 0.1467 0.3156 0.0000 ( 11941 PWs)   bands (ev):

   -20.1605 -10.8420  -9.2786  -7.8910   3.1856   3.3751   4.0653   4.7741
     5.2860   5.6713   6.7702   7.1550   7.3893   8.8653   9.4029   9.5127
    11.3875  12.2531  13.8670  15.0405  15.6702  15.6997  18.4577  18.7287
    19.2208  19.6643  19.8089  20.0298  20.1934  20.7293

     occupation numbers 
     1.0000   1.0000   1.0000   1.0000   0.0000   0.0000   0.0000   0.0000
     0.0000   0.0000   0.0000   0.0000   0.0000   0.0000   0.0000   0.0000
     0.0000   0.0000   0.0000   0.0000   0.0000   0.0000   0.0000   0.0000
     0.0000   0.0000   0.0000   0.0000   0.0000   0.0000

          k = 0.1467 0.3310 0.0000 ( 11935 PWs)   bands (ev):

   -19.9886 -11.1410  -9.4388  -7.6937   3.0499   3.4256   4.3030   5.0212
     5.5307   5.9159   7.0102   7.2284   7.5556   9.0929   9.6478   9.7845
    11.5657  12.4918  13.8102  15.2955  15.7159  15.9332  17.9766  18.4278
    19.1678  19.1831  19.6192  19.7184  19.9940  20.1478

     occupation numbers 
     1.0000   1.0000   1.0000   1.0000   0.0000   0.0000   0.0000   0.0000
     0.0000   0.0000   0.0000   0.0000   0.0000   0.0000   0.0000   0.0000
     0.0000   0.0000   0.0000   0.0000   0.0000   0.0000   0.0000   0.0000
     0.0000   0.0000   0.0000   0.0000   0.0000   0.0000

          k = 0.1467 0.3464 0.0000 ( 11939 PWs)   bands (ev):

   -19.8090 -11.4475  -9.5877  -7.4890   2.7211   3.6760   4.5521   5.2800
     5.7868   6.1718   7.2344   7.2609   7.7866   9.3279   9.9032  10.0725
    11.7314  12.7413  13.7383  15.4668  15.8170  16.1763  17.5697  17.9463
    18.5532  19.0095  19.3652  19.4244  19.7174  20.1698

     occupation numbers 
     1.0000   1.0000   1.0000   1.0000   0.0000   0.0000   0.0000   0.0000
     0.0000   0.0000   0.0000   0.0000   0.0000   0.0000   0.0000   0.0000
     0.0000   0.0000   0.0000   0.0000   0.0000   0.0000   0.0000   0.0000
     0.0000   0.0000   0.0000   0.0000   0.0000   0.0000

          k = 0.1467 0.3618 0.0000 ( 11935 PWs)   bands (ev):

   -19.6220 -11.7599  -9.7256  -7.2774   2.3896   3.9376   4.8120   5.5506
     6.0543   6.4384   7.2177   7.5220   8.0431   9.5690  10.1674  10.3686
    11.8742  13.0015  13.6793  15.4942  15.9473  16.4292  17.2848  17.4535
    17.9571  18.4420  18.9048  19.5127  19.5341  19.7274

     occupation numbers 
     1.0000   1.0000   1.0000   1.0000   0.0000   0.0000   0.0000   0.0000
     0.0000   0.0000   0.0000   0.0000   0.0000   0.0000   0.0000   0.0000
     0.0000   0.0000   0.0000   0.0000   0.0000   0.0000   0.0000   0.0000
     0.0000   0.0000   0.0000   0.0000   0.0000   0.0000

          k = 0.1467 0.3772 0.0000 ( 11957 PWs)   bands (ev):

   -19.4275 -12.0764  -9.8528  -7.0595   2.0568   4.2102   5.0824   5.8328
     6.3332   6.7142   7.1932   7.7931   8.3154   9.8137  10.4398  10.6633
    11.9823  13.2720  13.6590  15.3406  16.0575  16.6916  17.0086  17.0962
    17.4221  17.8796  18.3868  19.2250  19.3366  19.6943

     occupation numbers 
     1.0000   1.0000   1.0000   1.0000   0.0000   0.0000   0.0000   0.0000
     0.0000   0.0000   0.0000   0.0000   0.0000   0.0000   0.0000   0.0000
     0.0000   0.0000   0.0000   0.0000   0.0000   0.0000   0.0000   0.0000
     0.0000   0.0000   0.0000   0.0000   0.0000   0.0000

          k = 0.1467 0.3926 0.0000 ( 11939 PWs)   bands (ev):

   -19.2259 -12.3955  -9.9697  -6.8360   1.7241   4.4937   5.3630   6.1268
     6.6232   6.9861   7.1794   8.0737   8.6007  10.0585  10.7188  10.9457
    12.0482  13.5524  13.6938  15.0539  16.0024  16.6901  16.7409  16.9630
    17.1470  17.3486  17.9617  18.7117  19.1233  19.6017

     occupation numbers 
     1.0000   1.0000   1.0000   1.0000   0.0000   0.0000   0.0000   0.0000
     0.0000   0.0000   0.0000   0.0000   0.0000   0.0000   0.0000   0.0000
     0.0000   0.0000   0.0000   0.0000   0.0000   0.0000   0.0000   0.0000
     0.0000   0.0000   0.0000   0.0000   0.0000   0.0000

          k = 0.1467 0.4080 0.0000 ( 11935 PWs)   bands (ev):

   -19.0172 -12.7159 -10.0766  -6.6078   1.3929   4.7880   5.6535   6.4323
     6.9244   7.0923   7.3408   8.3630   8.8980  10.2972  10.9982  11.2049
    12.0775  13.7829  13.8408  14.7177  15.6816  16.1438  16.5903  16.8580
    17.0116  17.2420  17.7268  18.2018  18.8283  19.3355

     occupation numbers 
     1.0000   1.0000   1.0000   1.0000   0.0000   0.0000   0.0000   0.0000
     0.0000   0.0000   0.0000   0.0000   0.0000   0.0000   0.0000   0.0000
     0.0000   0.0000   0.0000   0.0000   0.0000   0.0000   0.0000   0.0000
     0.0000   0.0000   0.0000   0.0000   0.0000   0.0000

          k = 0.1467 0.4234 0.0000 ( 11940 PWs)   bands (ev):

   -18.8016 -13.0362 -10.1737  -6.3761   1.0651   5.0930   5.9534   6.7489
     7.0704   7.2364   7.6423   8.6599   9.2069  10.5201  11.2504  11.4439
    12.0896  13.9023  14.1234  14.4069  15.2806  15.5924  16.1530  16.4253
    17.0790  17.5255  17.5671  17.7280  18.5525  19.1700

     occupation numbers 
     1.0000   1.0000   1.0000   1.0000   0.0000   0.0000   0.0000   0.0000
     0.0000   0.0000   0.0000   0.0000   0.0000   0.0000   0.0000   0.0000
     0.0000   0.0000   0.0000   0.0000   0.0000   0.0000   0.0000   0.0000
     0.0000   0.0000   0.0000   0.0000   0.0000   0.0000

          k = 0.1467 0.4388 0.0000 ( 11945 PWs)   bands (ev):

   -18.5796 -13.3553 -10.2612  -6.1424   0.7426   5.4083   6.2621   7.0260
     7.0915   7.5592   7.9648   8.9624   9.5269  10.7125  11.3968  11.7093
    12.1116  13.9894  14.0853  14.4766  14.9285  15.0527  15.6669  15.9505
    17.0107  17.2919  17.5187  17.8134  18.4048  18.9932

     occupation numbers 
     1.0000   1.0000   1.0000   1.0000   0.0000   0.0000   0.0000   0.0000
     0.0000   0.0000   0.0000   0.0000   0.0000   0.0000   0.0000   0.0000
     0.0000   0.0000   0.0000   0.0000   0.0000   0.0000   0.0000   0.0000
     0.0000   0.0000   0.0000   0.0000   0.0000   0.0000

          k = 0.1467 0.4542 0.0000 ( 11943 PWs)   bands (ev):

   -18.3516 -13.6719 -10.3393  -5.9086   0.4279   5.7336   6.5790   7.0054
     7.4227   7.8922   8.3004   9.2671   9.8577  10.8572  11.3923  12.0147
    12.1685  13.8885  13.9155  14.5276  14.7179  14.7856  15.2473  15.4857
    16.5965  16.9171  17.6976  18.0913  18.3283  18.5777

     occupation numbers 
     1.0000   1.0000   1.0000   1.0000   0.0000   0.0000   0.0000   0.0000
     0.0000   0.0000   0.0000   0.0000   0.0000   0.0000   0.0000   0.0000
     0.0000   0.0000   0.0000   0.0000   0.0000   0.0000   0.0000   0.0000
     0.0000   0.0000   0.0000   0.0000   0.0000   0.0000

          k = 0.1467 0.4696 0.0000 ( 11953 PWs)   bands (ev):

   -18.1180 -13.9850 -10.4080  -5.6773   0.1240   6.0681   6.9029   6.9787
     7.7747   8.2348   8.6480   9.5676  10.1985  10.9454  11.2483  12.2673
    12.3399  13.6609  13.7019  14.0662  14.4695  14.9919  15.1044  15.1667
    16.1524  16.5151  17.8888  18.1903  18.2090  18.3212

     occupation numbers 
     1.0000   1.0000   1.0000   1.0000   0.0000   0.0000   0.0000   0.0000
     0.0000   0.0000   0.0000   0.0000   0.0000   0.0000   0.0000   0.0000
     0.0000   0.0000   0.0000   0.0000   0.0000   0.0000   0.0000   0.0000
     0.0000   0.0000   0.0000   0.0000   0.0000   0.0000

          k = 0.1467 0.4850 0.0000 ( 11961 PWs)   bands (ev):

   -17.8798 -14.2930 -10.4674  -5.4521  -0.1650   6.4091   6.9579   7.2322
     8.1389   8.5859   9.0069   9.8504  10.5463  10.9895  10.9985  12.3742
    12.6757  13.3579  13.3777  13.7553  14.0779  14.6846  15.1648  15.4385
    15.7959  16.1420  17.6283  17.9174  18.3066  18.3760

     occupation numbers 
     1.0000   1.0000   1.0000   1.0000   0.0000   0.0000   0.0000   0.0000
     0.0000   0.0000   0.0000   0.0000   0.0000   0.0000   0.0000   0.0000
     0.0000   0.0000   0.0000   0.0000   0.0000   0.0000   0.0000   0.0000
     0.0000   0.0000   0.0000   0.0000   0.0000   0.0000

          k = 0.1467 0.5004 0.0000 ( 11953 PWs)   bands (ev):

   -17.6384 -14.5942 -10.5177  -5.2376  -0.4341   6.7375   6.9628   7.5646
     8.5149   8.9432   9.3768  10.0867  10.6518  10.9292  11.0261  12.3980
    12.8864  13.0231  13.1661  13.4718  13.7245  14.4421  15.0008  15.6312
    15.7650  15.9457  17.2137  17.5706  18.3523  18.5672

     occupation numbers 
     1.0000   1.0000   1.0000   1.0000   0.0000   0.0000   0.0000   0.0000
     0.0000   0.0000   0.0000   0.0000   0.0000   0.0000   0.0000   0.0000
     0.0000   0.0000   0.0000   0.0000   0.0000   0.0000   0.0000   0.0000
     0.0000   0.0000   0.0000   0.0000   0.0000   0.0000

          k = 0.1467 0.5158 0.0000 ( 11941 PWs)   bands (ev):

   -17.3963 -14.8856 -10.5587  -5.0405  -0.6763   6.8713   7.1752   7.8960
     8.9026   9.3007   9.7564  10.2283  10.2961  11.1051  11.2909  12.2764
    12.4124  12.9504  13.0781  13.3911  13.5938  14.2324  14.6517  15.4865
    15.9587  16.1683  16.8285  17.2326  18.3229  18.7829

     occupation numbers 
     1.0000   1.0000   1.0000   1.0000   0.0000   0.0000   0.0000   0.0000
     0.0000   0.0000   0.0000   0.0000   0.0000   0.0000   0.0000   0.0000
     0.0000   0.0000   0.0000   0.0000   0.0000   0.0000   0.0000   0.0000
     0.0000   0.0000   0.0000   0.0000   0.0000   0.0000

          k = 0.1467 0.5312 0.0000 ( 11943 PWs)   bands (ev):

   -17.1586 -15.1620 -10.5906  -4.8693  -0.8829   6.8720   7.5334   8.2194
     9.3017   9.6373   9.9002  10.1573  10.2612  11.2389  11.6683  11.9379
    12.0858  12.6667  12.6747  13.6573  13.7080  13.9884  14.3503  15.3491
    16.0440  16.3959  16.6312  17.0055  18.2970  18.6214

     occupation numbers 
     1.0000   1.0000   1.0000   1.0000   0.0000   0.0000   0.0000   0.0000
     0.0000   0.0000   0.0000   0.0000   0.0000   0.0000   0.0000   0.0000
     0.0000   0.0000   0.0000   0.0000   0.0000   0.0000   0.0000   0.0000
     0.0000   0.0000   0.0000   0.0000   0.0000   0.0000

          k = 0.1467 0.5466 0.0000 ( 11948 PWs)   bands (ev):

   -16.9366 -15.4117 -10.6134  -4.7345  -1.0432   6.8649   7.9108   8.5201
     9.5062   9.7143   9.8487  10.3187  10.5547  11.3380  11.4708  11.8865
    12.0506  12.2514  12.4807  13.5744  13.5964  14.1112  14.3190  15.2320
    15.7979  16.3786  16.8115  17.0920  18.2767  18.2846

     occupation numbers 
     1.0000   1.0000   1.0000   1.0000   0.0000   0.0000   0.0000   0.0000
     0.0000   0.0000   0.0000   0.0000   0.0000   0.0000   0.0000   0.0000
     0.0000   0.0000   0.0000   0.0000   0.0000   0.0000   0.0000   0.0000
     0.0000   0.0000   0.0000   0.0000   0.0000   0.0000

          k = 0.1467 0.5620 0.0000 ( 11956 PWs)   bands (ev):

   -16.7583 -15.6068 -10.6271  -4.6473  -1.1457   6.8597   8.2947   8.7629
     9.1109   9.8192  10.1358  10.5727  10.9643  11.0161  11.2530  11.7456
    11.8129  12.4483  12.4874  13.2350  13.3328  14.4239  14.5210  15.0754
    15.4815  16.2617  17.1113  17.3501  17.9408  18.2611

     occupation numbers 
     1.0000   1.0000   1.0000   1.0000   0.0000   0.0000   0.0000   0.0000
     0.0000   0.0000   0.0000   0.0000   0.0000   0.0000   0.0000   0.0000
     0.0000   0.0000   0.0000   0.0000   0.0000   0.0000   0.0000   0.0000
     0.0000   0.0000   0.0000   0.0000   0.0000   0.0000

          k = 0.1467 0.5774 0.0000 ( 11941 PWs)   bands (ev):

   -16.6834 -15.6872 -10.6316  -4.6170  -1.1811   6.8579   8.6101   8.7911
     8.8670   9.7662  10.5665  10.5727  10.8006  11.0739  11.3649  11.4074
    11.7099  12.5480  12.7913  12.8972  13.1977  14.6152  14.6630  14.9403
    15.3098  16.2154  17.3198  17.5031  17.7208  18.2019

     occupation numbers 
     1.0000   1.0000   1.0000   1.0000   0.0000   0.0000   0.0000   0.0000
     0.0000   0.0000   0.0000   0.0000   0.0000   0.0000   0.0000   0.0000
     0.0000   0.0000   0.0000   0.0000   0.0000   0.0000   0.0000   0.0000
     0.0000   0.0000   0.0000   0.0000   0.0000   0.0000

          k = 0.1600 0.2771 0.0000 ( 11921 PWs)   bands (ev):

   -20.4853 -10.2458  -8.9442  -8.2666   2.7351   3.6104   4.0285   4.3094
     4.8251   5.2106   6.3169   6.7802   7.3240   8.4305   8.8958   9.0041
    11.0154  11.8030  13.8494  14.4248  15.2572  15.7898  18.5367  19.2462
    19.7874  20.1378  20.1684  21.3350  21.5231  21.5483

     occupation numbers 
     1.0000   1.0000   1.0000   1.0000   0.0000   0.0000   0.0000   0.0000
     0.0000   0.0000   0.0000   0.0000   0.0000   0.0000   0.0000   0.0000
     0.0000   0.0000   0.0000   0.0000   0.0000   0.0000   0.0000   0.0000
     0.0000   0.0000   0.0000   0.0000   0.0000   0.0000

          k = 0.1600 0.2925 0.0000 ( 11923 PWs)   bands (ev):

   -20.3330 -10.4969  -9.1493  -8.0898   2.9463   3.7231   3.8230   4.5271
     5.0408   5.4266   6.5290   6.9885   7.4537   8.6341   9.0190   9.2174
    11.1916  12.0139  13.8693  14.7641  15.4649  15.6847  18.6810  19.2291
    19.5428  19.7415  19.8609  20.8760  20.9157  21.3128

     occupation numbers 
     1.0000   1.0000   1.0000   1.0000   0.0000   0.0000   0.0000   0.0000
     0.0000   0.0000   0.0000   0.0000   0.0000   0.0000   0.0000   0.0000
     0.0000   0.0000   0.0000   0.0000   0.0000   0.0000   0.0000   0.0000
     0.0000   0.0000   0.0000   0.0000   0.0000   0.0000

          k = 0.1600 0.3079 0.0000 ( 11929 PWs)   bands (ev):

   -20.1729 -10.7604  -9.3430  -7.9047   3.1687   3.4148   4.0436   4.7565
     5.2680   5.6541   6.7520   7.1999   7.5504   8.8468   9.1918   9.4432
    11.3675  12.2359  13.8410  15.0840  15.6558  15.6829  18.7678  18.8137
    19.3266  19.5748  19.7539  20.2286  20.4540  20.9655

     occupation numbers 
     1.0000   1.0000   1.0000   1.0000   0.0000   0.0000   0.0000   0.0000
     0.0000   0.0000   0.0000   0.0000   0.0000   0.0000   0.0000   0.0000
     0.0000   0.0000   0.0000   0.0000   0.0000   0.0000   0.0000   0.0000
     0.0000   0.0000   0.0000   0.0000   0.0000   0.0000

          k = 0.1600 0.3233 0.0000 ( 11935 PWs)   bands (ev):

   -20.0050 -11.0358  -9.5239  -7.7116   3.0996   3.4030   4.2762   4.9977
     5.5067   5.8931   6.9859   7.3928   7.6387   9.0678   9.4094   9.6811
    11.5375  12.4689  13.7751  15.3686  15.7015  15.9109  18.2716  18.6909
    19.1411  19.4054  19.6012  19.9199  19.9336  20.5165

     occupation numbers 
     1.0000   1.0000   1.0000   1.0000   0.0000   0.0000   0.0000   0.0000
     0.0000   0.0000   0.0000   0.0000   0.0000   0.0000   0.0000   0.0000
     0.0000   0.0000   0.0000   0.0000   0.0000   0.0000   0.0000   0.0000
     0.0000   0.0000   0.0000   0.0000   0.0000   0.0000

          k = 0.1600 0.3387 0.0000 ( 11939 PWs)   bands (ev):

   -19.8295 -11.3219  -9.6915  -7.5110   2.7809   3.6477   4.5195   5.2507
     5.7568   6.1436   7.2304   7.5019   7.7923   9.2962   9.6607   9.9314
    11.6939  12.7127  13.6967  15.5881  15.8060  16.1486  17.8235  18.2348
    18.9518  19.2547  19.2673  19.3759  19.9063  20.1445

     occupation numbers 
     1.0000   1.0000   1.0000   1.0000   0.0000   0.0000   0.0000   0.0000
     0.0000   0.0000   0.0000   0.0000   0.0000   0.0000   0.0000   0.0000
     0.0000   0.0000   0.0000   0.0000   0.0000   0.0000   0.0000   0.0000
     0.0000   0.0000   0.0000   0.0000   0.0000   0.0000

          k = 0.1600 0.3541 0.0000 ( 11951 PWs)   bands (ev):

   -19.6465 -11.6170  -9.8459  -7.3032   2.4588   3.9037   4.7734   5.5153
     6.0183   6.4053   7.4852   7.5267   8.0211   9.5301   9.9331  10.1940
    11.8259  12.9672  13.6353  15.6870  15.9475  16.3957  17.4786  17.7376
    18.3482  18.8042  19.0440  19.3857  19.4055  19.9244

     occupation numbers 
     1.0000   1.0000   1.0000   1.0000   0.0000   0.0000   0.0000   0.0000
     0.0000   0.0000   0.0000   0.0000   0.0000   0.0000   0.0000   0.0000
     0.0000   0.0000   0.0000   0.0000   0.0000   0.0000   0.0000   0.0000
     0.0000   0.0000   0.0000   0.0000   0.0000   0.0000

          k = 0.1600 0.3695 0.0000 ( 11953 PWs)   bands (ev):

   -19.4560 -11.9193  -9.9876  -7.0888   2.1346   4.1707   5.0377   5.7918
     6.2911   6.6780   7.5190   7.7499   8.2808   9.7670  10.2151  10.4681
    11.9221  13.2322  13.6176  15.6009  16.0956  16.6521  17.2567  17.2785
    17.7680  18.2360  18.6660  19.0614  19.3686  19.6652

     occupation numbers 
     1.0000   1.0000   1.0000   1.0000   0.0000   0.0000   0.0000   0.0000
     0.0000   0.0000   0.0000   0.0000   0.0000   0.0000   0.0000   0.0000
     0.0000   0.0000   0.0000   0.0000   0.0000   0.0000   0.0000   0.0000
     0.0000   0.0000   0.0000   0.0000   0.0000   0.0000

          k = 0.1600 0.3849 0.0000 ( 11949 PWs)   bands (ev):

   -19.2582 -12.2269 -10.1172  -6.8684   1.8094   4.4487   5.3119   6.0799
     6.5751   6.9603   7.4991   8.0239   8.5576  10.0030  10.4964  10.7519
    11.9777  13.5072  13.6597  15.3409  16.1629  16.8785  16.9170  17.0425
    17.3482  17.6811  18.1977  18.8820  18.9744  19.5852

     occupation numbers 
     1.0000   1.0000   1.0000   1.0000   0.0000   0.0000   0.0000   0.0000
     0.0000   0.0000   0.0000   0.0000   0.0000   0.0000   0.0000   0.0000
     0.0000   0.0000   0.0000   0.0000   0.0000   0.0000   0.0000   0.0000
     0.0000   0.0000   0.0000   0.0000   0.0000   0.0000

          k = 0.1600 0.4003 0.0000 ( 11937 PWs)   bands (ev):

   -19.0534 -12.5382 -10.2351  -6.6428   1.4846   4.7375   5.5959   6.3797
     6.8701   7.2442   7.4823   8.3064   8.8478  10.2316  10.7658  11.0425
    12.0015  13.7610  13.7914  14.9922  15.9451  16.5248  16.7675  17.1434
    17.1826  17.1892  17.8568  18.4916  18.6951  19.4361

     occupation numbers 
     1.0000   1.0000   1.0000   1.0000   0.0000   0.0000   0.0000   0.0000
     0.0000   0.0000   0.0000   0.0000   0.0000   0.0000   0.0000   0.0000
     0.0000   0.0000   0.0000   0.0000   0.0000   0.0000   0.0000   0.0000
     0.0000   0.0000   0.0000   0.0000   0.0000   0.0000

          k = 0.1600 0.4157 0.0000 ( 11943 PWs)   bands (ev):

   -18.8417 -12.8513 -10.3420  -6.4129   1.1616   5.0370   5.8892   6.6912
     7.1760   7.3995   7.6027   8.5961   9.1502  10.4429  11.0071  11.3380
    12.0160  13.9032  14.0807  14.6300  15.5425  15.9699  16.4883  16.7673
    17.0801  17.4635  17.7121  17.9995  18.4424  19.1808

     occupation numbers 
     1.0000   1.0000   1.0000   1.0000   0.0000   0.0000   0.0000   0.0000
     0.0000   0.0000   0.0000   0.0000   0.0000   0.0000   0.0000   0.0000
     0.0000   0.0000   0.0000   0.0000   0.0000   0.0000   0.0000   0.0000
     0.0000   0.0000   0.0000   0.0000   0.0000   0.0000

          k = 0.1600 0.4311 0.0000 ( 11946 PWs)   bands (ev):

   -18.6233 -13.1650 -10.4383  -6.1801   0.8424   5.3470   6.1910   7.0138
     7.3845   7.4924   7.9047   8.8907   9.4641  10.6231  11.1941  11.6397
    12.0499  14.0449  14.2375  14.4367  15.1402  15.4214  15.9942  16.2956
    17.1983  17.5448  17.5819  17.7321  18.2072  19.0275

     occupation numbers 
     1.0000   1.0000   1.0000   1.0000   0.0000   0.0000   0.0000   0.0000
     0.0000   0.0000   0.0000   0.0000   0.0000   0.0000   0.0000   0.0000
     0.0000   0.0000   0.0000   0.0000   0.0000   0.0000   0.0000   0.0000
     0.0000   0.0000   0.0000   0.0000   0.0000   0.0000

          k = 0.1600 0.4465 0.0000 ( 11949 PWs)   bands (ev):

   -18.3987 -13.4778 -10.5243  -5.9460   0.5289   5.6674   6.5006   7.3278
     7.3767   7.8190   8.2321   9.1867   9.7889  10.7593  11.2915  11.9502
    12.1274  13.9874  14.0788  14.7140  14.8582  14.8900  15.5124  15.8119
    16.9052  17.2239  17.6289  17.9198  18.1644  18.7154

     occupation numbers 
     1.0000   1.0000   1.0000   1.0000   0.0000   0.0000   0.0000   0.0000
     0.0000   0.0000   0.0000   0.0000   0.0000   0.0000   0.0000   0.0000
     0.0000   0.0000   0.0000   0.0000   0.0000   0.0000   0.0000   0.0000
     0.0000   0.0000   0.0000   0.0000   0.0000   0.0000

          k = 0.1600 0.4619 0.0000 ( 11945 PWs)   bands (ev):

   -18.1683 -13.7884 -10.6002  -5.7128   0.2239   5.9976   6.8167   7.3234
     7.6991   8.1549   8.5731   9.4771  10.1239  10.8505  11.2681  12.2550
    12.2709  13.7803  13.8756  14.3724  14.7175  15.0237  15.1773  15.3563
    16.4464  16.8201  17.8680  17.9230  18.3352  18.3400

     occupation numbers 
     1.0000   1.0000   1.0000   1.0000   0.0000   0.0000   0.0000   0.0000
     0.0000   0.0000   0.0000   0.0000   0.0000   0.0000   0.0000   0.0000
     0.0000   0.0000   0.0000   0.0000   0.0000   0.0000   0.0000   0.0000
     0.0000   0.0000   0.0000   0.0000   0.0000   0.0000

          k = 0.1600 0.4773 0.0000 ( 11947 PWs)   bands (ev):

   -17.9329 -14.0954 -10.6664  -5.4835  -0.0692   6.3369   7.1376   7.2981
     8.0568   8.4990   8.9259   9.7494  10.4674  10.9156  11.1187  12.4071
    12.6001  13.5642  13.5772  13.9263  14.3721  14.9007  15.2097  15.3748
    16.0136  16.4108  17.8795  17.8928  18.1565  18.2432

     occupation numbers 
     1.0000   1.0000   1.0000   1.0000   0.0000   0.0000   0.0000   0.0000
     0.0000   0.0000   0.0000   0.0000   0.0000   0.0000   0.0000   0.0000
     0.0000   0.0000   0.0000   0.0000   0.0000   0.0000   0.0000   0.0000
     0.0000   0.0000   0.0000   0.0000   0.0000   0.0000

          k = 0.1600 0.4927 0.0000 ( 11947 PWs)   bands (ev):

   -17.6936 -14.3970 -10.7228  -5.2621  -0.3461   6.6832   7.2780   7.4606
     8.4268   8.8488   9.2900   9.9804  10.7771  10.9094  10.9896  12.5031
    12.9310  13.2164  13.3099  13.6328  13.9585  14.5677  15.2258  15.6569
    15.7764  16.0636  17.4781  17.7926  17.9385  18.3784

     occupation numbers 
     1.0000   1.0000   1.0000   1.0000   0.0000   0.0000   0.0000   0.0000
     0.0000   0.0000   0.0000   0.0000   0.0000   0.0000   0.0000   0.0000
     0.0000   0.0000   0.0000   0.0000   0.0000   0.0000   0.0000   0.0000
     0.0000   0.0000   0.0000   0.0000   0.0000   0.0000

          k = 0.1600 0.5081 0.0000 ( 11947 PWs)   bands (ev):

   -17.4521 -14.6910 -10.7697  -5.0542  -0.6008   7.0229   7.2771   7.7814
     8.8086   9.1988   9.6644  10.1419  10.5266  11.1070  11.2021  12.4215
    12.7451  13.1649  13.2274  13.3934  13.6651  14.3320  14.9170  15.6127
    15.9223  16.1053  17.0633  17.4894  17.8330  18.5294

     occupation numbers 
     1.0000   1.0000   1.0000   1.0000   0.0000   0.0000   0.0000   0.0000
     0.0000   0.0000   0.0000   0.0000   0.0000   0.0000   0.0000   0.0000
     0.0000   0.0000   0.0000   0.0000   0.0000   0.0000   0.0000   0.0000
     0.0000   0.0000   0.0000   0.0000   0.0000   0.0000

          k = 0.1600 0.5235 0.0000 ( 11945 PWs)   bands (ev):

   -17.2122 -14.9735 -10.8071  -4.8672  -0.8255   7.1937   7.4577   8.0929
     9.2019   9.5329  10.0385  10.1784  10.2323  11.2652  11.5725  12.2233
    12.2721  12.8974  12.9504  13.6330  13.6892  14.1309  14.5490  15.4042
    16.1326  16.3720  16.7199  17.1737  17.7946  18.5235

     occupation numbers 
     1.0000   1.0000   1.0000   1.0000   0.0000   0.0000   0.0000   0.0000
     0.0000   0.0000   0.0000   0.0000   0.0000   0.0000   0.0000   0.0000
     0.0000   0.0000   0.0000   0.0000   0.0000   0.0000   0.0000   0.0000
     0.0000   0.0000   0.0000   0.0000   0.0000   0.0000

          k = 0.1600 0.5389 0.0000 ( 11946 PWs)   bands (ev):

   -16.9811 -15.2367 -10.8352  -4.7109  -1.0103   7.1995   7.8151   8.3821
     9.6057   9.7800   9.7945  10.3211  10.4515  11.3865  11.8010  11.9530
    12.0510  12.5456  12.5993  13.7505  13.7725  14.0568  14.3359  15.2667
    16.0383  16.4787  16.7290  17.0685  17.7702  18.3523

     occupation numbers 
     1.0000   1.0000   1.0000   1.0000   0.0000   0.0000   0.0000   0.0000
     0.0000   0.0000   0.0000   0.0000   0.0000   0.0000   0.0000   0.0000
     0.0000   0.0000   0.0000   0.0000   0.0000   0.0000   0.0000   0.0000
     0.0000   0.0000   0.0000   0.0000   0.0000   0.0000

          k = 0.1600 0.5543 0.0000 ( 11954 PWs)   bands (ev):

   -16.7764 -15.4628 -10.8538  -4.5969  -1.1435   7.1947   8.1931   8.6240
     9.3883   9.8851  10.0244  10.5290  10.8558  11.3418  11.3651  11.9004
    12.1129  12.3460  12.5022  13.4814  13.5371  14.3347  14.4765  15.1598
    15.7074  16.3372  17.0146  17.2655  17.7613  18.0734

     occupation numbers 
     1.0000   1.0000   1.0000   1.0000   0.0000   0.0000   0.0000   0.0000
     0.0000   0.0000   0.0000   0.0000   0.0000   0.0000   0.0000   0.0000
     0.0000   0.0000   0.0000   0.0000   0.0000   0.0000   0.0000   0.0000
     0.0000   0.0000   0.0000   0.0000   0.0000   0.0000

          k = 0.1600 0.5697 0.0000 ( 11954 PWs)   bands (ev):

   -16.6412 -15.6089 -10.8632  -4.5362  -1.2137   7.1915   8.5689   8.7724
     9.0059   9.8713  10.4521  10.7958  10.8913  11.2221  11.2695  11.6931
    11.7567  12.6163  12.7225  13.1245  13.2840  14.5787  14.7132  15.0444
    15.4123  16.2149  17.3299  17.4712  17.7646  17.7804

     occupation numbers 
     1.0000   1.0000   1.0000   1.0000   0.0000   0.0000   0.0000   0.0000
     0.0000   0.0000   0.0000   0.0000   0.0000   0.0000   0.0000   0.0000
     0.0000   0.0000   0.0000   0.0000   0.0000   0.0000   0.0000   0.0000
     0.0000   0.0000   0.0000   0.0000   0.0000   0.0000

          k = 0.1733 0.3002 0.0000 ( 11929 PWs)   bands (ev):

   -20.1770 -10.7312  -9.3665  -7.9093   3.1631   3.4283   4.0362   4.7506
     5.2619   5.6484   6.7459   7.2038   7.6335   8.8406   9.0891   9.4340
    11.3607  12.2302  13.8322  15.0986  15.6509  15.6773  18.8356  18.9607
    19.3815  19.4085  19.7087  20.5288  20.6496  20.6688

     occupation numbers 
     1.0000   1.0000   1.0000   1.0000   0.0000   0.0000   0.0000   0.0000
     0.0000   0.0000   0.0000   0.0000   0.0000   0.0000   0.0000   0.0000
     0.0000   0.0000   0.0000   0.0000   0.0000   0.0000   0.0000   0.0000
     0.0000   0.0000   0.0000   0.0000   0.0000   0.0000

          k = 0.1733 0.3156 0.0000 ( 11933 PWs)   bands (ev):

   -20.0132 -10.9776  -9.5721  -7.7206   3.1250   3.3917   4.2625   4.9860
     5.4946   5.8817   6.9737   7.4236   7.7770   9.0553   9.2108   9.6634
    11.5233  12.4574  13.7572  15.4057  15.6938  15.8997  18.5380  18.9081
    19.0577  19.1247  19.8951  20.0207  20.1290  20.4543

     occupation numbers 
     1.0000   1.0000   1.0000   1.0000   0.0000   0.0000   0.0000   0.0000
     0.0000   0.0000   0.0000   0.0000   0.0000   0.0000   0.0000   0.0000
     0.0000   0.0000   0.0000   0.0000   0.0000   0.0000   0.0000   0.0000
     0.0000   0.0000   0.0000   0.0000   0.0000   0.0000

          k = 0.1733 0.3310 0.0000 ( 11943 PWs)   bands (ev):

   -19.8418 -11.2366  -9.7639  -7.5243   2.8176   3.6308   4.4997   5.2330
     5.7387   6.1266   7.2120   7.6327   7.8940   9.2770   9.3888   9.9046
    11.6711  12.6955  13.6708  15.6638  15.7980  16.1318  18.0765  18.4944
    18.9243  19.1558  19.3880  19.6856  20.0805  20.2087

     occupation numbers 
     1.0000   1.0000   1.0000   1.0000   0.0000   0.0000   0.0000   0.0000
     0.0000   0.0000   0.0000   0.0000   0.0000   0.0000   0.0000   0.0000
     0.0000   0.0000   0.0000   0.0000   0.0000   0.0000   0.0000   0.0000
     0.0000   0.0000   0.0000   0.0000   0.0000   0.0000

          k = 0.1733 0.3464 0.0000 ( 11949 PWs)   bands (ev):

   -19.6628 -11.5075  -9.9408  -7.3205   2.5062   3.8811   4.7474   5.4918
     5.9942   6.3829   7.4606   7.7773   8.0439   9.5039   9.6146  10.1574
    11.7929  12.9443  13.6044  15.8301  15.9438  16.3730  17.6715  18.0138
    18.6986  18.8305  19.1016  19.3033  19.7147  19.9663

     occupation numbers 
     1.0000   1.0000   1.0000   1.0000   0.0000   0.0000   0.0000   0.0000
     0.0000   0.0000   0.0000   0.0000   0.0000   0.0000   0.0000   0.0000
     0.0000   0.0000   0.0000   0.0000   0.0000   0.0000   0.0000   0.0000
     0.0000   0.0000   0.0000   0.0000   0.0000   0.0000

          k = 0.1733 0.3618 0.0000 ( 11951 PWs)   bands (ev):

   -19.4763 -11.7890 -10.1027  -7.1098   2.1918   4.1425   5.0053   5.7624
     6.2610   6.6504   7.7189   7.8279   8.2682   9.7332   9.8730  10.4215
    11.8778  13.2037  13.5854  15.8327  16.1098  16.6228  17.3972  17.5265
    18.1483  18.5859  18.6126  19.1818  19.2121  19.8494

     occupation numbers 
     1.0000   1.0000   1.0000   1.0000   0.0000   0.0000   0.0000   0.0000
     0.0000   0.0000   0.0000   0.0000   0.0000   0.0000   0.0000   0.0000
     0.0000   0.0000   0.0000   0.0000   0.0000   0.0000   0.0000   0.0000
     0.0000   0.0000   0.0000   0.0000   0.0000   0.0000

          k = 0.1733 0.3772 0.0000 ( 11957 PWs)   bands (ev):

   -19.2825 -12.0793 -10.2499  -6.8928   1.8756   4.4148   5.2732   6.0447
     6.5389   6.9290   7.8325   7.9864   8.5301   9.9606  10.1481  10.6967
    11.9226  13.4732  13.6300  15.6317  16.2526  16.8799  17.0791  17.2573
    17.5904  18.0326  18.3464  18.7886  19.0061  19.6069

     occupation numbers 
     1.0000   1.0000   1.0000   1.0000   0.0000   0.0000   0.0000   0.0000
     0.0000   0.0000   0.0000   0.0000   0.0000   0.0000   0.0000   0.0000
     0.0000   0.0000   0.0000   0.0000   0.0000   0.0000   0.0000   0.0000
     0.0000   0.0000   0.0000   0.0000   0.0000   0.0000

          k = 0.1733 0.3926 0.0000 ( 11951 PWs)   bands (ev):

   -19.0816 -12.3764 -10.3831  -6.6701   1.5587   4.6981   5.5507   6.3387
     6.8278   7.2176   7.8187   8.2620   8.8111  10.1793  10.4251  10.9823
    11.9389  13.7375  13.7524  15.2942  16.1944  16.8443  16.9075  17.1399
    17.3105  17.4905  17.9427  18.5989  18.6792  19.2977

     occupation numbers 
     1.0000   1.0000   1.0000   1.0000   0.0000   0.0000   0.0000   0.0000
     0.0000   0.0000   0.0000   0.0000   0.0000   0.0000   0.0000   0.0000
     0.0000   0.0000   0.0000   0.0000   0.0000   0.0000   0.0000   0.0000
     0.0000   0.0000   0.0000   0.0000   0.0000   0.0000

          k = 0.1733 0.4080 0.0000 ( 11945 PWs)   bands (ev):

   -18.8737 -12.6783 -10.5032  -6.4425   1.2424   4.9921   5.8371   6.6444
     7.1275   7.5110   7.8020   8.5444   9.1060  10.3790  10.6889  11.2777
    11.9520  13.8922  14.0395  14.9091  15.8292  16.3589  16.7971  17.0786
    17.1018  17.3958  17.6625  18.2533  18.4260  19.0546

     occupation numbers 
     1.0000   1.0000   1.0000   1.0000   0.0000   0.0000   0.0000   0.0000
     0.0000   0.0000   0.0000   0.0000   0.0000   0.0000   0.0000   0.0000
     0.0000   0.0000   0.0000   0.0000   0.0000   0.0000   0.0000   0.0000
     0.0000   0.0000   0.0000   0.0000   0.0000   0.0000

          k = 0.1733 0.4234 0.0000 ( 11949 PWs)   bands (ev):

   -18.6591 -12.9832 -10.6109  -6.2113   0.9282   5.2967   6.1319   6.9618
     7.4376   7.7163   7.8805   8.8312   9.4132  10.5466  10.9210  11.5817
    11.9916  14.0659  14.3160  14.5475  15.3993  15.8047  16.3446  16.6500
    17.2237  17.4852  17.7168  17.7911  18.1540  18.8527

     occupation numbers 
     1.0000   1.0000   1.0000   1.0000   0.0000   0.0000   0.0000   0.0000
     0.0000   0.0000   0.0000   0.0000   0.0000   0.0000   0.0000   0.0000
     0.0000   0.0000   0.0000   0.0000   0.0000   0.0000   0.0000   0.0000
     0.0000   0.0000   0.0000   0.0000   0.0000   0.0000

          k = 0.1733 0.4388 0.0000 ( 11941 PWs)   bands (ev):

   -18.4381 -13.2894 -10.7070  -5.9777   0.6180   5.6117   6.4341   7.2904
     7.7123   7.7576   8.1787   9.1182   9.7317  10.6725  11.0960  11.8935
    12.0815  14.1600  14.1926  14.6646  15.0315  15.2612  15.8384  16.1624
    17.2107  17.3997  17.5505  17.7025  18.0691  18.6531

     occupation numbers 
     1.0000   1.0000   1.0000   1.0000   0.0000   0.0000   0.0000   0.0000
     0.0000   0.0000   0.0000   0.0000   0.0000   0.0000   0.0000   0.0000
     0.0000   0.0000   0.0000   0.0000   0.0000   0.0000   0.0000   0.0000
     0.0000   0.0000   0.0000   0.0000   0.0000   0.0000

          k = 0.1733 0.4542 0.0000 ( 11935 PWs)   bands (ev):

   -18.2111 -13.5952 -10.7919  -5.7436   0.3140   5.9368   6.7423   7.6232
     7.6938   8.0868   8.5109   9.3984  10.0607  10.7614  11.1822  12.2123
    12.2273  13.8857  14.1017  14.7282  14.8730  14.9738  15.3810  15.6786
    16.7624  17.1239  17.5165  17.7576  18.3017  18.4152

     occupation numbers 
     1.0000   1.0000   1.0000   1.0000   0.0000   0.0000   0.0000   0.0000
     0.0000   0.0000   0.0000   0.0000   0.0000   0.0000   0.0000   0.0000
     0.0000   0.0000   0.0000   0.0000   0.0000   0.0000   0.0000   0.0000
     0.0000   0.0000   0.0000   0.0000   0.0000   0.0000

          k = 0.1733 0.4696 0.0000 ( 11945 PWs)   bands (ev):

   -17.9788 -13.8991 -10.8660  -5.5115   0.0192   6.2717   7.0545   7.6552
     7.9872   8.4238   8.8570   9.6591  10.3987  10.8372  11.1516  12.4103
    12.5372  13.6761  13.7944  14.2269  14.6784  15.1660  15.2283  15.3383
    16.2987  16.7159  17.4355  17.9614  18.1232  18.4456

     occupation numbers 
     1.0000   1.0000   1.0000   1.0000   0.0000   0.0000   0.0000   0.0000
     0.0000   0.0000   0.0000   0.0000   0.0000   0.0000   0.0000   0.0000
     0.0000   0.0000   0.0000   0.0000   0.0000   0.0000   0.0000   0.0000
     0.0000   0.0000   0.0000   0.0000   0.0000   0.0000

          k = 0.1733 0.4850 0.0000 ( 11947 PWs)   bands (ev):

   -17.7419 -14.1993 -10.9298  -5.2847  -0.2627   6.6155   7.3678   7.6314
     8.3507   8.7660   9.2149   9.8813  10.7355  10.9348  11.0088  12.5757
    12.8643  13.4609  13.4792  13.7993  14.2579  14.7840  15.3538  15.6166
    15.9070  16.3120  17.3778  17.7074  18.1714  18.1775

     occupation numbers 
     1.0000   1.0000   1.0000   1.0000   0.0000   0.0000   0.0000   0.0000
     0.0000   0.0000   0.0000   0.0000   0.0000   0.0000   0.0000   0.0000
     0.0000   0.0000   0.0000   0.0000   0.0000   0.0000   0.0000   0.0000
     0.0000   0.0000   0.0000   0.0000   0.0000   0.0000

          k = 0.1733 0.5004 0.0000 ( 11947 PWs)   bands (ev):

   -17.5020 -14.4939 -10.9834  -5.0681  -0.5267   6.9665   7.6121   7.6775
     8.7264   9.1079   9.5836  10.0487  10.7192  11.0830  11.1290  12.5854
    13.0557  13.2071  13.3122  13.5338  13.8548  14.4592  15.1990  15.7794
    15.8834  16.0873  17.3057  17.3287  17.8018  18.2415

     occupation numbers 
     1.0000   1.0000   1.0000   1.0000   0.0000   0.0000   0.0000   0.0000
     0.0000   0.0000   0.0000   0.0000   0.0000   0.0000   0.0000   0.0000
     0.0000   0.0000   0.0000   0.0000   0.0000   0.0000   0.0000   0.0000
     0.0000   0.0000   0.0000   0.0000   0.0000   0.0000

          k = 0.1733 0.5158 0.0000 ( 11955 PWs)   bands (ev):

   -17.2615 -14.7797 -11.0270  -4.8679  -0.7660   7.3150   7.6075   7.9762
     9.1139   9.4356   9.9610  10.1718  10.4084  11.2759  11.4887  12.3896
    12.6119  13.1602  13.1824  13.5757  13.7075  14.2376  14.8158  15.5381
    16.1229  16.3181  16.9113  17.2769  17.4487  18.2282

     occupation numbers 
     1.0000   1.0000   1.0000   1.0000   0.0000   0.0000   0.0000   0.0000
     0.0000   0.0000   0.0000   0.0000   0.0000   0.0000   0.0000   0.0000
     0.0000   0.0000   0.0000   0.0000   0.0000   0.0000   0.0000   0.0000
     0.0000   0.0000   0.0000   0.0000   0.0000   0.0000

          k = 0.1733 0.5312 0.0000 ( 11955 PWs)   bands (ev):

   -17.0255 -15.0514 -11.0608  -4.6929  -0.9717   7.5270   7.7512   8.2519
     9.5127   9.7135  10.0398  10.3023  10.3626  11.4464  11.8607  12.1441
    12.1837  12.8234  12.8301  13.8199  13.8430  14.0981  14.4714  15.3256
    16.2508  16.5332  16.6846  17.1294  17.3050  18.1614

     occupation numbers 
     1.0000   1.0000   1.0000   1.0000   0.0000   0.0000   0.0000   0.0000
     0.0000   0.0000   0.0000   0.0000   0.0000   0.0000   0.0000   0.0000
     0.0000   0.0000   0.0000   0.0000   0.0000   0.0000   0.0000   0.0000
     0.0000   0.0000   0.0000   0.0000   0.0000   0.0000

          k = 0.1733 0.5466 0.0000 ( 11962 PWs)   bands (ev):

   -16.8052 -15.2974 -11.0849  -4.5541  -1.1325   7.5401   8.1044   8.4849
     9.6647   9.8856   9.9252  10.5085  10.7581  11.4646  11.6788  12.0832
    12.2333  12.4344  12.5656  13.6890  13.7733  14.2709  14.4406  15.2039
    15.9662  16.4735  16.9005  17.1303  17.3390  18.0360

     occupation numbers 
     1.0000   1.0000   1.0000   1.0000   0.0000   0.0000   0.0000   0.0000
     0.0000   0.0000   0.0000   0.0000   0.0000   0.0000   0.0000   0.0000
     0.0000   0.0000   0.0000   0.0000   0.0000   0.0000   0.0000   0.0000
     0.0000   0.0000   0.0000   0.0000   0.0000   0.0000

          k = 0.1733 0.5620 0.0000 ( 11958 PWs)   bands (ev):

   -16.6283 -15.4898 -11.0993  -4.4638  -1.2361   7.5377   8.4796   8.6466
     9.2832   9.9568  10.3465  10.7700  11.1643  11.2258  11.3590  11.9035
    12.0020  12.6260  12.6275  13.3773  13.4771  14.5148  14.6917  15.1329
    15.6159  16.2866  17.1721  17.2205  17.5184  17.8270

     occupation numbers 
     1.0000   1.0000   1.0000   1.0000   0.0000   0.0000   0.0000   0.0000
     0.0000   0.0000   0.0000   0.0000   0.0000   0.0000   0.0000   0.0000
     0.0000   0.0000   0.0000   0.0000   0.0000   0.0000   0.0000   0.0000
     0.0000   0.0000   0.0000   0.0000   0.0000   0.0000

          k = 0.1733 0.5774 0.0000 ( 11951 PWs)   bands (ev):

   -16.5541 -15.5692 -11.1041  -4.4323  -1.2720   7.5364   8.7052   8.7826
     8.9779   9.9749  10.7761  10.7834  10.9252  11.2852  11.5560  11.6089
    11.7777  12.7580  12.9367  13.0826  13.2937  14.6281  14.8714  15.0974
    15.4123  16.2031  17.1772  17.5258  17.5582  17.6419

     occupation numbers 
     1.0000   1.0000   1.0000   1.0000   0.0000   0.0000   0.0000   0.0000
     0.0000   0.0000   0.0000   0.0000   0.0000   0.0000   0.0000   0.0000
     0.0000   0.0000   0.0000   0.0000   0.0000   0.0000   0.0000   0.0000
     0.0000   0.0000   0.0000   0.0000   0.0000   0.0000

          k = 0.1867 0.3233 0.0000 ( 11941 PWs)   bands (ev):

   -19.8459 -11.2060  -9.7903  -7.5287   2.8300   3.6251   4.4931   5.2271
     5.7327   6.1209   7.2059   7.6518   7.9763   9.2706   9.2726   9.8973
    11.6634  12.6898  13.6621  15.6895  15.7951  16.1262  18.2243  18.6265
    18.7569  19.0758  19.8003  19.8274  19.8283  20.0953

     occupation numbers 
     1.0000   1.0000   1.0000   1.0000   0.0000   0.0000   0.0000   0.0000
     0.0000   0.0000   0.0000   0.0000   0.0000   0.0000   0.0000   0.0000
     0.0000   0.0000   0.0000   0.0000   0.0000   0.0000   0.0000   0.0000
     0.0000   0.0000   0.0000   0.0000   0.0000   0.0000

          k = 0.1867 0.3387 0.0000 ( 11943 PWs)   bands (ev):

   -19.6709 -11.4466  -9.9945  -7.3292   2.5303   3.8698   4.7343   5.4801
     5.9822   6.3715   7.4482   7.8732   8.1416   9.3944   9.4907  10.1431
    11.7761  12.9329  13.5885  15.9063  15.9413  16.3614  17.8302  18.2198
    18.5343  19.0312  19.1938  19.5565  19.6270  19.8703

     occupation numbers 
     1.0000   1.0000   1.0000   1.0000   0.0000   0.0000   0.0000   0.0000
     0.0000   0.0000   0.0000   0.0000   0.0000   0.0000   0.0000   0.0000
     0.0000   0.0000   0.0000   0.0000   0.0000   0.0000   0.0000   0.0000
     0.0000   0.0000   0.0000   0.0000   0.0000   0.0000

          k = 0.1867 0.3541 0.0000 ( 11951 PWs)   bands (ev):

   -19.4885 -11.7000 -10.1827  -7.1225   2.2269   4.1255   4.9858   5.7448
     6.2429   6.6336   7.7002   8.0483   8.3070   9.5791   9.7127  10.4003
    11.8506  13.1866  13.5652  16.0011  16.1139  16.6040  17.4723  17.7698
    18.3677  18.6093  18.7851  19.1696  19.4410  19.5500

     occupation numbers 
     1.0000   1.0000   1.0000   1.0000   0.0000   0.0000   0.0000   0.0000
     0.0000   0.0000   0.0000   0.0000   0.0000   0.0000   0.0000   0.0000
     0.0000   0.0000   0.0000   0.0000   0.0000   0.0000   0.0000   0.0000
     0.0000   0.0000   0.0000   0.0000   0.0000   0.0000

          k = 0.1867 0.3695 0.0000 ( 11955 PWs)   bands (ev):

   -19.2988 -11.9655 -10.3541  -6.9091   1.9209   4.3923   5.2472   6.0212
     6.5147   6.9070   7.9612   8.1319   8.5282   9.8128   9.9320  10.6686
    11.8848  13.4505  13.6086  15.8983  16.2913  16.8496  17.2513  17.3110
    17.9444  18.3159  18.3480  18.8554  19.0141  19.2963

     occupation numbers 
     1.0000   1.0000   1.0000   1.0000   0.0000   0.0000   0.0000   0.0000
     0.0000   0.0000   0.0000   0.0000   0.0000   0.0000   0.0000   0.0000
     0.0000   0.0000   0.0000   0.0000   0.0000   0.0000   0.0000   0.0000
     0.0000   0.0000   0.0000   0.0000   0.0000   0.0000

          k = 0.1867 0.3849 0.0000 ( 11947 PWs)   bands (ev):

   -19.1018 -12.2415 -10.5087  -6.6896   1.6133   4.6699   5.5180   6.3094
     6.7975   7.1914   8.1540   8.2301   8.7913  10.0744  10.1413  10.9479
    11.8925  13.7177  13.7243  15.6060  16.3832  16.9416  17.0525  17.1822
    17.3961  17.8267  18.0781  18.6017  18.6632  19.1418

     occupation numbers 
     1.0000   1.0000   1.0000   1.0000   0.0000   0.0000   0.0000   0.0000
     0.0000   0.0000   0.0000   0.0000   0.0000   0.0000   0.0000   0.0000
     0.0000   0.0000   0.0000   0.0000   0.0000   0.0000   0.0000   0.0000
     0.0000   0.0000   0.0000   0.0000   0.0000   0.0000

          k = 0.1867 0.4003 0.0000 ( 11955 PWs)   bands (ev):

   -18.8978 -12.5260 -10.6474  -6.4649   1.3051   4.9583   5.7976   6.6093
     7.0910   7.4860   8.1486   8.5053   9.0757  10.3296  10.3441  11.2378
    11.9013  13.8780  14.0070  15.2204  16.1249  16.7524  16.9197  17.0956
    17.3051  17.3915  17.6776  18.3305  18.5200  18.9911

     occupation numbers 
     1.0000   1.0000   1.0000   1.0000   0.0000   0.0000   0.0000   0.0000
     0.0000   0.0000   0.0000   0.0000   0.0000   0.0000   0.0000   0.0000
     0.0000   0.0000   0.0000   0.0000   0.0000   0.0000   0.0000   0.0000
     0.0000   0.0000   0.0000   0.0000   0.0000   0.0000

          k = 0.1867 0.4157 0.0000 ( 11941 PWs)   bands (ev):

   -18.6870 -12.8171 -10.7710  -6.2357   0.9977   5.2574   6.0854   6.9208
     7.3948   7.7873   8.1343   8.7842   9.3750  10.4849  10.6027  11.5375
    11.9422  14.0681  14.2943  14.8178  15.6905  16.2002  16.7060  16.9414
    17.1747  17.2268  17.6958  17.9824  18.3454  18.6800

     occupation numbers 
     1.0000   1.0000   1.0000   1.0000   0.0000   0.0000   0.0000   0.0000
     0.0000   0.0000   0.0000   0.0000   0.0000   0.0000   0.0000   0.0000
     0.0000   0.0000   0.0000   0.0000   0.0000   0.0000   0.0000   0.0000
     0.0000   0.0000   0.0000   0.0000   0.0000   0.0000

          k = 0.1867 0.4311 0.0000 ( 11941 PWs)   bands (ev):

   -18.4697 -13.1124 -10.8806  -6.0032   0.6926   5.5669   6.3801   7.2440
     7.7083   8.0362   8.1775   9.0624   9.6865  10.5998  10.8298  11.8464
    12.0384  14.2503  14.3894  14.6332  15.2674  15.6498  16.1932  16.5222
    17.0829  17.3770  17.5597  17.8759  18.0847  18.4702

     occupation numbers 
     1.0000   1.0000   1.0000   1.0000   0.0000   0.0000   0.0000   0.0000
     0.0000   0.0000   0.0000   0.0000   0.0000   0.0000   0.0000   0.0000
     0.0000   0.0000   0.0000   0.0000   0.0000   0.0000   0.0000   0.0000
     0.0000   0.0000   0.0000   0.0000   0.0000   0.0000

          k = 0.1867 0.4465 0.0000 ( 11949 PWs)   bands (ev):

   -18.2463 -13.4099 -10.9773  -5.7692   0.3918   5.8867   6.6802   7.5786
     8.0308   8.0507   8.4644   9.3322  10.0090  10.6835  10.9992  12.1630
    12.1947  14.0626  14.3006  14.9200  14.9907  15.1135  15.6917  16.0323
    17.0032  17.0802  17.5408  17.5922  18.2573  18.3327

     occupation numbers 
     1.0000   1.0000   1.0000   1.0000   0.0000   0.0000   0.0000   0.0000
     0.0000   0.0000   0.0000   0.0000   0.0000   0.0000   0.0000   0.0000
     0.0000   0.0000   0.0000   0.0000   0.0000   0.0000   0.0000   0.0000
     0.0000   0.0000   0.0000   0.0000   0.0000   0.0000

          k = 0.1867 0.4619 0.0000 ( 11953 PWs)   bands (ev):

   -18.0172 -13.7079 -11.0617  -5.5354   0.0977   6.2164   6.9836   7.9211
     8.0308   8.3606   8.8008   9.5810  10.3408  10.7636  11.0801  12.3957
    12.4855  13.7875  14.0550  14.5868  14.9337  15.2263  15.3111  15.5578
    16.6085  16.9059  17.1278  17.7125  18.2535  18.4768

     occupation numbers 
     1.0000   1.0000   1.0000   1.0000   0.0000   0.0000   0.0000   0.0000
     0.0000   0.0000   0.0000   0.0000   0.0000   0.0000   0.0000   0.0000
     0.0000   0.0000   0.0000   0.0000   0.0000   0.0000   0.0000   0.0000
     0.0000   0.0000   0.0000   0.0000   0.0000   0.0000

          k = 0.1867 0.4773 0.0000 ( 11949 PWs)   bands (ev):

   -17.7832 -14.0043 -11.1344  -5.3049  -0.1865   6.5556   7.2870   7.9973
     8.2872   8.6950   9.1519   9.7926  10.6759  10.8754  11.0509  12.6062
    12.8096  13.5801  13.7037  14.0930  14.5876  15.0731  15.3802  15.5667
    16.1578  16.6049  16.9303  17.6676  18.1713  18.4481

     occupation numbers 
     1.0000   1.0000   1.0000   1.0000   0.0000   0.0000   0.0000   0.0000
     0.0000   0.0000   0.0000   0.0000   0.0000   0.0000   0.0000   0.0000
     0.0000   0.0000   0.0000   0.0000   0.0000   0.0000   0.0000   0.0000
     0.0000   0.0000   0.0000   0.0000   0.0000   0.0000

          k = 0.1867 0.4927 0.0000 ( 11941 PWs)   bands (ev):

   -17.5453 -14.2971 -11.1961  -5.0815  -0.4567   6.9035   7.5852   7.9750
     8.6561   9.0283   9.5145   9.9591  10.8425  11.0438  11.0792  12.7281
    13.1127  13.3691  13.4416  13.6890  14.1443  14.6731  15.4515  15.8426
    15.8870  16.2345  16.8651  17.4430  18.0385  18.1063

     occupation numbers 
     1.0000   1.0000   1.0000   1.0000   0.0000   0.0000   0.0000   0.0000
     0.0000   0.0000   0.0000   0.0000   0.0000   0.0000   0.0000   0.0000
     0.0000   0.0000   0.0000   0.0000   0.0000   0.0000   0.0000   0.0000
     0.0000   0.0000   0.0000   0.0000   0.0000   0.0000

          k = 0.1867 0.5081 0.0000 ( 11961 PWs)   bands (ev):

   -17.3056 -14.5837 -11.2469  -4.8705  -0.7070   7.2584   7.8705   7.9567
     9.0376   9.3481   9.8872  10.0995  10.6115  11.2633  11.4181  12.5938
    12.9426  13.3251  13.3775  13.5675  13.8017  14.3633  15.1163  15.7465
    16.0703  16.2610  16.8216  17.1041  17.7227  17.9338

     occupation numbers 
     1.0000   1.0000   1.0000   1.0000   0.0000   0.0000   0.0000   0.0000
     0.0000   0.0000   0.0000   0.0000   0.0000   0.0000   0.0000   0.0000
     0.0000   0.0000   0.0000   0.0000   0.0000   0.0000   0.0000   0.0000
     0.0000   0.0000   0.0000   0.0000   0.0000   0.0000

          k = 0.1867 0.5235 0.0000 ( 11955 PWs)   bands (ev):

   -17.0674 -14.8600 -11.2874  -4.6795  -0.9299   7.6132   7.9500   8.1314
     9.4307   9.6290  10.2340  10.2605  10.3339  11.4868  11.7832  12.3433
    12.4901  13.0793  13.1088  13.7997  13.8602  14.1817  14.7176  15.4589
    16.3337  16.5004  16.7512  16.7958  17.3854  17.8587

     occupation numbers 
     1.0000   1.0000   1.0000   1.0000   0.0000   0.0000   0.0000   0.0000
     0.0000   0.0000   0.0000   0.0000   0.0000   0.0000   0.0000   0.0000
     0.0000   0.0000   0.0000   0.0000   0.0000   0.0000   0.0000   0.0000
     0.0000   0.0000   0.0000   0.0000   0.0000   0.0000

          k = 0.1867 0.5389 0.0000 ( 11960 PWs)   bands (ev):

   -16.8381 -15.1183 -11.3175  -4.5186  -1.1148   7.8662   8.0560   8.3515
     9.8325   9.8428   9.9388  10.4858  10.6727  11.5831  12.0230  12.1574
    12.2105  12.7221  12.7518  13.8281  13.9768  14.2463  14.4693  15.2622
    16.2360  16.5875  16.7510  16.7656  17.2656  17.7981

     occupation numbers 
     1.0000   1.0000   1.0000   1.0000   0.0000   0.0000   0.0000   0.0000
     0.0000   0.0000   0.0000   0.0000   0.0000   0.0000   0.0000   0.0000
     0.0000   0.0000   0.0000   0.0000   0.0000   0.0000   0.0000   0.0000
     0.0000   0.0000   0.0000   0.0000   0.0000   0.0000

          k = 0.1867 0.5543 0.0000 ( 11958 PWs)   bands (ev):

   -16.6351 -15.3407 -11.3375  -4.4002  -1.2494   7.8902   8.3993   8.5119
     9.5648   9.9919  10.2527  10.7573  11.0738  11.4811  11.5676  12.1250
    12.3043  12.5463  12.6321  13.5987  13.7328  14.4674  14.6447  15.1809
    15.8699  16.4286  16.7033  17.0475  17.4372  17.7370

     occupation numbers 
     1.0000   1.0000   1.0000   1.0000   0.0000   0.0000   0.0000   0.0000
     0.0000   0.0000   0.0000   0.0000   0.0000   0.0000   0.0000   0.0000
     0.0000   0.0000   0.0000   0.0000   0.0000   0.0000   0.0000   0.0000
     0.0000   0.0000   0.0000   0.0000   0.0000   0.0000

          k = 0.1867 0.5697 0.0000 ( 11945 PWs)   bands (ev):

   -16.5009 -15.4848 -11.3475  -4.3368  -1.3209   7.8902   8.5963   8.7624
     9.1983  10.0798  10.6800  10.9688  11.1183  11.4041  11.4828  11.8885
    11.9008  12.8233  12.8972  13.2934  13.4293  14.6117  14.9247  15.1772
    15.5418  16.2570  16.6923  17.2848  17.6260  17.6618

     occupation numbers 
     1.0000   1.0000   1.0000   1.0000   0.0000   0.0000   0.0000   0.0000
     0.0000   0.0000   0.0000   0.0000   0.0000   0.0000   0.0000   0.0000
     0.0000   0.0000   0.0000   0.0000   0.0000   0.0000   0.0000   0.0000
     0.0000   0.0000   0.0000   0.0000   0.0000   0.0000

          k = 0.2000 0.3464 0.0000 ( 11953 PWs)   bands (ev):

   -19.4926 -11.6680 -10.2119  -7.1267   2.2388   4.1199   4.9792   5.7389
     6.2369   6.6280   7.6940   8.1070   8.3666   9.4488   9.7059  10.3936
    11.8415  13.1808  13.5584  16.0643  16.1148  16.5972  17.5001  17.8836
    18.3086  18.7463  18.9953  19.0316  19.4170  19.5283

     occupation numbers 
     1.0000   1.0000   1.0000   1.0000   0.0000   0.0000   0.0000   0.0000
     0.0000   0.0000   0.0000   0.0000   0.0000   0.0000   0.0000   0.0000
     0.0000   0.0000   0.0000   0.0000   0.0000   0.0000   0.0000   0.0000
     0.0000   0.0000   0.0000   0.0000   0.0000   0.0000

          k = 0.2000 0.3618 0.0000 ( 11939 PWs)   bands (ev):

   -19.3069 -11.9019 -10.4129  -6.9172   1.9440   4.3810   5.2341   6.0095
     6.5026   6.8958   7.9486   8.3076   8.5729   9.5723   9.9176  10.6555
    11.8655  13.4391  13.5975  16.0802  16.3047  16.8260  17.1806  17.4906
    18.1792  18.4308  18.4433  18.8453  18.9472  19.3658

     occupation numbers 
     1.0000   1.0000   1.0000   1.0000   0.0000   0.0000   0.0000   0.0000
     0.0000   0.0000   0.0000   0.0000   0.0000   0.0000   0.0000   0.0000
     0.0000   0.0000   0.0000   0.0000   0.0000   0.0000   0.0000   0.0000
     0.0000   0.0000   0.0000   0.0000   0.0000   0.0000

          k = 0.2000 0.3772 0.0000 ( 11951 PWs)   bands (ev):

   -19.1139 -12.1489 -10.5959  -6.7014   1.6467   4.6530   5.4982   6.2918
     6.7793   7.1749   8.2109   8.4306   8.8004   9.7655  10.1181  10.9286
    11.8640  13.7047  13.7074  15.8935  16.4783  16.8773  17.0821  17.1530
    17.7625  18.0694  18.1987  18.5171  18.6704  18.9054

     occupation numbers 
     1.0000   1.0000   1.0000   1.0000   0.0000   0.0000   0.0000   0.0000
     0.0000   0.0000   0.0000   0.0000   0.0000   0.0000   0.0000   0.0000
     0.0000   0.0000   0.0000   0.0000   0.0000   0.0000   0.0000   0.0000
     0.0000   0.0000   0.0000   0.0000   0.0000   0.0000

          k = 0.2000 0.3926 0.0000 ( 11951 PWs)   bands (ev):

   -18.9139 -12.4081 -10.7603  -6.4798   1.3480   4.9358   5.7711   6.5858
     7.0666   7.4651   8.4782   8.4791   9.0642  10.0061  10.2962  11.2124
    11.8664  13.8662  13.9850  15.5444  16.4075  16.7739  16.9014  17.1885
    17.3927  17.6084  17.9405  18.2130  18.4775  18.6916

     occupation numbers 
     1.0000   1.0000   1.0000   1.0000   0.0000   0.0000   0.0000   0.0000
     0.0000   0.0000   0.0000   0.0000   0.0000   0.0000   0.0000   0.0000
     0.0000   0.0000   0.0000   0.0000   0.0000   0.0000   0.0000   0.0000
     0.0000   0.0000   0.0000   0.0000   0.0000   0.0000

          k = 0.2000 0.4080 0.0000 ( 11953 PWs)   bands (ev):

   -18.7070 -12.6778 -10.9064  -6.2532   1.0489   5.2293   6.0517   6.8915
     7.3641   7.7656   8.4849   8.7504   9.3512  10.2657  10.4397  11.5065
    11.9052  14.0633  14.2701  15.1333  15.9957  16.5889  16.7252  17.0272
    17.1212  17.4484  17.6792  17.9760  18.3496  18.5826

     occupation numbers 
     1.0000   1.0000   1.0000   1.0000   0.0000   0.0000   0.0000   0.0000
     0.0000   0.0000   0.0000   0.0000   0.0000   0.0000   0.0000   0.0000
     0.0000   0.0000   0.0000   0.0000   0.0000   0.0000   0.0000   0.0000
     0.0000   0.0000   0.0000   0.0000   0.0000   0.0000

          k = 0.2000 0.4234 0.0000 ( 11949 PWs)   bands (ev):

   -18.4934 -12.9559 -11.0353  -6.0226   0.7507   5.5332   6.3390   7.2089
     7.6712   8.0739   8.4750   9.0199   9.6539  10.5193  10.5435  11.8105
    12.0031  14.2725  14.5408  14.7397  15.5472  16.0508  16.5607  16.6163
    16.9653  17.2418  17.7260  17.9145  18.2242  18.3558

     occupation numbers 
     1.0000   1.0000   1.0000   1.0000   0.0000   0.0000   0.0000   0.0000
     0.0000   0.0000   0.0000   0.0000   0.0000   0.0000   0.0000   0.0000
     0.0000   0.0000   0.0000   0.0000   0.0000   0.0000   0.0000   0.0000
     0.0000   0.0000   0.0000   0.0000   0.0000   0.0000

          k = 0.2000 0.4388 0.0000 ( 11955 PWs)   bands (ev):

   -18.2737 -13.2399 -11.1483  -5.7893   0.4550   5.8475   6.6311   7.5380
     7.9869   8.3538   8.4954   9.2795   9.9688  10.6201  10.7434  12.1234
    12.1641  14.3051  14.4303  14.8851  15.1660  15.5058  16.0437  16.3799
    16.6137  17.2635  17.4864  17.8663  18.1321  18.1954

     occupation numbers 
     1.0000   1.0000   1.0000   1.0000   0.0000   0.0000   0.0000   0.0000
     0.0000   0.0000   0.0000   0.0000   0.0000   0.0000   0.0000   0.0000
     0.0000   0.0000   0.0000   0.0000   0.0000   0.0000   0.0000   0.0000
     0.0000   0.0000   0.0000   0.0000   0.0000   0.0000

          k = 0.2000 0.4542 0.0000 ( 11957 PWs)   bands (ev):

   -18.0480 -13.5275 -11.2466  -5.5551   0.1639   6.1718   6.9257   7.8785
     8.3096   8.3958   8.7616   9.5165  10.2935  10.7004  10.9106  12.3743
    12.4432  13.9667  14.3222  14.9694  15.0535  15.1908  15.5597  15.9080
    16.5139  16.8915  17.4340  17.4569  18.0441  18.2215

     occupation numbers 
     1.0000   1.0000   1.0000   1.0000   0.0000   0.0000   0.0000   0.0000
     0.0000   0.0000   0.0000   0.0000   0.0000   0.0000   0.0000   0.0000
     0.0000   0.0000   0.0000   0.0000   0.0000   0.0000   0.0000   0.0000
     0.0000   0.0000   0.0000   0.0000   0.0000   0.0000

          k = 0.2000 0.4696 0.0000 ( 11947 PWs)   bands (ev):

   -17.8171 -13.8165 -11.3312  -5.3221  -0.1201   6.5058   7.2190   8.2282
     8.3770   8.6362   9.1019   9.7169  10.6219  10.8198  10.9943  12.6088
    12.7662  13.6962  13.9737  14.4554  14.9221  15.3817  15.3844  15.5434
    16.4418  16.4451  16.9840  17.3918  17.9581  18.3278

     occupation numbers 
     1.0000   1.0000   1.0000   1.0000   0.0000   0.0000   0.0000   0.0000
     0.0000   0.0000   0.0000   0.0000   0.0000   0.0000   0.0000   0.0000
     0.0000   0.0000   0.0000   0.0000   0.0000   0.0000   0.0000   0.0000
     0.0000   0.0000   0.0000   0.0000   0.0000   0.0000

          k = 0.2000 0.4850 0.0000 ( 11948 PWs)   bands (ev):

   -17.5819 -14.1045 -11.4031  -5.0937  -0.3934   6.8489   7.5056   8.3461
     8.5988   8.9608   9.4575   9.8789  10.8666  11.0003  11.0552  12.8131
    13.0775  13.5020  13.6308  13.9714  14.4803  14.9644  15.5687  15.8128
    16.0280  16.3606  16.5760  17.2832  17.8829  18.1105

     occupation numbers 
     1.0000   1.0000   1.0000   1.0000   0.0000   0.0000   0.0000   0.0000
     0.0000   0.0000   0.0000   0.0000   0.0000   0.0000   0.0000   0.0000
     0.0000   0.0000   0.0000   0.0000   0.0000   0.0000   0.0000   0.0000
     0.0000   0.0000   0.0000   0.0000   0.0000   0.0000

          k = 0.2000 0.5004 0.0000 ( 11953 PWs)   bands (ev):

   -17.3437 -14.3889 -11.4630  -4.8741  -0.6515   7.2004   7.7773   8.3252
     8.9733   9.2717   9.8243  10.0277  10.7568  11.2362  11.3616  12.8097
    13.1880  13.4260  13.4956  13.6271  14.0451  14.5724  15.4286  15.9678
    16.0020  16.1989  16.4234  17.1177  17.8191  17.8246

     occupation numbers 
     1.0000   1.0000   1.0000   1.0000   0.0000   0.0000   0.0000   0.0000
     0.0000   0.0000   0.0000   0.0000   0.0000   0.0000   0.0000   0.0000
     0.0000   0.0000   0.0000   0.0000   0.0000   0.0000   0.0000   0.0000
     0.0000   0.0000   0.0000   0.0000   0.0000   0.0000

          k = 0.2000 0.5158 0.0000 ( 11955 PWs)   bands (ev):

   -17.1051 -14.6664 -11.5114  -4.6699  -0.8876   7.5584   8.0226   8.3078
     9.3603   9.5499  10.1966  10.2080  10.5153  11.4952  11.7179  12.5569
    12.8307  13.2647  13.4051  13.7891  13.8737  14.2906  15.0178  15.6731
    16.2488  16.2743  16.5441  16.8593  17.6264  17.6580

     occupation numbers 
     1.0000   1.0000   1.0000   1.0000   0.0000   0.0000   0.0000   0.0000
     0.0000   0.0000   0.0000   0.0000   0.0000   0.0000   0.0000   0.0000
     0.0000   0.0000   0.0000   0.0000   0.0000   0.0000   0.0000   0.0000
     0.0000   0.0000   0.0000   0.0000   0.0000   0.0000

          k = 0.2000 0.5312 0.0000 ( 11951 PWs)   bands (ev):

   -16.8711 -14.9314 -11.5486  -4.4898  -1.0927   7.9173   8.2277   8.3002
     9.7586   9.7830  10.1863  10.4514  10.6015  11.6889  12.0813  12.3311
    12.3811  12.9826  13.0352  13.9057  14.0646  14.2551  14.6408  15.3890
    16.2371  16.4886  16.5907  16.7108  17.3838  17.5382

     occupation numbers 
     1.0000   1.0000   1.0000   1.0000   0.0000   0.0000   0.0000   0.0000
     0.0000   0.0000   0.0000   0.0000   0.0000   0.0000   0.0000   0.0000
     0.0000   0.0000   0.0000   0.0000   0.0000   0.0000   0.0000   0.0000
     0.0000   0.0000   0.0000   0.0000   0.0000   0.0000

          k = 0.2000 0.5466 0.0000 ( 11958 PWs)   bands (ev):

   -16.6526 -15.1724 -11.5751  -4.3455  -1.2550   8.2050   8.3725   8.3800
     9.8398   9.9819  10.1712  10.7421  10.9941  11.6368  11.9197  12.3155
    12.4360  12.6393  12.7221  13.7645  14.0080  14.4512  14.6068  15.2300
    16.1338  16.2186  16.6206  16.8154  17.4026  17.5480

     occupation numbers 
     1.0000   1.0000   1.0000   1.0000   0.0000   0.0000   0.0000   0.0000
     0.0000   0.0000   0.0000   0.0000   0.0000   0.0000   0.0000   0.0000
     0.0000   0.0000   0.0000   0.0000   0.0000   0.0000   0.0000   0.0000
     0.0000   0.0000   0.0000   0.0000   0.0000   0.0000

          k = 0.2000 0.5620 0.0000 ( 11944 PWs)   bands (ev):

   -16.4770 -15.3615 -11.5908  -4.2507  -1.3606   8.2455   8.4714   8.6965
     9.4791  10.1458  10.5920  11.0016  11.3951  11.4699  11.5074  12.1145
    12.2145  12.8211  12.8240  13.5215  13.6736  14.5949  14.8963  15.2243
    15.7643  16.2073  16.3949  16.9655  17.5734  17.6582

     occupation numbers 
     1.0000   1.0000   1.0000   1.0000   0.0000   0.0000   0.0000   0.0000
     0.0000   0.0000   0.0000   0.0000   0.0000   0.0000   0.0000   0.0000
     0.0000   0.0000   0.0000   0.0000   0.0000   0.0000   0.0000   0.0000
     0.0000   0.0000   0.0000   0.0000   0.0000   0.0000

          k = 0.2000 0.5774 0.0000 ( 11949 PWs)   bands (ev):

   -16.4032 -15.4399 -11.5961  -4.2174  -1.3975   8.2474   8.5018   8.9782
     9.1954  10.2182  11.0200  11.0290  11.0831  11.5316  11.7729  11.8420
    11.9181  13.0031  13.0856  13.2929  13.4520  14.6361  15.1143  15.2624
    15.5287  16.2074  16.2808  17.0100  17.6376  17.7154

     occupation numbers 
     1.0000   1.0000   1.0000   1.0000   0.0000   0.0000   0.0000   0.0000
     0.0000   0.0000   0.0000   0.0000   0.0000   0.0000   0.0000   0.0000
     0.0000   0.0000   0.0000   0.0000   0.0000   0.0000   0.0000   0.0000
     0.0000   0.0000   0.0000   0.0000   0.0000   0.0000

          k = 0.2133 0.3695 0.0000 ( 11931 PWs)   bands (ev):

   -19.1179 -12.1154 -10.6277  -6.7053   1.6580   4.6473   5.4916   6.2859
     6.7732   7.1693   8.2045   8.5394   8.8302   9.6188  10.1103  10.9222
    11.8544  13.7002  13.7018  16.0402  16.5035  16.7526  17.1405  17.1602
    18.0665  18.0891  18.2219  18.3823  18.6517  18.9375

     occupation numbers 
     1.0000   1.0000   1.0000   1.0000   0.0000   0.0000   0.0000   0.0000
     0.0000   0.0000   0.0000   0.0000   0.0000   0.0000   0.0000   0.0000
     0.0000   0.0000   0.0000   0.0000   0.0000   0.0000   0.0000   0.0000
     0.0000   0.0000   0.0000   0.0000   0.0000   0.0000

          k = 0.2133 0.3849 0.0000 ( 11955 PWs)   bands (ev):

   -18.9219 -12.3420 -10.8240  -6.4873   1.3698   4.9245   5.7577   6.5741
     7.0544   7.4542   8.4659   8.7101   9.0821   9.7455  10.2793  11.1999
    11.8486  13.8596  13.9739  15.8287  16.4909  16.6357  16.8351  17.3759
    17.6094  17.7699  18.0187  18.2320  18.2353  18.6806

     occupation numbers 
     1.0000   1.0000   1.0000   1.0000   0.0000   0.0000   0.0000   0.0000
     0.0000   0.0000   0.0000   0.0000   0.0000   0.0000   0.0000   0.0000
     0.0000   0.0000   0.0000   0.0000   0.0000   0.0000   0.0000   0.0000
     0.0000   0.0000   0.0000   0.0000   0.0000   0.0000

          k = 0.2133 0.4003 0.0000 ( 11959 PWs)   bands (ev):

   -18.7189 -12.5818 -11.0003  -6.2637   1.0803   5.2124   6.0314   6.8739
     7.3456   7.7500   8.7299   8.7970   9.3488   9.9493  10.4120  11.4882
    11.8822  14.0583  14.2544  15.4610  16.2880  16.3362  16.9239  17.0365
    17.3981  17.6233  17.8284  17.8965  17.9416  18.4826

     occupation numbers 
     1.0000   1.0000   1.0000   1.0000   0.0000   0.0000   0.0000   0.0000
     0.0000   0.0000   0.0000   0.0000   0.0000   0.0000   0.0000   0.0000
     0.0000   0.0000   0.0000   0.0000   0.0000   0.0000   0.0000   0.0000
     0.0000   0.0000   0.0000   0.0000   0.0000   0.0000

          k = 0.2133 0.4157 0.0000 ( 11967 PWs)   bands (ev):

   -18.5093 -12.8341 -11.1563  -6.0356   0.7905   5.5107   6.3113   7.1855
     7.6463   8.0563   8.8226   8.9911   9.6366  10.1945  10.5049  11.7866
    11.9784  14.2789  14.5391  15.0422  15.8390  16.2284  16.4758  16.8889
    17.0720  17.3342  17.7455  17.7831  17.9083  18.2658

     occupation numbers 
     1.0000   1.0000   1.0000   1.0000   0.0000   0.0000   0.0000   0.0000
     0.0000   0.0000   0.0000   0.0000   0.0000   0.0000   0.0000   0.0000
     0.0000   0.0000   0.0000   0.0000   0.0000   0.0000   0.0000   0.0000
     0.0000   0.0000   0.0000   0.0000   0.0000   0.0000

          k = 0.2133 0.4311 0.0000 ( 11967 PWs)   bands (ev):

   -18.2933 -13.0968 -11.2926  -5.8039   0.5017   5.8195   6.5956   7.5088
     7.9554   8.3708   8.8196   9.2411   9.9404  10.4440  10.5735  12.0944
    12.1400  14.4909  14.5906  14.8658  15.4076  15.9101  16.1510  16.4004
    16.8218  17.0441  17.6719  17.6930  18.0217  18.1062

     occupation numbers 
     1.0000   1.0000   1.0000   1.0000   0.0000   0.0000   0.0000   0.0000
     0.0000   0.0000   0.0000   0.0000   0.0000   0.0000   0.0000   0.0000
     0.0000   0.0000   0.0000   0.0000   0.0000   0.0000   0.0000   0.0000
     0.0000   0.0000   0.0000   0.0000   0.0000   0.0000

          k = 0.2133 0.4465 0.0000 ( 11953 PWs)   bands (ev):

   -18.0712 -13.3675 -11.4107  -5.5700   0.2157   6.1383   6.8814   7.8436
     8.2711   8.6699   8.8292   9.4668  10.2549  10.6508  10.6691  12.3537
    12.4105  14.2125  14.5558  15.1369  15.1528  15.3738  15.8962  16.0575
    16.3215  16.9108  17.4551  17.5677  17.7959  17.9779

     occupation numbers 
     1.0000   1.0000   1.0000   1.0000   0.0000   0.0000   0.0000   0.0000
     0.0000   0.0000   0.0000   0.0000   0.0000   0.0000   0.0000   0.0000
     0.0000   0.0000   0.0000   0.0000   0.0000   0.0000   0.0000   0.0000
     0.0000   0.0000   0.0000   0.0000   0.0000   0.0000

          k = 0.2133 0.4619 0.0000 ( 11947 PWs)   bands (ev):

   -17.8437 -13.6434 -11.5120  -5.3359  -0.0657   6.4668   7.1649   8.1900
     8.5900   8.7435   9.0702   9.6560  10.5704  10.7731  10.8465  12.5994
    12.7319  13.8764  14.2692  14.8440  15.1764  15.4506  15.4643  15.7847
    16.0329  16.6429  17.1902  17.3362  17.4790  17.9700

     occupation numbers 
     1.0000   1.0000   1.0000   1.0000   0.0000   0.0000   0.0000   0.0000
     0.0000   0.0000   0.0000   0.0000   0.0000   0.0000   0.0000   0.0000
     0.0000   0.0000   0.0000   0.0000   0.0000   0.0000   0.0000   0.0000
     0.0000   0.0000   0.0000   0.0000   0.0000   0.0000

          k = 0.2133 0.4773 0.0000 ( 11949 PWs)   bands (ev):

   -17.6114 -13.9220 -11.5980  -5.1041  -0.3394   6.8047   7.4399   8.5460
     8.7265   8.9059   9.4137   9.8117  10.8125  10.9599  11.0170  12.8464
    13.0489  13.6174  13.8873  14.3354  14.8376  15.3007  15.5572  15.7501
    15.9777  16.2581  16.8854  17.0255  17.3963  17.8985

     occupation numbers 
     1.0000   1.0000   1.0000   1.0000   0.0000   0.0000   0.0000   0.0000
     0.0000   0.0000   0.0000   0.0000   0.0000   0.0000   0.0000   0.0000
     0.0000   0.0000   0.0000   0.0000   0.0000   0.0000   0.0000   0.0000
     0.0000   0.0000   0.0000   0.0000   0.0000   0.0000

          k = 0.2133 0.4927 0.0000 ( 11949 PWs)   bands (ev):

   -17.3754 -14.2004 -11.6697  -4.8782  -0.6018   7.1513   7.6979   8.6969
     8.9221   9.2076   9.7733   9.9636  10.8171  11.2044  11.3187  12.9875
    13.2696  13.5097  13.6153  13.8644  14.3743  14.8628  15.7117  15.8490
    15.9365  16.0764  16.4907  16.9106  17.3265  17.7725

     occupation numbers 
     1.0000   1.0000   1.0000   1.0000   0.0000   0.0000   0.0000   0.0000
     0.0000   0.0000   0.0000   0.0000   0.0000   0.0000   0.0000   0.0000
     0.0000   0.0000   0.0000   0.0000   0.0000   0.0000   0.0000   0.0000
     0.0000   0.0000   0.0000   0.0000   0.0000   0.0000

          k = 0.2133 0.5081 0.0000 ( 11952 PWs)   bands (ev):

   -17.1377 -14.4753 -11.7283  -4.6633  -0.8474   7.5055   7.9275   8.6772
     9.3020   9.4803  10.1421  10.1550  10.6696  11.4824  11.6658  12.8093
    13.1122  13.4352  13.6231  13.7837  13.9903  14.4859  15.3394  15.8139
    15.9437  16.1377  16.4913  16.8052  17.2686  17.5616

     occupation numbers 
     1.0000   1.0000   1.0000   1.0000   0.0000   0.0000   0.0000   0.0000
     0.0000   0.0000   0.0000   0.0000   0.0000   0.0000   0.0000   0.0000
     0.0000   0.0000   0.0000   0.0000   0.0000   0.0000   0.0000   0.0000
     0.0000   0.0000   0.0000   0.0000   0.0000   0.0000

          k = 0.2133 0.5235 0.0000 ( 11955 PWs)   bands (ev):

   -16.9016 -14.7423 -11.7744  -4.4670  -1.0686   7.8655   8.1166   8.6607
     9.6944   9.7213  10.3897  10.4106  10.5560  11.7447  12.0230  12.5181
    12.7297  13.1852  13.3593  13.9773  14.0704  14.2913  14.9191  15.5955
    15.7909  16.3448  16.6778  16.7081  17.2224  17.3653

     occupation numbers 
     1.0000   1.0000   1.0000   1.0000   0.0000   0.0000   0.0000   0.0000
     0.0000   0.0000   0.0000   0.0000   0.0000   0.0000   0.0000   0.0000
     0.0000   0.0000   0.0000   0.0000   0.0000   0.0000   0.0000   0.0000
     0.0000   0.0000   0.0000   0.0000   0.0000   0.0000

          k = 0.2133 0.5389 0.0000 ( 11954 PWs)   bands (ev):

   -16.6743 -14.9934 -11.8085  -4.2997  -1.2547   8.2260   8.2567   8.6528
     9.9477  10.0777  10.1219  10.7159  10.9269  11.8173  12.2721  12.3890
    12.4130  12.9005  12.9660  13.8813  14.2377  14.4542  14.6356  15.3376
    15.7626  16.2878  16.6283  16.7702  17.1854  17.3466

     occupation numbers 
     1.0000   1.0000   1.0000   1.0000   0.0000   0.0000   0.0000   0.0000
     0.0000   0.0000   0.0000   0.0000   0.0000   0.0000   0.0000   0.0000
     0.0000   0.0000   0.0000   0.0000   0.0000   0.0000   0.0000   0.0000
     0.0000   0.0000   0.0000   0.0000   0.0000   0.0000

          k = 0.2133 0.5543 0.0000 ( 11944 PWs)   bands (ev):

   -16.4728 -15.2110 -11.8310  -4.1749  -1.3920   8.3460   8.5379   8.6996
     9.7596  10.1651  10.5160  11.0207  11.3231  11.6506  11.8266  12.3854
    12.5067  12.7728  12.8220  13.7020  13.9672  14.6097  14.8415  15.2517
    15.7479  15.9809  16.5813  16.6578  17.1601  17.4850

     occupation numbers 
     1.0000   1.0000   1.0000   1.0000   0.0000   0.0000   0.0000   0.0000
     0.0000   0.0000   0.0000   0.0000   0.0000   0.0000   0.0000   0.0000
     0.0000   0.0000   0.0000   0.0000   0.0000   0.0000   0.0000   0.0000
     0.0000   0.0000   0.0000   0.0000   0.0000   0.0000

          k = 0.2133 0.5697 0.0000 ( 11931 PWs)   bands (ev):

   -16.3393 -15.3527 -11.8423  -4.1075  -1.4658   8.3887   8.6005   8.9842
     9.4185  10.3273  10.9424  11.1737  11.3793  11.6280  11.7244  12.0882
    12.1335  13.0683  13.0767  13.4755  13.6274  14.6466  15.1616  15.3147
    15.6474  15.7475  16.3837  16.6665  17.1483  17.6079

     occupation numbers 
     1.0000   1.0000   1.0000   1.0000   0.0000   0.0000   0.0000   0.0000
     0.0000   0.0000   0.0000   0.0000   0.0000   0.0000   0.0000   0.0000
     0.0000   0.0000   0.0000   0.0000   0.0000   0.0000   0.0000   0.0000
     0.0000   0.0000   0.0000   0.0000   0.0000   0.0000

          k = 0.2267 0.3926 0.0000 ( 11951 PWs)   bands (ev):

   -18.7229 -12.5470 -11.0345  -6.2673   1.0908   5.2067   6.0246   6.8681
     7.3394   7.7446   8.7230   8.9446   9.3661   9.7819  10.4027  11.4821
    11.8745  14.0563  14.2491  15.6767  16.1086  16.4602  16.8043  17.4517
    17.4758  17.5337  17.6324  17.9192  18.1129  18.2852

     occupation numbers 
     1.0000   1.0000   1.0000   1.0000   0.0000   0.0000   0.0000   0.0000
     0.0000   0.0000   0.0000   0.0000   0.0000   0.0000   0.0000   0.0000
     0.0000   0.0000   0.0000   0.0000   0.0000   0.0000   0.0000   0.0000
     0.0000   0.0000   0.0000   0.0000   0.0000   0.0000

          k = 0.2267 0.4080 0.0000 ( 11959 PWs)   bands (ev):

   -18.5172 -12.7655 -11.2245  -6.0421   0.8107   5.4995   6.2973   7.1738
     7.6339   8.0460   8.9767   9.0949   9.6449   9.9160  10.4853  11.7746
    11.9657  14.2800  14.5313  15.3573  15.8790  16.0777  16.7861  16.8974
    17.3206  17.3347  17.6366  17.7207  17.8932  18.0599

     occupation numbers 
     1.0000   1.0000   1.0000   1.0000   0.0000   0.0000   0.0000   0.0000
     0.0000   0.0000   0.0000   0.0000   0.0000   0.0000   0.0000   0.0000
     0.0000   0.0000   0.0000   0.0000   0.0000   0.0000   0.0000   0.0000
     0.0000   0.0000   0.0000   0.0000   0.0000   0.0000

          k = 0.2267 0.4234 0.0000 ( 11971 PWs)   bands (ev):

   -18.3050 -12.9976 -11.3927  -5.8127   0.5304   5.8026   6.5740   7.4912
     7.9364   8.3578   9.1545   9.2177   9.9248  10.1405  10.5449  12.0769
    12.1247  14.5136  14.7975  14.9643  15.6578  15.7560  16.3382  16.6045
    16.9540  17.1989  17.2381  17.6302  17.9146  18.0361

     occupation numbers 
     1.0000   1.0000   1.0000   1.0000   0.0000   0.0000   0.0000   0.0000
     0.0000   0.0000   0.0000   0.0000   0.0000   0.0000   0.0000   0.0000
     0.0000   0.0000   0.0000   0.0000   0.0000   0.0000   0.0000   0.0000
     0.0000   0.0000   0.0000   0.0000   0.0000   0.0000

          k = 0.2267 0.4388 0.0000 ( 11963 PWs)   bands (ev):

   -18.0867 -13.2423 -11.5389  -5.5801   0.2512   6.1159   6.8515   7.8203
     8.2452   8.6780   9.1628   9.4331  10.2116  10.4002  10.6170  12.3380
    12.3881  14.5077  14.7015  15.1278  15.2791  15.6607  15.7957  16.2172
    16.7030  16.7076  17.1065  17.5777  17.7490  17.9685

     occupation numbers 
     1.0000   1.0000   1.0000   1.0000   0.0000   0.0000   0.0000   0.0000
     0.0000   0.0000   0.0000   0.0000   0.0000   0.0000   0.0000   0.0000
     0.0000   0.0000   0.0000   0.0000   0.0000   0.0000   0.0000   0.0000
     0.0000   0.0000   0.0000   0.0000   0.0000   0.0000

          k = 0.2267 0.4542 0.0000 ( 11957 PWs)   bands (ev):

   -17.8627 -13.4971 -11.6643  -5.3460  -0.0253   6.4389   7.1255   8.1610
     8.5566   8.9886   9.1694   9.6114  10.4840  10.6680  10.7383  12.5877
    12.7062  14.1236  14.5687  15.2232  15.2475  15.4029  15.6122  15.7436
    16.1978  16.5363  17.0075  17.2927  17.6002  17.7077

     occupation numbers 
     1.0000   1.0000   1.0000   1.0000   0.0000   0.0000   0.0000   0.0000
     0.0000   0.0000   0.0000   0.0000   0.0000   0.0000   0.0000   0.0000
     0.0000   0.0000   0.0000   0.0000   0.0000   0.0000   0.0000   0.0000
     0.0000   0.0000   0.0000   0.0000   0.0000   0.0000

          k = 0.2267 0.4696 0.0000 ( 11959 PWs)   bands (ev):

   -17.6336 -13.7594 -11.7704  -5.1123  -0.2968   6.7713   7.3893   8.5131
     8.8641   9.0887   9.3896   9.7597  10.6868  10.9269  10.9603  12.8534
    13.0259  13.7950  14.1841  14.7286  15.1991  15.4767  15.4966  15.6397
    15.8297  16.3395  16.9201  16.9490  17.2487  17.5001

     occupation numbers 
     1.0000   1.0000   1.0000   1.0000   0.0000   0.0000   0.0000   0.0000
     0.0000   0.0000   0.0000   0.0000   0.0000   0.0000   0.0000   0.0000
     0.0000   0.0000   0.0000   0.0000   0.0000   0.0000   0.0000   0.0000
     0.0000   0.0000   0.0000   0.0000   0.0000   0.0000

          k = 0.2267 0.4850 0.0000 ( 11951 PWs)   bands (ev):

   -17.4003 -14.0258 -11.8589  -4.8820  -0.5604   7.1126   7.6340   8.8751
     9.0734   9.1567   9.7355   9.9111  10.7770  11.1749  11.2844  13.0858
    13.3052  13.5780  13.8190  14.2271  14.7352  15.1995  15.4409  15.7264
    16.0406  16.0592  16.7263  16.7993  16.8506  17.4084

     occupation numbers 
     1.0000   1.0000   1.0000   1.0000   0.0000   0.0000   0.0000   0.0000
     0.0000   0.0000   0.0000   0.0000   0.0000   0.0000   0.0000   0.0000
     0.0000   0.0000   0.0000   0.0000   0.0000   0.0000   0.0000   0.0000
     0.0000   0.0000   0.0000   0.0000   0.0000   0.0000

          k = 0.2267 0.5004 0.0000 ( 11945 PWs)   bands (ev):

   -17.1643 -14.2931 -11.9315  -4.6590  -0.8118   7.4619   7.8482   9.0442
     9.2569   9.4227  10.0976  10.1081  10.7431  11.4615  11.6265  13.0686
    13.2631  13.6851  13.7113  13.8108  14.2782  14.7711  15.3882  15.6479
    15.9386  16.1887  16.5201  16.6591  16.7837  17.3118

     occupation numbers 
     1.0000   1.0000   1.0000   1.0000   0.0000   0.0000   0.0000   0.0000
     0.0000   0.0000   0.0000   0.0000   0.0000   0.0000   0.0000   0.0000
     0.0000   0.0000   0.0000   0.0000   0.0000   0.0000   0.0000   0.0000
     0.0000   0.0000   0.0000   0.0000   0.0000   0.0000

          k = 0.2267 0.5158 0.0000 ( 11950 PWs)   bands (ev):

   -16.9279 -14.5570 -11.9893  -4.4496  -1.0448   7.8179   8.0212   9.0253
     9.6420   9.6655  10.3703  10.4479  10.6135  11.7574  11.9772  12.7711
    13.0307  13.3657  13.6851  14.0283  14.0748  14.4266  15.2256  15.3449
    15.8797  16.0524  16.6694  16.7226  16.7455  17.1819

     occupation numbers 
     1.0000   1.0000   1.0000   1.0000   0.0000   0.0000   0.0000   0.0000
     0.0000   0.0000   0.0000   0.0000   0.0000   0.0000   0.0000   0.0000
     0.0000   0.0000   0.0000   0.0000   0.0000   0.0000   0.0000   0.0000
     0.0000   0.0000   0.0000   0.0000   0.0000   0.0000

          k = 0.2267 0.5312 0.0000 ( 11940 PWs)   bands (ev):

   -16.6961 -14.8116 -12.0333  -4.2624  -1.2504   8.1473   8.1785   9.0093
     9.9060  10.0390  10.3279  10.6836  10.8736  11.9662  12.3255  12.5274
    12.6427  13.1148  13.2909  14.0100  14.3146  14.4513  14.8268  15.3056
    15.5540  16.0566  16.6806  16.7689  16.8455  17.0654

     occupation numbers 
     1.0000   1.0000   1.0000   1.0000   0.0000   0.0000   0.0000   0.0000
     0.0000   0.0000   0.0000   0.0000   0.0000   0.0000   0.0000   0.0000
     0.0000   0.0000   0.0000   0.0000   0.0000   0.0000   0.0000   0.0000
     0.0000   0.0000   0.0000   0.0000   0.0000   0.0000

          k = 0.2267 0.5466 0.0000 ( 11940 PWs)   bands (ev):

   -16.4794 -15.0451 -12.0643  -4.1102  -1.4159   8.2292   8.5380   9.0009
    10.0252  10.1541  10.4523  11.0152  11.2617  11.8554  12.1906  12.5831
    12.6452  12.8619  12.9364  13.8345  14.2748  14.6455  14.7837  15.2363
    15.3957  15.9698  16.5831  16.6525  16.7747  17.1240

     occupation numbers 
     1.0000   1.0000   1.0000   1.0000   0.0000   0.0000   0.0000   0.0000
     0.0000   0.0000   0.0000   0.0000   0.0000   0.0000   0.0000   0.0000
     0.0000   0.0000   0.0000   0.0000   0.0000   0.0000   0.0000   0.0000
     0.0000   0.0000   0.0000   0.0000   0.0000   0.0000

          k = 0.2267 0.5620 0.0000 ( 11931 PWs)   bands (ev):

   -16.3047 -15.2301 -12.0827  -4.0086  -1.5254   8.2737   8.8612   9.0268
     9.6980  10.3842  10.8723  11.2675  11.6541  11.7077  11.7477  12.3714
    12.4413  13.0345  13.0600  13.6607  13.9089  14.6893  15.1023  15.2023
    15.4375  15.7658  16.4255  16.5545  16.6415  17.1634

     occupation numbers 
     1.0000   1.0000   1.0000   1.0000   0.0000   0.0000   0.0000   0.0000
     0.0000   0.0000   0.0000   0.0000   0.0000   0.0000   0.0000   0.0000
     0.0000   0.0000   0.0000   0.0000   0.0000   0.0000   0.0000   0.0000
     0.0000   0.0000   0.0000   0.0000   0.0000   0.0000

          k = 0.2267 0.5774 0.0000 ( 11931 PWs)   bands (ev):

   -16.2309 -15.3074 -12.0888  -3.9726  -1.5641   8.2877   8.9453   9.1935
     9.4529  10.4962  11.2831  11.2975  11.3093  11.8132  12.0093  12.1051
    12.1234  13.2258  13.2830  13.5223  13.6544  14.6719  15.2054  15.3918
    15.4998  15.5125  16.3784  16.4415  16.6338  17.1714

     occupation numbers 
     1.0000   1.0000   1.0000   1.0000   0.0000   0.0000   0.0000   0.0000
     0.0000   0.0000   0.0000   0.0000   0.0000   0.0000   0.0000   0.0000
     0.0000   0.0000   0.0000   0.0000   0.0000   0.0000   0.0000   0.0000
     0.0000   0.0000   0.0000   0.0000   0.0000   0.0000

          k = 0.2400 0.4157 0.0000 ( 11961 PWs)   bands (ev):

   -18.3090 -12.9616 -11.4291  -5.8156   0.5401   5.7970   6.5668   7.4853
     7.9301   8.3529   9.2099   9.3365   9.9361   9.9521  10.5353  12.0710
    12.1195  14.5193  14.8108  15.1854  15.4947  15.7875  16.5335  16.7625
    16.7780  17.2202  17.3257  17.5908  17.6851  17.9326

     occupation numbers 
     1.0000   1.0000   1.0000   1.0000   0.0000   0.0000   0.0000   0.0000
     0.0000   0.0000   0.0000   0.0000   0.0000   0.0000   0.0000   0.0000
     0.0000   0.0000   0.0000   0.0000   0.0000   0.0000   0.0000   0.0000
     0.0000   0.0000   0.0000   0.0000   0.0000   0.0000

          k = 0.2400 0.4311 0.0000 ( 11967 PWs)   bands (ev):

   -18.0945 -13.1715 -11.6113  -5.5852   0.2693   6.1046   6.8364   7.8086
     8.2322   8.6700   9.4160   9.4666  10.0603  10.2673  10.5998  12.3297
    12.3767  14.7566  14.8240  15.0861  15.3292  15.4342  16.2157  16.2883
    16.6543  16.7903  17.1135  17.2119  17.5444  17.9750

     occupation numbers 
     1.0000   1.0000   1.0000   1.0000   0.0000   0.0000   0.0000   0.0000
     0.0000   0.0000   0.0000   0.0000   0.0000   0.0000   0.0000   0.0000
     0.0000   0.0000   0.0000   0.0000   0.0000   0.0000   0.0000   0.0000
     0.0000   0.0000   0.0000   0.0000   0.0000   0.0000

          k = 0.2400 0.4465 0.0000 ( 11957 PWs)   bands (ev):

   -17.8741 -13.3953 -11.7698  -5.3522  -0.0004   6.4221   7.1014   8.1434
     8.5365   8.9954   9.4979   9.5843  10.2658  10.5905  10.7169  12.5791
    12.6903  14.4201  14.8392  15.1532  15.1930  15.4487  15.6759  15.9941
    16.4226  16.5465  16.6008  17.0930  17.4498  17.7103

     occupation numbers 
     1.0000   1.0000   1.0000   1.0000   0.0000   0.0000   0.0000   0.0000
     0.0000   0.0000   0.0000   0.0000   0.0000   0.0000   0.0000   0.0000
     0.0000   0.0000   0.0000   0.0000   0.0000   0.0000   0.0000   0.0000
     0.0000   0.0000   0.0000   0.0000   0.0000   0.0000

          k = 0.2400 0.4619 0.0000 ( 11947 PWs)   bands (ev):

   -17.6485 -13.6316 -11.9049  -5.1180  -0.2674   6.7490   7.3549   8.4899
     8.8360   9.3123   9.5068   9.7243  10.4770  10.9038  10.9200  12.8516
    13.0087  14.0410  14.4940  15.0830  15.1473  15.3532  15.5754  15.7239
    16.1003  16.2229  16.4581  16.9400  17.3362  17.3637

     occupation numbers 
     1.0000   1.0000   1.0000   1.0000   0.0000   0.0000   0.0000   0.0000
     0.0000   0.0000   0.0000   0.0000   0.0000   0.0000   0.0000   0.0000
     0.0000   0.0000   0.0000   0.0000   0.0000   0.0000   0.0000   0.0000
     0.0000   0.0000   0.0000   0.0000   0.0000   0.0000

          k = 0.2400 0.4773 0.0000 ( 11957 PWs)   bands (ev):

   -17.4183 -13.8776 -12.0179  -4.8850  -0.5293   7.0848   7.5872   8.8477
     9.1198   9.4252   9.7180   9.8725  10.6399  11.1517  11.2558  13.1233
    13.3162  13.7301  14.0904  14.6242  15.0266  15.1036  15.5394  15.5802
    16.0402  16.1197  16.3773  16.6972  17.0937  17.1626

     occupation numbers 
     1.0000   1.0000   1.0000   1.0000   0.0000   0.0000   0.0000   0.0000
     0.0000   0.0000   0.0000   0.0000   0.0000   0.0000   0.0000   0.0000
     0.0000   0.0000   0.0000   0.0000   0.0000   0.0000   0.0000   0.0000
     0.0000   0.0000   0.0000   0.0000   0.0000   0.0000

          k = 0.2400 0.4927 0.0000 ( 11941 PWs)   bands (ev):

   -17.1846 -14.1298 -12.1107  -4.6564  -0.7830   7.4288   7.7868   9.2152
     9.3784   9.4105  10.0654  10.0708  10.7156  11.4410  11.5978  13.2810
    13.3875  13.7220  13.8110  14.1316  14.6299  14.9607  15.1320  15.6007
    16.0064  16.2654  16.3193  16.5203  16.7512  16.9807

     occupation numbers 
     1.0000   1.0000   1.0000   1.0000   0.0000   0.0000   0.0000   0.0000
     0.0000   0.0000   0.0000   0.0000   0.0000   0.0000   0.0000   0.0000
     0.0000   0.0000   0.0000   0.0000   0.0000   0.0000   0.0000   0.0000
     0.0000   0.0000   0.0000   0.0000   0.0000   0.0000

          k = 0.2400 0.5081 0.0000 ( 11945 PWs)   bands (ev):

   -16.9492 -14.3841 -12.1852  -4.4368  -1.0236   7.7798   7.9440   9.3807
     9.6029   9.6197  10.3355  10.4203  10.6878  11.7508  11.9442  13.0603
    13.2077  13.6545  13.8948  14.0275  14.2073  14.6866  14.9399  15.4345
    15.8451  16.1794  16.2449  16.5866  16.6773  16.9301

     occupation numbers 
     1.0000   1.0000   1.0000   1.0000   0.0000   0.0000   0.0000   0.0000
     0.0000   0.0000   0.0000   0.0000   0.0000   0.0000   0.0000   0.0000
     0.0000   0.0000   0.0000   0.0000   0.0000   0.0000   0.0000   0.0000
     0.0000   0.0000   0.0000   0.0000   0.0000   0.0000

          k = 0.2400 0.5235 0.0000 ( 11947 PWs)   bands (ev):

   -16.7156 -14.6352 -12.2428  -4.2334  -1.2440   8.0556   8.1363   9.3615
     9.8662   9.9931  10.4954  10.6519  10.8373  12.0382  12.2889  12.7369
    12.9588  13.2992  13.6446  14.1862  14.2966  14.4595  14.9038  15.0834
    15.7615  15.8193  16.1988  16.6683  16.8318  16.9366

     occupation numbers 
     1.0000   1.0000   1.0000   1.0000   0.0000   0.0000   0.0000   0.0000
     0.0000   0.0000   0.0000   0.0000   0.0000   0.0000   0.0000   0.0000
     0.0000   0.0000   0.0000   0.0000   0.0000   0.0000   0.0000   0.0000
     0.0000   0.0000   0.0000   0.0000   0.0000   0.0000

          k = 0.2400 0.5389 0.0000 ( 11941 PWs)   bands (ev):

   -16.4904 -14.8747 -12.2850  -4.0570  -1.4332   8.1269   8.4952   9.3450
    10.1302  10.2575  10.4035  10.9953  11.2132  12.0875  12.5314  12.6498
    12.6561  13.0669  13.2263  13.9753  14.5323  14.6367  14.7610  14.8913
    15.5192  15.7081  16.1643  16.6237  16.8654  16.8721

     occupation numbers 
     1.0000   1.0000   1.0000   1.0000   0.0000   0.0000   0.0000   0.0000
     0.0000   0.0000   0.0000   0.0000   0.0000   0.0000   0.0000   0.0000
     0.0000   0.0000   0.0000   0.0000   0.0000   0.0000   0.0000   0.0000
     0.0000   0.0000   0.0000   0.0000   0.0000   0.0000

          k = 0.2400 0.5543 0.0000 ( 11926 PWs)   bands (ev):

   -16.2902 -15.0851 -12.3127  -3.9227  -1.5760   8.1671   8.8499   9.3329
     9.9709  10.3993  10.8141  11.3192  11.6015  11.8702  12.1164  12.6811
    12.7025  13.0233  13.0572  13.8006  14.2263  14.7322  14.8619  14.9868
    15.4311  15.6552  16.1416  16.4297  16.7453  16.7764

     occupation numbers 
     1.0000   1.0000   1.0000   1.0000   0.0000   0.0000   0.0000   0.0000
     0.0000   0.0000   0.0000   0.0000   0.0000   0.0000   0.0000   0.0000
     0.0000   0.0000   0.0000   0.0000   0.0000   0.0000   0.0000   0.0000
     0.0000   0.0000   0.0000   0.0000   0.0000   0.0000

          k = 0.2400 0.5697 0.0000 ( 11927 PWs)   bands (ev):

   -16.1565 -15.2241 -12.3264  -3.8487  -1.6543   8.1849   9.1715   9.3208
     9.6821  10.6122  11.2391  11.4149  11.6732  11.8950  11.9891  12.3425
    12.3842  13.2458  13.3473  13.6690  13.8576  14.7210  14.8043  15.2631
    15.5259  15.5739  16.1311  16.2337  16.5776  16.7492

     occupation numbers 
     1.0000   1.0000   1.0000   1.0000   0.0000   0.0000   0.0000   0.0000
     0.0000   0.0000   0.0000   0.0000   0.0000   0.0000   0.0000   0.0000
     0.0000   0.0000   0.0000   0.0000   0.0000   0.0000   0.0000   0.0000
     0.0000   0.0000   0.0000   0.0000   0.0000   0.0000

          k = 0.2533 0.4388 0.0000 ( 11959 PWs)   bands (ev):

   -17.8780 -13.3582 -11.8082  -5.3542   0.0080   6.4165   7.0934   8.1376
     8.5297   8.9921   9.5751   9.7167  10.0769  10.5757  10.7097  12.5760
    12.6849  14.6753  14.8775  14.9884  15.1438  15.4361  16.0208  16.0992
    16.1117  16.5551  16.8292  16.9847  17.0492  17.9788

     occupation numbers 
     1.0000   1.0000   1.0000   1.0000   0.0000   0.0000   0.0000   0.0000
     0.0000   0.0000   0.0000   0.0000   0.0000   0.0000   0.0000   0.0000
     0.0000   0.0000   0.0000   0.0000   0.0000   0.0000   0.0000   0.0000
     0.0000   0.0000   0.0000   0.0000   0.0000   0.0000

          k = 0.2533 0.4542 0.0000 ( 11961 PWs)   bands (ev):

   -17.6560 -13.5591 -11.9808  -5.1209  -0.2523   6.7378   7.3375   8.4782
     8.8218   9.3218   9.7064   9.8148  10.2184  10.8920  10.9016  12.8491
    12.9994  14.3306  14.7290  14.7714  15.1880  15.5629  15.7199  15.8099
    16.0076  16.2046  16.5015  16.6413  16.9289  17.5867

     occupation numbers 
     1.0000   1.0000   1.0000   1.0000   0.0000   0.0000   0.0000   0.0000
     0.0000   0.0000   0.0000   0.0000   0.0000   0.0000   0.0000   0.0000
     0.0000   0.0000   0.0000   0.0000   0.0000   0.0000   0.0000   0.0000
     0.0000   0.0000   0.0000   0.0000   0.0000   0.0000

          k = 0.2533 0.4696 0.0000 ( 11957 PWs)   bands (ev):

   -17.4291 -13.7741 -12.1280  -4.8870  -0.5100   7.0681   7.5585   8.8304
     9.0974   9.6400   9.8322   9.8489  10.4228  11.1371  11.2365  13.1348
    13.3137  13.9661  14.3722  14.6490  15.0430  15.2457  15.5230  15.9078
    15.9297  16.0660  16.0828  16.5093  16.8488  17.1785

     occupation numbers 
     1.0000   1.0000   1.0000   1.0000   0.0000   0.0000   0.0000   0.0000
     0.0000   0.0000   0.0000   0.0000   0.0000   0.0000   0.0000   0.0000
     0.0000   0.0000   0.0000   0.0000   0.0000   0.0000   0.0000   0.0000
     0.0000   0.0000   0.0000   0.0000   0.0000   0.0000

          k = 0.2533 0.4850 0.0000 ( 11955 PWs)   bands (ev):

   -17.1983 -14.0010 -12.2503  -4.6549  -0.7628   7.4066   7.7447   9.1938
     9.3485   9.7443  10.0450  10.0515  10.5875  11.4255  11.5777  13.3920
    13.5336  13.7460  13.9996  14.5240  14.5972  14.9617  15.3519  15.4985
    15.8410  16.1505  16.2827  16.3388  16.7808  16.8730

     occupation numbers 
     1.0000   1.0000   1.0000   1.0000   0.0000   0.0000   0.0000   0.0000
     0.0000   0.0000   0.0000   0.0000   0.0000   0.0000   0.0000   0.0000
     0.0000   0.0000   0.0000   0.0000   0.0000   0.0000   0.0000   0.0000
     0.0000   0.0000   0.0000   0.0000   0.0000   0.0000

          k = 0.2533 0.5004 0.0000 ( 11949 PWs)   bands (ev):

   -16.9648 -14.2364 -12.3492  -4.4282  -1.0070   7.7524   7.8871   9.5661
     9.5858   9.7276  10.3090  10.3921  10.6739  11.7397  11.9223  13.3489
    13.3552  13.9294  13.9690  14.0646  14.5186  14.5402  15.0472  15.2665
    15.7775  16.0265  16.2549  16.4147  16.6716  16.8244

     occupation numbers 
     1.0000   1.0000   1.0000   1.0000   0.0000   0.0000   0.0000   0.0000
     0.0000   0.0000   0.0000   0.0000   0.0000   0.0000   0.0000   0.0000
     0.0000   0.0000   0.0000   0.0000   0.0000   0.0000   0.0000   0.0000
     0.0000   0.0000   0.0000   0.0000   0.0000   0.0000

          k = 0.2533 0.5158 0.0000 ( 11955 PWs)   bands (ev):

   -16.7312 -14.4755 -12.4269  -4.2122  -1.2373   7.9842   8.1039   9.6953
     9.8336   9.9594  10.5772  10.6253  10.8201  12.0579  12.2643  13.0172
    13.1550  13.5831  13.9992  14.2552  14.2614  14.4810  14.6892  15.1395
    15.7043  15.7254  16.1321  16.2592  16.6194  16.9074

     occupation numbers 
     1.0000   1.0000   1.0000   1.0000   0.0000   0.0000   0.0000   0.0000
     0.0000   0.0000   0.0000   0.0000   0.0000   0.0000   0.0000   0.0000
     0.0000   0.0000   0.0000   0.0000   0.0000   0.0000   0.0000   0.0000
     0.0000   0.0000   0.0000   0.0000   0.0000   0.0000

          k = 0.2533 0.5312 0.0000 ( 11956 PWs)   bands (ev):

   -16.5018 -14.7116 -12.4852  -4.0155  -1.4452   8.0433   8.4587   9.6738
    10.1047  10.3480  10.4564  10.9723  11.1784  12.2779  12.5836  12.7593
    12.9074  13.2479  13.5799  14.1869  14.3994  14.5322  14.7379  14.8941
    15.5033  15.6842  15.7755  16.2289  16.5935  16.9969

     occupation numbers 
     1.0000   1.0000   1.0000   1.0000   0.0000   0.0000   0.0000   0.0000
     0.0000   0.0000   0.0000   0.0000   0.0000   0.0000   0.0000   0.0000
     0.0000   0.0000   0.0000   0.0000   0.0000   0.0000   0.0000   0.0000
     0.0000   0.0000   0.0000   0.0000   0.0000   0.0000

          k = 0.2533 0.5466 0.0000 ( 11931 PWs)   bands (ev):

   -16.2868 -14.9326 -12.5257  -3.8514  -1.6172   8.0755   8.8128   9.6525
    10.2175  10.3933  10.7683  11.3257  11.5593  12.1140  12.4822  12.8414
    12.8829  13.1012  13.1905  13.9393  14.3999  14.5372  14.8066  14.8878
    15.4672  15.5343  15.6596  16.1834  16.5718  16.8334

     occupation numbers 
     1.0000   1.0000   1.0000   1.0000   0.0000   0.0000   0.0000   0.0000
     0.0000   0.0000   0.0000   0.0000   0.0000   0.0000   0.0000   0.0000
     0.0000   0.0000   0.0000   0.0000   0.0000   0.0000   0.0000   0.0000
     0.0000   0.0000   0.0000   0.0000   0.0000   0.0000

          k = 0.2533 0.5620 0.0000 ( 11924 PWs)   bands (ev):

   -16.1121 -15.1115 -12.5496  -3.7389  -1.7345   8.0907   9.1563   9.6175
     9.9598  10.6671  11.1869  11.5669  11.9360  11.9557  12.0579  12.6660
    12.6674  13.2499  13.3306  13.8000  14.1506  14.3965  14.8415  14.9785
    15.5408  15.5747  15.6510  16.1011  16.5641  16.5745

     occupation numbers 
     1.0000   1.0000   1.0000   1.0000   0.0000   0.0000   0.0000   0.0000
     0.0000   0.0000   0.0000   0.0000   0.0000   0.0000   0.0000   0.0000
     0.0000   0.0000   0.0000   0.0000   0.0000   0.0000   0.0000   0.0000
     0.0000   0.0000   0.0000   0.0000   0.0000   0.0000

          k = 0.2533 0.5774 0.0000 ( 11923 PWs)   bands (ev):

   -16.0373 -15.1878 -12.5575  -3.6982  -1.7768   8.0951   9.4224   9.5043
     9.8215  10.8086  11.5242  11.6069  11.6240  12.1299  12.2536  12.3786
    12.3947  13.3541  13.5978  13.7522  13.8623  14.3973  14.7730  15.0261
    15.5839  15.6661  15.7036  16.0025  16.4752  16.5738

     occupation numbers 
     1.0000   1.0000   1.0000   1.0000   0.0000   0.0000   0.0000   0.0000
     0.0000   0.0000   0.0000   0.0000   0.0000   0.0000   0.0000   0.0000
     0.0000   0.0000   0.0000   0.0000   0.0000   0.0000   0.0000   0.0000
     0.0000   0.0000   0.0000   0.0000   0.0000   0.0000

          k = 0.2667 0.4619 0.0000 ( 11961 PWs)   bands (ev):

   -17.4327 -13.7362 -12.1681  -4.8877  -0.5035   7.0625   7.5489   8.8246
     9.0899   9.6542   9.8410  10.0795  10.1972  11.1321  11.2298  13.1372
    13.3116  14.1901  14.3810  14.5308  15.1097  15.4693  15.4762  15.7928
    15.9244  15.9868  16.3655  16.3875  16.4581  17.3572

     occupation numbers 
     1.0000   1.0000   1.0000   1.0000   0.0000   0.0000   0.0000   0.0000
     0.0000   0.0000   0.0000   0.0000   0.0000   0.0000   0.0000   0.0000
     0.0000   0.0000   0.0000   0.0000   0.0000   0.0000   0.0000   0.0000
     0.0000   0.0000   0.0000   0.0000   0.0000   0.0000

          k = 0.2667 0.4773 0.0000 ( 11957 PWs)   bands (ev):

   -17.2051 -13.9277 -12.3290  -4.6542  -0.7523   7.3955   7.7234   9.1824
     9.3334   9.9645  10.0320  10.1335  10.3782  11.4172  11.5671  13.4278
    13.6064  13.8970  14.1991  14.2565  14.9557  14.9677  15.3918  15.4869
    15.8687  15.8928  16.2305  16.3407  16.4020  17.0144

     occupation numbers 
     1.0000   1.0000   1.0000   1.0000   0.0000   0.0000   0.0000   0.0000
     0.0000   0.0000   0.0000   0.0000   0.0000   0.0000   0.0000   0.0000
     0.0000   0.0000   0.0000   0.0000   0.0000   0.0000   0.0000   0.0000
     0.0000   0.0000   0.0000   0.0000   0.0000   0.0000

          k = 0.2667 0.4927 0.0000 ( 11953 PWs)   bands (ev):

   -16.9743 -14.1329 -12.4626  -4.4231  -0.9964   7.7358   7.8523   9.5512
     9.5651  10.0313  10.2927  10.3646  10.5723  11.7311  11.9093  13.5376
    13.6067  13.9375  13.9441  14.2178  14.4575  14.7561  15.1372  15.3216
    15.4258  15.8400  16.2396  16.3352  16.5331  16.7845

     occupation numbers 
     1.0000   1.0000   1.0000   1.0000   0.0000   0.0000   0.0000   0.0000
     0.0000   0.0000   0.0000   0.0000   0.0000   0.0000   0.0000   0.0000
     0.0000   0.0000   0.0000   0.0000   0.0000   0.0000   0.0000   0.0000
     0.0000   0.0000   0.0000   0.0000   0.0000   0.0000

          k = 0.2667 0.5081 0.0000 ( 11947 PWs)   bands (ev):

   -16.7420 -14.3488 -12.5696  -4.1983  -1.2319   7.9353   8.0820   9.8107
     9.9247  10.0106  10.5659  10.6064  10.8090  12.0595  12.2506  13.3015
    13.3237  13.9597  14.0652  14.1221  14.3581  14.3863  14.9721  14.9842
    15.2649  15.7493  16.0699  16.1955  16.4489  16.9052

     occupation numbers 
     1.0000   1.0000   1.0000   1.0000   0.0000   0.0000   0.0000   0.0000
     0.0000   0.0000   0.0000   0.0000   0.0000   0.0000   0.0000   0.0000
     0.0000   0.0000   0.0000   0.0000   0.0000   0.0000   0.0000   0.0000
     0.0000   0.0000   0.0000   0.0000   0.0000   0.0000

          k = 0.2667 0.5235 0.0000 ( 11941 PWs)   bands (ev):

   -16.5113 -14.5702 -12.6520  -3.9858  -1.4528   7.9816   8.4320   9.9701
    10.0835  10.3238  10.5591  10.9530  11.1574  12.3664  12.5750  12.9746
    13.1174  13.5200  13.9475  14.0552  14.3729  14.4473  14.7466  14.9126
    15.2192  15.5314  15.8798  16.0877  16.1568  16.9872

     occupation numbers 
     1.0000   1.0000   1.0000   1.0000   0.0000   0.0000   0.0000   0.0000
     0.0000   0.0000   0.0000   0.0000   0.0000   0.0000   0.0000   0.0000
     0.0000   0.0000   0.0000   0.0000   0.0000   0.0000   0.0000   0.0000
     0.0000   0.0000   0.0000   0.0000   0.0000   0.0000

          k = 0.2667 0.5389 0.0000 ( 11948 PWs)   bands (ev):

   -16.2884 -14.7886 -12.7115  -3.7963  -1.6486   8.0035   8.7823   9.9402
    10.3806  10.4163  10.7357  11.3158  11.5301  12.3878  12.7597  12.9251
    12.9485  13.2339  13.5125  14.0232  14.1671  14.4941  14.8663  14.9226
    15.1867  15.3493  15.7587  15.8158  16.1292  17.0065

     occupation numbers 
     1.0000   1.0000   1.0000   1.0000   0.0000   0.0000   0.0000   0.0000
     0.0000   0.0000   0.0000   0.0000   0.0000   0.0000   0.0000   0.0000
     0.0000   0.0000   0.0000   0.0000   0.0000   0.0000   0.0000   0.0000
     0.0000   0.0000   0.0000   0.0000   0.0000   0.0000

          k = 0.2667 0.5543 0.0000 ( 11925 PWs)   bands (ev):

   -16.0887 -14.9865 -12.7502  -3.6468  -1.8023   8.0121   9.1263   9.8927
    10.2235  10.6841  11.1467  11.6526  11.9046  12.1271  12.4295  12.8763
    13.0107  13.2871  13.3099  13.8905  14.0672  14.3634  14.7641  14.9806
    15.1607  15.4582  15.6154  15.8004  16.1192  16.7371

     occupation numbers 
     1.0000   1.0000   1.0000   1.0000   0.0000   0.0000   0.0000   0.0000
     0.0000   0.0000   0.0000   0.0000   0.0000   0.0000   0.0000   0.0000
     0.0000   0.0000   0.0000   0.0000   0.0000   0.0000   0.0000   0.0000
     0.0000   0.0000   0.0000   0.0000   0.0000   0.0000

          k = 0.2667 0.5697 0.0000 ( 11928 PWs)   bands (ev):

   -15.9529 -15.1217 -12.7692  -3.5614  -1.8898   8.0146   9.4446   9.7580
    10.0834  10.9331  11.5691  11.6894  11.9969  12.2002  12.2667  12.6373
    12.6413  13.4047  13.6419  13.8116  14.0446  14.0783  14.7283  14.8783
    15.1441  15.6109  15.6587  15.8494  16.1264  16.4725

     occupation numbers 
     1.0000   1.0000   1.0000   1.0000   0.0000   0.0000   0.0000   0.0000
     0.0000   0.0000   0.0000   0.0000   0.0000   0.0000   0.0000   0.0000
     0.0000   0.0000   0.0000   0.0000   0.0000   0.0000   0.0000   0.0000
     0.0000   0.0000   0.0000   0.0000   0.0000   0.0000

          k = 0.2800 0.4850 0.0000 ( 11971 PWs)   bands (ev):

   -16.9775 -14.0949 -12.5038  -4.4215  -0.9927   7.7303   7.8405   9.5457
     9.5582  10.2557  10.2862  10.2873  10.4840  11.7279  11.9050  13.7135
    13.7528  13.7923  13.9493  14.0979  14.7345  14.8751  14.8859  15.3281
    15.5391  15.8191  15.8380  16.4862  16.5338  16.7684

     occupation numbers 
     1.0000   1.0000   1.0000   1.0000   0.0000   0.0000   0.0000   0.0000
     0.0000   0.0000   0.0000   0.0000   0.0000   0.0000   0.0000   0.0000
     0.0000   0.0000   0.0000   0.0000   0.0000   0.0000   0.0000   0.0000
     0.0000   0.0000   0.0000   0.0000   0.0000   0.0000

          k = 0.2800 0.5004 0.0000 ( 11951 PWs)   bands (ev):

   -16.7476 -14.2765 -12.6499  -4.1914  -1.2290   7.9105   8.0711   9.7990
     9.9194  10.2524  10.4741  10.5966  10.7958  12.0579  12.2446  13.4864
    13.6047  13.7771  13.9793  14.3033  14.4056  14.5733  14.8177  14.9846
    15.3630  15.4132  15.7722  16.3649  16.6435  16.6982

     occupation numbers 
     1.0000   1.0000   1.0000   1.0000   0.0000   0.0000   0.0000   0.0000
     0.0000   0.0000   0.0000   0.0000   0.0000   0.0000   0.0000   0.0000
     0.0000   0.0000   0.0000   0.0000   0.0000   0.0000   0.0000   0.0000
     0.0000   0.0000   0.0000   0.0000   0.0000   0.0000

          k = 0.2800 0.5158 0.0000 ( 11939 PWs)   bands (ev):

   -16.5175 -14.4706 -12.7665  -3.9681  -1.4570   7.9437   8.4158  10.0698
    10.2086  10.3081  10.5764  10.9404  11.1471  12.3920  12.5734  13.2416
    13.2584  13.7417  13.9043  14.0978  14.3540  14.5791  14.7666  14.8442
    14.9537  15.3332  15.7268  15.9890  16.4186  16.7678

     occupation numbers 
     1.0000   1.0000   1.0000   1.0000   0.0000   0.0000   0.0000   0.0000
     0.0000   0.0000   0.0000   0.0000   0.0000   0.0000   0.0000   0.0000
     0.0000   0.0000   0.0000   0.0000   0.0000   0.0000   0.0000   0.0000
     0.0000   0.0000   0.0000   0.0000   0.0000   0.0000

          k = 0.2800 0.5312 0.0000 ( 11940 PWs)   bands (ev):

   -16.2912 -14.6719 -12.8545  -3.7587  -1.6698   7.9539   8.7614  10.1718
    10.3691  10.5427  10.7189  11.3045  11.5135  12.6221  12.8336  12.9822
    13.1220  13.4645  13.7290  13.8432  14.2402  14.4470  14.7140  14.9483
    14.9804  15.2164  15.6922  15.6950  16.0616  16.7573

     occupation numbers 
     1.0000   1.0000   1.0000   1.0000   0.0000   0.0000   0.0000   0.0000
     0.0000   0.0000   0.0000   0.0000   0.0000   0.0000   0.0000   0.0000
     0.0000   0.0000   0.0000   0.0000   0.0000   0.0000   0.0000   0.0000
     0.0000   0.0000   0.0000   0.0000   0.0000   0.0000

          k = 0.2800 0.5466 0.0000 ( 11938 PWs)   bands (ev):

   -16.0776 -14.8697 -12.9155  -3.5765  -1.8545   7.9532   9.1023  10.1151
    10.4457  10.6852  11.1188  11.6719  11.8824  12.3948  12.7555  13.0452
    13.1952  13.3211  13.4408  13.7123  14.1459  14.1995  14.6889  14.9416
    15.0836  15.1583  15.6491  15.6580  15.8177  16.6896

     occupation numbers 
     1.0000   1.0000   1.0000   1.0000   0.0000   0.0000   0.0000   0.0000
     0.0000   0.0000   0.0000   0.0000   0.0000   0.0000   0.0000   0.0000
     0.0000   0.0000   0.0000   0.0000   0.0000   0.0000   0.0000   0.0000
     0.0000   0.0000   0.0000   0.0000   0.0000   0.0000

          k = 0.2800 0.5620 0.0000 ( 11930 PWs)   bands (ev):

   -15.9006 -15.0382 -12.9513  -3.4445  -1.9879   7.9497   9.4270   9.9930
    10.3370  10.9890  11.5349  11.8948  12.2285  12.2364  12.3958  12.8681
    12.9901  13.4461  13.5713  13.6541  14.0409  14.1164  14.6622  14.6739
    15.0379  15.2073  15.5694  15.8209  15.8631  16.5314

     occupation numbers 
     1.0000   1.0000   1.0000   1.0000   0.0000   0.0000   0.0000   0.0000
     0.0000   0.0000   0.0000   0.0000   0.0000   0.0000   0.0000   0.0000
     0.0000   0.0000   0.0000   0.0000   0.0000   0.0000   0.0000   0.0000
     0.0000   0.0000   0.0000   0.0000   0.0000   0.0000

          k = 0.2800 0.5774 0.0000 ( 11935 PWs)   bands (ev):

   -15.8225 -15.1137 -12.9630  -3.3946  -2.0382   7.9480   9.6560   9.8293
    10.3000  11.1555  11.7945  11.9441  11.9721  12.4817  12.4876  12.6608
    12.6984  13.4945  13.5983  13.8507  13.9473  14.0699  14.5397  14.6701
    14.9598  15.2149  15.5538  15.8548  16.0496  16.3664

     occupation numbers 
     1.0000   1.0000   1.0000   1.0000   0.0000   0.0000   0.0000   0.0000
     0.0000   0.0000   0.0000   0.0000   0.0000   0.0000   0.0000   0.0000
     0.0000   0.0000   0.0000   0.0000   0.0000   0.0000   0.0000   0.0000
     0.0000   0.0000   0.0000   0.0000   0.0000   0.0000

          k = 0.2933 0.5081 0.0000 ( 11941 PWs)   bands (ev):

   -16.5196 -14.4340 -12.8081  -3.9622  -1.4583   7.9309   8.4104  10.0651
    10.2955  10.3305  10.5496  10.9360  11.1441  12.3970  12.5739  13.3792
    13.4003  13.5560  13.9589  14.3162  14.3183  14.5924  14.6113  14.7665
    15.1441  15.2873  15.3460  16.2130  16.5193  16.6410

     occupation numbers 
     1.0000   1.0000   1.0000   1.0000   0.0000   0.0000   0.0000   0.0000
     0.0000   0.0000   0.0000   0.0000   0.0000   0.0000   0.0000   0.0000
     0.0000   0.0000   0.0000   0.0000   0.0000   0.0000   0.0000   0.0000
     0.0000   0.0000   0.0000   0.0000   0.0000   0.0000

          k = 0.2933 0.5235 0.0000 ( 11938 PWs)   bands (ev):

   -16.2930 -14.6049 -12.9343  -3.7397  -1.6805   7.9287   8.7508  10.3113
    10.3625  10.5892  10.7171  11.2979  11.5070  12.7255  12.8648  13.1082
    13.2039  13.5000  13.8549  13.8598  14.2747  14.3636  14.7373  14.7376
    14.9842  15.1497  15.3027  15.8868  16.3939  16.4298

     occupation numbers 
     1.0000   1.0000   1.0000   1.0000   0.0000   0.0000   0.0000   0.0000
     0.0000   0.0000   0.0000   0.0000   0.0000   0.0000   0.0000   0.0000
     0.0000   0.0000   0.0000   0.0000   0.0000   0.0000   0.0000   0.0000
     0.0000   0.0000   0.0000   0.0000   0.0000   0.0000

          k = 0.2933 0.5389 0.0000 ( 11941 PWs)   bands (ev):

   -16.0731 -14.7846 -13.0278  -3.5322  -1.8876   7.9168   9.0873  10.2624
    10.5970  10.6825  11.1032  11.6724  11.8714  12.6847  12.9342  13.1415
    13.1967  13.3762  13.5852  13.6843  14.0648  14.2415  14.4275  14.7528
    15.0540  15.2303  15.3242  15.6461  16.0657  16.3796

     occupation numbers 
     1.0000   1.0000   1.0000   1.0000   0.0000   0.0000   0.0000   0.0000
     0.0000   0.0000   0.0000   0.0000   0.0000   0.0000   0.0000   0.0000
     0.0000   0.0000   0.0000   0.0000   0.0000   0.0000   0.0000   0.0000
     0.0000   0.0000   0.0000   0.0000   0.0000   0.0000

          k = 0.2933 0.5543 0.0000 ( 11932 PWs)   bands (ev):

   -15.8724 -14.9596 -13.0891  -3.3566  -2.0628   7.9044   9.4109  10.1709
    10.5363  11.0090  11.5127  12.0210  12.2206  12.3836  12.7328  13.0522
    13.2978  13.3351  13.4414  13.6547  13.9885  14.1538  14.2339  14.6987
    15.0228  15.0909  15.3058  15.8062  15.8722  16.3366

     occupation numbers 
     1.0000   1.0000   1.0000   1.0000   0.0000   0.0000   0.0000   0.0000
     0.0000   0.0000   0.0000   0.0000   0.0000   0.0000   0.0000   0.0000
     0.0000   0.0000   0.0000   0.0000   0.0000   0.0000   0.0000   0.0000
     0.0000   0.0000   0.0000   0.0000   0.0000   0.0000

          k = 0.2933 0.5697 0.0000 ( 11923 PWs)   bands (ev):

   -15.7295 -15.0900 -13.1194  -3.2473  -2.1719   7.8970   9.6966  10.0115
    10.4877  11.2878  11.9295  11.9773  12.3371  12.5286  12.5397  12.8769
    12.9409  13.3399  13.6055  13.6114  14.0901  14.1201  14.2411  14.5249
    14.8769  15.0887  15.1950  15.8485  16.0613  16.2707

     occupation numbers 
     1.0000   1.0000   1.0000   1.0000   0.0000   0.0000   0.0000   0.0000
     0.0000   0.0000   0.0000   0.0000   0.0000   0.0000   0.0000   0.0000
     0.0000   0.0000   0.0000   0.0000   0.0000   0.0000   0.0000   0.0000
     0.0000   0.0000   0.0000   0.0000   0.0000   0.0000

          k = 0.3067 0.5312 0.0000 ( 11953 PWs)   bands (ev):

   -16.0719 -14.7529 -13.0682  -3.5170  -1.8990   7.9045   9.0823  10.3144
    10.6510  10.6810  11.0984  11.6713  11.8686  12.8839  13.0388  13.0529
    13.0787  13.4827  13.6910  13.8023  13.8394  14.2396  14.4554  14.7418
    14.7981  15.2359  15.3475  15.6914  16.1964  16.3870

     occupation numbers 
     1.0000   1.0000   1.0000   1.0000   0.0000   0.0000   0.0000   0.0000
     0.0000   0.0000   0.0000   0.0000   0.0000   0.0000   0.0000   0.0000
     0.0000   0.0000   0.0000   0.0000   0.0000   0.0000   0.0000   0.0000
     0.0000   0.0000   0.0000   0.0000   0.0000   0.0000

          k = 0.3067 0.5466 0.0000 ( 11926 PWs)   bands (ev):

   -15.8604 -14.9113 -13.1650  -3.3085  -2.1043   7.8812   9.4022  10.2679
    10.6482  11.0148  11.5019  12.0502  12.2161  12.5948  12.9228  13.1206
    13.2218  13.3475  13.6534  13.6692  13.8236  13.9614  14.3719  14.4223
    14.7642  15.3174  15.3243  15.6308  16.0833  16.1598

     occupation numbers 
     1.0000   1.0000   1.0000   1.0000   0.0000   0.0000   0.0000   0.0000
     0.0000   0.0000   0.0000   0.0000   0.0000   0.0000   0.0000   0.0000
     0.0000   0.0000   0.0000   0.0000   0.0000   0.0000   0.0000   0.0000
     0.0000   0.0000   0.0000   0.0000   0.0000   0.0000

          k = 0.3067 0.5620 0.0000 ( 11917 PWs)   bands (ev):

   -15.6764 -15.0633 -13.2232  -3.1372  -2.2736   7.8651   9.6944  10.1693
    10.6081  11.3412  11.9132  12.2160  12.5003  12.5038  12.7252  13.0047
    13.1700  13.1938  13.4885  13.7130  13.8115  14.0503  14.2455  14.3444
    14.7804  14.9829  15.2929  15.7538  15.8965  16.2939

     occupation numbers 
     1.0000   1.0000   1.0000   1.0000   0.0000   0.0000   0.0000   0.0000
     0.0000   0.0000   0.0000   0.0000   0.0000   0.0000   0.0000   0.0000
     0.0000   0.0000   0.0000   0.0000   0.0000   0.0000   0.0000   0.0000
     0.0000   0.0000   0.0000   0.0000   0.0000   0.0000

          k = 0.3067 0.5774 0.0000 ( 11931 PWs)   bands (ev):

   -15.5864 -15.1427 -13.2426  -3.0623  -2.3478   7.8593   9.8810  10.0532
    10.5865  11.5366  12.0419  12.2945  12.3473  12.7032  12.8585  12.8687
    12.8904  13.2263  13.4194  13.6949  13.7491  14.2127  14.2555  14.3316
    14.7875  14.8031  15.2294  15.7837  15.8487  16.4297

     occupation numbers 
     1.0000   1.0000   1.0000   0.9999   0.0001   0.0000   0.0000   0.0000
     0.0000   0.0000   0.0000   0.0000   0.0000   0.0000   0.0000   0.0000
     0.0000   0.0000   0.0000   0.0000   0.0000   0.0000   0.0000   0.0000
     0.0000   0.0000   0.0000   0.0000   0.0000   0.0000

          k = 0.3200 0.5543 0.0000 ( 11925 PWs)   bands (ev):

   -15.6595 -15.0515 -13.2600  -3.0941  -2.3138   7.8542   9.6922  10.2292
    10.6488  11.3544  11.9078  12.4011  12.4267  12.5133  12.8405  13.0719
    13.1156  13.3373  13.3615  13.7477  13.8148  13.8746  14.2466  14.3597
    14.5274  15.2038  15.3717  15.5063  15.9632  16.2964

     occupation numbers 
     1.0000   1.0000   1.0000   1.0000   0.0000   0.0000   0.0000   0.0000
     0.0000   0.0000   0.0000   0.0000   0.0000   0.0000   0.0000   0.0000
     0.0000   0.0000   0.0000   0.0000   0.0000   0.0000   0.0000   0.0000
     0.0000   0.0000   0.0000   0.0000   0.0000   0.0000

          k = 0.3200 0.5697 0.0000 ( 11929 PWs)   bands (ev):

   -15.4940 -15.1857 -13.3085  -2.9188  -2.4866   7.8398   9.9285  10.1448
    10.6213  11.6661  12.1473  12.3078  12.6378  12.7451  12.7573  12.9165
    13.0687  13.2030  13.3894  13.4421  13.8498  13.8533  14.2039  14.4616
    14.5780  14.9215  15.3891  15.4596  15.7822  16.3095

     occupation numbers 
     1.0000   1.0000   1.0000   0.9878   0.0126   0.0000   0.0000   0.0000
     0.0000   0.0000   0.0000   0.0000   0.0000   0.0000   0.0000   0.0000
     0.0000   0.0000   0.0000   0.0000   0.0000   0.0000   0.0000   0.0000
     0.0000   0.0000   0.0000   0.0000   0.0000   0.0000

          k = 0.3333 0.5774 0.0000 ( 11919 PWs)   bands (ev):

   -15.3294 -15.3293 -13.3378  -2.7019  -2.7017   7.8311  10.0791  10.0791
    10.6119  11.9519  11.9519  12.6065  12.6066  12.7657  12.7678  12.9585
    12.9585  13.2906  13.2907  13.3938  13.6591  13.9857  13.9857  14.5749
    14.7504  14.7504  15.3120  15.5681  15.5681  16.2697

     occupation numbers 
     1.0000   1.0000   1.0000   0.4992   0.4983   0.0000   0.0000   0.0000
     0.0000   0.0000   0.0000   0.0000   0.0000   0.0000   0.0000   0.0000
     0.0000   0.0000   0.0000   0.0000   0.0000   0.0000   0.0000   0.0000
     0.0000   0.0000   0.0000   0.0000   0.0000   0.0000

     the Fermi energy is    -2.7021 ev
     (compare with:    -2.7016 eV, computed in scf)

     Writing all to output data dir /home/ubuntu/projects/Graphene-Band-Structure-Quantum-Espresso/outputs/field_0/vdw-df2-c09/bottom/data/bottom.save/ :
     XML data file, pseudopotentials, collected wavefunctions

     init_run     :     10.33s CPU     10.63s WALL (       1 calls)
     electrons    :    423.99s CPU    426.25s WALL (       1 calls)

     Called by init_run:
     wfcinit      :      0.00s CPU      0.00s WALL (       1 calls)
     wfcinit:atom :      0.05s CPU      0.08s WALL (      32 calls)
     wfcinit:wfcr :      6.79s CPU      7.03s WALL (      32 calls)
     potinit      :      9.59s CPU      9.80s WALL (       1 calls)
     hinit0       :      0.60s CPU      0.65s WALL (       1 calls)

     Called by electrons:
     c_bands      :    423.97s CPU    426.06s WALL (       1 calls)
     v_of_rho     :      9.53s CPU      9.74s WALL (       1 calls)
     v_h          :      0.00s CPU      0.01s WALL (       1 calls)
     v_xc         :      9.53s CPU      9.73s WALL (       1 calls)
     vdW_kernel   :      8.74s CPU      8.75s WALL (       1 calls)

     Called by c_bands:
     init_us_2    :      0.08s CPU      0.08s WALL (      32 calls)
     cegterg      :    209.32s CPU    210.77s WALL (      78 calls)

     Called by sum_band:

     Called by *egterg:
     cdiaghg      :      1.89s CPU      1.89s WALL (    1265 calls)
     cegterg:over :     42.53s CPU     42.56s WALL (    1233 calls)
     cegterg:upda :     26.10s CPU     26.29s WALL (    1233 calls)
     cegterg:last :     52.70s CPU     52.73s WALL (     641 calls)
     h_psi        :     85.77s CPU     86.84s WALL (    1343 calls)
     g_psi        :      0.94s CPU      0.95s WALL (    1233 calls)

     Called by h_psi:
     h_psi:calbec :      7.33s CPU      7.33s WALL (    1343 calls)
     vloc_psi     :     70.32s CPU     70.80s WALL (    1343 calls)
     add_vuspsi   :      7.70s CPU      7.71s WALL (    1343 calls)

     General routines
     calbec       :      7.32s CPU      7.33s WALL (    1343 calls)
     fft          :      0.65s CPU      0.68s WALL (      61 calls)
     fftw         :     61.16s CPU     61.37s WALL (   40256 calls)

     Parallel routines

     PWSCF        :   7m15.10s CPU   7m18.14s WALL


   This run was terminated on:  18:10:19   3Oct2026            

=------------------------------------------------------------------------------=
   JOB DONE.
=------------------------------------------------------------------------------=
Note: The following floating-point exceptions are signalling: IEEE_UNDERFLOW_FLAG IEEE_DENORMAL
Note: The following floating-point exceptions are signalling: IEEE_UNDERFLOW_FLAG IEEE_DENORMAL
Note: The following floating-point exceptions are signalling: IEEE_UNDERFLOW_FLAG IEEE_DENORMAL
Note: The following floating-point exceptions are signalling: IEEE_UNDERFLOW_FLAG IEEE_DENORMAL
Note: The following floating-point exceptions are signalling: IEEE_UNDERFLOW_FLAG IEEE_DENORMAL
Note: The following floating-point exceptions are signalling: IEEE_UNDERFLOW_FLAG IEEE_DENORMAL
Note: The following floating-point exceptions are signalling: IEEE_UNDERFLOW_FLAG IEEE_DENORMAL
Note: The following floating-point exceptions are signalling: IEEE_UNDERFLOW_FLAG IEEE_DENORMAL
Note: The following floating-point exceptions are signalling: IEEE_UNDERFLOW_FLAG IEEE_DENORMAL
Note: The following floating-point exceptions are signalling: IEEE_UNDERFLOW_FLAG IEEE_DENORMAL
Note: The following floating-point exceptions are signalling: IEEE_UNDERFLOW_FLAG IEEE_DENORMAL
Note: The following floating-point exceptions are signalling: IEEE_UNDERFLOW_FLAG IEEE_DENORMAL
Note: The following floating-point exceptions are signalling: IEEE_UNDERFLOW_FLAG IEEE_DENORMAL
Note: The following floating-point exceptions are signalling: IEEE_UNDERFLOW_FLAG IEEE_DENORMAL
Note: The following floating-point exceptions are signalling: IEEE_UNDERFLOW_FLAG IEEE_DENORMAL
Note: The following floating-point exceptions are signalling: IEEE_UNDERFLOW_FLAG IEEE_DENORMAL
