
     Program PWSCF v.7.6 starts on  4Oct2026 at  7:34:14 

     This program is part of the open-source Quantum ESPRESSO suite
     for quantum simulation of materials; please cite
         "P. Giannozzi et al., J. Phys.:Condens. Matter 21 395502 (2009);
         "P. Giannozzi et al., J. Phys.:Condens. Matter 29 465901 (2017);
         "P. Giannozzi et al., J. Chem. Phys. 152 154105 (2020);
          URL http://www.quantum-espresso.org", 
     in publications or presentations arising from this work. More details at
     http://www.quantum-espresso.org/quote

     Parallel version (MPI), running on    16 processors

     MPI processes distributed on     1 nodes
     30334 MiB available memory on the printing compute node when the environment starts

     Waiting for input...
     Reading input from standard input
Warning: card &CELL ignored
Warning: card &FCP ignored
Warning: card &RISM ignored

     Current dimensions of program PWSCF are:
     Max number of different atomic species (ntypx) = 10
     Max number of k-points (npk) =  40000
     Max angular momentum in pseudopotentials (lmaxx) =  4

     IMPORTANT: XC functional enforced from input :
     Exchange-correlation= VDW-DF2-C09
                           (   1   4  16   0   2   0   0)
     Any further DFT definition will be discarded
     Please, verify this is what you really want

     Message from routine setup:
     using ibrav=0 with symmetry is DISCOURAGED, use correct ibrav instead

     K-points division:     npool     =      16
     Subspace diagonalization in iterative solution of the eigenvalue problem:
     a serial algorithm will be used


     G-vector sticks info
     --------------------
     sticks:   dense  smooth     PW     G-vecs:    dense   smooth      PW
     Sum         535     535    163                94953    94953   15739

     Using Slab Decomposition



     bravais-lattice index     =            0
     lattice parameter (alat)  =       4.6487  a.u.
     unit-cell volume          =     825.8174 (a.u.)^3
     number of atoms/cell      =            2
     number of atomic types    =            1
     number of electrons       =         8.00
     number of Kohn-Sham states=           10
     kinetic-energy cutoff     =      90.0000  Ry
     charge density cutoff     =     360.0000  Ry
     scf convergence threshold =      1.0E-08
     mixing beta               =       0.7000
     number of iterations used =            8  plain     mixing
     Exchange-correlation= VDW-DF2-C09
                           (   1   4  16   0   2   0   0)

     celldm(1)=   4.648726  celldm(2)=   0.000000  celldm(3)=   0.000000
     celldm(4)=   0.000000  celldm(5)=   0.000000  celldm(6)=   0.000000

     crystal axes: (cart. coord. in units of alat)
               a(1) = (   1.000000   0.000000   0.000000 )  
               a(2) = (  -0.500000   0.866025   0.000000 )  
               a(3) = (   0.000000   0.000000   9.491870 )  

     reciprocal axes: (cart. coord. in units 2 pi/alat)
               b(1) = (  1.000000  0.577351 -0.000000 )  
               b(2) = (  0.000000  1.154701  0.000000 )  
               b(3) = (  0.000000 -0.000000  0.105353 )  


     PseudoPot. # 1 for C  read from file:
     /home/ubuntu/projects/Graphene-Band-Structure-Quantum-Espresso/pseudo/C.upf
     MD5 check sum: 34a24e64c0a39f27c6c36b90a16ac686
     Pseudo is Norm-conserving + core correction, Zval =  4.0
     Generated using ONCVPSP code by D. R. Hamann
     Using radial grid of 1248 points,  4 beta functions with: 
                l(1) =   0
                l(2) =   0
                l(3) =   1
                l(4) =   1

     atomic species   valence    mass     pseudopotential
     C                 4.00    12.01100     C ( 1.00)

      6 Sym. Ops. (no inversion) found


                                    s                        frac. trans.

      isym =  1     identity                                     

 cryst.   s( 1) = (     1          0          0      )
                  (     0          1          0      )
                  (     0          0          1      )

 cart.    s( 1) = (  1.0000000  0.0000000  0.0000000 )
                  (  0.0000000  1.0000000  0.0000000 )
                  (  0.0000000  0.0000000  1.0000000 )


      isym =  2     120 deg rotation - cryst. axis [0,0,1]       

 cryst.   s( 2) = (     0          1          0      )
                  (    -1         -1          0      )
                  (     0          0          1      )

 cart.    s( 2) = ( -0.5000000 -0.8660258  0.0000000 )
                  (  0.8660250 -0.5000000  0.0000000 )
                  (  0.0000000  0.0000000  1.0000000 )


      isym =  3     120 deg rotation - cryst. axis [0,0,-1]      

 cryst.   s( 3) = (    -1         -1          0      )
                  (     1          0          0      )
                  (     0          0          1      )

 cart.    s( 3) = ( -0.5000000  0.8660258  0.0000000 )
                  ( -0.8660250 -0.5000000  0.0000000 )
                  (  0.0000000  0.0000000  1.0000000 )


      isym =  4     inv. 180 deg rotation - cart. axis [1,0,0]   

 cryst.   s( 4) = (    -1          0          0      )
                  (     1          1          0      )
                  (     0          0          1      )

 cart.    s( 4) = ( -1.0000000  0.0000000  0.0000000 )
                  (  0.0000000  1.0000000  0.0000000 )
                  (  0.0000000  0.0000000  1.0000000 )


      isym =  5     inv. 180 deg rotation - cryst. axis [0,1,0]  

 cryst.   s( 5) = (     1          1          0      )
                  (     0         -1          0      )
                  (     0          0          1      )

 cart.    s( 5) = (  0.5000000  0.8660258  0.0000000 )
                  (  0.8660250 -0.5000000  0.0000000 )
                  (  0.0000000  0.0000000  1.0000000 )


      isym =  6     inv. 180 deg rotation - cryst. axis [1,1,0]  

 cryst.   s( 6) = (     0         -1          0      )
                  (    -1          0          0      )
                  (     0          0          1      )

 cart.    s( 6) = (  0.5000000 -0.8660258  0.0000000 )
                  ( -0.8660250 -0.5000000  0.0000000 )
                  (  0.0000000  0.0000000  1.0000000 )


   Cartesian axes

     site n.     atom                  positions (alat units)
         1        C      tau(   1) = (   0.0000000   0.0000000   4.0321860  )
         2        C      tau(   2) = (   0.5000000   0.2886752   4.0328411  )

   Crystallographic axes

     site n.     atom                  positions (cryst. coord.)
         1        C      tau(   1) = (  0.0000000  0.0000000  0.4248042  )
         2        C      tau(   2) = (  0.6666668  0.3333335  0.4248732  )

     number of k points=    27  Gaussian smearing, width (Ry)=  0.0100
                       cart. coord. in units 2pi/alat
        k(    1) = (   0.0000000   0.0000000   0.0000000), wk =   0.0088889
        k(    2) = (   0.0000000   0.0769801   0.0000000), wk =   0.0533333
        k(    3) = (   0.0000000   0.1539601   0.0000000), wk =   0.0533333
        k(    4) = (   0.0000000   0.2309402   0.0000000), wk =   0.0533333
        k(    5) = (   0.0000000   0.3079203   0.0000000), wk =   0.0533333
        k(    6) = (   0.0000000   0.3849004   0.0000000), wk =   0.0533333
        k(    7) = (   0.0000000   0.4618804   0.0000000), wk =   0.0533333
        k(    8) = (   0.0000000   0.5388605   0.0000000), wk =   0.0533333
        k(    9) = (   0.0666667   0.1154701   0.0000000), wk =   0.0533333
        k(   10) = (   0.0666667   0.1924502   0.0000000), wk =   0.1066667
        k(   11) = (   0.0666667   0.2694303   0.0000000), wk =   0.1066667
        k(   12) = (   0.0666667   0.3464103   0.0000000), wk =   0.1066667
        k(   13) = (   0.0666667   0.4233904   0.0000000), wk =   0.1066667
        k(   14) = (   0.0666667   0.5003705   0.0000000), wk =   0.1066667
        k(   15) = (   0.0666667   0.5773505   0.0000000), wk =   0.0533333
        k(   16) = (   0.1333333   0.2309402   0.0000000), wk =   0.0533333
        k(   17) = (   0.1333333   0.3079203   0.0000000), wk =   0.1066667
        k(   18) = (   0.1333333   0.3849004   0.0000000), wk =   0.1066667
        k(   19) = (   0.1333333   0.4618804   0.0000000), wk =   0.1066667
        k(   20) = (   0.1333333   0.5388605   0.0000000), wk =   0.1066667
        k(   21) = (   0.2000000   0.3464103   0.0000000), wk =   0.0533333
        k(   22) = (   0.2000000   0.4233904   0.0000000), wk =   0.1066667
        k(   23) = (   0.2000000   0.5003705   0.0000000), wk =   0.1066667
        k(   24) = (   0.2000000   0.5773505   0.0000000), wk =   0.0533333
        k(   25) = (   0.2666667   0.4618804   0.0000000), wk =   0.0533333
        k(   26) = (   0.2666667   0.5388605   0.0000000), wk =   0.1066667
        k(   27) = (   0.3333333   0.5773505   0.0000000), wk =   0.0177778

                       cryst. coord.
        k(    1) = (   0.0000000   0.0000000   0.0000000), wk =   0.0088889
        k(    2) = (   0.0000000   0.0666667   0.0000000), wk =   0.0533333
        k(    3) = (   0.0000000   0.1333333   0.0000000), wk =   0.0533333
        k(    4) = (   0.0000000   0.2000000   0.0000000), wk =   0.0533333
        k(    5) = (   0.0000000   0.2666667   0.0000000), wk =   0.0533333
        k(    6) = (   0.0000000   0.3333333   0.0000000), wk =   0.0533333
        k(    7) = (   0.0000000   0.4000000   0.0000000), wk =   0.0533333
        k(    8) = (   0.0000000   0.4666667   0.0000000), wk =   0.0533333
        k(    9) = (   0.0666667   0.0666667   0.0000000), wk =   0.0533333
        k(   10) = (   0.0666667   0.1333333   0.0000000), wk =   0.1066667
        k(   11) = (   0.0666667   0.2000000   0.0000000), wk =   0.1066667
        k(   12) = (   0.0666667   0.2666667   0.0000000), wk =   0.1066667
        k(   13) = (   0.0666667   0.3333333   0.0000000), wk =   0.1066667
        k(   14) = (   0.0666667   0.4000000   0.0000000), wk =   0.1066667
        k(   15) = (   0.0666667   0.4666667   0.0000000), wk =   0.0533333
        k(   16) = (   0.1333333   0.1333333   0.0000000), wk =   0.0533333
        k(   17) = (   0.1333333   0.2000000   0.0000000), wk =   0.1066667
        k(   18) = (   0.1333333   0.2666667   0.0000000), wk =   0.1066667
        k(   19) = (   0.1333333   0.3333333   0.0000000), wk =   0.1066667
        k(   20) = (   0.1333333   0.4000000   0.0000000), wk =   0.1066667
        k(   21) = (   0.2000000   0.2000000   0.0000000), wk =   0.0533333
        k(   22) = (   0.2000000   0.2666667   0.0000000), wk =   0.1066667
        k(   23) = (   0.2000000   0.3333333   0.0000000), wk =   0.1066667
        k(   24) = (   0.2000000   0.4000000   0.0000000), wk =   0.0533333
        k(   25) = (   0.2666667   0.2666667   0.0000000), wk =   0.0533333
        k(   26) = (   0.2666667   0.3333333   0.0000000), wk =   0.1066667
        k(   27) = (   0.3333333   0.3333333   0.0000000), wk =   0.0177778

     Dense  grid:    94953 G-vectors     FFT dimensions: (  30,  30, 270)

     Dynamical RAM for                 wfc:       1.82 MB

     Dynamical RAM for     wfc (w. buffer):       5.45 MB

     Dynamical RAM for           str. fact:       1.45 MB

     Dynamical RAM for           local pot:       0.00 MB

     Dynamical RAM for          nlocal pot:       2.91 MB

     Dynamical RAM for                qrad:       0.44 MB

     Dynamical RAM for          rho,v,vnew:       9.91 MB

     Dynamical RAM for               rhoin:       3.30 MB

     Dynamical RAM for            rho*nmix:      23.18 MB

     Dynamical RAM for           G-vectors:       6.16 MB

     Dynamical RAM for          h,s,v(r/c):       0.02 MB

     Dynamical RAM for          <psi|beta>:       0.00 MB

     Dynamical RAM for                 psi:       3.63 MB

     Dynamical RAM for                hpsi:       3.63 MB

     Dynamical RAM for      wfcinit/wfcrot:       3.64 MB

     Estimated static dynamical RAM per process >      41.78 MB

     Estimated max dynamical RAM per process >      72.25 MB

     Estimated total dynamical RAM >     808.24 MB

     Initial potential from superposition of free atoms

     starting charge       7.9999, renormalised to       8.0000

     negative rho (up, down):  7.684E-06 0.000E+00


     %%%%%%%%%%%%%%%%%%%%%%%%%%%%%%%%%%%%%%%%%%%%%%%%%%%%%%%%%%%%%%%%%%%%%%%%
     %                                                                      %
     % You are using vdW-DF, which was implemented by the Thonhauser group. %
     % Please cite the following two papers that made this development      %
     % possible and the two reviews that describe the various versions:     %
     %                                                                      %
     %   T. Thonhauser et al., PRL 115, 136402 (2015).                      %
     %   T. Thonhauser et al., PRB 76,  125112 (2007).                      %
     %   K. Berland et al., Rep. Prog. Phys. 78, 066501 (2015).             %
     %   D.C. Langreth et al., J. Phys.: Condens. Matter 21, 084203 (2009). %
     %                                                                      %
     % If you are calculating stress with vdW-DF, please also cite:         %
     %                                                                      %
     %   R. Sabatini et al., J. Phys.: Condens. Matter 24, 424209 (2012).   %
     %                                                                      %
     %   And for spin-polarized stress cases also:                          %
     %   C.M. Frostenson et al., Electr. Struct. 4, 014001 (2022).          %
     %                                                                      %
     %%%%%%%%%%%%%%%%%%%%%%%%%%%%%%%%%%%%%%%%%%%%%%%%%%%%%%%%%%%%%%%%%%%%%%%%

     %%%%%%%%%%%%%%%%%%%%%%%%%%%%%%%%%%%%%%%%%%%%%%%%%%%%%%%%%%%%%%%%%%%%%%%%
     %                                                                      %
     %  vdW-DF NEWS:                                                        %
     %                                                                      %
     %  * vdW-DF3-mc is now available. DOI: 10.1103/hp9d-4kpf               %
     %    use with input_dft = 'vdW-DF3-mc'                                 %
     %  * vdW-DF3 is now available. DOI: 10.1021/acs.jctc.0c00471           %
     %    use with input_dft = 'vdW-DF3-opt1' or 'vdW-DF3-opt2'             %
     %                                                                      %
     %  * Unscreened and range-separated hybrid vdW-DF-cx functionals       %
     %    DOI: 10.1063/1.4986522 and 10.1088/1361-648X/ac2ad2               %
     %    use with input_dft = 'vdW-DF-cx0' and 'vdW-DF-ahcx'               %
     %  * Unscreened and range-separated hybrid vdW-DF2-b86r functionals    %
     %    DOI: 10.1063/1.4986522 and DOI: 10.1103/PhysRevX.12.041003        %
     %    use with input_dft = 'vdW-DF2-br0' and 'vdW-DF2-ahbr'             %
     %                                                                      %
     %%%%%%%%%%%%%%%%%%%%%%%%%%%%%%%%%%%%%%%%%%%%%%%%%%%%%%%%%%%%%%%%%%%%%%%%


     Carrying out vdW-DF run using the following parameters:
     Nqs    =  20  Npoints =  1024  r_max =  100.000
     q_mesh =  0.00001000  0.04494208  0.09755937  0.15916263
               0.23128650  0.31572767  0.41458969  0.53033537
               0.66584808  0.82450364  1.01025438  1.22772762
               1.48234092  1.78043706  2.12944203  2.53805004
               3.01644009  3.57652955  4.23227104  5.00000000


     -----------------------------------------------
     Non-local corr. energy    =       0.09375959 Ry
     -----------------------------------------------

     Starting wfcs are    8 randomized atomic wfcs +    2 random wfcs

     total cpu time spent up to now is       10.4 secs

     Self-consistent Calculation

     iteration #  1     ecut=    90.00 Ry     beta= 0.70
     Davidson diagonalization with overlap

---- Real-time Memory Report at c_bands before calling an iterative solver
           231 MiB given to the printing process from OS
             0 MiB allocation reported by mallinfo(arena+hblkhd)
         27097 MiB available memory on the node where the printing process lives
------------------
     ethr =  1.00E-02,  avg # of iterations =  8.9

     negative rho (up, down):  8.045E-07 0.000E+00


     -----------------------------------------------
     Non-local corr. energy    =       0.10416728 Ry
     -----------------------------------------------


     total cpu time spent up to now is       12.4 secs

     total energy              =     -24.04663721 Ry
     estimated scf accuracy    <       0.19920689 Ry

     iteration #  2     ecut=    90.00 Ry     beta= 0.70
     Davidson diagonalization with overlap

---- Real-time Memory Report at c_bands before calling an iterative solver
           264 MiB given to the printing process from OS
             0 MiB allocation reported by mallinfo(arena+hblkhd)
         26940 MiB available memory on the node where the printing process lives
------------------
     ethr =  2.49E-03,  avg # of iterations =  3.9

     negative rho (up, down):  2.050E-08 0.000E+00


     -----------------------------------------------
     Non-local corr. energy    =       0.10374733 Ry
     -----------------------------------------------


     total cpu time spent up to now is       14.2 secs

     total energy              =     -24.07843144 Ry
     estimated scf accuracy    <       0.00253415 Ry

     iteration #  3     ecut=    90.00 Ry     beta= 0.70
     Davidson diagonalization with overlap

---- Real-time Memory Report at c_bands before calling an iterative solver
           267 MiB given to the printing process from OS
             0 MiB allocation reported by mallinfo(arena+hblkhd)
         27007 MiB available memory on the node where the printing process lives
------------------
     ethr =  3.17E-05,  avg # of iterations = 12.8


     -----------------------------------------------
     Non-local corr. energy    =       0.10380771 Ry
     -----------------------------------------------


     total cpu time spent up to now is       17.2 secs

     total energy              =     -24.07883882 Ry
     estimated scf accuracy    <       0.00017727 Ry

     iteration #  4     ecut=    90.00 Ry     beta= 0.70
     Davidson diagonalization with overlap

---- Real-time Memory Report at c_bands before calling an iterative solver
           270 MiB given to the printing process from OS
             0 MiB allocation reported by mallinfo(arena+hblkhd)
         27047 MiB available memory on the node where the printing process lives
------------------
     ethr =  2.22E-06,  avg # of iterations =  5.5


     -----------------------------------------------
     Non-local corr. energy    =       0.10385027 Ry
     -----------------------------------------------


     total cpu time spent up to now is       19.2 secs

     total energy              =     -24.07884793 Ry
     estimated scf accuracy    <       0.00000146 Ry

     iteration #  5     ecut=    90.00 Ry     beta= 0.70
     Davidson diagonalization with overlap

---- Real-time Memory Report at c_bands before calling an iterative solver
           273 MiB given to the printing process from OS
             0 MiB allocation reported by mallinfo(arena+hblkhd)
         27109 MiB available memory on the node where the printing process lives
------------------
     ethr =  1.83E-08,  avg # of iterations =  3.4


     -----------------------------------------------
     Non-local corr. energy    =       0.10385141 Ry
     -----------------------------------------------


     total cpu time spent up to now is       21.3 secs

     total energy              =     -24.07884897 Ry
     estimated scf accuracy    <       0.00000010 Ry

     iteration #  6     ecut=    90.00 Ry     beta= 0.70
     Davidson diagonalization with overlap

---- Real-time Memory Report at c_bands before calling an iterative solver
           276 MiB given to the printing process from OS
             0 MiB allocation reported by mallinfo(arena+hblkhd)
         26979 MiB available memory on the node where the printing process lives
------------------
     ethr =  1.22E-09,  avg # of iterations =  2.1


     -----------------------------------------------
     Non-local corr. energy    =       0.10385226 Ry
     -----------------------------------------------


     total cpu time spent up to now is       23.0 secs

     End of self-consistent calculation

          k = 0.0000 0.0000 0.0000 ( 11659 PWs)   bands (ev):

   -22.2870 -10.4024  -5.7477  -5.7477   0.2606   1.1258   1.7432   2.2774
     2.6748   3.8034

     occupation numbers 
     1.0000   1.0000   1.0000   1.0000   0.0000   0.0000   0.0000   0.0000
     0.0000   0.0000

          k = 0.0000 0.0770 0.0000 ( 11791 PWs)   bands (ev):

   -22.1816 -10.2757  -6.1731  -5.9721   0.4039   1.2704   1.8903   2.4238
     2.8207   3.9489

     occupation numbers 
     1.0000   1.0000   1.0000   1.0000   0.0000   0.0000   0.0000   0.0000
     0.0000   0.0000

          k = 0.0000 0.1540 0.0000 ( 11788 PWs)   bands (ev):

   -21.8663  -9.8977  -7.3042  -6.5408   0.8337   1.7037   2.3316   2.8630
     3.2588   4.3849

     occupation numbers 
     1.0000   1.0000   1.0000   1.0000   0.0000   0.0000   0.0000   0.0000
     0.0000   0.0000

          k = 0.0000 0.2309 0.0000 ( 11848 PWs)   bands (ev):

   -21.3432  -9.2754  -8.8569  -7.2524   1.5495   2.4229   3.0670   3.5938
     3.9883   5.1057

     occupation numbers 
     1.0000   1.0000   1.0000   1.0000   0.0000   0.0000   0.0000   0.0000
     0.0000   0.0000

          k = 0.0000 0.3079 0.0000 ( 11876 PWs)   bands (ev):

   -20.6164 -10.5955  -8.4240  -7.9450   2.5497   3.3934   4.0964   4.1664
     4.6357   5.0005

     occupation numbers 
     1.0000   1.0000   1.0000   1.0000   0.0000   0.0000   0.0000   0.0000
     0.0000   0.0000

          k = 0.0000 0.3849 0.0000 ( 11914 PWs)   bands (ev):

   -19.6934 -12.3674  -8.5214  -7.3768   2.2383   3.8285   4.7519   5.1490
     5.4238   5.9386

     occupation numbers 
     1.0000   1.0000   1.0000   1.0000   0.0000   0.0000   0.0000   0.0000
     0.0000   0.0000

          k = 0.0000 0.4619 0.0000 ( 11910 PWs)   bands (ev):

   -18.5897 -14.0735  -8.9281  -6.2206   0.4759   4.9179   5.4262   6.3128
     7.0390   7.5422

     occupation numbers 
     1.0000   1.0000   1.0000   1.0000   0.0000   0.0000   0.0000   0.0000
     0.0000   0.0000

          k = 0.0000 0.5389 0.0000 ( 11924 PWs)   bands (ev):

   -17.3798 -15.5945  -9.1373  -5.2522  -0.8164   4.8318   7.2303   8.1366
     8.9494   9.2941

     occupation numbers 
     1.0000   1.0000   1.0000   1.0000   0.0000   0.0000   0.0000   0.0000
     0.0000   0.0000

          k = 0.0667 0.1155 0.0000 ( 11813 PWs)   bands (ev):

   -21.9713 -10.0233  -6.8995  -6.4210   0.6905   1.5594   2.1845   2.7167
     3.1128   4.2398

     occupation numbers 
     1.0000   1.0000   1.0000   1.0000   0.0000   0.0000   0.0000   0.0000
     0.0000   0.0000

          k = 0.0667 0.1925 0.0000 ( 11832 PWs)   bands (ev):

   -21.5521  -9.5229  -8.1518  -7.1526   1.2636   2.1361   2.7729   3.3019
     3.6970   4.8200

     occupation numbers 
     1.0000   1.0000   1.0000   1.0000   0.0000   0.0000   0.0000   0.0000
     0.0000   0.0000

          k = 0.0667 0.2694 0.0000 ( 11880 PWs)   bands (ev):

   -20.9272  -9.7386  -8.7849  -7.9149   2.1221   2.9943   3.6555   4.1754
     4.5722   4.9206

     occupation numbers 
     1.0000   1.0000   1.0000   1.0000   0.0000   0.0000   0.0000   0.0000
     0.0000   0.0000

          k = 0.0667 0.3464 0.0000 ( 11910 PWs)   bands (ev):

   -20.1022 -11.4631  -8.5805  -7.8312   3.0803   3.2637   4.1819   4.8317
     5.3526   5.6653

     occupation numbers 
     1.0000   1.0000   1.0000   1.0000   0.0000   0.0000   0.0000   0.0000
     0.0000   0.0000

          k = 0.0667 0.4234 0.0000 ( 11938 PWs)   bands (ev):

   -19.0876 -13.1879  -9.0868  -6.7131   1.2860   4.6768   5.5136   5.5916
     6.3042   6.8103

     occupation numbers 
     1.0000   1.0000   1.0000   1.0000   0.0000   0.0000   0.0000   0.0000
     0.0000   0.0000

          k = 0.0667 0.5004 0.0000 ( 11920 PWs)   bands (ev):

   -17.9126 -14.8127  -9.4012  -5.5839  -0.2953   5.3348   6.3950   7.2785
     8.0679   8.5521

     occupation numbers 
     1.0000   1.0000   1.0000   1.0000   0.0000   0.0000   0.0000   0.0000
     0.0000   0.0000

          k = 0.0667 0.5774 0.0000 ( 11913 PWs)   bands (ev):

   -16.9421 -15.9367  -9.5076  -4.9874  -1.0489   5.2860   8.2551   8.4121
     9.0390   9.3474

     occupation numbers 
     1.0000   1.0000   1.0000   1.0000   0.0000   0.0000   0.0000   0.0000
     0.0000   0.0000

          k = 0.1333 0.2309 0.0000 ( 11879 PWs)   bands (ev):

   -21.0311  -9.2543  -8.9060  -8.1207   1.9797   2.8546   3.5084   4.0327
     4.4275   5.2149

     occupation numbers 
     1.0000   1.0000   1.0000   1.0000   0.0000   0.0000   0.0000   0.0000
     0.0000   0.0000

          k = 0.1333 0.3079 0.0000 ( 11929 PWs)   bands (ev):

   -20.3079 -10.6528  -9.0318  -8.0618   2.9800   3.6299   3.8780   4.5381
     5.0551   5.4490

     occupation numbers 
     1.0000   1.0000   1.0000   1.0000   0.0000   0.0000   0.0000   0.0000
     0.0000   0.0000

          k = 0.1333 0.3849 0.0000 ( 11925 PWs)   bands (ev):

   -19.3906 -12.2494  -9.7093  -7.0216   1.9608   4.2606   5.1378   5.8614
     6.3652   6.7281

     occupation numbers 
     1.0000   1.0000   1.0000   1.0000   0.0000   0.0000   0.0000   0.0000
     0.0000   0.0000

          k = 0.1333 0.4619 0.0000 ( 11927 PWs)   bands (ev):

   -18.2964 -13.8678 -10.1564  -5.8655   0.3174   5.8091   6.6678   6.6763
     7.4802   7.9559

     occupation numbers 
     1.0000   1.0000   1.0000   1.0000   0.0000   0.0000   0.0000   0.0000
     0.0000   0.0000

          k = 0.1333 0.5389 0.0000 ( 11935 PWs)   bands (ev):

   -17.1022 -15.3419 -10.3798  -4.8749  -0.9353   6.5519   7.6352   8.3539
     9.3891   9.6380

     occupation numbers 
     1.0000   1.0000   1.0000   1.0000   0.0000   0.0000   0.0000   0.0000
     0.0000   0.0000

          k = 0.2000 0.3464 0.0000 ( 11953 PWs)   bands (ev):

   -19.4922 -11.6676 -10.2115  -7.1265   2.2390   4.1195   4.9779   5.7147
     6.2151   6.6160

     occupation numbers 
     1.0000   1.0000   1.0000   1.0000   0.0000   0.0000   0.0000   0.0000
     0.0000   0.0000

          k = 0.2000 0.4234 0.0000 ( 11949 PWs)   bands (ev):

   -18.4931 -12.9555 -11.0349  -6.0224   0.7509   5.5329   6.3379   7.1848
     7.6500   8.0627

     occupation numbers 
     1.0000   1.0000   1.0000   1.0000   0.0000   0.0000   0.0000   0.0000
     0.0000   0.0000

          k = 0.2000 0.5004 0.0000 ( 11953 PWs)   bands (ev):

   -17.3434 -14.3885 -11.4626  -4.8739  -0.6512   7.2001   7.7767   8.3254
     8.9493   9.2564

     occupation numbers 
     1.0000   1.0000   1.0000   1.0000   0.0000   0.0000   0.0000   0.0000
     0.0000   0.0000

          k = 0.2000 0.5774 0.0000 ( 11949 PWs)   bands (ev):

   -16.4028 -15.4395 -11.5957  -4.2172  -1.3973   8.2477   8.5016   8.9781
     9.1950  10.2171

     occupation numbers 
     1.0000   1.0000   1.0000   1.0000   0.0000   0.0000   0.0000   0.0000
     0.0000   0.0000

          k = 0.2667 0.4619 0.0000 ( 11961 PWs)   bands (ev):

   -17.4323 -13.7358 -12.1677  -4.8875  -0.5033   7.0623   7.5483   8.8007
     9.0755   9.6443

     occupation numbers 
     1.0000   1.0000   1.0000   1.0000   0.0000   0.0000   0.0000   0.0000
     0.0000   0.0000

          k = 0.2667 0.5389 0.0000 ( 11948 PWs)   bands (ev):

   -16.2881 -14.7882 -12.7112  -3.7961  -1.6484   8.0032   8.7821   9.9405
    10.3783  10.4160

     occupation numbers 
     1.0000   1.0000   1.0000   1.0000   0.0000   0.0000   0.0000   0.0000
     0.0000   0.0000

          k = 0.3333 0.5774 0.0000 ( 11919 PWs)   bands (ev):

   -15.3291 -15.3290 -13.3374  -2.7017  -2.7015   7.8308  10.0792  10.0793
    10.6115  11.9509

     occupation numbers 
     1.0000   1.0000   1.0000   0.5005   0.4995   0.0000   0.0000   0.0000
     0.0000   0.0000

     the Fermi energy is    -2.7016 ev

!    total energy              =     -24.07884900 Ry
     estimated scf accuracy    <          7.6E-09 Ry
     smearing contrib. (-TS)   =      -0.00010030 Ry
     internal energy E=F+TS    =     -24.07874870 Ry

     The total energy is F=E-TS. E is the sum of the following terms:
     one-electron contribution =    -270.20095034 Ry
     hartree contribution      =     136.29298301 Ry
     xc contribution           =      -8.56531997 Ry
     ewald contribution        =     118.39453860 Ry

     convergence has been achieved in   6 iterations


     -----------------------------------------------
     Non-local corr. energy    =       0.10385226 Ry
     -----------------------------------------------


     Forces acting on atoms (cartesian axes, Ry/au):

     atom    1 type  1   force =     0.00000000   -0.00000000    0.00103481
     atom    2 type  1   force =     0.00000000    0.00000000   -0.00103481
     The non-local contrib.  to forces
     atom    1 type  1   force =     0.00000000    0.00000000    0.00201047
     atom    2 type  1   force =     0.00000000   -0.00000000   -0.00201167
     The ionic contribution  to forces
     atom    1 type  1   force =     0.00000053    0.00000661   -0.02097243
     atom    2 type  1   force =    -0.00000053   -0.00000661    0.02097243
     The local contribution  to forces
     atom    1 type  1   force =     0.00000000   -0.00000181    0.02003880
     atom    2 type  1   force =    -0.00000042   -0.00000023   -0.01997996
     The core correction contribution to forces
     atom    1 type  1   force =    -0.00000000   -0.00000001   -0.00001236
     atom    2 type  1   force =     0.00000003    0.00000016    0.00001269
     The Hubbard contrib.    to forces
     atom    1 type  1   force =     0.00000000    0.00000000    0.00000000
     atom    2 type  1   force =     0.00000000    0.00000000    0.00000000
     The SCF correction term to forces
     atom    1 type  1   force =    -0.00000000    0.00000000   -0.00002985
     atom    2 type  1   force =     0.00000000   -0.00000000   -0.00002848

     Total force =     0.001463     Total SCF correction =     0.000041

     Writing all to output data dir /home/ubuntu/projects/Graphene-Band-Structure-Quantum-Espresso/outputs/field_0/vdw-df2-c09/bottom/data/bottom.save/ :
     XML data file, charge density, pseudopotentials, collected wavefunctions

     init_run     :     10.04s CPU     10.37s WALL (       1 calls)
     electrons    :     12.03s CPU     12.81s WALL (       1 calls)
     forces       :      0.72s CPU      0.91s WALL (       1 calls)

     Called by init_run:
     wfcinit      :      0.32s CPU      0.33s WALL (       1 calls)
     wfcinit:atom :      0.00s CPU      0.00s WALL (       2 calls)
     wfcinit:wfcr :      0.30s CPU      0.31s WALL (       2 calls)
     potinit      :      9.05s CPU      9.32s WALL (       1 calls)
     hinit0       :      0.59s CPU      0.62s WALL (       1 calls)

     Called by electrons:
     c_bands      :      4.64s CPU      4.68s WALL (       6 calls)
     sum_band     :      0.45s CPU      0.47s WALL (       6 calls)
     v_of_rho     :     12.69s CPU     13.63s WALL (       7 calls)
     v_h          :      0.03s CPU      0.04s WALL (       7 calls)
     v_xc         :     13.31s CPU     14.42s WALL (       8 calls)
     mix_rho      :      0.05s CPU      0.06s WALL (       6 calls)
     vdW_kernel   :      7.70s CPU      7.71s WALL (       1 calls)

     Called by c_bands:
     init_us_2    :      0.06s CPU      0.07s WALL (      28 calls)
     cegterg      :      2.86s CPU      2.89s WALL (      12 calls)

     Called by sum_band:
     sum_band:wei :      0.00s CPU      0.00s WALL (       6 calls)
     sum_band:loo :      0.21s CPU      0.21s WALL (       6 calls)
     sum_band:buf :      0.00s CPU      0.00s WALL (      12 calls)
     sum_band:ini :      0.02s CPU      0.02s WALL (      12 calls)

     Called by *egterg:
     cdiaghg      :      0.01s CPU      0.01s WALL (      76 calls)
     cegterg:over :      0.26s CPU      0.26s WALL (      64 calls)
     cegterg:upda :      0.18s CPU      0.18s WALL (      64 calls)
     cegterg:last :      0.31s CPU      0.31s WALL (      36 calls)
     h_psi        :      2.27s CPU      2.30s WALL (      78 calls)
     g_psi        :      0.02s CPU      0.02s WALL (      64 calls)

     Called by h_psi:
     h_psi:calbec :      0.18s CPU      0.18s WALL (      78 calls)
     vloc_psi     :      1.89s CPU      1.91s WALL (      78 calls)
     add_vuspsi   :      0.19s CPU      0.19s WALL (      78 calls)

     General routines
     calbec       :      0.21s CPU      0.21s WALL (      86 calls)
     fft          :      1.80s CPU      1.81s WALL (     480 calls)
     ffts         :      0.02s CPU      0.02s WALL (       6 calls)
     fftw         :      1.80s CPU      1.80s WALL (     978 calls)

     Parallel routines

     PWSCF        :     23.04s CPU     24.38s WALL


   This run was terminated on:   7:34:39   4Oct2026            

=------------------------------------------------------------------------------=
   JOB DONE.
=------------------------------------------------------------------------------=
Note: The following floating-point exceptions are signalling: IEEE_UNDERFLOW_FLAG IEEE_DENORMAL
Note: The following floating-point exceptions are signalling: IEEE_UNDERFLOW_FLAG IEEE_DENORMAL
Note: The following floating-point exceptions are signalling: IEEE_UNDERFLOW_FLAG IEEE_DENORMAL
Note: The following floating-point exceptions are signalling: IEEE_UNDERFLOW_FLAG IEEE_DENORMAL
Note: The following floating-point exceptions are signalling: IEEE_UNDERFLOW_FLAG IEEE_DENORMAL
Note: The following floating-point exceptions are signalling: IEEE_UNDERFLOW_FLAG IEEE_DENORMAL
Note: The following floating-point exceptions are signalling: IEEE_UNDERFLOW_FLAG IEEE_DENORMAL
Note: The following floating-point exceptions are signalling: IEEE_UNDERFLOW_FLAG IEEE_DENORMAL
Note: The following floating-point exceptions are signalling: IEEE_UNDERFLOW_FLAG IEEE_DENORMAL
Note: The following floating-point exceptions are signalling: IEEE_UNDERFLOW_FLAG IEEE_DENORMAL
Note: The following floating-point exceptions are signalling: IEEE_UNDERFLOW_FLAG IEEE_DENORMAL
Note: The following floating-point exceptions are signalling: IEEE_UNDERFLOW_FLAG IEEE_DENORMAL
Note: The following floating-point exceptions are signalling: IEEE_UNDERFLOW_FLAG IEEE_DENORMAL
Note: The following floating-point exceptions are signalling: IEEE_UNDERFLOW_FLAG IEEE_DENORMAL
Note: The following floating-point exceptions are signalling: IEEE_UNDERFLOW_FLAG IEEE_DENORMAL
Note: The following floating-point exceptions are signalling: IEEE_UNDERFLOW_FLAG IEEE_DENORMAL
