
     Program PWSCF v.7.6 starts on 19Sep2026 at 17:27:47 

     This program is part of the open-source Quantum ESPRESSO suite
     for quantum simulation of materials; please cite
         "P. Giannozzi et al., J. Phys.:Condens. Matter 21 395502 (2009);
         "P. Giannozzi et al., J. Phys.:Condens. Matter 29 465901 (2017);
         "P. Giannozzi et al., J. Chem. Phys. 152 154105 (2020);
          URL http://www.quantum-espresso.org", 
     in publications or presentations arising from this work. More details at
     http://www.quantum-espresso.org/quote

     Parallel version (MPI), running on     4 processors

     MPI processes distributed on     1 nodes
     461 MiB available memory on the printing compute node when the environment starts

     Waiting for input...
     Reading input from standard input
Warning: card &CELL ignored
Warning: card &FCP ignored
Warning: card &RISM ignored

     Current dimensions of program PWSCF are:
     Max number of different atomic species (ntypx) = 10
     Max number of k-points (npk) =  40000
     Max angular momentum in pseudopotentials (lmaxx) =  4
     Presently no symmetry can be used with electric field

     file C.pbe-n-kjpaw_psl.1.0.0.UPF: wavefunction(s)  2S 2P renormalized

     K-points division:     npool     =       4
     Subspace diagonalization in iterative solution of the eigenvalue problem:
     a serial algorithm will be used


     G-vector sticks info
     --------------------
     sticks:   dense  smooth     PW     G-vecs:    dense   smooth      PW
     Sum         595     361    121               111671    52021   10303

     Using Slab Decomposition



     bravais-lattice index     =            0
     lattice parameter (alat)  =       4.6487  a.u.
     unit-cell volume          =     825.8174 (a.u.)^3
     number of atoms/cell      =            2
     number of atomic types    =            1
     number of electrons       =         8.00
     number of Kohn-Sham states=           10
     kinetic-energy cutoff     =      60.0000  Ry
     charge density cutoff     =     400.0000  Ry
     scf convergence threshold =      1.0E-08
     mixing beta               =       0.7000
     number of iterations used =            8  plain     mixing
     Exchange-correlation= SLA  PW   PBX  PBC
                           (   1   4   3   4   0   0   0)

     celldm(1)=   4.648726  celldm(2)=   0.000000  celldm(3)=   0.000000
     celldm(4)=   0.000000  celldm(5)=   0.000000  celldm(6)=   0.000000

     crystal axes: (cart. coord. in units of alat)
               a(1) = (   1.000000   0.000000   0.000000 )  
               a(2) = (  -0.500000   0.866025   0.000000 )  
               a(3) = (   0.000000   0.000000   9.491870 )  

     reciprocal axes: (cart. coord. in units 2 pi/alat)
               b(1) = (  1.000000  0.577351 -0.000000 )  
               b(2) = (  0.000000  1.154701  0.000000 )  
               b(3) = (  0.000000 -0.000000  0.105353 )  


     PseudoPot. # 1 for C  read from file:
     /home/ubuntu/projects/Graphene-Band-Structure-Quantum-Espresso/pseudo/C.pbe-n-kjpaw_psl.1.0.0.UPF
     MD5 check sum: 5f16ad9a65e90284d1d834d4ab3b0f7d
     Pseudo is Projector augmented-wave + core cor, Zval =  4.0
     Generated using &quot;atomic&quot; code by A. Dal Corso  v.6.3
     Shape of augmentation charge: PSQ
     Using radial grid of 1073 points,  4 beta functions with: 
                l(1) =   0
                l(2) =   0
                l(3) =   1
                l(4) =   1
     Q(r) pseudized with 0 coefficients 


     atomic species   valence    mass     pseudopotential
     C                 4.00    12.01100     C ( 1.00)

     No symmetry found


                                    s                        frac. trans.

      isym =  1     identity                                     

 cryst.   s( 1) = (     1          0          0      )
                  (     0          1          0      )
                  (     0          0          1      )

 cart.    s( 1) = (  1.0000000  0.0000000  0.0000000 )
                  (  0.0000000  1.0000000  0.0000000 )
                  (  0.0000000  0.0000000  1.0000000 )


   Cartesian axes

     site n.     atom                  positions (alat units)
         1        C      tau(   1) = (  -0.0000769   0.0002186   0.9268707  )
         2        C      tau(   2) = (   0.5000756   0.2884466   0.9213759  )

     --------------------------------------------
     DFT-D3 Dispersion Correction (3-body terms):
     --------------------------------------------
       Reference C6 values for interpolation: 

         atom   Coordination number   C6
         C          0.000            98.23
         C          0.987            86.49
         C          1.998            58.72
         C          2.999            51.56
         C          3.984            36.41

       Values used:

         atom   Coordination number  R0_AB[au]  C6      C8
         C          3.315            2.750     48.27   1395.94
         C          3.315            2.750     48.27   1395.94

         Molecular C6 ( Ry / a.u.^6 ) =       193.06


   Crystallographic axes

     site n.     atom                  positions (cryst. coord.)
         1        C      tau(   1) = (  0.0000493  0.0002524  0.0976489  )
         2        C      tau(   2) = (  0.6666104  0.3330696  0.0970700  )

     number of k points=   113  Gaussian smearing, width (Ry)=  0.0100
                       cart. coord. in units 2pi/alat
        k(    1) = (   0.0000000   0.0000000   0.0000000), wk =   0.0088889
        k(    2) = (   0.0000000   0.0769801   0.0000000), wk =   0.0177778
        k(    3) = (   0.0000000   0.1539601   0.0000000), wk =   0.0177778
        k(    4) = (   0.0000000   0.2309402   0.0000000), wk =   0.0177778
        k(    5) = (   0.0000000   0.3079203   0.0000000), wk =   0.0177778
        k(    6) = (   0.0000000   0.3849004   0.0000000), wk =   0.0177778
        k(    7) = (   0.0000000   0.4618804   0.0000000), wk =   0.0177778
        k(    8) = (   0.0000000   0.5388605   0.0000000), wk =   0.0177778
        k(    9) = (   0.0666667   0.0384900   0.0000000), wk =   0.0177778
        k(   10) = (   0.0666667   0.1154701   0.0000000), wk =   0.0177778
        k(   11) = (   0.0666667   0.1924502   0.0000000), wk =   0.0177778
        k(   12) = (   0.0666667   0.2694303   0.0000000), wk =   0.0177778
        k(   13) = (   0.0666667   0.3464103   0.0000000), wk =   0.0177778
        k(   14) = (   0.0666667   0.4233904   0.0000000), wk =   0.0177778
        k(   15) = (   0.0666667   0.5003705   0.0000000), wk =   0.0177778
        k(   16) = (   0.0666667   0.5773505   0.0000000), wk =   0.0177778
        k(   17) = (   0.0666667  -0.5003705   0.0000000), wk =   0.0177778
        k(   18) = (   0.0666667  -0.4233904   0.0000000), wk =   0.0177778
        k(   19) = (   0.0666667  -0.3464103   0.0000000), wk =   0.0177778
        k(   20) = (   0.0666667  -0.2694303   0.0000000), wk =   0.0177778
        k(   21) = (   0.0666667  -0.1924502   0.0000000), wk =   0.0177778
        k(   22) = (   0.0666667  -0.1154701   0.0000000), wk =   0.0177778
        k(   23) = (   0.0666667  -0.0384900   0.0000000), wk =   0.0177778
        k(   24) = (   0.1333333   0.0769801   0.0000000), wk =   0.0177778
        k(   25) = (   0.1333333   0.1539601   0.0000000), wk =   0.0177778
        k(   26) = (   0.1333333   0.2309402   0.0000000), wk =   0.0177778
        k(   27) = (   0.1333333   0.3079203   0.0000000), wk =   0.0177778
        k(   28) = (   0.1333333   0.3849004   0.0000000), wk =   0.0177778
        k(   29) = (   0.1333333   0.4618804   0.0000000), wk =   0.0177778
        k(   30) = (   0.1333333   0.5388605   0.0000000), wk =   0.0177778
        k(   31) = (   0.1333333   0.6158406   0.0000000), wk =   0.0177778
        k(   32) = (   0.1333333  -0.4618804   0.0000000), wk =   0.0177778
        k(   33) = (   0.1333333  -0.3849004   0.0000000), wk =   0.0177778
        k(   34) = (   0.1333333  -0.3079203   0.0000000), wk =   0.0177778
        k(   35) = (   0.1333333  -0.2309402   0.0000000), wk =   0.0177778
        k(   36) = (   0.1333333  -0.1539601   0.0000000), wk =   0.0177778
        k(   37) = (   0.1333333  -0.0769801   0.0000000), wk =   0.0177778
        k(   38) = (   0.1333333   0.0000000   0.0000000), wk =   0.0177778
        k(   39) = (   0.2000000   0.1154701   0.0000000), wk =   0.0177778
        k(   40) = (   0.2000000   0.1924502   0.0000000), wk =   0.0177778
        k(   41) = (   0.2000000   0.2694303   0.0000000), wk =   0.0177778
        k(   42) = (   0.2000000   0.3464103   0.0000000), wk =   0.0177778
        k(   43) = (   0.2000000   0.4233904   0.0000000), wk =   0.0177778
        k(   44) = (   0.2000000   0.5003705   0.0000000), wk =   0.0177778
        k(   45) = (   0.2000000   0.5773505   0.0000000), wk =   0.0177778
        k(   46) = (   0.2000000   0.6543306   0.0000000), wk =   0.0177778
        k(   47) = (   0.2000000  -0.4233904   0.0000000), wk =   0.0177778
        k(   48) = (   0.2000000  -0.3464103   0.0000000), wk =   0.0177778
        k(   49) = (   0.2000000  -0.2694303   0.0000000), wk =   0.0177778
        k(   50) = (   0.2000000  -0.1924502   0.0000000), wk =   0.0177778
        k(   51) = (   0.2000000  -0.1154701   0.0000000), wk =   0.0177778
        k(   52) = (   0.2000000  -0.0384900   0.0000000), wk =   0.0177778
        k(   53) = (   0.2000000   0.0384900   0.0000000), wk =   0.0177778
        k(   54) = (   0.2666667   0.1539601   0.0000000), wk =   0.0177778
        k(   55) = (   0.2666667   0.2309402   0.0000000), wk =   0.0177778
        k(   56) = (   0.2666667   0.3079203   0.0000000), wk =   0.0177778
        k(   57) = (   0.2666667   0.3849004   0.0000000), wk =   0.0177778
        k(   58) = (   0.2666667   0.4618804   0.0000000), wk =   0.0177778
        k(   59) = (   0.2666667   0.5388605   0.0000000), wk =   0.0177778
        k(   60) = (   0.2666667   0.6158406   0.0000000), wk =   0.0177778
        k(   61) = (   0.2666667   0.6928206   0.0000000), wk =   0.0177778
        k(   62) = (   0.2666667  -0.3849004   0.0000000), wk =   0.0177778
        k(   63) = (   0.2666667  -0.3079203   0.0000000), wk =   0.0177778
        k(   64) = (   0.2666667  -0.2309402   0.0000000), wk =   0.0177778
        k(   65) = (   0.2666667  -0.1539601   0.0000000), wk =   0.0177778
        k(   66) = (   0.2666667  -0.0769801   0.0000000), wk =   0.0177778
        k(   67) = (   0.2666667   0.0000000   0.0000000), wk =   0.0177778
        k(   68) = (   0.2666667   0.0769801   0.0000000), wk =   0.0177778
        k(   69) = (   0.3333333   0.1924502   0.0000000), wk =   0.0177778
        k(   70) = (   0.3333333   0.2694303   0.0000000), wk =   0.0177778
        k(   71) = (   0.3333333   0.3464103   0.0000000), wk =   0.0177778
        k(   72) = (   0.3333333   0.4233904   0.0000000), wk =   0.0177778
        k(   73) = (   0.3333333   0.5003705   0.0000000), wk =   0.0177778
        k(   74) = (   0.3333333   0.5773505   0.0000000), wk =   0.0177778
        k(   75) = (   0.3333333   0.6543306   0.0000000), wk =   0.0177778
        k(   76) = (   0.3333333   0.7313107   0.0000000), wk =   0.0177778
        k(   77) = (   0.3333333  -0.3464103   0.0000000), wk =   0.0177778
        k(   78) = (   0.3333333  -0.2694303   0.0000000), wk =   0.0177778
        k(   79) = (   0.3333333  -0.1924502   0.0000000), wk =   0.0177778
        k(   80) = (   0.3333333  -0.1154701   0.0000000), wk =   0.0177778
        k(   81) = (   0.3333333  -0.0384900   0.0000000), wk =   0.0177778
        k(   82) = (   0.3333333   0.0384900   0.0000000), wk =   0.0177778
        k(   83) = (   0.3333333   0.1154701   0.0000000), wk =   0.0177778
        k(   84) = (   0.4000000   0.2309402   0.0000000), wk =   0.0177778
        k(   85) = (   0.4000000   0.3079203   0.0000000), wk =   0.0177778
        k(   86) = (   0.4000000   0.3849004   0.0000000), wk =   0.0177778
        k(   87) = (   0.4000000   0.4618804   0.0000000), wk =   0.0177778
        k(   88) = (   0.4000000   0.5388605   0.0000000), wk =   0.0177778
        k(   89) = (   0.4000000   0.6158406   0.0000000), wk =   0.0177778
        k(   90) = (   0.4000000   0.6928206   0.0000000), wk =   0.0177778
        k(   91) = (   0.4000000   0.7698007   0.0000000), wk =   0.0177778
        k(   92) = (   0.4000000  -0.3079203   0.0000000), wk =   0.0177778
        k(   93) = (   0.4000000  -0.2309402   0.0000000), wk =   0.0177778
        k(   94) = (   0.4000000  -0.1539601   0.0000000), wk =   0.0177778
        k(   95) = (   0.4000000  -0.0769801   0.0000000), wk =   0.0177778
        k(   96) = (   0.4000000   0.0000000   0.0000000), wk =   0.0177778
        k(   97) = (   0.4000000   0.0769801   0.0000000), wk =   0.0177778
        k(   98) = (   0.4000000   0.1539601   0.0000000), wk =   0.0177778
        k(   99) = (   0.4666667   0.2694303   0.0000000), wk =   0.0177778
        k(  100) = (   0.4666667   0.3464103   0.0000000), wk =   0.0177778
        k(  101) = (   0.4666667   0.4233904   0.0000000), wk =   0.0177778
        k(  102) = (   0.4666667   0.5003705   0.0000000), wk =   0.0177778
        k(  103) = (   0.4666667   0.5773505   0.0000000), wk =   0.0177778
        k(  104) = (   0.4666667   0.6543306   0.0000000), wk =   0.0177778
        k(  105) = (   0.4666667   0.7313107   0.0000000), wk =   0.0177778
        k(  106) = (   0.4666667   0.8082908   0.0000000), wk =   0.0177778
        k(  107) = (   0.4666667  -0.2694303   0.0000000), wk =   0.0177778
        k(  108) = (   0.4666667  -0.1924502   0.0000000), wk =   0.0177778
        k(  109) = (   0.4666667  -0.1154701   0.0000000), wk =   0.0177778
        k(  110) = (   0.4666667  -0.0384900   0.0000000), wk =   0.0177778
        k(  111) = (   0.4666667   0.0384900   0.0000000), wk =   0.0177778
        k(  112) = (   0.4666667   0.1154701   0.0000000), wk =   0.0177778
        k(  113) = (   0.4666667   0.1924502   0.0000000), wk =   0.0177778

                       cryst. coord.
        k(    1) = (   0.0000000   0.0000000   0.0000000), wk =   0.0088889
        k(    2) = (   0.0000000   0.0666667   0.0000000), wk =   0.0177778
        k(    3) = (   0.0000000   0.1333333   0.0000000), wk =   0.0177778
        k(    4) = (   0.0000000   0.2000000   0.0000000), wk =   0.0177778
        k(    5) = (   0.0000000   0.2666667   0.0000000), wk =   0.0177778
        k(    6) = (   0.0000000   0.3333333   0.0000000), wk =   0.0177778
        k(    7) = (   0.0000000   0.4000000   0.0000000), wk =   0.0177778
        k(    8) = (   0.0000000   0.4666667   0.0000000), wk =   0.0177778
        k(    9) = (   0.0666667   0.0000000   0.0000000), wk =   0.0177778
        k(   10) = (   0.0666667   0.0666667   0.0000000), wk =   0.0177778
        k(   11) = (   0.0666667   0.1333333   0.0000000), wk =   0.0177778
        k(   12) = (   0.0666667   0.2000000   0.0000000), wk =   0.0177778
        k(   13) = (   0.0666667   0.2666667   0.0000000), wk =   0.0177778
        k(   14) = (   0.0666667   0.3333333   0.0000000), wk =   0.0177778
        k(   15) = (   0.0666667   0.4000000   0.0000000), wk =   0.0177778
        k(   16) = (   0.0666667   0.4666667   0.0000000), wk =   0.0177778
        k(   17) = (   0.0666667  -0.4666667   0.0000000), wk =   0.0177778
        k(   18) = (   0.0666667  -0.4000000   0.0000000), wk =   0.0177778
        k(   19) = (   0.0666667  -0.3333333   0.0000000), wk =   0.0177778
        k(   20) = (   0.0666667  -0.2666667   0.0000000), wk =   0.0177778
        k(   21) = (   0.0666667  -0.2000000   0.0000000), wk =   0.0177778
        k(   22) = (   0.0666667  -0.1333333   0.0000000), wk =   0.0177778
        k(   23) = (   0.0666667  -0.0666667   0.0000000), wk =   0.0177778
        k(   24) = (   0.1333333   0.0000000   0.0000000), wk =   0.0177778
        k(   25) = (   0.1333333   0.0666667   0.0000000), wk =   0.0177778
        k(   26) = (   0.1333333   0.1333333   0.0000000), wk =   0.0177778
        k(   27) = (   0.1333333   0.2000000   0.0000000), wk =   0.0177778
        k(   28) = (   0.1333333   0.2666667   0.0000000), wk =   0.0177778
        k(   29) = (   0.1333333   0.3333333   0.0000000), wk =   0.0177778
        k(   30) = (   0.1333333   0.4000000   0.0000000), wk =   0.0177778
        k(   31) = (   0.1333333   0.4666667   0.0000000), wk =   0.0177778
        k(   32) = (   0.1333333  -0.4666667   0.0000000), wk =   0.0177778
        k(   33) = (   0.1333333  -0.4000000   0.0000000), wk =   0.0177778
        k(   34) = (   0.1333333  -0.3333333   0.0000000), wk =   0.0177778
        k(   35) = (   0.1333333  -0.2666667   0.0000000), wk =   0.0177778
        k(   36) = (   0.1333333  -0.2000000   0.0000000), wk =   0.0177778
        k(   37) = (   0.1333333  -0.1333333   0.0000000), wk =   0.0177778
        k(   38) = (   0.1333333  -0.0666667   0.0000000), wk =   0.0177778
        k(   39) = (   0.2000000   0.0000000   0.0000000), wk =   0.0177778
        k(   40) = (   0.2000000   0.0666667   0.0000000), wk =   0.0177778
        k(   41) = (   0.2000000   0.1333333   0.0000000), wk =   0.0177778
        k(   42) = (   0.2000000   0.2000000   0.0000000), wk =   0.0177778
        k(   43) = (   0.2000000   0.2666667   0.0000000), wk =   0.0177778
        k(   44) = (   0.2000000   0.3333333   0.0000000), wk =   0.0177778
        k(   45) = (   0.2000000   0.4000000   0.0000000), wk =   0.0177778
        k(   46) = (   0.2000000   0.4666667   0.0000000), wk =   0.0177778
        k(   47) = (   0.2000000  -0.4666667   0.0000000), wk =   0.0177778
        k(   48) = (   0.2000000  -0.4000000   0.0000000), wk =   0.0177778
        k(   49) = (   0.2000000  -0.3333333   0.0000000), wk =   0.0177778
        k(   50) = (   0.2000000  -0.2666667   0.0000000), wk =   0.0177778
        k(   51) = (   0.2000000  -0.2000000   0.0000000), wk =   0.0177778
        k(   52) = (   0.2000000  -0.1333333   0.0000000), wk =   0.0177778
        k(   53) = (   0.2000000  -0.0666667   0.0000000), wk =   0.0177778
        k(   54) = (   0.2666667   0.0000000   0.0000000), wk =   0.0177778
        k(   55) = (   0.2666667   0.0666667   0.0000000), wk =   0.0177778
        k(   56) = (   0.2666667   0.1333333   0.0000000), wk =   0.0177778
        k(   57) = (   0.2666667   0.2000000   0.0000000), wk =   0.0177778
        k(   58) = (   0.2666667   0.2666667   0.0000000), wk =   0.0177778
        k(   59) = (   0.2666667   0.3333333   0.0000000), wk =   0.0177778
        k(   60) = (   0.2666667   0.4000000   0.0000000), wk =   0.0177778
        k(   61) = (   0.2666667   0.4666667   0.0000000), wk =   0.0177778
        k(   62) = (   0.2666667  -0.4666667   0.0000000), wk =   0.0177778
        k(   63) = (   0.2666667  -0.4000000   0.0000000), wk =   0.0177778
        k(   64) = (   0.2666667  -0.3333333   0.0000000), wk =   0.0177778
        k(   65) = (   0.2666667  -0.2666667   0.0000000), wk =   0.0177778
        k(   66) = (   0.2666667  -0.2000000   0.0000000), wk =   0.0177778
        k(   67) = (   0.2666667  -0.1333333   0.0000000), wk =   0.0177778
        k(   68) = (   0.2666667  -0.0666667   0.0000000), wk =   0.0177778
        k(   69) = (   0.3333333   0.0000000   0.0000000), wk =   0.0177778
        k(   70) = (   0.3333333   0.0666667   0.0000000), wk =   0.0177778
        k(   71) = (   0.3333333   0.1333333   0.0000000), wk =   0.0177778
        k(   72) = (   0.3333333   0.2000000   0.0000000), wk =   0.0177778
        k(   73) = (   0.3333333   0.2666667   0.0000000), wk =   0.0177778
        k(   74) = (   0.3333333   0.3333333   0.0000000), wk =   0.0177778
        k(   75) = (   0.3333333   0.4000000   0.0000000), wk =   0.0177778
        k(   76) = (   0.3333333   0.4666667   0.0000000), wk =   0.0177778
        k(   77) = (   0.3333333  -0.4666667   0.0000000), wk =   0.0177778
        k(   78) = (   0.3333333  -0.4000000   0.0000000), wk =   0.0177778
        k(   79) = (   0.3333333  -0.3333333   0.0000000), wk =   0.0177778
        k(   80) = (   0.3333333  -0.2666667   0.0000000), wk =   0.0177778
        k(   81) = (   0.3333333  -0.2000000   0.0000000), wk =   0.0177778
        k(   82) = (   0.3333333  -0.1333333   0.0000000), wk =   0.0177778
        k(   83) = (   0.3333333  -0.0666667   0.0000000), wk =   0.0177778
        k(   84) = (   0.4000000   0.0000000   0.0000000), wk =   0.0177778
        k(   85) = (   0.4000000   0.0666667   0.0000000), wk =   0.0177778
        k(   86) = (   0.4000000   0.1333333   0.0000000), wk =   0.0177778
        k(   87) = (   0.4000000   0.2000000   0.0000000), wk =   0.0177778
        k(   88) = (   0.4000000   0.2666667   0.0000000), wk =   0.0177778
        k(   89) = (   0.4000000   0.3333333   0.0000000), wk =   0.0177778
        k(   90) = (   0.4000000   0.4000000   0.0000000), wk =   0.0177778
        k(   91) = (   0.4000000   0.4666667   0.0000000), wk =   0.0177778
        k(   92) = (   0.4000000  -0.4666667   0.0000000), wk =   0.0177778
        k(   93) = (   0.4000000  -0.4000000   0.0000000), wk =   0.0177778
        k(   94) = (   0.4000000  -0.3333333   0.0000000), wk =   0.0177778
        k(   95) = (   0.4000000  -0.2666667   0.0000000), wk =   0.0177778
        k(   96) = (   0.4000000  -0.2000000   0.0000000), wk =   0.0177778
        k(   97) = (   0.4000000  -0.1333333   0.0000000), wk =   0.0177778
        k(   98) = (   0.4000000  -0.0666667   0.0000000), wk =   0.0177778
        k(   99) = (   0.4666667   0.0000000   0.0000000), wk =   0.0177778
        k(  100) = (   0.4666667   0.0666667   0.0000000), wk =   0.0177778
        k(  101) = (   0.4666667   0.1333333   0.0000000), wk =   0.0177778
        k(  102) = (   0.4666667   0.2000000   0.0000000), wk =   0.0177778
        k(  103) = (   0.4666667   0.2666667   0.0000000), wk =   0.0177778
        k(  104) = (   0.4666667   0.3333333   0.0000000), wk =   0.0177778
        k(  105) = (   0.4666667   0.4000000   0.0000000), wk =   0.0177778
        k(  106) = (   0.4666667   0.4666667   0.0000000), wk =   0.0177778
        k(  107) = (   0.4666667  -0.4666667   0.0000000), wk =   0.0177778
        k(  108) = (   0.4666667  -0.4000000   0.0000000), wk =   0.0177778
        k(  109) = (   0.4666667  -0.3333333   0.0000000), wk =   0.0177778
        k(  110) = (   0.4666667  -0.2666667   0.0000000), wk =   0.0177778
        k(  111) = (   0.4666667  -0.2000000   0.0000000), wk =   0.0177778
        k(  112) = (   0.4666667  -0.1333333   0.0000000), wk =   0.0177778
        k(  113) = (   0.4666667  -0.0666667   0.0000000), wk =   0.0177778

     Dense  grid:   111671 G-vectors     FFT dimensions: (  30,  30, 288)

     Smooth grid:    52021 G-vectors     FFT dimensions: (  24,  24, 225)

     Dynamical RAM for                 wfc:       0.99 MB

     Dynamical RAM for     wfc (w. buffer):      29.67 MB

     Dynamical RAM for           str. fact:       1.70 MB

     Dynamical RAM for           local pot:       0.00 MB

     Dynamical RAM for          nlocal pot:       1.58 MB

     Dynamical RAM for                qrad:       0.46 MB

     Dynamical RAM for          rho,v,vnew:      11.04 MB

     Dynamical RAM for               rhoin:       3.68 MB

     Dynamical RAM for            rho*nmix:      27.26 MB

     Dynamical RAM for           G-vectors:       6.79 MB

     Dynamical RAM for          h,s,v(r/c):       0.02 MB

     Dynamical RAM for          <psi|beta>:       0.00 MB

     Dynamical RAM for                 psi:       1.98 MB

     Dynamical RAM for                hpsi:       1.98 MB

     Dynamical RAM for                spsi:       1.98 MB

     Dynamical RAM for      wfcinit/wfcrot:       1.98 MB

     Dynamical RAM for           addusdens:      20.45 MB

     Dynamical RAM for          addusforce:      20.87 MB

     Estimated static dynamical RAM per process >      68.22 MB

     Estimated max dynamical RAM per process >     116.36 MB

     Estimated total dynamical RAM >     383.65 MB

     Adding external electric field
        E field amplitude [Ha a.u.]:  5.0000E-02
        Potential amp.        3.9713 Ry
        Total length         39.7126 bohr


     Check: negative core charge=   -0.000002

     Initial potential from superposition of free atoms

     starting charge       7.9999, renormalised to       8.0000

     negative rho (up, down):  1.243E-04 0.000E+00
     Starting wfcs are    8 randomized atomic wfcs +    2 random wfcs
     Checking if some PAW data can be deallocated... 

     total cpu time spent up to now is        3.8 secs

     Self-consistent Calculation

     iteration #  1     ecut=    60.00 Ry     beta= 0.70
     Davidson diagonalization with overlap

---- Real-time Memory Report at c_bands before calling an iterative solver
            99 MiB given to the printing process from OS
             0 MiB allocation reported by mallinfo(arena+hblkhd)
           282 MiB available memory on the node where the printing process lives
------------------
     ethr =  1.00E-02,  avg # of iterations =  6.4

     negative rho (up, down):  1.327E-04 0.000E+00

     total cpu time spent up to now is       12.8 secs

     total energy              =     -36.85899712 Ry
     estimated scf accuracy    <       0.24040844 Ry

     iteration #  2     ecut=    60.00 Ry     beta= 0.70
     Davidson diagonalization with overlap

---- Real-time Memory Report at c_bands before calling an iterative solver
           138 MiB given to the printing process from OS
             0 MiB allocation reported by mallinfo(arena+hblkhd)
           391 MiB available memory on the node where the printing process lives
------------------
     ethr =  3.01E-03,  avg # of iterations =  3.7

     negative rho (up, down):  1.382E-04 0.000E+00

     total cpu time spent up to now is       18.2 secs

     total energy              =     -36.89258774 Ry
     estimated scf accuracy    <       0.03489633 Ry

     iteration #  3     ecut=    60.00 Ry     beta= 0.70
     Davidson diagonalization with overlap

---- Real-time Memory Report at c_bands before calling an iterative solver
           139 MiB given to the printing process from OS
             0 MiB allocation reported by mallinfo(arena+hblkhd)
           381 MiB available memory on the node where the printing process lives
------------------
     ethr =  4.36E-04,  avg # of iterations =  4.2

     negative rho (up, down):  1.454E-04 0.000E+00

     total cpu time spent up to now is       23.6 secs

     total energy              =     -36.90338155 Ry
     estimated scf accuracy    <       0.01332055 Ry

     iteration #  4     ecut=    60.00 Ry     beta= 0.70
     Davidson diagonalization with overlap

---- Real-time Memory Report at c_bands before calling an iterative solver
           141 MiB given to the printing process from OS
             0 MiB allocation reported by mallinfo(arena+hblkhd)
           361 MiB available memory on the node where the printing process lives
------------------
     ethr =  1.67E-04,  avg # of iterations =  2.3

     negative rho (up, down):  1.575E-04 0.000E+00

     total cpu time spent up to now is       28.3 secs

     total energy              =     -36.90616158 Ry
     estimated scf accuracy    <       0.00008846 Ry

     iteration #  5     ecut=    60.00 Ry     beta= 0.70
     Davidson diagonalization with overlap

---- Real-time Memory Report at c_bands before calling an iterative solver
           143 MiB given to the printing process from OS
             0 MiB allocation reported by mallinfo(arena+hblkhd)
           375 MiB available memory on the node where the printing process lives
------------------
     c_bands:  1 eigenvalues not converged
     c_bands:  1 eigenvalues not converged
     ethr =  1.11E-06,  avg # of iterations =  9.6

     negative rho (up, down):  1.593E-04 0.000E+00

     total cpu time spent up to now is       36.5 secs

     total energy              =     -36.90618905 Ry
     estimated scf accuracy    <       0.00001792 Ry

     iteration #  6     ecut=    60.00 Ry     beta= 0.70
     Davidson diagonalization with overlap

---- Real-time Memory Report at c_bands before calling an iterative solver
           144 MiB given to the printing process from OS
             0 MiB allocation reported by mallinfo(arena+hblkhd)
           357 MiB available memory on the node where the printing process lives
------------------
     ethr =  2.24E-07,  avg # of iterations =  1.5

     negative rho (up, down):  1.602E-04 0.000E+00

     total cpu time spent up to now is       40.2 secs

     total energy              =     -36.90619301 Ry
     estimated scf accuracy    <       0.00000084 Ry

     iteration #  7     ecut=    60.00 Ry     beta= 0.70
     Davidson diagonalization with overlap

---- Real-time Memory Report at c_bands before calling an iterative solver
           146 MiB given to the printing process from OS
             0 MiB allocation reported by mallinfo(arena+hblkhd)
           363 MiB available memory on the node where the printing process lives
------------------
     ethr =  1.05E-08,  avg # of iterations =  2.0

     negative rho (up, down):  1.604E-04 0.000E+00

     total cpu time spent up to now is       44.5 secs

     total energy              =     -36.90619330 Ry
     estimated scf accuracy    <       0.00000002 Ry

     iteration #  8     ecut=    60.00 Ry     beta= 0.70
     Davidson diagonalization with overlap

---- Real-time Memory Report at c_bands before calling an iterative solver
           147 MiB given to the printing process from OS
             0 MiB allocation reported by mallinfo(arena+hblkhd)
           356 MiB available memory on the node where the printing process lives
------------------
     ethr =  2.37E-10,  avg # of iterations =  3.2

     negative rho (up, down):  1.604E-04 0.000E+00

     total cpu time spent up to now is       48.3 secs

     End of self-consistent calculation

          k = 0.0000 0.0000 0.0000 (  6469 PWs)   bands (ev):

   -43.4144 -31.5021 -26.8925 -26.8575 -19.7510 -15.7235 -15.4708 -15.4250
   -12.3698 -11.0971

     occupation numbers 
     1.0000   1.0000   1.0000   1.0000   0.0000   0.0000   0.0000   0.0000
     0.0000   0.0000

          k = 0.0000 0.0770 0.0000 (  6464 PWs)   bands (ev):

   -43.3090 -31.3759 -27.2854 -27.1142 -19.6145 -15.6059 -15.3968 -14.9734
   -12.7171 -10.9268

     occupation numbers 
     1.0000   1.0000   1.0000   1.0000   0.0000   0.0000   0.0000   0.0000
     0.0000   0.0000

          k = 0.0000 0.1540 0.0000 (  6496 PWs)   bands (ev):

   -42.9934 -30.9994 -28.4191 -27.6794 -19.2052 -15.4333 -15.1404 -13.7275
   -13.7101 -10.3380

     occupation numbers 
     1.0000   1.0000   1.0000   1.0000   0.0000   0.0000   0.0000   0.0000
     0.0000   0.0000

          k = 0.0000 0.2309 0.0000 (  6474 PWs)   bands (ev):

   -42.4699 -30.3806 -29.9729 -28.3864 -18.5275 -15.5523 -15.2197 -14.4565
   -11.9159  -9.3691

     occupation numbers 
     1.0000   1.0000   1.0000   1.0000   0.0000   0.0000   0.0000   0.0000
     0.0000   0.0000

          k = 0.0000 0.3079 0.0000 (  6492 PWs)   bands (ev):

   -41.7427 -31.7143 -29.5310 -29.0748 -17.6427 -16.9263 -15.7737 -13.5526
    -9.7593  -8.3294

     occupation numbers 
     1.0000   1.0000   1.0000   1.0000   0.0000   0.0000   0.0000   0.0000
     0.0000   0.0000

          k = 0.0000 0.3849 0.0000 (  6484 PWs)   bands (ev):

   -40.8195 -33.4864 -29.6477 -28.4883 -18.8981 -16.3647 -15.9876 -12.3958
    -8.0377  -7.4766

     occupation numbers 
     1.0000   1.0000   1.0000   1.0000   0.0000   0.0000   0.0000   0.0000
     0.0000   0.0000

          k = 0.0000 0.4619 0.0000 (  6490 PWs)   bands (ev):

   -39.7162 -35.1920 -30.0519 -27.3375 -20.6518 -16.2551 -14.8409 -11.0726
    -9.3369  -6.6791

     occupation numbers 
     1.0000   1.0000   1.0000   1.0000   0.0000   0.0000   0.0000   0.0000
     0.0000   0.0000

          k = 0.0000 0.5389 0.0000 (  6524 PWs)   bands (ev):

   -38.5101 -36.7091 -30.2600 -26.3750 -21.9371 -16.3567 -13.1600 -11.3257
    -9.5745  -7.7188

     occupation numbers 
     1.0000   1.0000   1.0000   1.0000   0.0000   0.0000   0.0000   0.0000
     0.0000   0.0000

          k = 0.0667 0.0385 0.0000 (  6464 PWs)   bands (ev):

   -43.3090 -31.3758 -27.3049 -27.0943 -19.6145 -15.6040 -15.3768 -14.9971
   -12.7177 -10.9256

     occupation numbers 
     1.0000   1.0000   1.0000   1.0000   0.0000   0.0000   0.0000   0.0000
     0.0000   0.0000

          k = 0.0667 0.1155 0.0000 (  6499 PWs)   bands (ev):

   -43.0985 -31.1245 -28.0155 -27.5587 -19.3414 -15.3822 -15.1738 -14.2937
   -13.3851 -10.5105

     occupation numbers 
     1.0000   1.0000   1.0000   1.0000   0.0000   0.0000   0.0000   0.0000
     0.0000   0.0000

          k = 0.0667 0.1925 0.0000 (  6491 PWs)   bands (ev):

   -42.6789 -30.6262 -29.2664 -28.2898 -18.7964 -15.1487 -14.7754 -14.5702
   -13.1002  -9.5595

     occupation numbers 
     1.0000   1.0000   1.0000   1.0000   0.0000   0.0000   0.0000   0.0000
     0.0000   0.0000

          k = 0.0667 0.2694 0.0000 (  6480 PWs)   bands (ev):

   -42.0536 -30.8561 -29.8904 -29.0475 -17.9909 -16.2168 -15.2232 -13.9559
   -11.4509  -8.2495

     occupation numbers 
     1.0000   1.0000   1.0000   1.0000   0.0000   0.0000   0.0000   0.0000
     0.0000   0.0000

          k = 0.0667 0.3464 0.0000 (  6491 PWs)   bands (ev):

   -41.2283 -32.5815 -29.7093 -28.9405 -18.0610 -16.8556 -15.4485 -12.9308
    -9.6452  -7.1731

     occupation numbers 
     1.0000   1.0000   1.0000   1.0000   0.0000   0.0000   0.0000   0.0000
     0.0000   0.0000

          k = 0.0667 0.4234 0.0000 (  6487 PWs)   bands (ev):

   -40.2137 -34.3067 -30.2124 -27.8275 -19.8448 -15.7521 -15.4633 -11.7137
    -8.8533  -7.1642

     occupation numbers 
     1.0000   1.0000   1.0000   1.0000   0.0000   0.0000   0.0000   0.0000
     0.0000   0.0000

          k = 0.0667 0.5004 0.0000 (  6503 PWs)   bands (ev):

   -39.0400 -35.9301 -30.5249 -26.7042 -21.4187 -15.8504 -13.9541 -10.7140
    -9.9490  -7.4541

     occupation numbers 
     1.0000   1.0000   1.0000   1.0000   0.0000   0.0000   0.0000   0.0000
     0.0000   0.0000

          k = 0.0667 0.5774 0.0000 (  6480 PWs)   bands (ev):

   -38.0778 -37.0458 -30.6306 -26.1118 -22.1679 -15.9026 -12.2805 -12.1415
    -9.4287  -7.9780

     occupation numbers 
     1.0000   1.0000   1.0000   1.0000   0.0000   0.0000   0.0000   0.0000
     0.0000   0.0000

          k = 0.0667-0.5004 0.0000 (  6503 PWs)   bands (ev):

   -39.0400 -35.9302 -30.5247 -26.7039 -21.4193 -15.8500 -13.9541 -10.7139
    -9.9487  -7.4547

     occupation numbers 
     1.0000   1.0000   1.0000   1.0000   0.0000   0.0000   0.0000   0.0000
     0.0000   0.0000

          k = 0.0667-0.4234 0.0000 (  6487 PWs)   bands (ev):

   -40.2138 -34.3070 -30.2120 -27.8272 -19.8457 -15.7509 -15.4636 -11.7133
    -8.8530  -7.1635

     occupation numbers 
     1.0000   1.0000   1.0000   1.0000   0.0000   0.0000   0.0000   0.0000
     0.0000   0.0000

          k = 0.0667-0.3464 0.0000 (  6491 PWs)   bands (ev):

   -41.2284 -32.5823 -29.7083 -28.9403 -18.0622 -16.8554 -15.4469 -12.9305
    -9.6459  -7.1731

     occupation numbers 
     1.0000   1.0000   1.0000   1.0000   0.0000   0.0000   0.0000   0.0000
     0.0000   0.0000

          k = 0.0667-0.2694 0.0000 (  6480 PWs)   bands (ev):

   -42.0537 -30.8580 -29.8902 -29.0453 -17.9909 -16.2180 -15.2197 -13.9558
   -11.4550  -8.2498

     occupation numbers 
     1.0000   1.0000   1.0000   1.0000   0.0000   0.0000   0.0000   0.0000
     0.0000   0.0000

          k = 0.0667-0.1925 0.0000 (  6491 PWs)   bands (ev):

   -42.6790 -30.6261 -29.2708 -28.2851 -18.7964 -15.1420 -14.7755 -14.5706
   -13.1094  -9.5587

     occupation numbers 
     1.0000   1.0000   1.0000   1.0000   0.0000   0.0000   0.0000   0.0000
     0.0000   0.0000

          k = 0.0667-0.1155 0.0000 (  6499 PWs)   bands (ev):

   -43.0985 -31.1244 -28.0243 -27.5495 -19.3413 -15.3782 -15.1648 -14.3087
   -13.3860 -10.5092

     occupation numbers 
     1.0000   1.0000   1.0000   1.0000   0.0000   0.0000   0.0000   0.0000
     0.0000   0.0000

          k = 0.0667-0.0385 0.0000 (  6464 PWs)   bands (ev):

   -43.3090 -31.3758 -27.3132 -27.0858 -19.6145 -15.6031 -15.3656 -15.0101
   -12.7180 -10.9251

     occupation numbers 
     1.0000   1.0000   1.0000   1.0000   0.0000   0.0000   0.0000   0.0000
     0.0000   0.0000

          k = 0.1333 0.0770 0.0000 (  6496 PWs)   bands (ev):

   -42.9935 -30.9991 -28.4344 -27.6629 -19.2051 -15.4193 -15.1378 -13.7495
   -13.7126 -10.3345

     occupation numbers 
     1.0000   1.0000   1.0000   1.0000   0.0000   0.0000   0.0000   0.0000
     0.0000   0.0000

          k = 0.1333 0.1540 0.0000 (  6491 PWs)   bands (ev):

   -42.6790 -30.6260 -29.2742 -28.2812 -18.7964 -15.1421 -14.7731 -14.5731
   -13.1108  -9.5583

     occupation numbers 
     1.0000   1.0000   1.0000   1.0000   0.0000   0.0000   0.0000   0.0000
     0.0000   0.0000

          k = 0.1333 0.2309 0.0000 (  6457 PWs)   bands (ev):

   -42.1576 -30.3727 -30.0109 -29.2524 -18.1182 -15.9236 -14.4865 -14.0570
   -12.6945  -8.1825

     occupation numbers 
     1.0000   1.0000   1.0000   1.0000   0.0000   0.0000   0.0000   0.0000
     0.0000   0.0000

          k = 0.1333 0.3079 0.0000 (  6480 PWs)   bands (ev):

   -41.4341 -31.7699 -30.1632 -29.1696 -17.5233 -17.1299 -14.2076 -13.2125
   -11.6415  -7.3773

     occupation numbers 
     1.0000   1.0000   1.0000   1.0000   0.0000   0.0000   0.0000   0.0000
     0.0000   0.0000

          k = 0.1333 0.3849 0.0000 (  6474 PWs)   bands (ev):

   -40.5166 -33.3675 -30.8371 -28.1342 -19.1723 -15.9650 -14.3391 -12.1816
   -10.1446  -7.8360

     occupation numbers 
     1.0000   1.0000   1.0000   1.0000   0.0000   0.0000   0.0000   0.0000
     0.0000   0.0000

          k = 0.1333 0.4619 0.0000 (  6494 PWs)   bands (ev):

   -39.4228 -34.9860 -31.2817 -26.9835 -20.8086 -14.6118 -14.4504 -11.2246
    -9.5754  -8.1225

     occupation numbers 
     1.0000   1.0000   1.0000   1.0000   0.0000   0.0000   0.0000   0.0000
     0.0000   0.0000

          k = 0.1333 0.5389 0.0000 (  6490 PWs)   bands (ev):

   -38.2323 -36.4566 -31.5038 -25.9990 -22.0550 -14.6357 -12.9677 -11.4154
    -9.9094  -7.8547

     occupation numbers 
     1.0000   1.0000   1.0000   1.0000   0.0000   0.0000   0.0000   0.0000
     0.0000   0.0000

          k = 0.1333 0.6158 0.0000 (  6490 PWs)   bands (ev):

   -38.2324 -36.4567 -31.5035 -25.9986 -22.0557 -14.6352 -12.9674 -11.4159
    -9.9084  -7.8555

     occupation numbers 
     1.0000   1.0000   1.0000   1.0000   0.0000   0.0000   0.0000   0.0000
     0.0000   0.0000

          k = 0.1333-0.4619 0.0000 (  6494 PWs)   bands (ev):

   -39.4229 -34.9866 -31.2809 -26.9828 -20.8103 -14.6098 -14.4508 -11.2239
    -9.5752  -8.1224

     occupation numbers 
     1.0000   1.0000   1.0000   1.0000   0.0000   0.0000   0.0000   0.0000
     0.0000   0.0000

          k = 0.1333-0.3849 0.0000 (  6474 PWs)   bands (ev):

   -40.5167 -33.3690 -30.8352 -28.1335 -19.1745 -15.9646 -14.3361 -12.1810
   -10.1455  -7.8353

     occupation numbers 
     1.0000   1.0000   1.0000   1.0000   0.0000   0.0000   0.0000   0.0000
     0.0000   0.0000

          k = 0.1333-0.3079 0.0000 (  6480 PWs)   bands (ev):

   -41.4342 -31.7735 -30.1590 -29.1691 -17.5256 -17.1298 -14.2003 -13.2121
   -11.6481  -7.3767

     occupation numbers 
     1.0000   1.0000   1.0000   1.0000   0.0000   0.0000   0.0000   0.0000
     0.0000   0.0000

          k = 0.1333-0.2309 0.0000 (  6457 PWs)   bands (ev):

   -42.1577 -30.3795 -30.0105 -29.2449 -18.1181 -15.9260 -14.4748 -14.0548
   -12.7095  -8.1825

     occupation numbers 
     1.0000   1.0000   1.0000   1.0000   0.0000   0.0000   0.0000   0.0000
     0.0000   0.0000

          k = 0.1333-0.1540 0.0000 (  6491 PWs)   bands (ev):

   -42.6791 -30.6258 -29.2823 -28.2724 -18.7963 -15.1321 -14.7720 -14.5748
   -13.1255  -9.5563

     occupation numbers 
     1.0000   1.0000   1.0000   1.0000   0.0000   0.0000   0.0000   0.0000
     0.0000   0.0000

          k = 0.1333-0.0770 0.0000 (  6496 PWs)   bands (ev):

   -42.9935 -30.9990 -28.4416 -27.6551 -19.2051 -15.4123 -15.1363 -13.7606
   -13.7138 -10.3328

     occupation numbers 
     1.0000   1.0000   1.0000   1.0000   0.0000   0.0000   0.0000   0.0000
     0.0000   0.0000

          k = 0.1333 0.0000 0.0000 (  6499 PWs)   bands (ev):

   -43.0986 -31.1242 -28.0415 -27.5315 -19.3412 -15.3708 -15.1451 -14.3399
   -13.3879 -10.5064

     occupation numbers 
     1.0000   1.0000   1.0000   1.0000   0.0000   0.0000   0.0000   0.0000
     0.0000   0.0000

          k = 0.2000 0.1155 0.0000 (  6474 PWs)   bands (ev):

   -42.4701 -30.3800 -29.9847 -28.3727 -18.5272 -15.5421 -15.2223 -14.4574
   -11.9356  -9.3642

     occupation numbers 
     1.0000   1.0000   1.0000   1.0000   0.0000   0.0000   0.0000   0.0000
     0.0000   0.0000

          k = 0.2000 0.1925 0.0000 (  6480 PWs)   bands (ev):

   -42.0538 -30.8645 -29.8898 -29.0374 -17.9907 -16.2201 -15.2165 -13.9561
   -11.4623  -8.2479

     occupation numbers 
     1.0000   1.0000   1.0000   1.0000   0.0000   0.0000   0.0000   0.0000
     0.0000   0.0000

          k = 0.2000 0.2694 0.0000 (  6480 PWs)   bands (ev):

   -41.4342 -31.7749 -30.1572 -29.1692 -17.5241 -17.1310 -14.2031 -13.2122
   -11.6476  -7.3768

     occupation numbers 
     1.0000   1.0000   1.0000   1.0000   0.0000   0.0000   0.0000   0.0000
     0.0000   0.0000

          k = 0.2000 0.3464 0.0000 (  6482 PWs)   bands (ev):

   -40.6183 -32.7867 -31.3384 -28.2379 -18.8963 -16.1149 -13.0298 -12.2832
   -11.6933  -8.0864

     occupation numbers 
     1.0000   1.0000   1.0000   1.0000   0.0000   0.0000   0.0000   0.0000
     0.0000   0.0000

          k = 0.2000 0.4234 0.0000 (  6465 PWs)   bands (ev):

   -39.6191 -34.0740 -32.1608 -27.1387 -20.3777 -14.8518 -12.7856 -11.6265
   -10.5668  -8.7346

     occupation numbers 
     1.0000   1.0000   1.0000   1.0000   0.0000   0.0000   0.0000   0.0000
     0.0000   0.0000

          k = 0.2000 0.5004 0.0000 (  6474 PWs)   bands (ev):

   -38.4707 -35.5063 -32.5869 -25.9963 -21.7734 -13.5090 -12.9101 -11.5100
    -9.8130  -8.1983

     occupation numbers 
     1.0000   1.0000   1.0000   1.0000   0.0000   0.0000   0.0000   0.0000
     0.0000   0.0000

          k = 0.2000 0.5774 0.0000 (  6484 PWs)   bands (ev):

   -37.5378 -36.5501 -32.7191 -25.3441 -22.5152 -13.0140 -12.6657 -11.5432
   -10.1524  -7.5198

     occupation numbers 
     1.0000   1.0000   1.0000   1.0000   0.0000   0.0000   0.0000   0.0000
     0.0000   0.0000

          k = 0.2000 0.6543 0.0000 (  6474 PWs)   bands (ev):

   -38.4707 -35.5072 -32.5857 -25.9951 -21.7756 -13.5084 -12.9080 -11.5113
    -9.8108  -8.1988

     occupation numbers 
     1.0000   1.0000   1.0000   1.0000   0.0000   0.0000   0.0000   0.0000
     0.0000   0.0000

          k = 0.2000-0.4234 0.0000 (  6465 PWs)   bands (ev):

   -39.6193 -34.0767 -32.1577 -27.1375 -20.3808 -14.8514 -12.7806 -11.6266
   -10.5673  -8.7348

     occupation numbers 
     1.0000   1.0000   1.0000   1.0000   0.0000   0.0000   0.0000   0.0000
     0.0000   0.0000

          k = 0.2000-0.3464 0.0000 (  6482 PWs)   bands (ev):

   -40.6184 -32.7920 -31.3324 -28.2369 -18.8997 -16.1146 -13.0172 -12.2812
   -11.7051  -8.0849

     occupation numbers 
     1.0000   1.0000   1.0000   1.0000   0.0000   0.0000   0.0000   0.0000
     0.0000   0.0000

          k = 0.2000-0.2694 0.0000 (  6480 PWs)   bands (ev):

   -41.4343 -31.7811 -30.1503 -29.1684 -17.5268 -17.1314 -14.1935 -13.2117
   -11.6572  -7.3762

     occupation numbers 
     1.0000   1.0000   1.0000   1.0000   0.0000   0.0000   0.0000   0.0000
     0.0000   0.0000

          k = 0.2000-0.1925 0.0000 (  6480 PWs)   bands (ev):

   -42.0539 -30.8704 -29.8893 -29.0304 -17.9904 -16.2230 -15.2096 -13.9561
   -11.4720  -8.2474

     occupation numbers 
     1.0000   1.0000   1.0000   1.0000   0.0000   0.0000   0.0000   0.0000
     0.0000   0.0000

          k = 0.2000-0.1155 0.0000 (  6474 PWs)   bands (ev):

   -42.4701 -30.3798 -29.9903 -28.3660 -18.5271 -15.5370 -15.2235 -14.4578
   -11.9454  -9.3617

     occupation numbers 
     1.0000   1.0000   1.0000   1.0000   0.0000   0.0000   0.0000   0.0000
     0.0000   0.0000

          k = 0.2000-0.0385 0.0000 (  6491 PWs)   bands (ev):

   -42.6792 -30.6255 -29.2911 -28.2629 -18.7961 -15.1187 -14.7720 -14.5754
   -13.1444  -9.5545

     occupation numbers 
     1.0000   1.0000   1.0000   1.0000   0.0000   0.0000   0.0000   0.0000
     0.0000   0.0000

          k = 0.2000 0.0385 0.0000 (  6491 PWs)   bands (ev):

   -42.6791 -30.6256 -29.2874 -28.2670 -18.7962 -15.1220 -14.7732 -14.5740
   -13.1389  -9.5549

     occupation numbers 
     1.0000   1.0000   1.0000   1.0000   0.0000   0.0000   0.0000   0.0000
     0.0000   0.0000

          k = 0.2667 0.1540 0.0000 (  6492 PWs)   bands (ev):

   -41.7430 -31.7234 -29.5298 -29.0631 -17.6420 -16.9326 -15.7663 -13.5527
    -9.7771  -8.3252

     occupation numbers 
     1.0000   1.0000   1.0000   1.0000   0.0000   0.0000   0.0000   0.0000
     0.0000   0.0000

          k = 0.2667 0.2309 0.0000 (  6491 PWs)   bands (ev):

   -41.2285 -32.5889 -29.6996 -28.9392 -18.0653 -16.8566 -15.4433 -12.9309
    -9.6539  -7.1734

     occupation numbers 
     1.0000   1.0000   1.0000   1.0000   0.0000   0.0000   0.0000   0.0000
     0.0000   0.0000

          k = 0.2667 0.3079 0.0000 (  6474 PWs)   bands (ev):

   -40.5167 -33.3735 -30.8295 -28.1328 -19.1763 -15.9653 -14.3344 -12.1812
   -10.1501  -7.8331

     occupation numbers 
     1.0000   1.0000   1.0000   1.0000   0.0000   0.0000   0.0000   0.0000
     0.0000   0.0000

          k = 0.2667 0.3849 0.0000 (  6465 PWs)   bands (ev):

   -39.6191 -34.0782 -32.1560 -27.1376 -20.3803 -14.8520 -12.7821 -11.6243
   -10.5717  -8.7331

     occupation numbers 
     1.0000   1.0000   1.0000   1.0000   0.0000   0.0000   0.0000   0.0000
     0.0000   0.0000

          k = 0.2667 0.4619 0.0000 (  6452 PWs)   bands (ev):

   -38.5589 -34.8571 -33.2890 -26.0078 -21.6289 -13.7230 -11.9919 -10.9061
   -10.7262  -8.3475

     occupation numbers 
     1.0000   1.0000   1.0000   1.0000   0.0000   0.0000   0.0000   0.0000
     0.0000   0.0000

          k = 0.2667 0.5389 0.0000 (  6444 PWs)   bands (ev):

   -37.4179 -35.9064 -33.8319 -24.9232 -22.7674 -13.2423 -11.5052 -11.0454
    -9.8901  -7.5525

     occupation numbers 
     1.0000   1.0000   1.0000   1.0000   0.0000   0.0000   0.0000   0.0000
     0.0000   0.0000

          k = 0.2667 0.6158 0.0000 (  6444 PWs)   bands (ev):

   -37.4175 -35.9081 -33.8305 -24.9214 -22.7699 -13.2415 -11.5009 -11.0520
    -9.8857  -7.5526

     occupation numbers 
     1.0000   1.0000   1.0000   1.0000   0.0000   0.0000   0.0000   0.0000
     0.0000   0.0000

          k = 0.2667 0.6928 0.0000 (  6452 PWs)   bands (ev):

   -38.5589 -34.8612 -33.2846 -26.0056 -21.6329 -13.7221 -11.9874 -10.9146
   -10.7171  -8.3479

     occupation numbers 
     1.0000   1.0000   1.0000   1.0000   0.0000   0.0000   0.0000   0.0000
     0.0000   0.0000

          k = 0.2667-0.3849 0.0000 (  6465 PWs)   bands (ev):

   -39.6193 -34.0830 -32.1505 -27.1359 -20.3847 -14.8516 -12.7752 -11.6233
   -10.5748  -8.7327

     occupation numbers 
     1.0000   1.0000   1.0000   1.0000   0.0000   0.0000   0.0000   0.0000
     0.0000   0.0000

          k = 0.2667-0.3079 0.0000 (  6474 PWs)   bands (ev):

   -40.5169 -33.3780 -30.8240 -28.1315 -19.1805 -15.9652 -14.3291 -12.1805
   -10.1538  -7.8311

     occupation numbers 
     1.0000   1.0000   1.0000   1.0000   0.0000   0.0000   0.0000   0.0000
     0.0000   0.0000

          k = 0.2667-0.2309 0.0000 (  6491 PWs)   bands (ev):

   -41.2287 -32.5933 -29.6939 -28.9383 -18.0686 -16.8568 -15.4389 -12.9307
    -9.6590  -7.1733

     occupation numbers 
     1.0000   1.0000   1.0000   1.0000   0.0000   0.0000   0.0000   0.0000
     0.0000   0.0000

          k = 0.2667-0.1540 0.0000 (  6492 PWs)   bands (ev):

   -41.7431 -31.7278 -29.5292 -29.0574 -17.6417 -16.9357 -15.7626 -13.5528
    -9.7860  -8.3231

     occupation numbers 
     1.0000   1.0000   1.0000   1.0000   0.0000   0.0000   0.0000   0.0000
     0.0000   0.0000

          k = 0.2667-0.0770 0.0000 (  6480 PWs)   bands (ev):

   -42.0540 -30.8743 -29.8889 -29.0261 -17.9903 -16.2256 -15.2026 -13.9557
   -11.4801  -8.2480

     occupation numbers 
     1.0000   1.0000   1.0000   1.0000   0.0000   0.0000   0.0000   0.0000
     0.0000   0.0000

          k = 0.2667 0.0000 0.0000 (  6457 PWs)   bands (ev):

   -42.1579 -30.3932 -30.0098 -29.2299 -18.1178 -15.9309 -14.4512 -14.0501
   -12.7402  -8.1769

     occupation numbers 
     1.0000   1.0000   1.0000   1.0000   0.0000   0.0000   0.0000   0.0000
     0.0000   0.0000

          k = 0.2667 0.0770 0.0000 (  6480 PWs)   bands (ev):

   -42.0539 -30.8702 -29.8892 -29.0309 -17.9904 -16.2240 -15.2060 -13.9557
   -11.4744  -8.2487

     occupation numbers 
     1.0000   1.0000   1.0000   1.0000   0.0000   0.0000   0.0000   0.0000
     0.0000   0.0000

          k = 0.3333 0.1925 0.0000 (  6484 PWs)   bands (ev):

   -40.8198 -33.4937 -29.6374 -28.4859 -18.9052 -16.3643 -15.9832 -12.3957
    -8.0373  -7.4933

     occupation numbers 
     1.0000   1.0000   1.0000   1.0000   0.0000   0.0000   0.0000   0.0000
     0.0000   0.0000

          k = 0.3333 0.2694 0.0000 (  6487 PWs)   bands (ev):

   -40.2139 -34.3131 -30.2033 -27.8246 -19.8521 -15.7493 -15.4623 -11.7135
    -8.8555  -7.1639

     occupation numbers 
     1.0000   1.0000   1.0000   1.0000   0.0000   0.0000   0.0000   0.0000
     0.0000   0.0000

          k = 0.3333 0.3464 0.0000 (  6494 PWs)   bands (ev):

   -39.4227 -34.9921 -31.2739 -26.9801 -20.8160 -14.6113 -14.4469 -11.2229
    -9.5781  -8.1200

     occupation numbers 
     1.0000   1.0000   1.0000   1.0000   0.0000   0.0000   0.0000   0.0000
     0.0000   0.0000

          k = 0.3333 0.4234 0.0000 (  6474 PWs)   bands (ev):

   -38.4701 -35.5124 -32.5803 -25.9923 -21.7805 -13.5088 -12.9068 -11.5056
    -9.8174  -8.1959

     occupation numbers 
     1.0000   1.0000   1.0000   1.0000   0.0000   0.0000   0.0000   0.0000
     0.0000   0.0000

          k = 0.3333 0.5004 0.0000 (  6444 PWs)   bands (ev):

   -37.4161 -35.9127 -33.8270 -24.9186 -22.7737 -13.2410 -11.5078 -11.0373
    -9.8944  -7.5474

     occupation numbers 
     1.0000   1.0000   1.0000   1.0000   0.0000   0.0000   0.0000   0.0000
     0.0000   0.0000

          k = 0.3333 0.5774 0.0000 (  6450 PWs)   bands (ev):

   -36.4639 -36.4512 -34.4487 -23.8366 -23.8151 -13.3957 -10.7836 -10.7462
    -9.3939  -7.4384

     occupation numbers 
     1.0000   1.0000   1.0000   0.5445   0.4555   0.0000   0.0000   0.0000
     0.0000   0.0000

          k = 0.3333 0.6543 0.0000 (  6444 PWs)   bands (ev):

   -37.4149 -35.9174 -33.8232 -24.9144 -22.7793 -13.2395 -11.5048 -11.0399
    -9.8921  -7.5451

     occupation numbers 
     1.0000   1.0000   1.0000   1.0000   0.0000   0.0000   0.0000   0.0000
     0.0000   0.0000

          k = 0.3333 0.7313 0.0000 (  6474 PWs)   bands (ev):

   -38.4699 -35.5164 -32.5760 -25.9890 -21.7861 -13.5080 -12.9031 -11.5047
    -9.8174  -8.1951

     occupation numbers 
     1.0000   1.0000   1.0000   1.0000   0.0000   0.0000   0.0000   0.0000
     0.0000   0.0000

          k = 0.3333-0.3464 0.0000 (  6494 PWs)   bands (ev):

   -39.4228 -34.9956 -31.2693 -26.9777 -20.8213 -14.6090 -14.4456 -11.2213
    -9.5791  -8.1187

     occupation numbers 
     1.0000   1.0000   1.0000   1.0000   0.0000   0.0000   0.0000   0.0000
     0.0000   0.0000

          k = 0.3333-0.2694 0.0000 (  6487 PWs)   bands (ev):

   -40.2141 -34.3166 -30.1984 -27.8229 -19.8567 -15.7466 -15.4620 -11.7130
    -8.8562  -7.1632

     occupation numbers 
     1.0000   1.0000   1.0000   1.0000   0.0000   0.0000   0.0000   0.0000
     0.0000   0.0000

          k = 0.3333-0.1925 0.0000 (  6484 PWs)   bands (ev):

   -40.8200 -33.4973 -29.6323 -28.4847 -18.9087 -16.3641 -15.9810 -12.3957
    -8.0371  -7.5015

     occupation numbers 
     1.0000   1.0000   1.0000   1.0000   0.0000   0.0000   0.0000   0.0000
     0.0000   0.0000

          k = 0.3333-0.1155 0.0000 (  6491 PWs)   bands (ev):

   -41.2288 -32.5950 -29.6920 -28.9377 -18.0710 -16.8565 -15.4356 -12.9302
    -9.6603  -7.1747

     occupation numbers 
     1.0000   1.0000   1.0000   1.0000   0.0000   0.0000   0.0000   0.0000
     0.0000   0.0000

          k = 0.3333-0.0385 0.0000 (  6480 PWs)   bands (ev):

   -41.4346 -31.7885 -30.1419 -29.1674 -17.5316 -17.1313 -14.1787 -13.2110
   -11.6705  -7.3748

     occupation numbers 
     1.0000   1.0000   1.0000   1.0000   0.0000   0.0000   0.0000   0.0000
     0.0000   0.0000

          k = 0.3333 0.0385 0.0000 (  6480 PWs)   bands (ev):

   -41.4345 -31.7860 -30.1448 -29.1676 -17.5312 -17.1307 -14.1810 -13.2111
   -11.6674  -7.3749

     occupation numbers 
     1.0000   1.0000   1.0000   1.0000   0.0000   0.0000   0.0000   0.0000
     0.0000   0.0000

          k = 0.3333 0.1155 0.0000 (  6491 PWs)   bands (ev):

   -41.2287 -32.5914 -29.6966 -28.9384 -18.0689 -16.8560 -15.4383 -12.9301
    -9.6559  -7.1745

     occupation numbers 
     1.0000   1.0000   1.0000   1.0000   0.0000   0.0000   0.0000   0.0000
     0.0000   0.0000

          k = 0.4000 0.2309 0.0000 (  6490 PWs)   bands (ev):

   -39.7164 -35.1984 -30.0424 -27.3329 -20.6618 -16.2508 -14.8412 -11.0718
    -9.3380  -6.6748

     occupation numbers 
     1.0000   1.0000   1.0000   1.0000   0.0000   0.0000   0.0000   0.0000
     0.0000   0.0000

          k = 0.4000 0.3079 0.0000 (  6503 PWs)   bands (ev):

   -39.0396 -35.9367 -30.5161 -26.6982 -21.4299 -15.8465 -13.9545 -10.7122
    -9.9509  -7.4503

     occupation numbers 
     1.0000   1.0000   1.0000   1.0000   0.0000   0.0000   0.0000   0.0000
     0.0000   0.0000

          k = 0.4000 0.3849 0.0000 (  6490 PWs)   bands (ev):

   -38.2303 -36.4646 -31.4958 -25.9914 -22.0675 -14.6314 -12.9679 -11.4125
    -9.9109  -7.8514

     occupation numbers 
     1.0000   1.0000   1.0000   1.0000   0.0000   0.0000   0.0000   0.0000
     0.0000   0.0000

          k = 0.4000 0.4619 0.0000 (  6484 PWs)   bands (ev):

   -37.5323 -36.5619 -32.7116 -25.3349 -22.5286 -13.0089 -12.6643 -11.5406
   -10.1545  -7.5157

     occupation numbers 
     1.0000   1.0000   1.0000   1.0000   0.0000   0.0000   0.0000   0.0000
     0.0000   0.0000

          k = 0.4000 0.5389 0.0000 (  6444 PWs)   bands (ev):

   -37.4150 -35.9178 -33.8227 -24.9130 -22.7814 -13.2385 -11.4949 -11.0574
    -9.8809  -7.5472

     occupation numbers 
     1.0000   1.0000   1.0000   1.0000   0.0000   0.0000   0.0000   0.0000
     0.0000   0.0000

          k = 0.4000 0.6158 0.0000 (  6444 PWs)   bands (ev):

   -37.4141 -35.9209 -33.8203 -24.9107 -22.7845 -13.2379 -11.4962 -11.0534
    -9.8830  -7.5449

     occupation numbers 
     1.0000   1.0000   1.0000   1.0000   0.0000   0.0000   0.0000   0.0000
     0.0000   0.0000

          k = 0.4000 0.6928 0.0000 (  6484 PWs)   bands (ev):

   -37.5295 -36.5677 -32.7080 -25.3304 -22.5352 -13.0064 -12.6636 -11.5393
   -10.1555  -7.5137

     occupation numbers 
     1.0000   1.0000   1.0000   1.0000   0.0000   0.0000   0.0000   0.0000
     0.0000   0.0000

          k = 0.4000 0.7698 0.0000 (  6490 PWs)   bands (ev):

   -38.2293 -36.4687 -31.4917 -25.9872 -22.0744 -14.6289 -12.9676 -11.4117
    -9.9105  -7.8507

     occupation numbers 
     1.0000   1.0000   1.0000   1.0000   0.0000   0.0000   0.0000   0.0000
     0.0000   0.0000

          k = 0.4000-0.3079 0.0000 (  6503 PWs)   bands (ev):

   -39.0394 -35.9399 -30.5117 -26.6950 -21.4360 -15.8441 -13.9546 -10.7111
    -9.9515  -7.4489

     occupation numbers 
     1.0000   1.0000   1.0000   1.0000   0.0000   0.0000   0.0000   0.0000
     0.0000   0.0000

          k = 0.4000-0.2309 0.0000 (  6490 PWs)   bands (ev):

   -39.7164 -35.2015 -30.0378 -27.3307 -20.6668 -16.2486 -14.8414 -11.0715
    -9.3385  -6.6726

     occupation numbers 
     1.0000   1.0000   1.0000   1.0000   0.0000   0.0000   0.0000   0.0000
     0.0000   0.0000

          k = 0.4000-0.1540 0.0000 (  6487 PWs)   bands (ev):

   -40.2142 -34.3173 -30.1975 -27.8223 -19.8586 -15.7441 -15.4625 -11.7122
    -8.8556  -7.1619

     occupation numbers 
     1.0000   1.0000   1.0000   1.0000   0.0000   0.0000   0.0000   0.0000
     0.0000   0.0000

          k = 0.4000-0.0770 0.0000 (  6474 PWs)   bands (ev):

   -40.5172 -33.3811 -30.8202 -28.1302 -19.1850 -15.9645 -14.3232 -12.1792
   -10.1555  -7.8299

     occupation numbers 
     1.0000   1.0000   1.0000   1.0000   0.0000   0.0000   0.0000   0.0000
     0.0000   0.0000

          k = 0.4000 0.0000 0.0000 (  6482 PWs)   bands (ev):

   -40.6188 -32.8027 -31.3204 -28.2350 -18.9067 -16.1140 -12.9917 -12.2767
   -11.7294  -8.0818

     occupation numbers 
     1.0000   1.0000   1.0000   1.0000   0.0000   0.0000   0.0000   0.0000
     0.0000   0.0000

          k = 0.4000 0.0770 0.0000 (  6474 PWs)   bands (ev):

   -40.5171 -33.3782 -30.8239 -28.1308 -19.1830 -15.9643 -14.3255 -12.1794
   -10.1527  -7.8313

     occupation numbers 
     1.0000   1.0000   1.0000   1.0000   0.0000   0.0000   0.0000   0.0000
     0.0000   0.0000

          k = 0.4000 0.1540 0.0000 (  6487 PWs)   bands (ev):

   -40.2141 -34.3141 -30.2019 -27.8237 -19.8550 -15.7456 -15.4630 -11.7123
    -8.8545  -7.1619

     occupation numbers 
     1.0000   1.0000   1.0000   1.0000   0.0000   0.0000   0.0000   0.0000
     0.0000   0.0000

          k = 0.4667 0.2694 0.0000 (  6524 PWs)   bands (ev):

   -38.5083 -36.7170 -30.2509 -26.3667 -21.9512 -16.3529 -13.1604 -11.3258
    -9.5741  -7.7165

     occupation numbers 
     1.0000   1.0000   1.0000   1.0000   0.0000   0.0000   0.0000   0.0000
     0.0000   0.0000

          k = 0.4667 0.3464 0.0000 (  6480 PWs)   bands (ev):

   -38.0727 -37.0569 -30.6218 -26.1024 -22.1830 -15.8986 -12.2818 -12.1401
    -9.4275  -7.9762

     occupation numbers 
     1.0000   1.0000   1.0000   1.0000   0.0000   0.0000   0.0000   0.0000
     0.0000   0.0000

          k = 0.4667 0.4234 0.0000 (  6490 PWs)   bands (ev):

   -38.2304 -36.4651 -31.4952 -25.9900 -22.0699 -14.6301 -12.9668 -11.4142
    -9.9077  -7.8539

     occupation numbers 
     1.0000   1.0000   1.0000   1.0000   0.0000   0.0000   0.0000   0.0000
     0.0000   0.0000

          k = 0.4667 0.5004 0.0000 (  6474 PWs)   bands (ev):

   -38.4703 -35.5153 -32.5769 -25.9885 -21.7873 -13.5068 -12.9008 -11.5094
    -9.8108  -8.1973

     occupation numbers 
     1.0000   1.0000   1.0000   1.0000   0.0000   0.0000   0.0000   0.0000
     0.0000   0.0000

          k = 0.4667 0.5774 0.0000 (  6452 PWs)   bands (ev):

   -38.5589 -34.8696 -33.2756 -26.0012 -21.6412 -13.7201 -11.9784 -10.9320
   -10.6987  -8.3487

     occupation numbers 
     1.0000   1.0000   1.0000   1.0000   0.0000   0.0000   0.0000   0.0000
     0.0000   0.0000

          k = 0.4667 0.6543 0.0000 (  6474 PWs)   bands (ev):

   -38.4700 -35.5183 -32.5737 -25.9865 -21.7907 -13.5066 -12.8991 -11.5072
    -9.8130  -8.1961

     occupation numbers 
     1.0000   1.0000   1.0000   1.0000   0.0000   0.0000   0.0000   0.0000
     0.0000   0.0000

          k = 0.4667 0.7313 0.0000 (  6490 PWs)   bands (ev):

   -38.2294 -36.4690 -31.4913 -25.9862 -22.0760 -14.6280 -12.9669 -11.4128
    -9.9084  -7.8523

     occupation numbers 
     1.0000   1.0000   1.0000   1.0000   0.0000   0.0000   0.0000   0.0000
     0.0000   0.0000

          k = 0.4667 0.8083 0.0000 (  6480 PWs)   bands (ev):

   -38.0703 -37.0623 -30.6176 -26.0978 -22.1904 -15.8965 -12.2825 -12.1395
    -9.4269  -7.9753

     occupation numbers 
     1.0000   1.0000   1.0000   1.0000   0.0000   0.0000   0.0000   0.0000
     0.0000   0.0000

          k = 0.4667-0.2694 0.0000 (  6524 PWs)   bands (ev):

   -38.5074 -36.7209 -30.2465 -26.3626 -21.9581 -16.3510 -13.1606 -11.3258
    -9.5739  -7.7154

     occupation numbers 
     1.0000   1.0000   1.0000   1.0000   0.0000   0.0000   0.0000   0.0000
     0.0000   0.0000

          k = 0.4667-0.1925 0.0000 (  6503 PWs)   bands (ev):

   -39.0395 -35.9401 -30.5113 -26.6944 -21.4372 -15.8433 -13.9545 -10.7108
    -9.9509  -7.4499

     occupation numbers 
     1.0000   1.0000   1.0000   1.0000   0.0000   0.0000   0.0000   0.0000
     0.0000   0.0000

          k = 0.4667-0.1155 0.0000 (  6494 PWs)   bands (ev):

   -39.4231 -34.9968 -31.2677 -26.9762 -20.8247 -14.6050 -14.4464 -11.2197
    -9.5784  -8.1184

     occupation numbers 
     1.0000   1.0000   1.0000   1.0000   0.0000   0.0000   0.0000   0.0000
     0.0000   0.0000

          k = 0.4667-0.0385 0.0000 (  6465 PWs)   bands (ev):

   -39.6196 -34.0884 -32.1442 -27.1334 -20.3910 -14.8506 -12.7652 -11.6234
   -10.5757  -8.7332

     occupation numbers 
     1.0000   1.0000   1.0000   1.0000   0.0000   0.0000   0.0000   0.0000
     0.0000   0.0000

          k = 0.4667 0.0385 0.0000 (  6465 PWs)   bands (ev):

   -39.6196 -34.0864 -32.1465 -27.1340 -20.3897 -14.8505 -12.7671 -11.6245
   -10.5732  -8.7339

     occupation numbers 
     1.0000   1.0000   1.0000   1.0000   0.0000   0.0000   0.0000   0.0000
     0.0000   0.0000

          k = 0.4667 0.1155 0.0000 (  6494 PWs)   bands (ev):

   -39.4231 -34.9938 -31.2715 -26.9779 -20.8211 -14.6052 -14.4482 -11.2206
    -9.5771  -8.1196

     occupation numbers 
     1.0000   1.0000   1.0000   1.0000   0.0000   0.0000   0.0000   0.0000
     0.0000   0.0000

          k = 0.4667 0.1925 0.0000 (  6503 PWs)   bands (ev):

   -39.0397 -35.9370 -30.5156 -26.6973 -21.4318 -15.8452 -13.9543 -10.7117
    -9.9499  -7.4518

     occupation numbers 
     1.0000   1.0000   1.0000   1.0000   0.0000   0.0000   0.0000   0.0000
     0.0000   0.0000

     the Fermi energy is   -23.8258 ev

!    total energy              =     -36.90619332 Ry
     total all-electron energy =      -152.434388 Ry
     estimated scf accuracy    <          1.4E-09 Ry
     smearing contrib. (-TS)   =      -0.00009968 Ry
     internal energy E=F+TS    =     -36.90609364 Ry

     The total energy is F=E-TS. E is the sum of the following terms:
     one-electron contribution =    -282.48456655 Ry
     hartree contribution      =     136.36032460 Ry
     xc contribution           =      -9.28272822 Ry
     ewald contribution        =     118.39233266 Ry
     DFT-D3 Dispersion         =      -0.00522135 Ry
     electric field correction =      12.44824012 Ry
     one-center paw contrib.   =     -12.33447490 Ry
      -> PAW hartree energy AE =       9.50750534 Ry
      -> PAW hartree energy PS =      -9.49882411 Ry
      -> PAW xc energy AE      =     -10.67855709 Ry
      -> PAW xc energy PS      =       4.50259322 Ry
      -> total E_H with PAW    =     136.36900584 Ry
      -> total E_XC with PAW   =     -15.45869209 Ry

     convergence has been achieved in   8 iterations

     negative rho (up, down):  1.604E-04 0.000E+00

     Forces acting on atoms (cartesian axes, Ry/au):

     atom    1 type  1   force =     0.00072601   -0.00211971   -0.00857288
     atom    2 type  1   force =    -0.00072601    0.00211971    0.00857288
     The non-local contrib.  to forces
     atom    1 type  1   force =     0.00075937   -0.00221329   -0.07116857
     atom    2 type  1   force =    -0.00075777    0.00220979   -0.03966613
     The ionic contribution  to forces
     atom    1 type  1   force =     0.00262312   -0.00764271    0.17590519
     atom    2 type  1   force =    -0.00262312    0.00764271   -0.17590519
     The local contribution  to forces
     atom    1 type  1   force =    -0.00263419    0.00767110   -0.51237282
     atom    2 type  1   force =     0.00263253   -0.00766760   -0.17462049
     The core correction contribution to forces
     atom    1 type  1   force =    -0.00002194    0.00006394    0.00077686
     atom    2 type  1   force =     0.00002195   -0.00006379    0.00047447
     The Hubbard contrib.    to forces
     atom    1 type  1   force =     0.00000000    0.00000000    0.00000000
     atom    2 type  1   force =     0.00000000    0.00000000    0.00000000
     The SCF correction term to forces
     atom    1 type  1   force =     0.00000000    0.00000018    0.00003582
     atom    2 type  1   force =    -0.00000003   -0.00000017    0.00003698

     DFT-D3 dispersion contribution to forces:
     atom    1 type  1   force =    -0.00000039    0.00000115   -0.00000131
     atom    2 type  1   force =     0.00000039   -0.00000115    0.00000131

     Total force =     0.012531     Total SCF correction =     0.000051

     DFT-D3 dispersion Force =     0.000003

     Writing all to output data dir /home/ubuntu/projects/Graphene-Band-Structure-Quantum-Espresso/outputs/field_0.05/bottom/data/bottom.save/ :
     XML data file, charge density, pseudopotentials, collected wavefunctions

     init_run     :      3.52s CPU      3.73s WALL (       1 calls)
     electrons    :     44.03s CPU     44.44s WALL (       1 calls)
     forces       :      0.49s CPU      0.52s WALL (       1 calls)
     force_dftd3  :      0.03s CPU      0.03s WALL (       1 calls)

     Called by init_run:
     wfcinit      :      1.00s CPU      1.03s WALL (       1 calls)
     wfcinit:atom :      0.02s CPU      0.02s WALL (      29 calls)
     wfcinit:wfcr :      0.94s CPU      0.97s WALL (      29 calls)
     potinit      :      0.91s CPU      1.01s WALL (       1 calls)
     hinit0       :      0.73s CPU      0.76s WALL (       1 calls)

     Called by electrons:
     c_bands      :     37.55s CPU     37.77s WALL (       8 calls)
     sum_band     :      4.55s CPU      4.63s WALL (       8 calls)
     v_of_rho     :      0.95s CPU      1.11s WALL (       9 calls)
     v_h          :      0.05s CPU      0.05s WALL (       9 calls)
     v_xc         :      0.98s CPU      1.15s WALL (      10 calls)
     newd         :      0.39s CPU      0.41s WALL (       9 calls)
     PAW_pot      :      0.75s CPU      0.76s WALL (       9 calls)
     mix_rho      :      0.12s CPU      0.12s WALL (       8 calls)
     energy_dftd3 :      0.02s CPU      0.02s WALL (       1 calls)

     Called by c_bands:
     init_us_2    :      0.64s CPU      0.65s WALL (     522 calls)
     cegterg      :     29.48s CPU     29.67s WALL (     232 calls)

     Called by sum_band:
     sum_band:wei :      0.01s CPU      0.01s WALL (       8 calls)
     sum_band:loo :      3.57s CPU      3.59s WALL (       8 calls)
     sum_band:buf :      0.06s CPU      0.06s WALL (     232 calls)
     sum_band:ini :      0.28s CPU      0.28s WALL (     232 calls)
     sum_band:cal :      0.56s CPU      0.56s WALL (     232 calls)
     sum_band:bec :      0.00s CPU      0.00s WALL (     232 calls)
     addusdens    :      0.25s CPU      0.30s WALL (       8 calls)
     addusd:skk   :      0.00s CPU      0.00s WALL (       8 calls)

     Called by *egterg:
     cdiaghg      :      0.19s CPU      0.20s WALL (    1092 calls)
     cegterg:over :      2.31s CPU      2.32s WALL (     860 calls)
     cegterg:upda :      1.46s CPU      1.47s WALL (     860 calls)
     cegterg:last :      3.49s CPU      3.50s WALL (     533 calls)
     h_psi        :     20.05s CPU     20.21s WALL (    1121 calls)
     s_psi        :      1.70s CPU      1.71s WALL (    1121 calls)
     g_psi        :      0.15s CPU      0.16s WALL (     860 calls)

     Called by h_psi:
     h_psi:calbec :      1.66s CPU      1.66s WALL (    1121 calls)
     vloc_psi     :     16.60s CPU     16.74s WALL (    1121 calls)
     add_vuspsi   :      1.69s CPU      1.70s WALL (    1121 calls)

     General routines
     calbec       :      2.41s CPU      2.42s WALL (    1469 calls)
     fft          :      0.96s CPU      0.97s WALL (     126 calls)
     ffts         :      0.28s CPU      0.28s WALL (      17 calls)
     fftw         :     16.82s CPU     16.93s WALL (   15828 calls)
     interpolate  :      0.30s CPU      0.30s WALL (       9 calls)

     Parallel routines

     PAW routines
     PAW_pot      :      0.75s CPU      0.76s WALL (       9 calls)

     PWSCF        :     48.17s CPU     48.90s WALL


   This run was terminated on:  17:28:36  19Sep2026            

=------------------------------------------------------------------------------=
   JOB DONE.
=------------------------------------------------------------------------------=
Note: The following floating-point exceptions are signalling: IEEE_DENORMAL
Note: The following floating-point exceptions are signalling: IEEE_DENORMAL
Note: The following floating-point exceptions are signalling: IEEE_DENORMAL
