
     Program PWSCF v.7.6 starts on  4Oct2026 at 15:16:37 

     This program is part of the open-source Quantum ESPRESSO suite
     for quantum simulation of materials; please cite
         "P. Giannozzi et al., J. Phys.:Condens. Matter 21 395502 (2009);
         "P. Giannozzi et al., J. Phys.:Condens. Matter 29 465901 (2017);
         "P. Giannozzi et al., J. Chem. Phys. 152 154105 (2020);
          URL http://www.quantum-espresso.org", 
     in publications or presentations arising from this work. More details at
     http://www.quantum-espresso.org/quote

     Parallel version (MPI), running on    16 processors

     MPI processes distributed on     1 nodes
     14444 MiB available memory on the printing compute node when the environment starts

     Waiting for input...
     Reading input from standard input
Warning: card &CELL ignored
Warning: card &FCP ignored
Warning: card &RISM ignored

     Current dimensions of program PWSCF are:
     Max number of different atomic species (ntypx) = 10
     Max number of k-points (npk) =  40000
     Max angular momentum in pseudopotentials (lmaxx) =  4
     Presently no symmetry can be used with electric field


     K-points division:     npool     =      16
     Subspace diagonalization in iterative solution of the eigenvalue problem:
     a serial algorithm will be used


     G-vector sticks info
     --------------------
     sticks:   dense  smooth     PW     G-vecs:    dense   smooth      PW
     Sum         535     535    163                94953    94953   17173

     Using Slab Decomposition



     bravais-lattice index     =            0
     lattice parameter (alat)  =       4.6487  a.u.
     unit-cell volume          =     825.8174 (a.u.)^3
     number of atoms/cell      =            4
     number of atomic types    =            1
     number of electrons       =        16.00
     number of Kohn-Sham states=           14
     kinetic-energy cutoff     =      90.0000  Ry
     charge density cutoff     =     360.0000  Ry
     scf convergence threshold =      1.0E-08
     mixing beta               =       0.7000
     number of iterations used =            8  plain     mixing
     Exchange-correlation= PBE
                           (   1   4   3   4   0   0   0)

     celldm(1)=   4.648726  celldm(2)=   0.000000  celldm(3)=   0.000000
     celldm(4)=   0.000000  celldm(5)=   0.000000  celldm(6)=   0.000000

     crystal axes: (cart. coord. in units of alat)
               a(1) = (   1.000000   0.000000   0.000000 )  
               a(2) = (  -0.500000   0.866025   0.000000 )  
               a(3) = (   0.000000   0.000000   9.491870 )  

     reciprocal axes: (cart. coord. in units 2 pi/alat)
               b(1) = (  1.000000  0.577351 -0.000000 )  
               b(2) = (  0.000000  1.154701  0.000000 )  
               b(3) = (  0.000000 -0.000000  0.105353 )  


     PseudoPot. # 1 for C  read from file:
     /home/ubuntu/projects/Graphene-Band-Structure-Quantum-Espresso/pseudo/C.upf
     MD5 check sum: 34a24e64c0a39f27c6c36b90a16ac686
     Pseudo is Norm-conserving + core correction, Zval =  4.0
     Generated using ONCVPSP code by D. R. Hamann
     Using radial grid of 1248 points,  4 beta functions with: 
                l(1) =   0
                l(2) =   0
                l(3) =   1
                l(4) =   1

     atomic species   valence    mass     pseudopotential
     C                 4.00    12.01100     C ( 1.00)

     No symmetry found


                                    s                        frac. trans.

      isym =  1     identity                                     

 cryst.   s( 1) = (     1          0          0      )
                  (     0          1          0      )
                  (     0          0          1      )

 cart.    s( 1) = (  1.0000000  0.0000000  0.0000000 )
                  (  0.0000000  1.0000000  0.0000000 )
                  (  0.0000000  0.0000000  1.0000000 )


   Cartesian axes

     site n.     atom                  positions (alat units)
         1        C      tau(   1) = (   0.0000114   0.0000017   4.0317418  )
         2        C      tau(   2) = (   0.4999997   0.2886781   4.0322363  )
         3        C      tau(   3) = (   0.4999876   0.2886584   5.4596454  )
         4        C      tau(   4) = (   0.0000014   0.5773623   5.4601174  )

     --------------------------------------------
     DFT-D3 Dispersion Correction (3-body terms):
     --------------------------------------------
       Reference C6 values for interpolation: 

         atom   Coordination number   C6
         C          0.000            98.23
         C          0.987            86.49
         C          1.998            58.72
         C          2.999            51.56
         C          3.984            36.41

       Values used:

         atom   Coordination number  R0_AB[au]  C6      C8
         C          3.321            2.750     48.15   1392.49
         C          3.321            2.750     48.14   1392.43
         C          3.321            2.750     48.14   1392.43
         C          3.321            2.750     48.15   1392.49

         Molecular C6 ( Ry / a.u.^6 ) =       770.33


   Crystallographic axes

     site n.     atom                  positions (cryst. coord.)
         1        C      tau(   1) = (  0.0000124  0.0000020  0.4247574  )
         2        C      tau(   2) = (  0.6666681  0.3333369  0.4248095  )
         3        C      tau(   3) = (  0.6666447  0.3333142  0.5751918  )
         4        C      tau(   4) = (  0.3333418  0.6666809  0.5752415  )

     number of k points=   113  Gaussian smearing, width (Ry)=  0.0100
                       cart. coord. in units 2pi/alat
        k(    1) = (   0.0000000   0.0000000   0.0000000), wk =   0.0088889
        k(    2) = (   0.0000000   0.0769801   0.0000000), wk =   0.0177778
        k(    3) = (   0.0000000   0.1539601   0.0000000), wk =   0.0177778
        k(    4) = (   0.0000000   0.2309402   0.0000000), wk =   0.0177778
        k(    5) = (   0.0000000   0.3079203   0.0000000), wk =   0.0177778
        k(    6) = (   0.0000000   0.3849004   0.0000000), wk =   0.0177778
        k(    7) = (   0.0000000   0.4618804   0.0000000), wk =   0.0177778
        k(    8) = (   0.0000000   0.5388605   0.0000000), wk =   0.0177778
        k(    9) = (   0.0666667   0.0384900   0.0000000), wk =   0.0177778
        k(   10) = (   0.0666667   0.1154701   0.0000000), wk =   0.0177778
        k(   11) = (   0.0666667   0.1924502   0.0000000), wk =   0.0177778
        k(   12) = (   0.0666667   0.2694303   0.0000000), wk =   0.0177778
        k(   13) = (   0.0666667   0.3464103   0.0000000), wk =   0.0177778
        k(   14) = (   0.0666667   0.4233904   0.0000000), wk =   0.0177778
        k(   15) = (   0.0666667   0.5003705   0.0000000), wk =   0.0177778
        k(   16) = (   0.0666667   0.5773505   0.0000000), wk =   0.0177778
        k(   17) = (   0.0666667  -0.5003705   0.0000000), wk =   0.0177778
        k(   18) = (   0.0666667  -0.4233904   0.0000000), wk =   0.0177778
        k(   19) = (   0.0666667  -0.3464103   0.0000000), wk =   0.0177778
        k(   20) = (   0.0666667  -0.2694303   0.0000000), wk =   0.0177778
        k(   21) = (   0.0666667  -0.1924502   0.0000000), wk =   0.0177778
        k(   22) = (   0.0666667  -0.1154701   0.0000000), wk =   0.0177778
        k(   23) = (   0.0666667  -0.0384900   0.0000000), wk =   0.0177778
        k(   24) = (   0.1333333   0.0769801   0.0000000), wk =   0.0177778
        k(   25) = (   0.1333333   0.1539601   0.0000000), wk =   0.0177778
        k(   26) = (   0.1333333   0.2309402   0.0000000), wk =   0.0177778
        k(   27) = (   0.1333333   0.3079203   0.0000000), wk =   0.0177778
        k(   28) = (   0.1333333   0.3849004   0.0000000), wk =   0.0177778
        k(   29) = (   0.1333333   0.4618804   0.0000000), wk =   0.0177778
        k(   30) = (   0.1333333   0.5388605   0.0000000), wk =   0.0177778
        k(   31) = (   0.1333333   0.6158406   0.0000000), wk =   0.0177778
        k(   32) = (   0.1333333  -0.4618804   0.0000000), wk =   0.0177778
        k(   33) = (   0.1333333  -0.3849004   0.0000000), wk =   0.0177778
        k(   34) = (   0.1333333  -0.3079203   0.0000000), wk =   0.0177778
        k(   35) = (   0.1333333  -0.2309402   0.0000000), wk =   0.0177778
        k(   36) = (   0.1333333  -0.1539601   0.0000000), wk =   0.0177778
        k(   37) = (   0.1333333  -0.0769801   0.0000000), wk =   0.0177778
        k(   38) = (   0.1333333   0.0000000   0.0000000), wk =   0.0177778
        k(   39) = (   0.2000000   0.1154701   0.0000000), wk =   0.0177778
        k(   40) = (   0.2000000   0.1924502   0.0000000), wk =   0.0177778
        k(   41) = (   0.2000000   0.2694303   0.0000000), wk =   0.0177778
        k(   42) = (   0.2000000   0.3464103   0.0000000), wk =   0.0177778
        k(   43) = (   0.2000000   0.4233904   0.0000000), wk =   0.0177778
        k(   44) = (   0.2000000   0.5003705   0.0000000), wk =   0.0177778
        k(   45) = (   0.2000000   0.5773505   0.0000000), wk =   0.0177778
        k(   46) = (   0.2000000   0.6543306   0.0000000), wk =   0.0177778
        k(   47) = (   0.2000000  -0.4233904   0.0000000), wk =   0.0177778
        k(   48) = (   0.2000000  -0.3464103   0.0000000), wk =   0.0177778
        k(   49) = (   0.2000000  -0.2694303   0.0000000), wk =   0.0177778
        k(   50) = (   0.2000000  -0.1924502   0.0000000), wk =   0.0177778
        k(   51) = (   0.2000000  -0.1154701   0.0000000), wk =   0.0177778
        k(   52) = (   0.2000000  -0.0384900   0.0000000), wk =   0.0177778
        k(   53) = (   0.2000000   0.0384900   0.0000000), wk =   0.0177778
        k(   54) = (   0.2666667   0.1539601   0.0000000), wk =   0.0177778
        k(   55) = (   0.2666667   0.2309402   0.0000000), wk =   0.0177778
        k(   56) = (   0.2666667   0.3079203   0.0000000), wk =   0.0177778
        k(   57) = (   0.2666667   0.3849004   0.0000000), wk =   0.0177778
        k(   58) = (   0.2666667   0.4618804   0.0000000), wk =   0.0177778
        k(   59) = (   0.2666667   0.5388605   0.0000000), wk =   0.0177778
        k(   60) = (   0.2666667   0.6158406   0.0000000), wk =   0.0177778
        k(   61) = (   0.2666667   0.6928206   0.0000000), wk =   0.0177778
        k(   62) = (   0.2666667  -0.3849004   0.0000000), wk =   0.0177778
        k(   63) = (   0.2666667  -0.3079203   0.0000000), wk =   0.0177778
        k(   64) = (   0.2666667  -0.2309402   0.0000000), wk =   0.0177778
        k(   65) = (   0.2666667  -0.1539601   0.0000000), wk =   0.0177778
        k(   66) = (   0.2666667  -0.0769801   0.0000000), wk =   0.0177778
        k(   67) = (   0.2666667   0.0000000   0.0000000), wk =   0.0177778
        k(   68) = (   0.2666667   0.0769801   0.0000000), wk =   0.0177778
        k(   69) = (   0.3333333   0.1924502   0.0000000), wk =   0.0177778
        k(   70) = (   0.3333333   0.2694303   0.0000000), wk =   0.0177778
        k(   71) = (   0.3333333   0.3464103   0.0000000), wk =   0.0177778
        k(   72) = (   0.3333333   0.4233904   0.0000000), wk =   0.0177778
        k(   73) = (   0.3333333   0.5003705   0.0000000), wk =   0.0177778
        k(   74) = (   0.3333333   0.5773505   0.0000000), wk =   0.0177778
        k(   75) = (   0.3333333   0.6543306   0.0000000), wk =   0.0177778
        k(   76) = (   0.3333333   0.7313107   0.0000000), wk =   0.0177778
        k(   77) = (   0.3333333  -0.3464103   0.0000000), wk =   0.0177778
        k(   78) = (   0.3333333  -0.2694303   0.0000000), wk =   0.0177778
        k(   79) = (   0.3333333  -0.1924502   0.0000000), wk =   0.0177778
        k(   80) = (   0.3333333  -0.1154701   0.0000000), wk =   0.0177778
        k(   81) = (   0.3333333  -0.0384900   0.0000000), wk =   0.0177778
        k(   82) = (   0.3333333   0.0384900   0.0000000), wk =   0.0177778
        k(   83) = (   0.3333333   0.1154701   0.0000000), wk =   0.0177778
        k(   84) = (   0.4000000   0.2309402   0.0000000), wk =   0.0177778
        k(   85) = (   0.4000000   0.3079203   0.0000000), wk =   0.0177778
        k(   86) = (   0.4000000   0.3849004   0.0000000), wk =   0.0177778
        k(   87) = (   0.4000000   0.4618804   0.0000000), wk =   0.0177778
        k(   88) = (   0.4000000   0.5388605   0.0000000), wk =   0.0177778
        k(   89) = (   0.4000000   0.6158406   0.0000000), wk =   0.0177778
        k(   90) = (   0.4000000   0.6928206   0.0000000), wk =   0.0177778
        k(   91) = (   0.4000000   0.7698007   0.0000000), wk =   0.0177778
        k(   92) = (   0.4000000  -0.3079203   0.0000000), wk =   0.0177778
        k(   93) = (   0.4000000  -0.2309402   0.0000000), wk =   0.0177778
        k(   94) = (   0.4000000  -0.1539601   0.0000000), wk =   0.0177778
        k(   95) = (   0.4000000  -0.0769801   0.0000000), wk =   0.0177778
        k(   96) = (   0.4000000   0.0000000   0.0000000), wk =   0.0177778
        k(   97) = (   0.4000000   0.0769801   0.0000000), wk =   0.0177778
        k(   98) = (   0.4000000   0.1539601   0.0000000), wk =   0.0177778
        k(   99) = (   0.4666667   0.2694303   0.0000000), wk =   0.0177778
        k(  100) = (   0.4666667   0.3464103   0.0000000), wk =   0.0177778
        k(  101) = (   0.4666667   0.4233904   0.0000000), wk =   0.0177778
        k(  102) = (   0.4666667   0.5003705   0.0000000), wk =   0.0177778
        k(  103) = (   0.4666667   0.5773505   0.0000000), wk =   0.0177778
        k(  104) = (   0.4666667   0.6543306   0.0000000), wk =   0.0177778
        k(  105) = (   0.4666667   0.7313107   0.0000000), wk =   0.0177778
        k(  106) = (   0.4666667   0.8082908   0.0000000), wk =   0.0177778
        k(  107) = (   0.4666667  -0.2694303   0.0000000), wk =   0.0177778
        k(  108) = (   0.4666667  -0.1924502   0.0000000), wk =   0.0177778
        k(  109) = (   0.4666667  -0.1154701   0.0000000), wk =   0.0177778
        k(  110) = (   0.4666667  -0.0384900   0.0000000), wk =   0.0177778
        k(  111) = (   0.4666667   0.0384900   0.0000000), wk =   0.0177778
        k(  112) = (   0.4666667   0.1154701   0.0000000), wk =   0.0177778
        k(  113) = (   0.4666667   0.1924502   0.0000000), wk =   0.0177778

                       cryst. coord.
        k(    1) = (   0.0000000   0.0000000   0.0000000), wk =   0.0088889
        k(    2) = (   0.0000000   0.0666667   0.0000000), wk =   0.0177778
        k(    3) = (   0.0000000   0.1333333   0.0000000), wk =   0.0177778
        k(    4) = (   0.0000000   0.2000000   0.0000000), wk =   0.0177778
        k(    5) = (   0.0000000   0.2666667   0.0000000), wk =   0.0177778
        k(    6) = (   0.0000000   0.3333333   0.0000000), wk =   0.0177778
        k(    7) = (   0.0000000   0.4000000   0.0000000), wk =   0.0177778
        k(    8) = (   0.0000000   0.4666667   0.0000000), wk =   0.0177778
        k(    9) = (   0.0666667   0.0000000   0.0000000), wk =   0.0177778
        k(   10) = (   0.0666667   0.0666667   0.0000000), wk =   0.0177778
        k(   11) = (   0.0666667   0.1333333   0.0000000), wk =   0.0177778
        k(   12) = (   0.0666667   0.2000000   0.0000000), wk =   0.0177778
        k(   13) = (   0.0666667   0.2666667   0.0000000), wk =   0.0177778
        k(   14) = (   0.0666667   0.3333333   0.0000000), wk =   0.0177778
        k(   15) = (   0.0666667   0.4000000   0.0000000), wk =   0.0177778
        k(   16) = (   0.0666667   0.4666667   0.0000000), wk =   0.0177778
        k(   17) = (   0.0666667  -0.4666667   0.0000000), wk =   0.0177778
        k(   18) = (   0.0666667  -0.4000000   0.0000000), wk =   0.0177778
        k(   19) = (   0.0666667  -0.3333333   0.0000000), wk =   0.0177778
        k(   20) = (   0.0666667  -0.2666667   0.0000000), wk =   0.0177778
        k(   21) = (   0.0666667  -0.2000000   0.0000000), wk =   0.0177778
        k(   22) = (   0.0666667  -0.1333333   0.0000000), wk =   0.0177778
        k(   23) = (   0.0666667  -0.0666667   0.0000000), wk =   0.0177778
        k(   24) = (   0.1333333   0.0000000   0.0000000), wk =   0.0177778
        k(   25) = (   0.1333333   0.0666667   0.0000000), wk =   0.0177778
        k(   26) = (   0.1333333   0.1333333   0.0000000), wk =   0.0177778
        k(   27) = (   0.1333333   0.2000000   0.0000000), wk =   0.0177778
        k(   28) = (   0.1333333   0.2666667   0.0000000), wk =   0.0177778
        k(   29) = (   0.1333333   0.3333333   0.0000000), wk =   0.0177778
        k(   30) = (   0.1333333   0.4000000   0.0000000), wk =   0.0177778
        k(   31) = (   0.1333333   0.4666667   0.0000000), wk =   0.0177778
        k(   32) = (   0.1333333  -0.4666667   0.0000000), wk =   0.0177778
        k(   33) = (   0.1333333  -0.4000000   0.0000000), wk =   0.0177778
        k(   34) = (   0.1333333  -0.3333333   0.0000000), wk =   0.0177778
        k(   35) = (   0.1333333  -0.2666667   0.0000000), wk =   0.0177778
        k(   36) = (   0.1333333  -0.2000000   0.0000000), wk =   0.0177778
        k(   37) = (   0.1333333  -0.1333333   0.0000000), wk =   0.0177778
        k(   38) = (   0.1333333  -0.0666667   0.0000000), wk =   0.0177778
        k(   39) = (   0.2000000   0.0000000   0.0000000), wk =   0.0177778
        k(   40) = (   0.2000000   0.0666667   0.0000000), wk =   0.0177778
        k(   41) = (   0.2000000   0.1333333   0.0000000), wk =   0.0177778
        k(   42) = (   0.2000000   0.2000000   0.0000000), wk =   0.0177778
        k(   43) = (   0.2000000   0.2666667   0.0000000), wk =   0.0177778
        k(   44) = (   0.2000000   0.3333333   0.0000000), wk =   0.0177778
        k(   45) = (   0.2000000   0.4000000   0.0000000), wk =   0.0177778
        k(   46) = (   0.2000000   0.4666667   0.0000000), wk =   0.0177778
        k(   47) = (   0.2000000  -0.4666667   0.0000000), wk =   0.0177778
        k(   48) = (   0.2000000  -0.4000000   0.0000000), wk =   0.0177778
        k(   49) = (   0.2000000  -0.3333333   0.0000000), wk =   0.0177778
        k(   50) = (   0.2000000  -0.2666667   0.0000000), wk =   0.0177778
        k(   51) = (   0.2000000  -0.2000000   0.0000000), wk =   0.0177778
        k(   52) = (   0.2000000  -0.1333333   0.0000000), wk =   0.0177778
        k(   53) = (   0.2000000  -0.0666667   0.0000000), wk =   0.0177778
        k(   54) = (   0.2666667   0.0000000   0.0000000), wk =   0.0177778
        k(   55) = (   0.2666667   0.0666667   0.0000000), wk =   0.0177778
        k(   56) = (   0.2666667   0.1333333   0.0000000), wk =   0.0177778
        k(   57) = (   0.2666667   0.2000000   0.0000000), wk =   0.0177778
        k(   58) = (   0.2666667   0.2666667   0.0000000), wk =   0.0177778
        k(   59) = (   0.2666667   0.3333333   0.0000000), wk =   0.0177778
        k(   60) = (   0.2666667   0.4000000   0.0000000), wk =   0.0177778
        k(   61) = (   0.2666667   0.4666667   0.0000000), wk =   0.0177778
        k(   62) = (   0.2666667  -0.4666667   0.0000000), wk =   0.0177778
        k(   63) = (   0.2666667  -0.4000000   0.0000000), wk =   0.0177778
        k(   64) = (   0.2666667  -0.3333333   0.0000000), wk =   0.0177778
        k(   65) = (   0.2666667  -0.2666667   0.0000000), wk =   0.0177778
        k(   66) = (   0.2666667  -0.2000000   0.0000000), wk =   0.0177778
        k(   67) = (   0.2666667  -0.1333333   0.0000000), wk =   0.0177778
        k(   68) = (   0.2666667  -0.0666667   0.0000000), wk =   0.0177778
        k(   69) = (   0.3333333   0.0000000   0.0000000), wk =   0.0177778
        k(   70) = (   0.3333333   0.0666667   0.0000000), wk =   0.0177778
        k(   71) = (   0.3333333   0.1333333   0.0000000), wk =   0.0177778
        k(   72) = (   0.3333333   0.2000000   0.0000000), wk =   0.0177778
        k(   73) = (   0.3333333   0.2666667   0.0000000), wk =   0.0177778
        k(   74) = (   0.3333333   0.3333333   0.0000000), wk =   0.0177778
        k(   75) = (   0.3333333   0.4000000   0.0000000), wk =   0.0177778
        k(   76) = (   0.3333333   0.4666667   0.0000000), wk =   0.0177778
        k(   77) = (   0.3333333  -0.4666667   0.0000000), wk =   0.0177778
        k(   78) = (   0.3333333  -0.4000000   0.0000000), wk =   0.0177778
        k(   79) = (   0.3333333  -0.3333333   0.0000000), wk =   0.0177778
        k(   80) = (   0.3333333  -0.2666667   0.0000000), wk =   0.0177778
        k(   81) = (   0.3333333  -0.2000000   0.0000000), wk =   0.0177778
        k(   82) = (   0.3333333  -0.1333333   0.0000000), wk =   0.0177778
        k(   83) = (   0.3333333  -0.0666667   0.0000000), wk =   0.0177778
        k(   84) = (   0.4000000   0.0000000   0.0000000), wk =   0.0177778
        k(   85) = (   0.4000000   0.0666667   0.0000000), wk =   0.0177778
        k(   86) = (   0.4000000   0.1333333   0.0000000), wk =   0.0177778
        k(   87) = (   0.4000000   0.2000000   0.0000000), wk =   0.0177778
        k(   88) = (   0.4000000   0.2666667   0.0000000), wk =   0.0177778
        k(   89) = (   0.4000000   0.3333333   0.0000000), wk =   0.0177778
        k(   90) = (   0.4000000   0.4000000   0.0000000), wk =   0.0177778
        k(   91) = (   0.4000000   0.4666667   0.0000000), wk =   0.0177778
        k(   92) = (   0.4000000  -0.4666667   0.0000000), wk =   0.0177778
        k(   93) = (   0.4000000  -0.4000000   0.0000000), wk =   0.0177778
        k(   94) = (   0.4000000  -0.3333333   0.0000000), wk =   0.0177778
        k(   95) = (   0.4000000  -0.2666667   0.0000000), wk =   0.0177778
        k(   96) = (   0.4000000  -0.2000000   0.0000000), wk =   0.0177778
        k(   97) = (   0.4000000  -0.1333333   0.0000000), wk =   0.0177778
        k(   98) = (   0.4000000  -0.0666667   0.0000000), wk =   0.0177778
        k(   99) = (   0.4666667   0.0000000   0.0000000), wk =   0.0177778
        k(  100) = (   0.4666667   0.0666667   0.0000000), wk =   0.0177778
        k(  101) = (   0.4666667   0.1333333   0.0000000), wk =   0.0177778
        k(  102) = (   0.4666667   0.2000000   0.0000000), wk =   0.0177778
        k(  103) = (   0.4666667   0.2666667   0.0000000), wk =   0.0177778
        k(  104) = (   0.4666667   0.3333333   0.0000000), wk =   0.0177778
        k(  105) = (   0.4666667   0.4000000   0.0000000), wk =   0.0177778
        k(  106) = (   0.4666667   0.4666667   0.0000000), wk =   0.0177778
        k(  107) = (   0.4666667  -0.4666667   0.0000000), wk =   0.0177778
        k(  108) = (   0.4666667  -0.4000000   0.0000000), wk =   0.0177778
        k(  109) = (   0.4666667  -0.3333333   0.0000000), wk =   0.0177778
        k(  110) = (   0.4666667  -0.2666667   0.0000000), wk =   0.0177778
        k(  111) = (   0.4666667  -0.2000000   0.0000000), wk =   0.0177778
        k(  112) = (   0.4666667  -0.1333333   0.0000000), wk =   0.0177778
        k(  113) = (   0.4666667  -0.0666667   0.0000000), wk =   0.0177778

     Dense  grid:    94953 G-vectors     FFT dimensions: (  30,  30, 270)

     Dynamical RAM for                 wfc:       2.54 MB

     Dynamical RAM for     wfc (w. buffer):      22.89 MB

     Dynamical RAM for           str. fact:       1.45 MB

     Dynamical RAM for           local pot:       0.00 MB

     Dynamical RAM for          nlocal pot:       5.81 MB

     Dynamical RAM for                qrad:       0.44 MB

     Dynamical RAM for          rho,v,vnew:       9.91 MB

     Dynamical RAM for               rhoin:       3.30 MB

     Dynamical RAM for            rho*nmix:      23.18 MB

     Dynamical RAM for           G-vectors:       6.16 MB

     Dynamical RAM for          h,s,v(r/c):       0.04 MB

     Dynamical RAM for          <psi|beta>:       0.01 MB

     Dynamical RAM for                 psi:       5.09 MB

     Dynamical RAM for                hpsi:       5.09 MB

     Dynamical RAM for      wfcinit/wfcrot:       5.09 MB

     Estimated static dynamical RAM per process >      62.13 MB

     Estimated max dynamical RAM per process >      95.53 MB

     Estimated total dynamical RAM >       1.15 GB

     Adding external electric field
        E field amplitude [Ha a.u.]:  1.0000E-03
        Potential amp.        0.0794 Ry
        Total length         39.7126 bohr


     Initial potential from superposition of free atoms

     starting charge      15.9998, renormalised to      16.0000

     negative rho (up, down):  7.732E-06 0.000E+00
     Starting wfcs are   16 randomized atomic wfcs

     total cpu time spent up to now is        2.7 secs

     Self-consistent Calculation

     iteration #  1     ecut=    90.00 Ry     beta= 0.70
     Davidson diagonalization with overlap

---- Real-time Memory Report at c_bands before calling an iterative solver
            95 MiB given to the printing process from OS
             0 MiB allocation reported by mallinfo(arena+hblkhd)
         13342 MiB available memory on the node where the printing process lives
------------------
     ethr =  1.00E-02,  avg # of iterations =  6.1

     total cpu time spent up to now is        9.1 secs

     total energy              =     -48.16037114 Ry
     estimated scf accuracy    <       0.37225982 Ry

     iteration #  2     ecut=    90.00 Ry     beta= 0.70
     Davidson diagonalization with overlap

---- Real-time Memory Report at c_bands before calling an iterative solver
           131 MiB given to the printing process from OS
             0 MiB allocation reported by mallinfo(arena+hblkhd)
         12806 MiB available memory on the node where the printing process lives
------------------
     ethr =  2.33E-03,  avg # of iterations =  5.8

     total cpu time spent up to now is       14.3 secs

     total energy              =     -48.20481333 Ry
     estimated scf accuracy    <       0.00673102 Ry

     iteration #  3     ecut=    90.00 Ry     beta= 0.70
     Davidson diagonalization with overlap

---- Real-time Memory Report at c_bands before calling an iterative solver
           134 MiB given to the printing process from OS
             0 MiB allocation reported by mallinfo(arena+hblkhd)
         12842 MiB available memory on the node where the printing process lives
------------------
     c_bands:  2 eigenvalues not converged
     ethr =  4.21E-05,  avg # of iterations = 14.0

     total cpu time spent up to now is       22.2 secs

     total energy              =     -48.20594663 Ry
     estimated scf accuracy    <       0.00831815 Ry

     iteration #  4     ecut=    90.00 Ry     beta= 0.70
     Davidson diagonalization with overlap

---- Real-time Memory Report at c_bands before calling an iterative solver
           137 MiB given to the printing process from OS
             0 MiB allocation reported by mallinfo(arena+hblkhd)
         12821 MiB available memory on the node where the printing process lives
------------------
     ethr =  4.21E-05,  avg # of iterations =  9.1

     total cpu time spent up to now is       26.9 secs

     total energy              =     -48.20747448 Ry
     estimated scf accuracy    <       0.00034106 Ry

     iteration #  5     ecut=    90.00 Ry     beta= 0.70
     Davidson diagonalization with overlap

---- Real-time Memory Report at c_bands before calling an iterative solver
           140 MiB given to the printing process from OS
             0 MiB allocation reported by mallinfo(arena+hblkhd)
         12847 MiB available memory on the node where the printing process lives
------------------
     c_bands:  1 eigenvalues not converged
     ethr =  2.13E-06,  avg # of iterations = 10.2

     total cpu time spent up to now is       33.6 secs

     total energy              =     -48.20752391 Ry
     estimated scf accuracy    <       0.00004761 Ry

     iteration #  6     ecut=    90.00 Ry     beta= 0.70
     Davidson diagonalization with overlap

---- Real-time Memory Report at c_bands before calling an iterative solver
           143 MiB given to the printing process from OS
             0 MiB allocation reported by mallinfo(arena+hblkhd)
         12835 MiB available memory on the node where the printing process lives
------------------
     ethr =  2.98E-07,  avg # of iterations =  4.6

     total cpu time spent up to now is       38.5 secs

     total energy              =     -48.20753481 Ry
     estimated scf accuracy    <       0.00001107 Ry

     iteration #  7     ecut=    90.00 Ry     beta= 0.70
     Davidson diagonalization with overlap

---- Real-time Memory Report at c_bands before calling an iterative solver
           146 MiB given to the printing process from OS
             0 MiB allocation reported by mallinfo(arena+hblkhd)
         12838 MiB available memory on the node where the printing process lives
------------------
     ethr =  6.92E-08,  avg # of iterations =  2.0

     total cpu time spent up to now is       42.0 secs

     total energy              =     -48.20753710 Ry
     estimated scf accuracy    <       0.00000046 Ry

     iteration #  8     ecut=    90.00 Ry     beta= 0.70
     Davidson diagonalization with overlap

---- Real-time Memory Report at c_bands before calling an iterative solver
           149 MiB given to the printing process from OS
             0 MiB allocation reported by mallinfo(arena+hblkhd)
         12835 MiB available memory on the node where the printing process lives
------------------
     ethr =  2.88E-09,  avg # of iterations =  2.4

     total cpu time spent up to now is       45.8 secs

     total energy              =     -48.20753724 Ry
     estimated scf accuracy    <       0.00000013 Ry

     iteration #  9     ecut=    90.00 Ry     beta= 0.70
     Davidson diagonalization with overlap

---- Real-time Memory Report at c_bands before calling an iterative solver
           152 MiB given to the printing process from OS
             0 MiB allocation reported by mallinfo(arena+hblkhd)
         12842 MiB available memory on the node where the printing process lives
------------------
     ethr =  8.16E-10,  avg # of iterations =  1.7

     total cpu time spent up to now is       49.0 secs

     total energy              =     -48.20753727 Ry
     estimated scf accuracy    <       0.00000002 Ry

     iteration # 10     ecut=    90.00 Ry     beta= 0.70
     Davidson diagonalization with overlap

---- Real-time Memory Report at c_bands before calling an iterative solver
           155 MiB given to the printing process from OS
             0 MiB allocation reported by mallinfo(arena+hblkhd)
         12795 MiB available memory on the node where the printing process lives
------------------
     ethr =  1.13E-10,  avg # of iterations =  2.2

     total cpu time spent up to now is       52.8 secs

     End of self-consistent calculation

          k = 0.0000 0.0000 0.0000 ( 11659 PWs)   bands (ev):

   -20.5695 -20.4629  -8.9737  -8.2079  -3.9832  -3.9823  -3.9613  -3.9589
     2.4097   2.8615   3.2551   4.2348   4.5338   5.8982

     occupation numbers 
     1.0000   1.0000   1.0000   1.0000   1.0000   1.0000   1.0000   1.0000
     0.0000   0.0000   0.0000   0.0000   0.0000   0.0000

          k = 0.0000 0.0770 0.0000 ( 11791 PWs)   bands (ev):

   -20.4638 -20.3580  -8.8458  -8.0833  -4.4094  -4.3865  -4.2076  -4.1833
     2.5521   3.0049   3.4015   4.3802   4.6743   6.0334

     occupation numbers 
     1.0000   1.0000   1.0000   1.0000   1.0000   1.0000   1.0000   1.0000
     0.0000   0.0000   0.0000   0.0000   0.0000   0.0000

          k = 0.0000 0.1540 0.0000 ( 11788 PWs)   bands (ev):

   -20.1475 -20.0437  -8.4639  -7.7117  -5.5437  -5.5168  -4.7775  -4.7520
     2.9790   3.4347   3.8406   4.8165   5.0955   6.4369

     occupation numbers 
     1.0000   1.0000   1.0000   1.0000   1.0000   1.0000   1.0000   1.0000
     0.0000   0.0000   0.0000   0.0000   0.0000   0.0000

          k = 0.0000 0.2309 0.0000 ( 11848 PWs)   bands (ev):

   -19.6228 -19.5224  -7.8346  -7.1040  -7.0984  -7.0666  -5.4901  -5.4635
     3.6894   4.1488   4.5723   5.5417   5.7918   7.0698

     occupation numbers 
     1.0000   1.0000   1.0000   1.0000   1.0000   1.0000   1.0000   1.0000
     0.0000   0.0000   0.0000   0.0000   0.0000   0.0000

          k = 0.0000 0.3079 0.0000 ( 11876 PWs)   bands (ev):

   -18.8939 -18.7982  -8.8441  -8.8029  -6.9718  -6.2673  -6.1836  -6.1562
     4.6787   5.1209   5.5897   5.8011   6.0132   6.5653

     occupation numbers 
     1.0000   1.0000   1.0000   1.0000   1.0000   1.0000   1.0000   1.0000
     0.0000   0.0000   0.0000   0.0000   0.0000   0.0000

          k = 0.0000 0.3849 0.0000 ( 11914 PWs)   bands (ev):

   -17.9681 -17.8783 -10.6205 -10.5709  -6.7606  -6.7326  -5.9056  -5.2488
     3.8506   4.1980   5.9424   6.4339   6.8526   6.9252

     occupation numbers 
     1.0000   1.0000   1.0000   1.0000   1.0000   1.0000   1.0000   1.0000
     0.0000   0.0000   0.0000   0.0000   0.0000   0.0000

          k = 0.0000 0.4619 0.0000 ( 11910 PWs)   bands (ev):

   -16.8612 -16.7787 -12.3305 -12.2731  -7.1676  -7.1393  -4.7126  -4.1454
     2.0717   2.4651   6.6447   6.7724   7.5231   8.0115

     occupation numbers 
     1.0000   1.0000   1.0000   1.0000   1.0000   1.0000   1.0000   1.0000
     0.0000   0.0000   0.0000   0.0000   0.0000   0.0000

          k = 0.0000 0.5389 0.0000 ( 11924 PWs)   bands (ev):

   -15.6459 -15.5772 -13.8506 -13.7924  -7.3770  -7.3486  -3.6576  -3.2946
     0.8267   1.1579   6.5415   6.6837   9.2930   9.8144

     occupation numbers 
     1.0000   1.0000   1.0000   1.0000   1.0000   1.0000   1.0000   1.0000
     0.0000   0.0000   0.0000   0.0000   0.0000   0.0000

          k = 0.0667 0.0385 0.0000 ( 11791 PWs)   bands (ev):

   -20.4638 -20.3580  -8.8458  -8.0833  -4.4096  -4.3847  -4.2073  -4.1852
     2.5521   3.0049   3.4015   4.3802   4.6743   6.0334

     occupation numbers 
     1.0000   1.0000   1.0000   1.0000   1.0000   1.0000   1.0000   1.0000
     0.0000   0.0000   0.0000   0.0000   0.0000   0.0000

          k = 0.0667 0.1155 0.0000 ( 11813 PWs)   bands (ev):

   -20.2528 -20.1484  -8.5909  -7.8351  -5.1371  -5.1131  -4.6563  -4.6336
     2.8368   3.2916   3.6943   4.6711   4.9554   6.3036

     occupation numbers 
     1.0000   1.0000   1.0000   1.0000   1.0000   1.0000   1.0000   1.0000
     0.0000   0.0000   0.0000   0.0000   0.0000   0.0000

          k = 0.0667 0.1925 0.0000 ( 11832 PWs)   bands (ev):

   -19.8323 -19.7306  -8.0850  -7.3436  -6.3926  -6.3648  -5.3893  -5.3642
     3.4059   3.8641   4.2798   5.2525   5.5164   6.8392

     occupation numbers 
     1.0000   1.0000   1.0000   1.0000   1.0000   1.0000   1.0000   1.0000
     0.0000   0.0000   0.0000   0.0000   0.0000   0.0000

          k = 0.0667 0.2694 0.0000 ( 11880 PWs)   bands (ev):

   -19.2055 -19.1078  -7.9843  -7.9487  -7.3379  -6.6199  -6.1532  -6.1257
     4.2571   4.7174   5.1574   6.1171   6.3348   6.5908

     occupation numbers 
     1.0000   1.0000   1.0000   1.0000   1.0000   1.0000   1.0000   1.0000
     0.0000   0.0000   0.0000   0.0000   0.0000   0.0000

          k = 0.0667 0.3464 0.0000 ( 11910 PWs)   bands (ev):

   -18.3781 -18.2857  -9.7137  -9.6693  -6.8200  -6.7910  -6.3696  -5.6888
     4.7209   5.0134   5.3907   5.8810   6.3288   7.2661

     occupation numbers 
     1.0000   1.0000   1.0000   1.0000   1.0000   1.0000   1.0000   1.0000
     0.0000   0.0000   0.0000   0.0000   0.0000   0.0000

          k = 0.0667 0.4234 0.0000 ( 11938 PWs)   bands (ev):

   -17.3605 -17.2746 -11.4429 -11.3900  -7.3271  -7.2971  -5.2259  -4.6083
     2.8917   3.2509   6.7695   7.1674   7.3076   7.4011

     occupation numbers 
     1.0000   1.0000   1.0000   1.0000   1.0000   1.0000   1.0000   1.0000
     0.0000   0.0000   0.0000   0.0000   0.0000   0.0000

          k = 0.0667 0.5004 0.0000 ( 11920 PWs)   bands (ev):

   -16.1818 -16.1046 -13.0706 -13.0110  -7.6418  -7.6115  -4.0412  -3.5568
     1.3194   1.6844   7.0456   7.1891   8.4763   8.9723

     occupation numbers 
     1.0000   1.0000   1.0000   1.0000   1.0000   1.0000   1.0000   1.0000
     0.0000   0.0000   0.0000   0.0000   0.0000   0.0000

          k = 0.0667 0.5774 0.0000 ( 11913 PWs)   bands (ev):

   -15.1982 -15.1538 -14.1797 -14.1434  -7.7484  -7.7178  -3.3533  -3.0803
     0.6298   0.8963   6.9919   7.1419  10.3019  10.3953

     occupation numbers 
     1.0000   1.0000   1.0000   1.0000   1.0000   1.0000   1.0000   1.0000
     0.0000   0.0000   0.0000   0.0000   0.0000   0.0000

          k = 0.0667-0.5004 0.0000 ( 11920 PWs)   bands (ev):

   -16.1818 -16.1046 -13.0706 -13.0110  -7.6418  -7.6114  -4.0412  -3.5568
     1.3194   1.6844   7.0456   7.1891   8.4763   8.9723

     occupation numbers 
     1.0000   1.0000   1.0000   1.0000   1.0000   1.0000   1.0000   1.0000
     0.0000   0.0000   0.0000   0.0000   0.0000   0.0000

          k = 0.0667-0.4234 0.0000 ( 11938 PWs)   bands (ev):

   -17.3605 -17.2746 -11.4429 -11.3900  -7.3271  -7.2971  -5.2259  -4.6083
     2.8917   3.2509   6.7694   7.1675   7.3077   7.4011

     occupation numbers 
     1.0000   1.0000   1.0000   1.0000   1.0000   1.0000   1.0000   1.0000
     0.0000   0.0000   0.0000   0.0000   0.0000   0.0000

          k = 0.0667-0.3464 0.0000 ( 11910 PWs)   bands (ev):

   -18.3781 -18.2857  -9.7136  -9.6693  -6.8201  -6.7909  -6.3696  -5.6888
     4.7209   5.0134   5.3907   5.8810   6.3288   7.2657

     occupation numbers 
     1.0000   1.0000   1.0000   1.0000   1.0000   1.0000   1.0000   1.0000
     0.0000   0.0000   0.0000   0.0000   0.0000   0.0000

          k = 0.0667-0.2694 0.0000 ( 11880 PWs)   bands (ev):

   -19.2055 -19.1078  -7.9842  -7.9488  -7.3379  -6.6199  -6.1534  -6.1256
     4.2571   4.7174   5.1574   6.1171   6.3348   6.5905

     occupation numbers 
     1.0000   1.0000   1.0000   1.0000   1.0000   1.0000   1.0000   1.0000
     0.0000   0.0000   0.0000   0.0000   0.0000   0.0000

          k = 0.0667-0.1925 0.0000 ( 11832 PWs)   bands (ev):

   -19.8323 -19.7306  -8.0850  -7.3436  -6.3924  -6.3651  -5.3896  -5.3638
     3.4059   3.8641   4.2798   5.2524   5.5163   6.8393

     occupation numbers 
     1.0000   1.0000   1.0000   1.0000   1.0000   1.0000   1.0000   1.0000
     0.0000   0.0000   0.0000   0.0000   0.0000   0.0000

          k = 0.0667-0.1155 0.0000 ( 11813 PWs)   bands (ev):

   -20.2528 -20.1484  -8.5909  -7.8351  -5.1365  -5.1138  -4.6570  -4.6328
     2.8368   3.2916   3.6943   4.6711   4.9554   6.3038

     occupation numbers 
     1.0000   1.0000   1.0000   1.0000   1.0000   1.0000   1.0000   1.0000
     0.0000   0.0000   0.0000   0.0000   0.0000   0.0000

          k = 0.0667-0.0385 0.0000 ( 11791 PWs)   bands (ev):

   -20.4638 -20.3580  -8.8458  -8.0833  -4.4090  -4.3855  -4.2080  -4.1844
     2.5521   3.0049   3.4015   4.3802   4.6743   6.0335

     occupation numbers 
     1.0000   1.0000   1.0000   1.0000   1.0000   1.0000   1.0000   1.0000
     0.0000   0.0000   0.0000   0.0000   0.0000   0.0000

          k = 0.1333 0.0770 0.0000 ( 11788 PWs)   bands (ev):

   -20.1475 -20.0437  -8.4639  -7.7117  -5.5437  -5.5154  -4.7773  -4.7536
     2.9790   3.4347   3.8406   4.8164   5.0954   6.4369

     occupation numbers 
     1.0000   1.0000   1.0000   1.0000   1.0000   1.0000   1.0000   1.0000
     0.0000   0.0000   0.0000   0.0000   0.0000   0.0000

          k = 0.1333 0.1540 0.0000 ( 11832 PWs)   bands (ev):

   -19.8323 -19.7306  -8.0851  -7.3436  -6.3926  -6.3641  -5.3892  -5.3650
     3.4059   3.8640   4.2798   5.2524   5.5163   6.8393

     occupation numbers 
     1.0000   1.0000   1.0000   1.0000   1.0000   1.0000   1.0000   1.0000
     0.0000   0.0000   0.0000   0.0000   0.0000   0.0000

          k = 0.1333 0.2309 0.0000 ( 11879 PWs)   bands (ev):

   -19.3097 -19.2114  -7.4962  -7.4694  -7.4601  -6.7384  -6.3571  -6.3328
     4.1165   4.5781   5.0117   5.9784   6.2161   6.9022

     occupation numbers 
     1.0000   1.0000   1.0000   1.0000   1.0000   1.0000   1.0000   1.0000
     0.0000   0.0000   0.0000   0.0000   0.0000   0.0000

          k = 0.1333 0.3079 0.0000 ( 11929 PWs)   bands (ev):

   -18.5844 -18.4907  -8.8989  -8.8646  -7.2704  -7.2419  -6.6047  -5.9125
     5.1046   5.3106   5.5181   5.5862   6.0362   6.9922

     occupation numbers 
     1.0000   1.0000   1.0000   1.0000   1.0000   1.0000   1.0000   1.0000
     0.0000   0.0000   0.0000   0.0000   0.0000   0.0000

          k = 0.1333 0.3849 0.0000 ( 11925 PWs)   bands (ev):

   -17.6644 -17.5766 -10.5010 -10.4558  -7.9505  -7.9179  -5.5456  -4.9009
     3.6004   3.8725   6.3725   6.8453   7.3503   8.2717

     occupation numbers 
     1.0000   1.0000   1.0000   1.0000   1.0000   1.0000   1.0000   1.0000
     0.0000   0.0000   0.0000   0.0000   0.0000   0.0000

          k = 0.1333 0.4619 0.0000 ( 11927 PWs)   bands (ev):

   -16.5669 -16.4864 -12.1238 -12.0694  -8.3989  -8.3642  -4.3542  -3.7949
     1.9388   2.2640   7.8852   8.2900   8.4412   8.5542

     occupation numbers 
     1.0000   1.0000   1.0000   1.0000   1.0000   1.0000   1.0000   1.0000
     0.0000   0.0000   0.0000   0.0000   0.0000   0.0000

          k = 0.1333 0.5389 0.0000 ( 11935 PWs)   bands (ev):

   -15.3673 -15.3004 -13.5973 -13.5414  -8.6229  -8.5873  -3.2807  -2.9177
     0.7346   0.9947   8.2446   8.4219   9.6741  10.0877

     occupation numbers 
     1.0000   1.0000   1.0000   1.0000   1.0000   1.0000   1.0000   1.0000
     0.0000   0.0000   0.0000   0.0000   0.0000   0.0000

          k = 0.1333 0.6158 0.0000 ( 11935 PWs)   bands (ev):

   -15.3673 -15.3004 -13.5973 -13.5414  -8.6229  -8.5873  -3.2807  -2.9177
     0.7346   0.9947   8.2446   8.4219   9.6741  10.0877

     occupation numbers 
     1.0000   1.0000   1.0000   1.0000   1.0000   1.0000   1.0000   1.0000
     0.0000   0.0000   0.0000   0.0000   0.0000   0.0000

          k = 0.1333-0.4619 0.0000 ( 11927 PWs)   bands (ev):

   -16.5669 -16.4864 -12.1238 -12.0694  -8.3990  -8.3642  -4.3542  -3.7949
     1.9388   2.2640   7.8852   8.2901   8.4412   8.5543

     occupation numbers 
     1.0000   1.0000   1.0000   1.0000   1.0000   1.0000   1.0000   1.0000
     0.0000   0.0000   0.0000   0.0000   0.0000   0.0000

          k = 0.1333-0.3849 0.0000 ( 11925 PWs)   bands (ev):

   -17.6644 -17.5766 -10.5010 -10.4559  -7.9506  -7.9177  -5.5456  -4.9009
     3.6004   3.8725   6.3725   6.8453   7.3503   8.2715

     occupation numbers 
     1.0000   1.0000   1.0000   1.0000   1.0000   1.0000   1.0000   1.0000
     0.0000   0.0000   0.0000   0.0000   0.0000   0.0000

          k = 0.1333-0.3079 0.0000 ( 11929 PWs)   bands (ev):

   -18.5844 -18.4907  -8.8987  -8.8649  -7.2707  -7.2416  -6.6047  -5.9125
     5.1046   5.3106   5.5180   5.5862   6.0361   6.9922

     occupation numbers 
     1.0000   1.0000   1.0000   1.0000   1.0000   1.0000   1.0000   1.0000
     0.0000   0.0000   0.0000   0.0000   0.0000   0.0000

          k = 0.1333-0.2309 0.0000 ( 11879 PWs)   bands (ev):

   -19.3097 -19.2114  -7.4958  -7.4699  -7.4601  -6.7384  -6.3577  -6.3322
     4.1165   4.5781   5.0117   5.9784   6.2160   6.9022

     occupation numbers 
     1.0000   1.0000   1.0000   1.0000   1.0000   1.0000   1.0000   1.0000
     0.0000   0.0000   0.0000   0.0000   0.0000   0.0000

          k = 0.1333-0.1540 0.0000 ( 11832 PWs)   bands (ev):

   -19.8323 -19.7306  -8.0851  -7.3436  -6.3922  -6.3647  -5.3898  -5.3643
     3.4059   3.8640   4.2798   5.2524   5.5164   6.8393

     occupation numbers 
     1.0000   1.0000   1.0000   1.0000   1.0000   1.0000   1.0000   1.0000
     0.0000   0.0000   0.0000   0.0000   0.0000   0.0000

          k = 0.1333-0.0770 0.0000 ( 11788 PWs)   bands (ev):

   -20.1475 -20.0437  -8.4639  -7.7117  -5.5433  -5.5160  -4.7779  -4.7529
     2.9790   3.4347   3.8406   4.8165   5.0954   6.4370

     occupation numbers 
     1.0000   1.0000   1.0000   1.0000   1.0000   1.0000   1.0000   1.0000
     0.0000   0.0000   0.0000   0.0000   0.0000   0.0000

          k = 0.1333 0.0000 0.0000 ( 11813 PWs)   bands (ev):

   -20.2528 -20.1484  -8.5909  -7.8351  -5.1367  -5.1121  -4.6567  -4.6346
     2.8368   3.2916   3.6943   4.6712   4.9554   6.3036

     occupation numbers 
     1.0000   1.0000   1.0000   1.0000   1.0000   1.0000   1.0000   1.0000
     0.0000   0.0000   0.0000   0.0000   0.0000   0.0000

          k = 0.2000 0.1155 0.0000 ( 11848 PWs)   bands (ev):

   -19.6228 -19.5224  -7.8346  -7.1040  -7.0983  -7.0656  -5.4900  -5.4648
     3.6894   4.1488   4.5723   5.5418   5.7918   7.0697

     occupation numbers 
     1.0000   1.0000   1.0000   1.0000   1.0000   1.0000   1.0000   1.0000
     0.0000   0.0000   0.0000   0.0000   0.0000   0.0000

          k = 0.2000 0.1925 0.0000 ( 11880 PWs)   bands (ev):

   -19.2055 -19.1078  -7.9843  -7.9480  -7.3380  -6.6200  -6.1532  -6.1266
     4.2571   4.7174   5.1574   6.1171   6.3348   6.5906

     occupation numbers 
     1.0000   1.0000   1.0000   1.0000   1.0000   1.0000   1.0000   1.0000
     0.0000   0.0000   0.0000   0.0000   0.0000   0.0000

          k = 0.2000 0.2694 0.0000 ( 11929 PWs)   bands (ev):

   -18.5844 -18.4907  -8.8989  -8.8642  -7.2704  -7.2425  -6.6047  -5.9126
     5.1046   5.3107   5.5181   5.5863   6.0361   6.9922

     occupation numbers 
     1.0000   1.0000   1.0000   1.0000   1.0000   1.0000   1.0000   1.0000
     0.0000   0.0000   0.0000   0.0000   0.0000   0.0000

          k = 0.2000 0.3464 0.0000 ( 11953 PWs)   bands (ev):

   -17.7663 -17.6778  -9.9132  -9.8824  -8.4488  -8.4216  -5.6539  -5.0007
     3.9073   4.1098   6.2333   6.6943   7.2041   8.1371

     occupation numbers 
     1.0000   1.0000   1.0000   1.0000   1.0000   1.0000   1.0000   1.0000
     0.0000   0.0000   0.0000   0.0000   0.0000   0.0000

          k = 0.2000 0.4234 0.0000 ( 11949 PWs)   bands (ev):

   -16.7642 -16.6822 -11.2066 -11.1649  -9.2759  -9.2418  -4.5250  -3.9324
     2.4041   2.6443   7.6219   8.0599   8.6580   9.4117

     occupation numbers 
     1.0000   1.0000   1.0000   1.0000   1.0000   1.0000   1.0000   1.0000
     0.0000   0.0000   0.0000   0.0000   0.0000   0.0000

          k = 0.2000 0.5004 0.0000 ( 11953 PWs)   bands (ev):

   -15.6107 -15.5375 -12.6443 -12.5915  -9.7068  -9.6673  -3.3282  -2.8513
     1.0030   1.2591   9.2336   9.5271   9.9926  10.1021

     occupation numbers 
     1.0000   1.0000   1.0000   1.0000   1.0000   1.0000   1.0000   1.0000
     0.0000   0.0000   0.0000   0.0000   0.0000   0.0000

          k = 0.2000 0.5774 0.0000 ( 11949 PWs)   bands (ev):

   -14.6577 -14.6151 -13.6821 -13.6498  -9.8409  -9.7999  -2.5824  -2.3154
     0.3593   0.4424   9.8530  10.0970  10.4371  10.5435

     occupation numbers 
     1.0000   1.0000   1.0000   1.0000   1.0000   1.0000   1.0000   1.0000
     0.0000   0.0000   0.0000   0.0000   0.0000   0.0000

          k = 0.2000 0.6543 0.0000 ( 11953 PWs)   bands (ev):

   -15.6107 -15.5375 -12.6443 -12.5915  -9.7069  -9.6673  -3.3282  -2.8513
     1.0030   1.2591   9.2336   9.5271   9.9926  10.1028

     occupation numbers 
     1.0000   1.0000   1.0000   1.0000   1.0000   1.0000   1.0000   1.0000
     0.0000   0.0000   0.0000   0.0000   0.0000   0.0000

          k = 0.2000-0.4234 0.0000 ( 11949 PWs)   bands (ev):

   -16.7642 -16.6822 -11.2065 -11.1651  -9.2760  -9.2416  -4.5250  -3.9324
     2.4042   2.6443   7.6219   8.0599   8.6580   9.4118

     occupation numbers 
     1.0000   1.0000   1.0000   1.0000   1.0000   1.0000   1.0000   1.0000
     0.0000   0.0000   0.0000   0.0000   0.0000   0.0000

          k = 0.2000-0.3464 0.0000 ( 11953 PWs)   bands (ev):

   -17.7663 -17.6778  -9.9129  -9.8827  -8.4492  -8.4212  -5.6539  -5.0007
     3.9073   4.1097   6.2333   6.6943   7.2042   8.1371

     occupation numbers 
     1.0000   1.0000   1.0000   1.0000   1.0000   1.0000   1.0000   1.0000
     0.0000   0.0000   0.0000   0.0000   0.0000   0.0000

          k = 0.2000-0.2694 0.0000 ( 11929 PWs)   bands (ev):

   -18.5844 -18.4907  -8.8986  -8.8646  -7.2708  -7.2420  -6.6047  -5.9126
     5.1046   5.3107   5.5181   5.5862   6.0362   6.9922

     occupation numbers 
     1.0000   1.0000   1.0000   1.0000   1.0000   1.0000   1.0000   1.0000
     0.0000   0.0000   0.0000   0.0000   0.0000   0.0000

          k = 0.2000-0.1925 0.0000 ( 11880 PWs)   bands (ev):

   -19.2055 -19.1078  -7.9840  -7.9484  -7.3380  -6.6200  -6.1536  -6.1261
     4.2571   4.7174   5.1574   6.1171   6.3348   6.5909

     occupation numbers 
     1.0000   1.0000   1.0000   1.0000   1.0000   1.0000   1.0000   1.0000
     0.0000   0.0000   0.0000   0.0000   0.0000   0.0000

          k = 0.2000-0.1155 0.0000 ( 11848 PWs)   bands (ev):

   -19.6228 -19.5224  -7.8346  -7.1039  -7.0982  -7.0660  -5.4904  -5.4643
     3.6894   4.1488   4.5723   5.5418   5.7918   7.0704

     occupation numbers 
     1.0000   1.0000   1.0000   1.0000   1.0000   1.0000   1.0000   1.0000
     0.0000   0.0000   0.0000   0.0000   0.0000   0.0000

          k = 0.2000-0.0385 0.0000 ( 11832 PWs)   bands (ev):

   -19.8323 -19.7306  -8.0851  -7.3436  -6.3922  -6.3639  -5.3898  -5.3652
     3.4059   3.8640   4.2798   5.2524   5.5163   6.8392

     occupation numbers 
     1.0000   1.0000   1.0000   1.0000   1.0000   1.0000   1.0000   1.0000
     0.0000   0.0000   0.0000   0.0000   0.0000   0.0000

          k = 0.2000 0.0385 0.0000 ( 11832 PWs)   bands (ev):

   -19.8323 -19.7306  -8.0851  -7.3436  -6.3924  -6.3636  -5.3895  -5.3656
     3.4059   3.8640   4.2798   5.2524   5.5163   6.8392

     occupation numbers 
     1.0000   1.0000   1.0000   1.0000   1.0000   1.0000   1.0000   1.0000
     0.0000   0.0000   0.0000   0.0000   0.0000   0.0000

          k = 0.2667 0.1540 0.0000 ( 11876 PWs)   bands (ev):

   -18.8939 -18.7982  -8.8440  -8.8022  -6.9719  -6.2674  -6.1835  -6.1572
     4.6787   5.1208   5.5897   5.8013   6.0135   6.5659

     occupation numbers 
     1.0000   1.0000   1.0000   1.0000   1.0000   1.0000   1.0000   1.0000
     0.0000   0.0000   0.0000   0.0000   0.0000   0.0000

          k = 0.2667 0.2309 0.0000 ( 11910 PWs)   bands (ev):

   -18.3781 -18.2857  -9.7136  -9.6688  -6.8200  -6.7918  -6.3697  -5.6889
     4.7211   5.0136   5.3907   5.8810   6.3288   7.2660

     occupation numbers 
     1.0000   1.0000   1.0000   1.0000   1.0000   1.0000   1.0000   1.0000
     0.0000   0.0000   0.0000   0.0000   0.0000   0.0000

          k = 0.2667 0.3079 0.0000 ( 11925 PWs)   bands (ev):

   -17.6644 -17.5766 -10.5009 -10.4554  -7.9505  -7.9185  -5.5456  -4.9009
     3.6006   3.8727   6.3725   6.8453   7.3503   8.2700

     occupation numbers 
     1.0000   1.0000   1.0000   1.0000   1.0000   1.0000   1.0000   1.0000
     0.0000   0.0000   0.0000   0.0000   0.0000   0.0000

          k = 0.2667 0.3849 0.0000 ( 11949 PWs)   bands (ev):

   -16.7642 -16.6822 -11.2066 -11.1646  -9.2759  -9.2422  -4.5250  -3.9325
     2.4042   2.6444   7.6219   8.0599   8.6580   9.4117

     occupation numbers 
     1.0000   1.0000   1.0000   1.0000   1.0000   1.0000   1.0000   1.0000
     0.0000   0.0000   0.0000   0.0000   0.0000   0.0000

          k = 0.2667 0.4619 0.0000 ( 11961 PWs)   bands (ev):

   -15.7002 -15.6256 -11.9850 -11.9500 -10.4050 -10.3752  -3.3582  -2.8417
     1.1531   1.3887   9.0972   9.3516   9.9385  10.2977

     occupation numbers 
     1.0000   1.0000   1.0000   1.0000   1.0000   1.0000   1.0000   1.0000
     0.0000   0.0000   0.0000   0.0000   0.0000   0.0000

          k = 0.2667 0.5389 0.0000 ( 11948 PWs)   bands (ev):

   -14.5506 -14.4889 -13.0407 -12.9973 -10.9522 -10.9148  -2.2058  -1.8369
     0.0336   0.2378   9.8569   9.9202  10.7557  11.5593

     occupation numbers 
     1.0000   1.0000   1.0000   1.0000   1.0000   1.0000   1.0000   1.0000
     0.0000   0.0000   0.0000   0.0000   0.0000   0.0000

          k = 0.2667 0.6158 0.0000 ( 11948 PWs)   bands (ev):

   -14.5506 -14.4889 -13.0406 -12.9973 -10.9523 -10.9148  -2.2058  -1.8368
     0.0336   0.2378   9.8569   9.9202  10.7557  11.5593

     occupation numbers 
     1.0000   1.0000   1.0000   1.0000   1.0000   1.0000   1.0000   1.0000
     0.0000   0.0000   0.0000   0.0000   0.0000   0.0000

          k = 0.2667 0.6928 0.0000 ( 11961 PWs)   bands (ev):

   -15.7002 -15.6256 -11.9848 -11.9502 -10.4052 -10.3749  -3.3582  -2.8417
     1.1532   1.3886   9.0972   9.3516   9.9385  10.2977

     occupation numbers 
     1.0000   1.0000   1.0000   1.0000   1.0000   1.0000   1.0000   1.0000
     0.0000   0.0000   0.0000   0.0000   0.0000   0.0000

          k = 0.2667-0.3849 0.0000 ( 11949 PWs)   bands (ev):

   -16.7642 -16.6822 -11.2064 -11.1649  -9.2761  -9.2419  -4.5250  -3.9325
     2.4043   2.6443   7.6219   8.0599   8.6581   9.4117

     occupation numbers 
     1.0000   1.0000   1.0000   1.0000   1.0000   1.0000   1.0000   1.0000
     0.0000   0.0000   0.0000   0.0000   0.0000   0.0000

          k = 0.2667-0.3079 0.0000 ( 11925 PWs)   bands (ev):

   -17.6644 -17.5766 -10.5008 -10.4556  -7.9508  -7.9181  -5.5456  -4.9009
     3.6006   3.8726   6.3725   6.8453   7.3503   8.2720

     occupation numbers 
     1.0000   1.0000   1.0000   1.0000   1.0000   1.0000   1.0000   1.0000
     0.0000   0.0000   0.0000   0.0000   0.0000   0.0000

          k = 0.2667-0.2309 0.0000 ( 11910 PWs)   bands (ev):

   -18.3781 -18.2857  -9.7134  -9.6690  -6.8203  -6.7914  -6.3697  -5.6889
     4.7211   5.0136   5.3908   5.8810   6.3288   7.2646

     occupation numbers 
     1.0000   1.0000   1.0000   1.0000   1.0000   1.0000   1.0000   1.0000
     0.0000   0.0000   0.0000   0.0000   0.0000   0.0000

          k = 0.2667-0.1540 0.0000 ( 11876 PWs)   bands (ev):

   -18.8939 -18.7982  -8.8438  -8.8024  -6.9719  -6.2674  -6.1839  -6.1568
     4.6787   5.1208   5.5897   5.8013   6.0134   6.5657

     occupation numbers 
     1.0000   1.0000   1.0000   1.0000   1.0000   1.0000   1.0000   1.0000
     0.0000   0.0000   0.0000   0.0000   0.0000   0.0000

          k = 0.2667-0.0770 0.0000 ( 11880 PWs)   bands (ev):

   -19.2055 -19.1078  -7.9840  -7.9481  -7.3380  -6.6200  -6.1536  -6.1265
     4.2571   4.7174   5.1574   6.1171   6.3347   6.5907

     occupation numbers 
     1.0000   1.0000   1.0000   1.0000   1.0000   1.0000   1.0000   1.0000
     0.0000   0.0000   0.0000   0.0000   0.0000   0.0000

          k = 0.2667 0.0000 0.0000 ( 11879 PWs)   bands (ev):

   -19.3097 -19.2114  -7.4958  -7.4687  -7.4600  -6.7384  -6.3575  -6.3337
     4.1165   4.5781   5.0117   5.9784   6.2160   6.9025

     occupation numbers 
     1.0000   1.0000   1.0000   1.0000   1.0000   1.0000   1.0000   1.0000
     0.0000   0.0000   0.0000   0.0000   0.0000   0.0000

          k = 0.2667 0.0770 0.0000 ( 11880 PWs)   bands (ev):

   -19.2055 -19.1078  -7.9842  -7.9478  -7.3380  -6.6200  -6.1533  -6.1269
     4.2571   4.7174   5.1574   6.1171   6.3348   6.5914

     occupation numbers 
     1.0000   1.0000   1.0000   1.0000   1.0000   1.0000   1.0000   1.0000
     0.0000   0.0000   0.0000   0.0000   0.0000   0.0000

          k = 0.3333 0.1925 0.0000 ( 11914 PWs)   bands (ev):

   -17.9681 -17.8783 -10.6204 -10.5704  -6.7605  -6.7335  -5.9057  -5.2489
     3.8509   4.1983   5.9424   6.4339   6.8524   6.9253

     occupation numbers 
     1.0000   1.0000   1.0000   1.0000   1.0000   1.0000   1.0000   1.0000
     0.0000   0.0000   0.0000   0.0000   0.0000   0.0000

          k = 0.3333 0.2694 0.0000 ( 11938 PWs)   bands (ev):

   -17.3605 -17.2746 -11.4428 -11.3896  -7.3271  -7.2979  -5.2261  -4.6085
     2.8921   3.2512   6.7694   7.1673   7.3076   7.4008

     occupation numbers 
     1.0000   1.0000   1.0000   1.0000   1.0000   1.0000   1.0000   1.0000
     0.0000   0.0000   0.0000   0.0000   0.0000   0.0000

          k = 0.3333 0.3464 0.0000 ( 11927 PWs)   bands (ev):

   -16.5669 -16.4864 -12.1237 -12.0690  -8.3990  -8.3648  -4.3543  -3.7951
     1.9391   2.2644   7.8852   8.2899   8.4412   8.5540

     occupation numbers 
     1.0000   1.0000   1.0000   1.0000   1.0000   1.0000   1.0000   1.0000
     0.0000   0.0000   0.0000   0.0000   0.0000   0.0000

          k = 0.3333 0.4234 0.0000 ( 11953 PWs)   bands (ev):

   -15.6108 -15.5375 -12.6442 -12.5911  -9.7069  -9.6678  -3.3283  -2.8515
     1.0033   1.2594   9.2336   9.5272   9.9927  10.1025

     occupation numbers 
     1.0000   1.0000   1.0000   1.0000   1.0000   1.0000   1.0000   1.0000
     0.0000   0.0000   0.0000   0.0000   0.0000   0.0000

          k = 0.3333 0.5004 0.0000 ( 11948 PWs)   bands (ev):

   -14.5506 -14.4890 -13.0406 -12.9968 -10.9522 -10.9152  -2.2060  -1.8371
     0.0339   0.2381   9.8569   9.9201  10.7557  11.5593

     occupation numbers 
     1.0000   1.0000   1.0000   1.0000   1.0000   1.0000   1.0000   1.0000
     0.0000   0.0000   0.0000   0.0000   0.0000   0.0000

          k = 0.3333 0.5774 0.0000 ( 11919 PWs)   bands (ev):

   -13.5960 -13.5722 -13.5494 -13.5285 -11.5688 -11.5458  -1.1764  -0.9398
    -0.9134  -0.6653   9.6778   9.7185  11.7176  12.0637

     occupation numbers 
     1.0000   1.0000   1.0000   1.0000   1.0000   1.0000   0.9953   0.5554
     0.4460   0.0033   0.0000   0.0000   0.0000   0.0000

          k = 0.3333 0.6543 0.0000 ( 11948 PWs)   bands (ev):

   -14.5507 -14.4890 -13.0404 -12.9970 -10.9524 -10.9150  -2.2060  -1.8371
     0.0339   0.2380   9.8568   9.9201  10.7557  11.5593

     occupation numbers 
     1.0000   1.0000   1.0000   1.0000   1.0000   1.0000   1.0000   1.0000
     0.0000   0.0000   0.0000   0.0000   0.0000   0.0000

          k = 0.3333 0.7313 0.0000 ( 11953 PWs)   bands (ev):

   -15.6108 -15.5375 -12.6441 -12.5912  -9.7071  -9.6676  -3.3283  -2.8515
     1.0033   1.2593   9.2336   9.5272   9.9923  10.1033

     occupation numbers 
     1.0000   1.0000   1.0000   1.0000   1.0000   1.0000   1.0000   1.0000
     0.0000   0.0000   0.0000   0.0000   0.0000   0.0000

          k = 0.3333-0.3464 0.0000 ( 11927 PWs)   bands (ev):

   -16.5669 -16.4864 -12.1236 -12.0691  -8.3992  -8.3646  -4.3543  -3.7951
     1.9391   2.2643   7.8852   8.2900   8.4411   8.5540

     occupation numbers 
     1.0000   1.0000   1.0000   1.0000   1.0000   1.0000   1.0000   1.0000
     0.0000   0.0000   0.0000   0.0000   0.0000   0.0000

          k = 0.3333-0.2694 0.0000 ( 11938 PWs)   bands (ev):

   -17.3605 -17.2746 -11.4427 -11.3897  -7.3273  -7.2976  -5.2261  -4.6084
     2.8921   3.2511   6.7694   7.1673   7.3073   7.4008

     occupation numbers 
     1.0000   1.0000   1.0000   1.0000   1.0000   1.0000   1.0000   1.0000
     0.0000   0.0000   0.0000   0.0000   0.0000   0.0000

          k = 0.3333-0.1925 0.0000 ( 11914 PWs)   bands (ev):

   -17.9681 -17.8783 -10.6203 -10.5706  -6.7608  -6.7331  -5.9057  -5.2489
     3.8509   4.1983   5.9424   6.4339   6.8522   6.9255

     occupation numbers 
     1.0000   1.0000   1.0000   1.0000   1.0000   1.0000   1.0000   1.0000
     0.0000   0.0000   0.0000   0.0000   0.0000   0.0000

          k = 0.3333-0.1155 0.0000 ( 11910 PWs)   bands (ev):

   -18.3781 -18.2856  -9.7134  -9.6689  -6.8203  -6.7916  -6.3697  -5.6889
     4.7212   5.0137   5.3907   5.8810   6.3288   7.2659

     occupation numbers 
     1.0000   1.0000   1.0000   1.0000   1.0000   1.0000   1.0000   1.0000
     0.0000   0.0000   0.0000   0.0000   0.0000   0.0000

          k = 0.3333-0.0385 0.0000 ( 11929 PWs)   bands (ev):

   -18.5844 -18.4907  -8.8985  -8.8640  -7.2708  -7.2427  -6.6048  -5.9126
     5.1046   5.3109   5.5184   5.5862   6.0362   6.9922

     occupation numbers 
     1.0000   1.0000   1.0000   1.0000   1.0000   1.0000   1.0000   1.0000
     0.0000   0.0000   0.0000   0.0000   0.0000   0.0000

          k = 0.3333 0.0385 0.0000 ( 11929 PWs)   bands (ev):

   -18.5844 -18.4907  -8.8986  -8.8638  -7.2706  -7.2429  -6.6048  -5.9126
     5.1046   5.3108   5.5184   5.5862   6.0362   6.9921

     occupation numbers 
     1.0000   1.0000   1.0000   1.0000   1.0000   1.0000   1.0000   1.0000
     0.0000   0.0000   0.0000   0.0000   0.0000   0.0000

          k = 0.3333 0.1155 0.0000 ( 11910 PWs)   bands (ev):

   -18.3781 -18.2856  -9.7135  -9.6687  -6.8200  -6.7919  -6.3697  -5.6889
     4.7212   5.0137   5.3907   5.8811   6.3289   7.2640

     occupation numbers 
     1.0000   1.0000   1.0000   1.0000   1.0000   1.0000   1.0000   1.0000
     0.0000   0.0000   0.0000   0.0000   0.0000   0.0000

          k = 0.4000 0.2309 0.0000 ( 11910 PWs)   bands (ev):

   -16.8612 -16.7787 -12.3304 -12.2727  -7.1676  -7.1401  -4.7128  -4.1457
     2.0722   2.4656   6.6446   6.7722   7.5231   8.0115

     occupation numbers 
     1.0000   1.0000   1.0000   1.0000   1.0000   1.0000   1.0000   1.0000
     0.0000   0.0000   0.0000   0.0000   0.0000   0.0000

          k = 0.4000 0.3079 0.0000 ( 11920 PWs)   bands (ev):

   -16.1818 -16.1047 -13.0705 -13.0106  -7.6418  -7.6122  -4.0414  -3.5571
     1.3199   1.6849   7.0455   7.1889   8.4763   8.9723

     occupation numbers 
     1.0000   1.0000   1.0000   1.0000   1.0000   1.0000   1.0000   1.0000
     0.0000   0.0000   0.0000   0.0000   0.0000   0.0000

          k = 0.4000 0.3849 0.0000 ( 11935 PWs)   bands (ev):

   -15.3673 -15.3006 -13.5971 -13.5409  -8.6230  -8.5880  -3.2810  -2.9181
     0.7351   0.9953   8.2444   8.4217   9.6741  10.0877

     occupation numbers 
     1.0000   1.0000   1.0000   1.0000   1.0000   1.0000   1.0000   1.0000
     0.0000   0.0000   0.0000   0.0000   0.0000   0.0000

          k = 0.4000 0.4619 0.0000 ( 11949 PWs)   bands (ev):

   -14.6578 -14.6156 -13.6821 -13.6488  -9.8409  -9.8004  -2.5827  -2.3159
     0.3596   0.4433   9.8528  10.0969  10.4370  10.5433

     occupation numbers 
     1.0000   1.0000   1.0000   1.0000   1.0000   1.0000   1.0000   1.0000
     0.0000   0.0000   0.0000   0.0000   0.0000   0.0000

          k = 0.4000 0.5389 0.0000 ( 11948 PWs)   bands (ev):

   -14.5507 -14.4891 -13.0405 -12.9966 -10.9523 -10.9154  -2.2061  -1.8373
     0.0341   0.2384   9.8569   9.9199  10.7557  11.5595

     occupation numbers 
     1.0000   1.0000   1.0000   1.0000   1.0000   1.0000   1.0000   1.0000
     0.0000   0.0000   0.0000   0.0000   0.0000   0.0000

          k = 0.4000 0.6158 0.0000 ( 11948 PWs)   bands (ev):

   -14.5507 -14.4890 -13.0403 -12.9968 -10.9524 -10.9153  -2.2061  -1.8373
     0.0341   0.2383   9.8568   9.9200  10.7557  11.5595

     occupation numbers 
     1.0000   1.0000   1.0000   1.0000   1.0000   1.0000   1.0000   1.0000
     0.0000   0.0000   0.0000   0.0000   0.0000   0.0000

          k = 0.4000 0.6928 0.0000 ( 11949 PWs)   bands (ev):

   -14.6579 -14.6154 -13.6818 -13.6492  -9.8411  -9.8002  -2.5828  -2.3158
     0.3597   0.4431   9.8528  10.0969  10.4370  10.5433

     occupation numbers 
     1.0000   1.0000   1.0000   1.0000   1.0000   1.0000   1.0000   1.0000
     0.0000   0.0000   0.0000   0.0000   0.0000   0.0000

          k = 0.4000 0.7698 0.0000 ( 11935 PWs)   bands (ev):

   -15.3673 -15.3005 -13.5970 -13.5410  -8.6232  -8.5877  -3.2810  -2.9180
     0.7351   0.9952   8.2444   8.4218   9.6741  10.0877

     occupation numbers 
     1.0000   1.0000   1.0000   1.0000   1.0000   1.0000   1.0000   1.0000
     0.0000   0.0000   0.0000   0.0000   0.0000   0.0000

          k = 0.4000-0.3079 0.0000 ( 11920 PWs)   bands (ev):

   -16.1818 -16.1046 -13.0704 -13.0107  -7.6421  -7.6119  -4.0414  -3.5570
     1.3199   1.6848   7.0455   7.1890   8.4763   8.9723

     occupation numbers 
     1.0000   1.0000   1.0000   1.0000   1.0000   1.0000   1.0000   1.0000
     0.0000   0.0000   0.0000   0.0000   0.0000   0.0000

          k = 0.4000-0.2309 0.0000 ( 11910 PWs)   bands (ev):

   -16.8612 -16.7787 -12.3303 -12.2728  -7.1678  -7.1398  -4.7128  -4.1456
     2.0721   2.4655   6.6445   6.7723   7.5231   8.0115

     occupation numbers 
     1.0000   1.0000   1.0000   1.0000   1.0000   1.0000   1.0000   1.0000
     0.0000   0.0000   0.0000   0.0000   0.0000   0.0000

          k = 0.4000-0.1540 0.0000 ( 11938 PWs)   bands (ev):

   -17.3605 -17.2746 -11.4427 -11.3897  -7.3273  -7.2977  -5.2261  -4.6085
     2.8921   3.2513   6.7694   7.1672   7.3073   7.4008

     occupation numbers 
     1.0000   1.0000   1.0000   1.0000   1.0000   1.0000   1.0000   1.0000
     0.0000   0.0000   0.0000   0.0000   0.0000   0.0000

          k = 0.4000-0.0770 0.0000 ( 11925 PWs)   bands (ev):

   -17.6644 -17.5765 -10.5007 -10.4554  -7.9508  -7.9185  -5.5457  -4.9010
     3.6008   3.8729   6.3725   6.8453   7.3503   8.2718

     occupation numbers 
     1.0000   1.0000   1.0000   1.0000   1.0000   1.0000   1.0000   1.0000
     0.0000   0.0000   0.0000   0.0000   0.0000   0.0000

          k = 0.4000 0.0000 0.0000 ( 11953 PWs)   bands (ev):

   -17.7663 -17.6778  -9.9129  -9.8818  -8.4491  -8.4223  -5.6539  -5.0008
     3.9075   4.1101   6.2332   6.6942   7.2042   8.1370

     occupation numbers 
     1.0000   1.0000   1.0000   1.0000   1.0000   1.0000   1.0000   1.0000
     0.0000   0.0000   0.0000   0.0000   0.0000   0.0000

          k = 0.4000 0.0770 0.0000 ( 11925 PWs)   bands (ev):

   -17.6644 -17.5765 -10.5008 -10.4552  -7.9506  -7.9187  -5.5457  -4.9010
     3.6008   3.8729   6.3725   6.8453   7.3503   8.2719

     occupation numbers 
     1.0000   1.0000   1.0000   1.0000   1.0000   1.0000   1.0000   1.0000
     0.0000   0.0000   0.0000   0.0000   0.0000   0.0000

          k = 0.4000 0.1540 0.0000 ( 11938 PWs)   bands (ev):

   -17.3605 -17.2746 -11.4428 -11.3895  -7.3271  -7.2980  -5.2261  -4.6085
     2.8921   3.2513   6.7694   7.1672   7.3077   7.4008

     occupation numbers 
     1.0000   1.0000   1.0000   1.0000   1.0000   1.0000   1.0000   1.0000
     0.0000   0.0000   0.0000   0.0000   0.0000   0.0000

          k = 0.4667 0.2694 0.0000 ( 11924 PWs)   bands (ev):

   -15.6459 -15.5773 -13.8505 -13.7919  -7.3770  -7.3494  -3.6579  -3.2950
     0.8273   1.1586   6.5414   6.6835   9.2930   9.8144

     occupation numbers 
     1.0000   1.0000   1.0000   1.0000   1.0000   1.0000   1.0000   1.0000
     0.0000   0.0000   0.0000   0.0000   0.0000   0.0000

          k = 0.4667 0.3464 0.0000 ( 11913 PWs)   bands (ev):

   -15.1983 -15.1542 -14.1796 -14.1425  -7.7484  -7.7186  -3.3536  -3.0808
     0.6303   0.8971   6.9918   7.1417  10.3019  10.3955

     occupation numbers 
     1.0000   1.0000   1.0000   1.0000   1.0000   1.0000   1.0000   1.0000
     0.0000   0.0000   0.0000   0.0000   0.0000   0.0000

          k = 0.4667 0.4234 0.0000 ( 11935 PWs)   bands (ev):

   -15.3673 -15.3006 -13.5971 -13.5408  -8.6230  -8.5880  -3.2810  -2.9181
     0.7351   0.9954   8.2444   8.4217   9.6741  10.0877

     occupation numbers 
     1.0000   1.0000   1.0000   1.0000   1.0000   1.0000   1.0000   1.0000
     0.0000   0.0000   0.0000   0.0000   0.0000   0.0000

          k = 0.4667 0.5004 0.0000 ( 11953 PWs)   bands (ev):

   -15.6108 -15.5375 -12.6442 -12.5910  -9.7070  -9.6679  -3.3284  -2.8516
     1.0035   1.2597   9.2336   9.5270   9.9926  10.1023

     occupation numbers 
     1.0000   1.0000   1.0000   1.0000   1.0000   1.0000   1.0000   1.0000
     0.0000   0.0000   0.0000   0.0000   0.0000   0.0000

          k = 0.4667 0.5774 0.0000 ( 11961 PWs)   bands (ev):

   -15.7002 -15.6256 -11.9848 -11.9495 -10.4052 -10.3757  -3.3584  -2.8419
     1.1535   1.3891   9.0972   9.3515   9.9383  10.2976

     occupation numbers 
     1.0000   1.0000   1.0000   1.0000   1.0000   1.0000   1.0000   1.0000
     0.0000   0.0000   0.0000   0.0000   0.0000   0.0000

          k = 0.4667 0.6543 0.0000 ( 11953 PWs)   bands (ev):

   -15.6108 -15.5375 -12.6441 -12.5911  -9.7071  -9.6678  -3.3284  -2.8516
     1.0035   1.2596   9.2336   9.5270   9.9927  10.1025

     occupation numbers 
     1.0000   1.0000   1.0000   1.0000   1.0000   1.0000   1.0000   1.0000
     0.0000   0.0000   0.0000   0.0000   0.0000   0.0000

          k = 0.4667 0.7313 0.0000 ( 11935 PWs)   bands (ev):

   -15.3673 -15.3005 -13.5970 -13.5410  -8.6232  -8.5878  -3.2811  -2.9181
     0.7351   0.9953   8.2444   8.4217   9.6741  10.0877

     occupation numbers 
     1.0000   1.0000   1.0000   1.0000   1.0000   1.0000   1.0000   1.0000
     0.0000   0.0000   0.0000   0.0000   0.0000   0.0000

          k = 0.4667 0.8083 0.0000 ( 11913 PWs)   bands (ev):

   -15.1984 -15.1541 -14.1794 -14.1428  -7.7486  -7.7183  -3.3536  -3.0807
     0.6303   0.8970   6.9918   7.1418  10.3018  10.3954

     occupation numbers 
     1.0000   1.0000   1.0000   1.0000   1.0000   1.0000   1.0000   1.0000
     0.0000   0.0000   0.0000   0.0000   0.0000   0.0000

          k = 0.4667-0.2694 0.0000 ( 11924 PWs)   bands (ev):

   -15.6459 -15.5773 -13.8503 -13.7920  -7.3773  -7.3491  -3.6579  -3.2950
     0.8273   1.1585   6.5414   6.6835   9.2930   9.8144

     occupation numbers 
     1.0000   1.0000   1.0000   1.0000   1.0000   1.0000   1.0000   1.0000
     0.0000   0.0000   0.0000   0.0000   0.0000   0.0000

          k = 0.4667-0.1925 0.0000 ( 11920 PWs)   bands (ev):

   -16.1818 -16.1046 -13.0704 -13.0107  -7.6421  -7.6119  -4.0414  -3.5571
     1.3199   1.6849   7.0455   7.1889   8.4763   8.9723

     occupation numbers 
     1.0000   1.0000   1.0000   1.0000   1.0000   1.0000   1.0000   1.0000
     0.0000   0.0000   0.0000   0.0000   0.0000   0.0000

          k = 0.4667-0.1155 0.0000 ( 11927 PWs)   bands (ev):

   -16.5669 -16.4864 -12.1236 -12.0690  -8.3992  -8.3647  -4.3544  -3.7952
     1.9392   2.2645   7.8852   8.2898   8.4411   8.5540

     occupation numbers 
     1.0000   1.0000   1.0000   1.0000   1.0000   1.0000   1.0000   1.0000
     0.0000   0.0000   0.0000   0.0000   0.0000   0.0000

          k = 0.4667-0.0385 0.0000 ( 11949 PWs)   bands (ev):

   -16.7642 -16.6822 -11.2063 -11.1645  -9.2762  -9.2424  -4.5251  -3.9326
     2.4045   2.6447   7.6219   8.0599   8.6580   9.4117

     occupation numbers 
     1.0000   1.0000   1.0000   1.0000   1.0000   1.0000   1.0000   1.0000
     0.0000   0.0000   0.0000   0.0000   0.0000   0.0000

          k = 0.4667 0.0385 0.0000 ( 11949 PWs)   bands (ev):

   -16.7642 -16.6822 -11.2064 -11.1643  -9.2761  -9.2425  -4.5251  -3.9326
     2.4045   2.6447   7.6219   8.0599   8.6580   9.4116

     occupation numbers 
     1.0000   1.0000   1.0000   1.0000   1.0000   1.0000   1.0000   1.0000
     0.0000   0.0000   0.0000   0.0000   0.0000   0.0000

          k = 0.4667 0.1155 0.0000 ( 11927 PWs)   bands (ev):

   -16.5669 -16.4864 -12.1236 -12.0689  -8.3990  -8.3649  -4.3544  -3.7952
     1.9392   2.2645   7.8852   8.2898   8.4412   8.5539

     occupation numbers 
     1.0000   1.0000   1.0000   1.0000   1.0000   1.0000   1.0000   1.0000
     0.0000   0.0000   0.0000   0.0000   0.0000   0.0000

          k = 0.4667 0.1925 0.0000 ( 11920 PWs)   bands (ev):

   -16.1818 -16.1046 -13.0704 -13.0106  -7.6418  -7.6122  -4.0414  -3.5571
     1.3200   1.6850   7.0455   7.1889   8.4763   8.9723

     occupation numbers 
     1.0000   1.0000   1.0000   1.0000   1.0000   1.0000   1.0000   1.0000
     0.0000   0.0000   0.0000   0.0000   0.0000   0.0000

     the Fermi energy is    -0.9264 ev

!    total energy              =     -48.20753728 Ry
     estimated scf accuracy    <          2.0E-09 Ry
     smearing contrib. (-TS)   =      -0.00010233 Ry
     internal energy E=F+TS    =     -48.20743495 Ry

     The total energy is F=E-TS. E is the sum of the following terms:
     one-electron contribution =    -689.75502549 Ry
     hartree contribution      =     348.33897199 Ry
     xc contribution           =     -17.18429084 Ry
     ewald contribution        =     310.48048480 Ry
     DFT-D3 Dispersion         =      -0.01697521 Ry
     electric field correction =      -0.07060020 Ry

     convergence has been achieved in  10 iterations

     Forces acting on atoms (cartesian axes, Ry/au):

     atom    1 type  1   force =    -0.00005862    0.00000641    0.00052605
     atom    2 type  1   force =     0.00005957   -0.00000724   -0.00049744
     atom    3 type  1   force =     0.00006978    0.00014741    0.00047218
     atom    4 type  1   force =    -0.00007072   -0.00014658   -0.00050079
     The non-local contrib.  to forces
     atom    1 type  1   force =    -0.00003993    0.00000435   -0.00065125
     atom    2 type  1   force =     0.00003993   -0.00000471   -0.00294805
     atom    3 type  1   force =     0.00004722    0.00010082    0.00131971
     atom    4 type  1   force =    -0.00004921   -0.00009997   -0.00086314
     The ionic contribution  to forces
     atom    1 type  1   force =    -0.00020110    0.00002756  -15.03446629
     atom    2 type  1   force =     0.00020107   -0.00002740  -15.00810831
     atom    3 type  1   force =     0.00023594    0.00049966   15.00877783
     atom    4 type  1   force =    -0.00023591   -0.00049982   15.03379678
     The local contribution  to forces
     atom    1 type  1   force =     0.00017836   -0.00002503   15.02645539
     atom    2 type  1   force =    -0.00017823    0.00002459   15.00135689
     atom    3 type  1   force =    -0.00020946   -0.00044376  -15.01636352
     atom    4 type  1   force =     0.00020957    0.00044409  -15.04018588
     The core correction contribution to forces
     atom    1 type  1   force =     0.00000366   -0.00000047    0.00006865
     atom    2 type  1   force =    -0.00000366    0.00000047    0.00006673
     atom    3 type  1   force =    -0.00000432   -0.00000914   -0.00003091
     atom    4 type  1   force =     0.00000437    0.00000914   -0.00003345
     The Hubbard contrib.    to forces
     atom    1 type  1   force =     0.00000000    0.00000000    0.00000000
     atom    2 type  1   force =     0.00000000    0.00000000    0.00000000
     atom    3 type  1   force =     0.00000000    0.00000000    0.00000000
     atom    4 type  1   force =     0.00000000    0.00000000    0.00000000
     The SCF correction term to forces
     atom    1 type  1   force =    -0.00000008    0.00000009   -0.00005613
     atom    2 type  1   force =     0.00000007   -0.00000009   -0.00005620
     atom    3 type  1   force =     0.00000003    0.00000000   -0.00004043
     atom    4 type  1   force =    -0.00000000   -0.00000002   -0.00004042

     DFT-D3 dispersion contribution to forces:
     atom    1 type  1   force =     0.00000004   -0.00000000    0.00117518
     atom    2 type  1   force =    -0.00000004    0.00000000    0.00119100
     atom    3 type  1   force =    -0.00000004   -0.00000009   -0.00119099
     atom    4 type  1   force =     0.00000004    0.00000009   -0.00117519

     Total force =     0.001029     Total SCF correction =     0.000098

     DFT-D3 dispersion Force =     0.002366

     Writing all to output data dir /home/ubuntu/projects/Graphene-Band-Structure-Quantum-Espresso/outputs/field_0.001/PBE-d3/coupled/data/coupled.save/ :
     XML data file, charge density, pseudopotentials, collected wavefunctions

     init_run     :      2.05s CPU      2.21s WALL (       1 calls)
     electrons    :     49.89s CPU     50.18s WALL (       1 calls)
     forces       :      0.79s CPU      0.83s WALL (       1 calls)
     force_dftd3  :      0.11s CPU      0.11s WALL (       1 calls)

     Called by init_run:
     wfcinit      :      1.13s CPU      1.16s WALL (       1 calls)
     wfcinit:atom :      0.01s CPU      0.02s WALL (       8 calls)
     wfcinit:wfcr :      1.01s CPU      1.03s WALL (       8 calls)
     potinit      :      0.25s CPU      0.33s WALL (       1 calls)
     hinit0       :      0.60s CPU      0.62s WALL (       1 calls)

     Called by electrons:
     c_bands      :     44.63s CPU     44.81s WALL (      10 calls)
     sum_band     :      3.40s CPU      3.43s WALL (      10 calls)
     v_of_rho     :      0.81s CPU      0.91s WALL (      11 calls)
     v_h          :      0.05s CPU      0.06s WALL (      11 calls)
     v_xc         :      0.83s CPU      0.94s WALL (      12 calls)
     mix_rho      :      0.11s CPU      0.13s WALL (      10 calls)
     energy_dftd3 :      0.10s CPU      0.10s WALL (       1 calls)

     Called by c_bands:
     init_us_2    :      0.53s CPU      0.55s WALL (     176 calls)
     cegterg      :     25.28s CPU     25.41s WALL (      80 calls)

     Called by sum_band:
     sum_band:wei :      0.01s CPU      0.01s WALL (      10 calls)
     sum_band:loo :      1.97s CPU      1.99s WALL (      10 calls)
     sum_band:buf :      0.03s CPU      0.03s WALL (      80 calls)
     sum_band:ini :      0.21s CPU      0.21s WALL (      80 calls)

     Called by *egterg:
     cdiaghg      :      0.14s CPU      0.14s WALL (     519 calls)
     cegterg:over :      2.52s CPU      2.52s WALL (     439 calls)
     cegterg:upda :      1.70s CPU      1.71s WALL (     439 calls)
     cegterg:last :      3.05s CPU      3.06s WALL (     205 calls)
     h_psi        :     17.80s CPU     17.90s WALL (     527 calls)
     g_psi        :      0.12s CPU      0.12s WALL (     439 calls)

     Called by h_psi:
     h_psi:calbec :      2.64s CPU      2.65s WALL (     527 calls)
     vloc_psi     :     12.39s CPU     12.46s WALL (     527 calls)
     add_vuspsi   :      2.69s CPU      2.70s WALL (     527 calls)

     General routines
     calbec       :      2.94s CPU      2.95s WALL (     559 calls)
     fft          :      0.75s CPU      0.75s WALL (     120 calls)
     ffts         :      0.03s CPU      0.03s WALL (      10 calls)
     fftw         :     12.02s CPU     12.06s WALL (    7880 calls)

     Parallel routines

     PWSCF        :     53.29s CPU     53.87s WALL


   This run was terminated on:  15:17:31   4Oct2026            

=------------------------------------------------------------------------------=
   JOB DONE.
=------------------------------------------------------------------------------=
