
     Program PWSCF v.7.6 starts on 25Sep2026 at  2:28: 3 

     This program is part of the open-source Quantum ESPRESSO suite
     for quantum simulation of materials; please cite
         "P. Giannozzi et al., J. Phys.:Condens. Matter 21 395502 (2009);
         "P. Giannozzi et al., J. Phys.:Condens. Matter 29 465901 (2017);
         "P. Giannozzi et al., J. Chem. Phys. 152 154105 (2020);
          URL http://www.quantum-espresso.org", 
     in publications or presentations arising from this work. More details at
     http://www.quantum-espresso.org/quote

     Parallel version (MPI), running on     4 processors

     MPI processes distributed on     1 nodes
     3475 MiB available memory on the printing compute node when the environment starts

     Waiting for input...
     Reading input from standard input
Warning: card &IONS ignored
Warning: card &CELL ignored
Warning: card &FCP ignored
Warning: card &RISM ignored

     Current dimensions of program PWSCF are:
     Max number of different atomic species (ntypx) = 10
     Max number of k-points (npk) =  40000
     Max angular momentum in pseudopotentials (lmaxx) =  4

     Atomic positions and unit cell read from directory:
     /home/ubuntu/projects/Graphene-Band-Structure-Quantum-Espresso/outputs/field_0/grimme/bottom/data/bottom.save/

     Message from routine setup:
     using ibrav=0 with symmetry is DISCOURAGED, use correct ibrav instead

     K-points division:     npool     =       4
     Subspace diagonalization in iterative solution of the eigenvalue problem:
     a serial algorithm will be used


     G-vector sticks info
     --------------------
     sticks:   dense  smooth     PW     G-vecs:    dense   smooth      PW
     Sum         595     475    151               111671    79745   13381

     Using Slab Decomposition



     bravais-lattice index     =            0
     lattice parameter (alat)  =       4.6487  a.u.
     unit-cell volume          =     825.8174 (a.u.)^3
     number of atoms/cell      =            2
     number of atomic types    =            1
     number of electrons       =         8.00
     number of Kohn-Sham states=           12
     kinetic-energy cutoff     =      80.0000  Ry
     charge density cutoff     =     400.0000  Ry
     Exchange-correlation= PBE
                           (   1   4   3   4   0   0   0)

     celldm(1)=   4.648726  celldm(2)=   0.000000  celldm(3)=   0.000000
     celldm(4)=   0.000000  celldm(5)=   0.000000  celldm(6)=   0.000000

     crystal axes: (cart. coord. in units of alat)
               a(1) = (   1.000000   0.000000   0.000000 )  
               a(2) = (  -0.500000   0.866025   0.000000 )  
               a(3) = (   0.000000   0.000000   9.491870 )  

     reciprocal axes: (cart. coord. in units 2 pi/alat)
               b(1) = (  1.000000  0.577351 -0.000000 )  
               b(2) = (  0.000000  1.154701  0.000000 )  
               b(3) = (  0.000000 -0.000000  0.105353 )  


     PseudoPot. # 1 for C  read from file:
     /home/ubuntu/projects/Graphene-Band-Structure-Quantum-Espresso/pseudo/C.upf
     MD5 check sum: 34a24e64c0a39f27c6c36b90a16ac686
     Pseudo is Norm-conserving + core correction, Zval =  4.0
     Generated using ONCVPSP code by D. R. Hamann
     Using radial grid of 1248 points,  4 beta functions with: 
                l(1) =   0
                l(2) =   0
                l(3) =   1
                l(4) =   1

     atomic species   valence    mass     pseudopotential
     C                 4.00    12.01100     C ( 1.00)

      6 Sym. Ops. (no inversion) found


                                    s                        frac. trans.

      isym =  1     identity                                     

 cryst.   s( 1) = (     1          0          0      )
                  (     0          1          0      )
                  (     0          0          1      )

 cart.    s( 1) = (  1.0000000  0.0000000  0.0000000 )
                  (  0.0000000  1.0000000  0.0000000 )
                  (  0.0000000  0.0000000  1.0000000 )


      isym =  2     120 deg rotation - cryst. axis [0,0,1]       

 cryst.   s( 2) = (     0          1          0      )
                  (    -1         -1          0      )
                  (     0          0          1      )

 cart.    s( 2) = ( -0.5000000 -0.8660258  0.0000000 )
                  (  0.8660250 -0.5000000  0.0000000 )
                  (  0.0000000  0.0000000  1.0000000 )


      isym =  3     120 deg rotation - cryst. axis [0,0,-1]      

 cryst.   s( 3) = (    -1         -1          0      )
                  (     1          0          0      )
                  (     0          0          1      )

 cart.    s( 3) = ( -0.5000000  0.8660258  0.0000000 )
                  ( -0.8660250 -0.5000000  0.0000000 )
                  (  0.0000000  0.0000000  1.0000000 )


      isym =  4     inv. 180 deg rotation - cart. axis [1,0,0]   

 cryst.   s( 4) = (    -1          0          0      )
                  (     1          1          0      )
                  (     0          0          1      )

 cart.    s( 4) = ( -1.0000000  0.0000000  0.0000000 )
                  (  0.0000000  1.0000000  0.0000000 )
                  (  0.0000000  0.0000000  1.0000000 )


      isym =  5     inv. 180 deg rotation - cryst. axis [0,1,0]  

 cryst.   s( 5) = (     1          1          0      )
                  (     0         -1          0      )
                  (     0          0          1      )

 cart.    s( 5) = (  0.5000000  0.8660258  0.0000000 )
                  (  0.8660250 -0.5000000  0.0000000 )
                  (  0.0000000  0.0000000  1.0000000 )


      isym =  6     inv. 180 deg rotation - cryst. axis [1,1,0]  

 cryst.   s( 6) = (     0         -1          0      )
                  (    -1          0          0      )
                  (     0          0          1      )

 cart.    s( 6) = (  0.5000000 -0.8660258  0.0000000 )
                  ( -0.8660250 -0.5000000  0.0000000 )
                  (  0.0000000  0.0000000  1.0000000 )


   Cartesian axes

     site n.     atom                  positions (alat units)
         1        C      tau(   1) = (   0.0000000   0.0000000   4.0322439  )
         2        C      tau(   2) = (   0.5000000   0.2886752   4.0328737  )

     --------------------------------------------
     DFT-D3 Dispersion Correction (3-body terms):
     --------------------------------------------
       Reference C6 values for interpolation: 

         atom   Coordination number   C6
         C          0.000            98.23
         C          0.987            86.49
         C          1.998            58.72
         C          2.999            51.56
         C          3.984            36.41

       Values used:

         atom   Coordination number  R0_AB[au]  C6      C8
         C          3.315            2.750     48.27   1395.93
         C          3.315            2.750     48.27   1395.93

         Molecular C6 ( Ry / a.u.^6 ) =       193.06


   Crystallographic axes

     site n.     atom                  positions (cryst. coord.)
         1        C      tau(   1) = (  0.0000000  0.0000000  0.4248103  )
         2        C      tau(   2) = (  0.6666668  0.3333335  0.4248766  )

     number of k points=    91  Gaussian smearing, width (Ry)=  0.0100
                       cart. coord. in units 2pi/alat
        k(    1) = (   0.0000000   0.0000000   0.0000000), wk =   0.0022222
        k(    2) = (   0.0000000   0.0384900   0.0000000), wk =   0.0133333
        k(    3) = (   0.0000000   0.0769801   0.0000000), wk =   0.0133333
        k(    4) = (   0.0000000   0.1154701   0.0000000), wk =   0.0133333
        k(    5) = (   0.0000000   0.1539601   0.0000000), wk =   0.0133333
        k(    6) = (   0.0000000   0.1924502   0.0000000), wk =   0.0133333
        k(    7) = (   0.0000000   0.2309402   0.0000000), wk =   0.0133333
        k(    8) = (   0.0000000   0.2694303   0.0000000), wk =   0.0133333
        k(    9) = (   0.0000000   0.3079203   0.0000000), wk =   0.0133333
        k(   10) = (   0.0000000   0.3464103   0.0000000), wk =   0.0133333
        k(   11) = (   0.0000000   0.3849004   0.0000000), wk =   0.0133333
        k(   12) = (   0.0000000   0.4233904   0.0000000), wk =   0.0133333
        k(   13) = (   0.0000000   0.4618804   0.0000000), wk =   0.0133333
        k(   14) = (   0.0000000   0.5003705   0.0000000), wk =   0.0133333
        k(   15) = (   0.0000000   0.5388605   0.0000000), wk =   0.0133333
        k(   16) = (   0.0000000  -0.5773505   0.0000000), wk =   0.0066667
        k(   17) = (   0.0333333   0.0577351   0.0000000), wk =   0.0133333
        k(   18) = (   0.0333333   0.0962251   0.0000000), wk =   0.0266667
        k(   19) = (   0.0333333   0.1347151   0.0000000), wk =   0.0266667
        k(   20) = (   0.0333333   0.1732052   0.0000000), wk =   0.0266667
        k(   21) = (   0.0333333   0.2116952   0.0000000), wk =   0.0266667
        k(   22) = (   0.0333333   0.2501852   0.0000000), wk =   0.0266667
        k(   23) = (   0.0333333   0.2886753   0.0000000), wk =   0.0266667
        k(   24) = (   0.0333333   0.3271653   0.0000000), wk =   0.0266667
        k(   25) = (   0.0333333   0.3656553   0.0000000), wk =   0.0266667
        k(   26) = (   0.0333333   0.4041454   0.0000000), wk =   0.0266667
        k(   27) = (   0.0333333   0.4426354   0.0000000), wk =   0.0266667
        k(   28) = (   0.0333333   0.4811254   0.0000000), wk =   0.0266667
        k(   29) = (   0.0333333   0.5196155   0.0000000), wk =   0.0266667
        k(   30) = (   0.0333333   0.5581055   0.0000000), wk =   0.0266667
        k(   31) = (   0.0666667   0.1154701   0.0000000), wk =   0.0133333
        k(   32) = (   0.0666667   0.1539601   0.0000000), wk =   0.0266667
        k(   33) = (   0.0666667   0.1924502   0.0000000), wk =   0.0266667
        k(   34) = (   0.0666667   0.2309402   0.0000000), wk =   0.0266667
        k(   35) = (   0.0666667   0.2694303   0.0000000), wk =   0.0266667
        k(   36) = (   0.0666667   0.3079203   0.0000000), wk =   0.0266667
        k(   37) = (   0.0666667   0.3464103   0.0000000), wk =   0.0266667
        k(   38) = (   0.0666667   0.3849004   0.0000000), wk =   0.0266667
        k(   39) = (   0.0666667   0.4233904   0.0000000), wk =   0.0266667
        k(   40) = (   0.0666667   0.4618804   0.0000000), wk =   0.0266667
        k(   41) = (   0.0666667   0.5003705   0.0000000), wk =   0.0266667
        k(   42) = (   0.0666667   0.5388605   0.0000000), wk =   0.0266667
        k(   43) = (   0.0666667   0.5773505   0.0000000), wk =   0.0133333
        k(   44) = (   0.1000000   0.1732052   0.0000000), wk =   0.0133333
        k(   45) = (   0.1000000   0.2116952   0.0000000), wk =   0.0266667
        k(   46) = (   0.1000000   0.2501852   0.0000000), wk =   0.0266667
        k(   47) = (   0.1000000   0.2886753   0.0000000), wk =   0.0266667
        k(   48) = (   0.1000000   0.3271653   0.0000000), wk =   0.0266667
        k(   49) = (   0.1000000   0.3656553   0.0000000), wk =   0.0266667
        k(   50) = (   0.1000000   0.4041454   0.0000000), wk =   0.0266667
        k(   51) = (   0.1000000   0.4426354   0.0000000), wk =   0.0266667
        k(   52) = (   0.1000000   0.4811254   0.0000000), wk =   0.0266667
        k(   53) = (   0.1000000   0.5196155   0.0000000), wk =   0.0266667
        k(   54) = (   0.1000000   0.5581055   0.0000000), wk =   0.0266667
        k(   55) = (   0.1333333   0.2309402   0.0000000), wk =   0.0133333
        k(   56) = (   0.1333333   0.2694303   0.0000000), wk =   0.0266667
        k(   57) = (   0.1333333   0.3079203   0.0000000), wk =   0.0266667
        k(   58) = (   0.1333333   0.3464103   0.0000000), wk =   0.0266667
        k(   59) = (   0.1333333   0.3849004   0.0000000), wk =   0.0266667
        k(   60) = (   0.1333333   0.4233904   0.0000000), wk =   0.0266667
        k(   61) = (   0.1333333   0.4618804   0.0000000), wk =   0.0266667
        k(   62) = (   0.1333333   0.5003705   0.0000000), wk =   0.0266667
        k(   63) = (   0.1333333   0.5388605   0.0000000), wk =   0.0266667
        k(   64) = (   0.1333333   0.5773505   0.0000000), wk =   0.0133333
        k(   65) = (   0.1666667   0.2886753   0.0000000), wk =   0.0133333
        k(   66) = (   0.1666667   0.3271653   0.0000000), wk =   0.0266667
        k(   67) = (   0.1666667   0.3656553   0.0000000), wk =   0.0266667
        k(   68) = (   0.1666667   0.4041454   0.0000000), wk =   0.0266667
        k(   69) = (   0.1666667   0.4426354   0.0000000), wk =   0.0266667
        k(   70) = (   0.1666667   0.4811254   0.0000000), wk =   0.0266667
        k(   71) = (   0.1666667   0.5196155   0.0000000), wk =   0.0266667
        k(   72) = (   0.1666667   0.5581055   0.0000000), wk =   0.0266667
        k(   73) = (   0.2000000   0.3464103   0.0000000), wk =   0.0133333
        k(   74) = (   0.2000000   0.3849004   0.0000000), wk =   0.0266667
        k(   75) = (   0.2000000   0.4233904   0.0000000), wk =   0.0266667
        k(   76) = (   0.2000000   0.4618804   0.0000000), wk =   0.0266667
        k(   77) = (   0.2000000   0.5003705   0.0000000), wk =   0.0266667
        k(   78) = (   0.2000000   0.5388605   0.0000000), wk =   0.0266667
        k(   79) = (   0.2000000   0.5773505   0.0000000), wk =   0.0133333
        k(   80) = (   0.2333333   0.4041454   0.0000000), wk =   0.0133333
        k(   81) = (   0.2333333   0.4426354   0.0000000), wk =   0.0266667
        k(   82) = (   0.2333333   0.4811254   0.0000000), wk =   0.0266667
        k(   83) = (   0.2333333   0.5196155   0.0000000), wk =   0.0266667
        k(   84) = (   0.2333333   0.5581055   0.0000000), wk =   0.0266667
        k(   85) = (   0.2666667   0.4618804   0.0000000), wk =   0.0133333
        k(   86) = (   0.2666667   0.5003705   0.0000000), wk =   0.0266667
        k(   87) = (   0.2666667   0.5388605   0.0000000), wk =   0.0266667
        k(   88) = (   0.2666667   0.5773505   0.0000000), wk =   0.0133333
        k(   89) = (   0.3000000   0.5196155   0.0000000), wk =   0.0133333
        k(   90) = (   0.3000000   0.5581055   0.0000000), wk =   0.0266667
        k(   91) = (   0.3333333   0.5773505   0.0000000), wk =   0.0044444

                       cryst. coord.
        k(    1) = (   0.0000000   0.0000000   0.0000000), wk =   0.0022222
        k(    2) = (   0.0000000   0.0333333   0.0000000), wk =   0.0133333
        k(    3) = (   0.0000000   0.0666667   0.0000000), wk =   0.0133333
        k(    4) = (   0.0000000   0.1000000   0.0000000), wk =   0.0133333
        k(    5) = (   0.0000000   0.1333333   0.0000000), wk =   0.0133333
        k(    6) = (   0.0000000   0.1666667   0.0000000), wk =   0.0133333
        k(    7) = (   0.0000000   0.2000000   0.0000000), wk =   0.0133333
        k(    8) = (   0.0000000   0.2333333   0.0000000), wk =   0.0133333
        k(    9) = (   0.0000000   0.2666667   0.0000000), wk =   0.0133333
        k(   10) = (   0.0000000   0.3000000   0.0000000), wk =   0.0133333
        k(   11) = (   0.0000000   0.3333333   0.0000000), wk =   0.0133333
        k(   12) = (   0.0000000   0.3666667   0.0000000), wk =   0.0133333
        k(   13) = (   0.0000000   0.4000000   0.0000000), wk =   0.0133333
        k(   14) = (   0.0000000   0.4333333   0.0000000), wk =   0.0133333
        k(   15) = (   0.0000000   0.4666667   0.0000000), wk =   0.0133333
        k(   16) = (   0.0000000  -0.5000000   0.0000000), wk =   0.0066667
        k(   17) = (   0.0333333   0.0333333   0.0000000), wk =   0.0133333
        k(   18) = (   0.0333333   0.0666667   0.0000000), wk =   0.0266667
        k(   19) = (   0.0333333   0.1000000   0.0000000), wk =   0.0266667
        k(   20) = (   0.0333333   0.1333333   0.0000000), wk =   0.0266667
        k(   21) = (   0.0333333   0.1666667   0.0000000), wk =   0.0266667
        k(   22) = (   0.0333333   0.2000000   0.0000000), wk =   0.0266667
        k(   23) = (   0.0333333   0.2333333   0.0000000), wk =   0.0266667
        k(   24) = (   0.0333333   0.2666667   0.0000000), wk =   0.0266667
        k(   25) = (   0.0333333   0.3000000   0.0000000), wk =   0.0266667
        k(   26) = (   0.0333333   0.3333333   0.0000000), wk =   0.0266667
        k(   27) = (   0.0333333   0.3666667   0.0000000), wk =   0.0266667
        k(   28) = (   0.0333333   0.4000000   0.0000000), wk =   0.0266667
        k(   29) = (   0.0333333   0.4333333   0.0000000), wk =   0.0266667
        k(   30) = (   0.0333333   0.4666667   0.0000000), wk =   0.0266667
        k(   31) = (   0.0666667   0.0666667   0.0000000), wk =   0.0133333
        k(   32) = (   0.0666667   0.1000000   0.0000000), wk =   0.0266667
        k(   33) = (   0.0666667   0.1333333   0.0000000), wk =   0.0266667
        k(   34) = (   0.0666667   0.1666667   0.0000000), wk =   0.0266667
        k(   35) = (   0.0666667   0.2000000   0.0000000), wk =   0.0266667
        k(   36) = (   0.0666667   0.2333333   0.0000000), wk =   0.0266667
        k(   37) = (   0.0666667   0.2666667   0.0000000), wk =   0.0266667
        k(   38) = (   0.0666667   0.3000000   0.0000000), wk =   0.0266667
        k(   39) = (   0.0666667   0.3333333   0.0000000), wk =   0.0266667
        k(   40) = (   0.0666667   0.3666667   0.0000000), wk =   0.0266667
        k(   41) = (   0.0666667   0.4000000   0.0000000), wk =   0.0266667
        k(   42) = (   0.0666667   0.4333333   0.0000000), wk =   0.0266667
        k(   43) = (   0.0666667   0.4666667   0.0000000), wk =   0.0133333
        k(   44) = (   0.1000000   0.1000000   0.0000000), wk =   0.0133333
        k(   45) = (   0.1000000   0.1333333   0.0000000), wk =   0.0266667
        k(   46) = (   0.1000000   0.1666667   0.0000000), wk =   0.0266667
        k(   47) = (   0.1000000   0.2000000   0.0000000), wk =   0.0266667
        k(   48) = (   0.1000000   0.2333333   0.0000000), wk =   0.0266667
        k(   49) = (   0.1000000   0.2666667   0.0000000), wk =   0.0266667
        k(   50) = (   0.1000000   0.3000000   0.0000000), wk =   0.0266667
        k(   51) = (   0.1000000   0.3333333   0.0000000), wk =   0.0266667
        k(   52) = (   0.1000000   0.3666667   0.0000000), wk =   0.0266667
        k(   53) = (   0.1000000   0.4000000   0.0000000), wk =   0.0266667
        k(   54) = (   0.1000000   0.4333333   0.0000000), wk =   0.0266667
        k(   55) = (   0.1333333   0.1333333   0.0000000), wk =   0.0133333
        k(   56) = (   0.1333333   0.1666667   0.0000000), wk =   0.0266667
        k(   57) = (   0.1333333   0.2000000   0.0000000), wk =   0.0266667
        k(   58) = (   0.1333333   0.2333333   0.0000000), wk =   0.0266667
        k(   59) = (   0.1333333   0.2666667   0.0000000), wk =   0.0266667
        k(   60) = (   0.1333333   0.3000000   0.0000000), wk =   0.0266667
        k(   61) = (   0.1333333   0.3333333   0.0000000), wk =   0.0266667
        k(   62) = (   0.1333333   0.3666667   0.0000000), wk =   0.0266667
        k(   63) = (   0.1333333   0.4000000   0.0000000), wk =   0.0266667
        k(   64) = (   0.1333333   0.4333333   0.0000000), wk =   0.0133333
        k(   65) = (   0.1666667   0.1666667   0.0000000), wk =   0.0133333
        k(   66) = (   0.1666667   0.2000000   0.0000000), wk =   0.0266667
        k(   67) = (   0.1666667   0.2333333   0.0000000), wk =   0.0266667
        k(   68) = (   0.1666667   0.2666667   0.0000000), wk =   0.0266667
        k(   69) = (   0.1666667   0.3000000   0.0000000), wk =   0.0266667
        k(   70) = (   0.1666667   0.3333333   0.0000000), wk =   0.0266667
        k(   71) = (   0.1666667   0.3666667   0.0000000), wk =   0.0266667
        k(   72) = (   0.1666667   0.4000000   0.0000000), wk =   0.0266667
        k(   73) = (   0.2000000   0.2000000   0.0000000), wk =   0.0133333
        k(   74) = (   0.2000000   0.2333333   0.0000000), wk =   0.0266667
        k(   75) = (   0.2000000   0.2666667   0.0000000), wk =   0.0266667
        k(   76) = (   0.2000000   0.3000000   0.0000000), wk =   0.0266667
        k(   77) = (   0.2000000   0.3333333   0.0000000), wk =   0.0266667
        k(   78) = (   0.2000000   0.3666667   0.0000000), wk =   0.0266667
        k(   79) = (   0.2000000   0.4000000   0.0000000), wk =   0.0133333
        k(   80) = (   0.2333333   0.2333333   0.0000000), wk =   0.0133333
        k(   81) = (   0.2333333   0.2666667   0.0000000), wk =   0.0266667
        k(   82) = (   0.2333333   0.3000000   0.0000000), wk =   0.0266667
        k(   83) = (   0.2333333   0.3333333   0.0000000), wk =   0.0266667
        k(   84) = (   0.2333333   0.3666667   0.0000000), wk =   0.0266667
        k(   85) = (   0.2666667   0.2666667   0.0000000), wk =   0.0133333
        k(   86) = (   0.2666667   0.3000000   0.0000000), wk =   0.0266667
        k(   87) = (   0.2666667   0.3333333   0.0000000), wk =   0.0266667
        k(   88) = (   0.2666667   0.3666667   0.0000000), wk =   0.0133333
        k(   89) = (   0.3000000   0.3000000   0.0000000), wk =   0.0133333
        k(   90) = (   0.3000000   0.3333333   0.0000000), wk =   0.0266667
        k(   91) = (   0.3333333   0.3333333   0.0000000), wk =   0.0044444

     Dense  grid:   111671 G-vectors     FFT dimensions: (  30,  30, 288)

     Smooth grid:    79745 G-vectors     FFT dimensions: (  27,  27, 256)

     Dynamical RAM for                 wfc:       1.83 MB

     Dynamical RAM for     wfc (w. buffer):      43.85 MB

     Dynamical RAM for           str. fact:       1.70 MB

     Dynamical RAM for           local pot:       0.00 MB

     Dynamical RAM for          nlocal pot:       2.44 MB

     Dynamical RAM for                qrad:       0.46 MB

     Dynamical RAM for          rho,v,vnew:      11.04 MB

     Dynamical RAM for           G-vectors:       7.00 MB

     Dynamical RAM for          h,s,v(r/c):       0.03 MB

     Dynamical RAM for          <psi|beta>:       0.00 MB

     Dynamical RAM for                 psi:       3.65 MB

     Dynamical RAM for                hpsi:       3.65 MB

     Dynamical RAM for      wfcinit/wfcrot:       3.66 MB

     Estimated static dynamical RAM per process >      79.79 MB

     Estimated max dynamical RAM per process >      87.13 MB

     Estimated total dynamical RAM >     348.51 MB

     The potential is recalculated from file :
     /home/ubuntu/projects/Graphene-Band-Structure-Quantum-Espresso/outputs/field_0/grimme/bottom/data/bottom.save/charge-density

     Starting wfcs are    8 randomized atomic wfcs +    4 random wfcs

     Band Structure Calculation
     Davidson diagonalization with overlap

     Computing kpt #:     1  of    23 on this pool
     total cpu time spent up to now is        7.3 secs

     Computing kpt #:     2  of    23 on this pool
     c_bands:  1 eigenvalues not converged
     total cpu time spent up to now is       12.0 secs

     Computing kpt #:     3  of    23 on this pool
     total cpu time spent up to now is       16.0 secs

     Computing kpt #:     4  of    23 on this pool
     total cpu time spent up to now is       20.1 secs

     Computing kpt #:     5  of    23 on this pool
     total cpu time spent up to now is       24.1 secs

     Computing kpt #:     6  of    23 on this pool
     total cpu time spent up to now is       28.6 secs

     Computing kpt #:     7  of    23 on this pool
     total cpu time spent up to now is       33.3 secs

     Computing kpt #:     8  of    23 on this pool
     total cpu time spent up to now is       38.6 secs

     Computing kpt #:     9  of    23 on this pool
     total cpu time spent up to now is       42.7 secs

     Computing kpt #:    10  of    23 on this pool
     total cpu time spent up to now is       47.6 secs

     Computing kpt #:    11  of    23 on this pool
     total cpu time spent up to now is       52.1 secs

     Computing kpt #:    12  of    23 on this pool
     total cpu time spent up to now is       56.4 secs

     Computing kpt #:    13  of    23 on this pool
     total cpu time spent up to now is       60.3 secs

     Computing kpt #:    14  of    23 on this pool
     total cpu time spent up to now is       64.9 secs

     Computing kpt #:    15  of    23 on this pool
     total cpu time spent up to now is       68.6 secs

     Computing kpt #:    16  of    23 on this pool
     total cpu time spent up to now is       72.7 secs

     Computing kpt #:    17  of    23 on this pool
     c_bands:  1 eigenvalues not converged
     total cpu time spent up to now is       76.8 secs

     Computing kpt #:    18  of    23 on this pool
     total cpu time spent up to now is       80.7 secs

     Computing kpt #:    19  of    23 on this pool
     total cpu time spent up to now is       86.1 secs

     Computing kpt #:    20  of    23 on this pool
     total cpu time spent up to now is       90.8 secs

     Computing kpt #:    21  of    23 on this pool
     total cpu time spent up to now is       97.1 secs

     Computing kpt #:    22  of    23 on this pool
     total cpu time spent up to now is      102.9 secs

     Computing kpt #:    23  of    23 on this pool
     total cpu time spent up to now is      106.2 secs

     ethr =  1.25E-10,  avg # of iterations = 69.5

     total cpu time spent up to now is      107.6 secs

     End of band structure calculation

          k = 0.0000 0.0000 0.0000 ( 10049 PWs)   bands (ev):

   -22.1927 -10.2716  -5.6504  -5.6503   0.6543   1.4343   1.7363   2.3486
     2.6913   3.8638   4.3346   5.8435

     occupation numbers 
     1.0000   1.0000   1.0000   1.0000   0.0000   0.0000   0.0000   0.0000
     0.0000   0.0000   0.0000   0.0000

          k = 0.0000 0.0385 0.0000 ( 10077 PWs)   bands (ev):

   -22.1664 -10.2400  -5.7596  -5.7085   0.6901   1.4706   1.7730   2.3851
     2.7278   3.9001   4.3706   5.8590

     occupation numbers 
     1.0000   1.0000   1.0000   1.0000   0.0000   0.0000   0.0000   0.0000
     0.0000   0.0000   0.0000   0.0000

          k = 0.0000 0.0770 0.0000 ( 10077 PWs)   bands (ev):

   -22.0874 -10.1452  -6.0763  -5.8749   0.7975   1.5795   1.8833   2.4946
     2.8373   4.0089   4.4787   5.8939

     occupation numbers 
     1.0000   1.0000   1.0000   1.0000   0.0000   0.0000   0.0000   0.0000
     0.0000   0.0000   0.0000   0.0000

          k = 0.0000 0.1155 0.0000 ( 10079 PWs)   bands (ev):

   -21.9559  -9.9876  -6.5717  -6.1290   0.9765   1.7610   2.0671   2.6771
     3.0197   4.1903   4.6587   5.9214

     occupation numbers 
     1.0000   1.0000   1.0000   1.0000   0.0000   0.0000   0.0000   0.0000
     0.0000   0.0000   0.0000   0.0000

          k = 0.0000 0.1540 0.0000 ( 10059 PWs)   bands (ev):

   -21.7722  -9.7680  -7.2085  -6.4441   1.2271   2.0148   2.3245   2.9326
     3.2751   4.4439   4.9101   5.9176

     occupation numbers 
     1.0000   1.0000   1.0000   1.0000   0.0000   0.0000   0.0000   0.0000
     0.0000   0.0000   0.0000   0.0000

          k = 0.0000 0.1925 0.0000 ( 10013 PWs)   bands (ev):

   -21.5365  -9.4873  -7.9496  -6.7939   1.5492   2.3406   2.6553   3.2606
     3.6035   4.7692   5.2300   5.8747

     occupation numbers 
     1.0000   1.0000   1.0000   1.0000   0.0000   0.0000   0.0000   0.0000
     0.0000   0.0000   0.0000   0.0000

          k = 0.0000 0.2309 0.0000 ( 10009 PWs)   bands (ev):

   -21.2493  -9.1470  -8.7622  -7.1560   1.9427   2.7377   3.0596   3.6608
     4.0045   5.1626   5.5870   5.8283

     occupation numbers 
     1.0000   1.0000   1.0000   1.0000   0.0000   0.0000   0.0000   0.0000
     0.0000   0.0000   0.0000   0.0000

          k = 0.0000 0.2694 0.0000 ( 10009 PWs)   bands (ev):

   -20.9111  -9.6199  -8.7495  -7.5123   2.4071   3.2035   3.5375   4.1298
     4.4775   5.1543   5.6326   5.6600

     occupation numbers 
     1.0000   1.0000   1.0000   1.0000   0.0000   0.0000   0.0000   0.0000
     0.0000   0.0000   0.0000   0.0000

          k = 0.0000 0.3079 0.0000 (  9969 PWs)   bands (ev):

   -20.5228 -10.5014  -8.2977  -7.8490   2.9420   3.7087   4.0887   4.2620
     4.7091   5.0182   5.5228   6.1899

     occupation numbers 
     1.0000   1.0000   1.0000   1.0000   0.0000   0.0000   0.0000   0.0000
     0.0000   0.0000   0.0000   0.0000

          k = 0.0000 0.3464 0.0000 (  9972 PWs)   bands (ev):

   -20.0854 -11.3904  -8.1560  -7.7966   3.2704   3.5465   4.3991   4.7128
     5.3111   5.3637   5.6717   6.8015

     occupation numbers 
     1.0000   1.0000   1.0000   1.0000   0.0000   0.0000   0.0000   0.0000
     0.0000   0.0000   0.0000   0.0000

          k = 0.0000 0.3849 0.0000 (  9978 PWs)   bands (ev):

   -19.6002 -12.2736  -8.4256  -7.2535   2.3518   4.2168   5.0702   5.2541
     5.4189   6.0004   6.3495   7.4846

     occupation numbers 
     1.0000   1.0000   1.0000   1.0000   0.0000   0.0000   0.0000   0.0000
     0.0000   0.0000   0.0000   0.0000

          k = 0.0000 0.4234 0.0000 (  9942 PWs)   bands (ev):

   -19.0694 -13.1400  -8.6524  -6.6810   1.4455   4.9119   5.2029   5.8215
     6.1855   6.7627   7.1127   8.2370

     occupation numbers 
     1.0000   1.0000   1.0000   1.0000   0.0000   0.0000   0.0000   0.0000
     0.0000   0.0000   0.0000   0.0000

          k = 0.0000 0.4619 0.0000 (  9950 PWs)   bands (ev):

   -18.4971 -13.9795  -8.8325  -6.1017   0.5943   5.0300   5.8100   6.6430
     7.0303   7.5964   7.9493   9.0559

     occupation numbers 
     1.0000   1.0000   1.0000   1.0000   0.0000   0.0000   0.0000   0.0000
     0.0000   0.0000   0.0000   0.0000

          k = 0.0000 0.5004 0.0000 (  9918 PWs)   bands (ev):

   -17.8922 -14.7781  -8.9628  -5.5592  -0.1484   4.9745   6.6792   7.5307
     7.9487   8.4999   8.8578   9.9342

     occupation numbers 
     1.0000   1.0000   1.0000   1.0000   0.0000   0.0000   0.0000   0.0000
     0.0000   0.0000   0.0000   0.0000

          k = 0.0000 0.5389 0.0000 (  9930 PWs)   bands (ev):

   -17.2888 -15.4990  -9.0418  -5.1389  -0.6912   4.9366   7.6183   8.4789
     8.9402   9.4687   9.6701   9.8423

     occupation numbers 
     1.0000   1.0000   1.0000   1.0000   0.0000   0.0000   0.0000   0.0000
     0.0000   0.0000   0.0000   0.0000

          k = 0.0000-0.5774 0.0000 (  9910 PWs)   bands (ev):

   -16.9203 -15.9068  -9.0682  -4.9722  -0.8990   4.9236   8.5480   8.6945
     9.3857   9.5836  10.0030  10.0074

     occupation numbers 
     1.0000   1.0000   1.0000   1.0000   0.0000   0.0000   0.0000   0.0000
     0.0000   0.0000   0.0000   0.0000

          k = 0.0333 0.0577 0.0000 ( 10081 PWs)   bands (ev):

   -22.1137 -10.1768  -5.9686  -5.8247   0.7617   1.5432   1.8466   2.4581
     2.8008   3.9727   4.4427   5.8952

     occupation numbers 
     1.0000   1.0000   1.0000   1.0000   0.0000   0.0000   0.0000   0.0000
     0.0000   0.0000   0.0000   0.0000

          k = 0.0333 0.0962 0.0000 ( 10077 PWs)   bands (ev):

   -22.0085 -10.0506  -6.3650  -6.0448   0.9049   1.6884   1.9936   2.6041
     2.9467   4.1178   4.5868   5.9521

     occupation numbers 
     1.0000   1.0000   1.0000   1.0000   0.0000   0.0000   0.0000   0.0000
     0.0000   0.0000   0.0000   0.0000

          k = 0.0333 0.1347 0.0000 ( 10065 PWs)   bands (ev):

   -21.8509  -9.8619  -6.9199  -6.3407   1.1198   1.9060   2.2142   2.8231
     3.1657   4.3353   4.8027   5.9904

     occupation numbers 
     1.0000   1.0000   1.0000   1.0000   0.0000   0.0000   0.0000   0.0000
     0.0000   0.0000   0.0000   0.0000

          k = 0.0333 0.1732 0.0000 ( 10049 PWs)   bands (ev):

   -21.6412  -9.6117  -7.5986  -6.6837   1.4062   2.1959   2.5083   3.1149
     3.4576   4.6249   5.0896   5.9863

     occupation numbers 
     1.0000   1.0000   1.0000   1.0000   0.0000   0.0000   0.0000   0.0000
     0.0000   0.0000   0.0000   0.0000

          k = 0.0333 0.2117 0.0000 ( 10021 PWs)   bands (ev):

   -21.3797  -9.3012  -8.3670  -7.0483   1.7640   2.5575   2.8759   3.4792
     3.8224   4.9853   5.4416   5.9408

     occupation numbers 
     1.0000   1.0000   1.0000   1.0000   0.0000   0.0000   0.0000   0.0000
     0.0000   0.0000   0.0000   0.0000

          k = 0.0333 0.2502 0.0000 ( 10003 PWs)   bands (ev):

   -21.0670  -9.1957  -8.9322  -7.4141   2.1930   2.9896   3.3170   3.9148
     4.2597   5.3851   5.6029   5.7506

     occupation numbers 
     1.0000   1.0000   1.0000   1.0000   0.0000   0.0000   0.0000   0.0000
     0.0000   0.0000   0.0000   0.0000

          k = 0.0333 0.2887 0.0000 (  9984 PWs)   bands (ev):

   -20.7038 -10.0606  -8.5072  -7.7655   2.6928   3.4854   3.8315   4.3993
     4.7118   4.7687   5.6912   5.9375

     occupation numbers 
     1.0000   1.0000   1.0000   1.0000   0.0000   0.0000   0.0000   0.0000
     0.0000   0.0000   0.0000   0.0000

          k = 0.0333 0.3272 0.0000 (  9983 PWs)   bands (ev):

   -20.2909 -10.9423  -8.0908  -8.0303   3.2626   3.6770   4.1446   4.4194
     5.0213   5.3332   5.5892   6.5122

     occupation numbers 
     1.0000   1.0000   1.0000   1.0000   0.0000   0.0000   0.0000   0.0000
     0.0000   0.0000   0.0000   0.0000

          k = 0.0333 0.3657 0.0000 (  9974 PWs)   bands (ev):

   -19.8296 -11.8259  -8.3816  -7.5072   2.7963   3.9013   4.7474   5.0792
     5.4326   5.6726   6.0258   7.1596

     occupation numbers 
     1.0000   1.0000   1.0000   1.0000   0.0000   0.0000   0.0000   0.0000
     0.0000   0.0000   0.0000   0.0000

          k = 0.0333 0.4041 0.0000 (  9958 PWs)   bands (ev):

   -19.3215 -12.6991  -8.6315  -6.9475   1.8815   4.6017   5.3280   5.4614
     5.8190   6.3986   6.7492   7.8769

     occupation numbers 
     1.0000   1.0000   1.0000   1.0000   0.0000   0.0000   0.0000   0.0000
     0.0000   0.0000   0.0000   0.0000

          k = 0.0333 0.4426 0.0000 (  9934 PWs)   bands (ev):

   -18.7695 -13.5511  -8.8361  -6.3678   1.0009   5.1532   5.4591   6.2478
     6.6263   7.1965   7.5492   8.6619

     occupation numbers 
     1.0000   1.0000   1.0000   1.0000   0.0000   0.0000   0.0000   0.0000
     0.0000   0.0000   0.0000   0.0000

          k = 0.0333 0.4811 0.0000 (  9940 PWs)   bands (ev):

   -18.1795 -14.3708  -8.9920  -5.7991   0.1980   5.1202   6.2612   7.1018
     7.5079   8.0647   8.4218   9.5098

     occupation numbers 
     1.0000   1.0000   1.0000   1.0000   0.0000   0.0000   0.0000   0.0000
     0.0000   0.0000   0.0000   0.0000

          k = 0.0333 0.5196 0.0000 (  9948 PWs)   bands (ev):

   -17.5678 -15.1376  -9.0971  -5.3030  -0.4584   5.0722   7.1666   8.0187
     8.4628   9.0008   9.3654  10.2314

     occupation numbers 
     1.0000   1.0000   1.0000   1.0000   0.0000   0.0000   0.0000   0.0000
     0.0000   0.0000   0.0000   0.0000

          k = 0.0333 0.5581 0.0000 (  9932 PWs)   bands (ev):

   -17.0184 -15.7652  -9.1500  -4.9915  -0.8511   5.0465   8.1336   8.9854
     9.1687   9.4916   9.9336  10.1019

     occupation numbers 
     1.0000   1.0000   1.0000   1.0000   0.0000   0.0000   0.0000   0.0000
     0.0000   0.0000   0.0000   0.0000

          k = 0.0667 0.1155 0.0000 ( 10077 PWs)   bands (ev):

   -21.8771  -9.8933  -6.8036  -6.3241   1.0840   1.8698   2.1774   2.7866
     3.1292   4.2991   4.7670   6.0682

     occupation numbers 
     1.0000   1.0000   1.0000   1.0000   0.0000   0.0000   0.0000   0.0000
     0.0000   0.0000   0.0000   0.0000

          k = 0.0667 0.1540 0.0000 ( 10049 PWs)   bands (ev):

   -21.6936  -9.6741  -7.3749  -6.6738   1.3347   2.1235   2.4348   3.0420
     3.3847   4.5527   5.0192   6.1726

     occupation numbers 
     1.0000   1.0000   1.0000   1.0000   0.0000   0.0000   0.0000   0.0000
     0.0000   0.0000   0.0000   0.0000

          k = 0.0667 0.1925 0.0000 ( 10034 PWs)   bands (ev):

   -21.4581  -9.3940  -8.0569  -7.0560   1.6569   2.4493   2.7656   3.3701
     3.7132   4.8780   5.3421   6.2141

     occupation numbers 
     1.0000   1.0000   1.0000   1.0000   0.0000   0.0000   0.0000   0.0000
     0.0000   0.0000   0.0000   0.0000

          k = 0.0667 0.2309 0.0000 ( 10004 PWs)   bands (ev):

   -21.1712  -9.0545  -8.8225  -7.4436   2.0504   2.8464   3.1700   3.7704
     4.1145   5.2715   5.7282   5.8573

     occupation numbers 
     1.0000   1.0000   1.0000   1.0000   0.0000   0.0000   0.0000   0.0000
     0.0000   0.0000   0.0000   0.0000

          k = 0.0667 0.2694 0.0000 (  9986 PWs)   bands (ev):

   -20.8334  -9.6446  -8.6577  -7.8186   2.5150   3.3124   3.6478   4.2393
     4.5882   5.0187   5.7548   6.0292

     occupation numbers 
     1.0000   1.0000   1.0000   1.0000   0.0000   0.0000   0.0000   0.0000
     0.0000   0.0000   0.0000   0.0000

          k = 0.0667 0.3079 0.0000 (  9972 PWs)   bands (ev):

   -20.4456 -10.4998  -8.2068  -8.1685   3.0501   3.8059   4.1706   4.1992
     4.8037   5.1329   5.9638   6.2924

     occupation numbers 
     1.0000   1.0000   1.0000   1.0000   0.0000   0.0000   0.0000   0.0000
     0.0000   0.0000   0.0000   0.0000

          k = 0.0667 0.3464 0.0000 (  9960 PWs)   bands (ev):

   -20.0088 -11.3694  -8.4845  -7.7065   3.1944   3.6552   4.4935   4.8237
     5.4158   5.7152   5.8869   6.9035

     occupation numbers 
     1.0000   1.0000   1.0000   1.0000   0.0000   0.0000   0.0000   0.0000
     0.0000   0.0000   0.0000   0.0000

          k = 0.0667 0.3849 0.0000 (  9955 PWs)   bands (ev):

   -19.5244 -12.2383  -8.7602  -7.1641   2.2901   4.3279   5.1691   5.5185
     5.7231   6.1051   6.4610   7.5846

     occupation numbers 
     1.0000   1.0000   1.0000   1.0000   0.0000   0.0000   0.0000   0.0000
     0.0000   0.0000   0.0000   0.0000

          k = 0.0667 0.4234 0.0000 (  9952 PWs)   bands (ev):

   -18.9947 -13.0942  -8.9910  -6.5920   1.3996   5.0585   5.6286   5.9191
     6.2961   6.8664   7.2222   8.3332

     occupation numbers 
     1.0000   1.0000   1.0000   1.0000   0.0000   0.0000   0.0000   0.0000
     0.0000   0.0000   0.0000   0.0000

          k = 0.0667 0.4619 0.0000 (  9951 PWs)   bands (ev):

   -18.4236 -13.9257  -9.1736  -6.0121   0.5605   5.4852   5.9275   6.7370
     7.1405   7.6981   8.0582   9.1450

     occupation numbers 
     1.0000   1.0000   1.0000   1.0000   0.0000   0.0000   0.0000   0.0000
     0.0000   0.0000   0.0000   0.0000

          k = 0.0667 0.5004 0.0000 (  9948 PWs)   bands (ev):

   -17.8205 -14.7183  -9.3055  -5.4678  -0.1750   5.4413   6.7836   7.6179
     8.0588   8.5978   8.9661  10.0064

     occupation numbers 
     1.0000   1.0000   1.0000   1.0000   0.0000   0.0000   0.0000   0.0000
     0.0000   0.0000   0.0000   0.0000

          k = 0.0667 0.5389 0.0000 (  9944 PWs)   bands (ev):

   -17.2192 -15.4346  -9.3853  -5.0442  -0.7156   5.4043   7.7191   8.5517
     9.0501   9.5565   9.7564   9.9497

     occupation numbers 
     1.0000   1.0000   1.0000   1.0000   0.0000   0.0000   0.0000   0.0000
     0.0000   0.0000   0.0000   0.0000

          k = 0.0667 0.5774 0.0000 (  9926 PWs)   bands (ev):

   -16.8528 -15.8396  -9.4120  -4.8755  -0.9237   5.3914   8.6409   8.7935
     9.3871   9.6927  10.1126  10.1173

     occupation numbers 
     1.0000   1.0000   1.0000   1.0000   0.0000   0.0000   0.0000   0.0000
     0.0000   0.0000   0.0000   0.0000

          k = 0.1000 0.1732 0.0000 ( 10027 PWs)   bands (ev):

   -21.4842  -9.4250  -7.9274  -7.0850   1.6212   2.4132   2.7289   3.3337
     3.6768   4.8422   5.3079   6.3959

     occupation numbers 
     1.0000   1.0000   1.0000   1.0000   0.0000   0.0000   0.0000   0.0000
     0.0000   0.0000   0.0000   0.0000

          k = 0.1000 0.2117 0.0000 ( 10002 PWs)   bands (ev):

   -21.2233  -9.1157  -8.5750  -7.5220   1.9792   2.7747   3.0965   3.6980
     4.0419   5.2031   5.6674   6.0044

     occupation numbers 
     1.0000   1.0000   1.0000   1.0000   0.0000   0.0000   0.0000   0.0000
     0.0000   0.0000   0.0000   0.0000

          k = 0.1000 0.2502 0.0000 (  9984 PWs)   bands (ev):

   -20.9113  -9.3062  -8.7482  -7.9468   2.4083   3.2070   3.5376   4.1339
     4.4797   5.2335   5.6410   6.0922

     occupation numbers 
     1.0000   1.0000   1.0000   1.0000   0.0000   0.0000   0.0000   0.0000
     0.0000   0.0000   0.0000   0.0000

          k = 0.1000 0.2887 0.0000 (  9985 PWs)   bands (ev):

   -20.5490 -10.0988  -8.3404  -8.3250   2.9083   3.7030   4.0522   4.4034
     4.6585   4.9900   6.1434   6.4629

     occupation numbers 
     1.0000   1.0000   1.0000   1.0000   0.0000   0.0000   0.0000   0.0000
     0.0000   0.0000   0.0000   0.0000

          k = 0.1000 0.3272 0.0000 (  9972 PWs)   bands (ev):

   -20.1372 -10.9287  -8.6943  -7.8499   3.4772   3.5217   4.3074   4.6403
     5.2302   5.5712   6.4299   6.7181

     occupation numbers 
     1.0000   1.0000   1.0000   1.0000   0.0000   0.0000   0.0000   0.0000
     0.0000   0.0000   0.0000   0.0000

          k = 0.1000 0.3657 0.0000 (  9976 PWs)   bands (ev):

   -19.6772 -11.7751  -9.0039  -7.3285   2.6452   4.1184   4.9452   5.3016
     5.8830   6.1925   6.3629   7.3620

     occupation numbers 
     1.0000   1.0000   1.0000   1.0000   0.0000   0.0000   0.0000   0.0000
     0.0000   0.0000   0.0000   0.0000

          k = 0.1000 0.4041 0.0000 (  9961 PWs)   bands (ev):

   -19.1710 -12.6213  -9.2662  -6.7701   1.7657   4.8255   5.6584   6.0328
     6.2133   6.6073   6.9704   8.0728

     occupation numbers 
     1.0000   1.0000   1.0000   1.0000   0.0000   0.0000   0.0000   0.0000
     0.0000   0.0000   0.0000   0.0000

          k = 0.1000 0.4426 0.0000 (  9961 PWs)   bands (ev):

   -18.6214 -13.4537  -9.4786  -6.1904   0.9146   5.5897   6.1285   6.4387
     6.8471   7.4016   7.7677   8.8454

     occupation numbers 
     1.0000   1.0000   1.0000   1.0000   0.0000   0.0000   0.0000   0.0000
     0.0000   0.0000   0.0000   0.0000

          k = 0.1000 0.4811 0.0000 (  9974 PWs)   bands (ev):

   -18.0343 -14.2587  -9.6395  -5.6195   0.1318   6.0040   6.4822   7.2806
     7.7282   8.2631   8.6390   9.6667

     occupation numbers 
     1.0000   1.0000   1.0000   1.0000   0.0000   0.0000   0.0000   0.0000
     0.0000   0.0000   0.0000   0.0000

          k = 0.1000 0.5196 0.0000 (  9966 PWs)   bands (ev):

   -17.4264 -15.0146  -9.7474  -5.1177  -0.5152   5.9674   7.3719   8.1732
     8.6829   9.1848   9.5807  10.3812

     occupation numbers 
     1.0000   1.0000   1.0000   1.0000   0.0000   0.0000   0.0000   0.0000
     0.0000   0.0000   0.0000   0.0000

          k = 0.1000 0.5581 0.0000 (  9938 PWs)   bands (ev):

   -16.8819 -15.6338  -9.8016  -4.7995  -0.9072   5.9427   8.3296   9.0718
     9.3520   9.7114   9.9998  10.3125

     occupation numbers 
     1.0000   1.0000   1.0000   1.0000   0.0000   0.0000   0.0000   0.0000
     0.0000   0.0000   0.0000   0.0000

          k = 0.1333 0.2309 0.0000 (  9979 PWs)   bands (ev):

   -20.9373  -9.1606  -8.7784  -8.0239   2.3728   3.1716   3.5009   4.0984
     4.4435   5.3119   5.5999   6.0646

     occupation numbers 
     1.0000   1.0000   1.0000   1.0000   0.0000   0.0000   0.0000   0.0000
     0.0000   0.0000   0.0000   0.0000

          k = 0.1333 0.2694 0.0000 (  9979 PWs)   bands (ev):

   -20.6007  -9.8242  -8.5057  -8.3843   2.8374   3.6387   3.9788   4.5430
     4.5856   4.9180   6.0674   6.5285

     occupation numbers 
     1.0000   1.0000   1.0000   1.0000   0.0000   0.0000   0.0000   0.0000
     0.0000   0.0000   0.0000   0.0000

          k = 0.1333 0.3079 0.0000 (  9973 PWs)   bands (ev):

   -20.2144 -10.5598  -8.9351  -7.9363   3.3724   3.7438   4.1873   4.5302
     5.1169   5.4647   6.6051   6.9993

     occupation numbers 
     1.0000   1.0000   1.0000   1.0000   0.0000   0.0000   0.0000   0.0000
     0.0000   0.0000   0.0000   0.0000

          k = 0.1333 0.3464 0.0000 (  9972 PWs)   bands (ev):

   -19.7794 -11.3454  -9.3037  -7.4390   2.9142   3.9777   4.7916   5.1550
     5.7332   6.0829   7.0536   7.2113

     occupation numbers 
     1.0000   1.0000   1.0000   1.0000   0.0000   0.0000   0.0000   0.0000
     0.0000   0.0000   0.0000   0.0000

          k = 0.1333 0.3849 0.0000 (  9950 PWs)   bands (ev):

   -19.2975 -12.1563  -9.6129  -6.8992   2.0677   4.6517   5.4678   5.8530
     6.4203   6.7568   6.9893   7.8831

     occupation numbers 
     1.0000   1.0000   1.0000   1.0000   0.0000   0.0000   0.0000   0.0000
     0.0000   0.0000   0.0000   0.0000

          k = 0.1333 0.4234 0.0000 (  9971 PWs)   bands (ev):

   -18.7709 -12.9716  -9.8647  -6.3283   1.2296   5.3925   6.2093   6.6224
     6.8671   7.1764   7.5529   8.6145

     occupation numbers 
     1.0000   1.0000   1.0000   1.0000   0.0000   0.0000   0.0000   0.0000
     0.0000   0.0000   0.0000   0.0000

          k = 0.1333 0.4619 0.0000 (  9968 PWs)   bands (ev):

   -18.2039 -13.7743 -10.0603  -5.7472   0.4302   6.1919   6.7916   7.0098
     7.4715   7.9986   8.3850   9.3895

     occupation numbers 
     1.0000   1.0000   1.0000   1.0000   0.0000   0.0000   0.0000   0.0000
     0.0000   0.0000   0.0000   0.0000

          k = 0.1333 0.5004 0.0000 (  9957 PWs)   bands (ev):

   -17.6059 -14.5459 -10.2000  -5.1968  -0.2819   6.6841   7.1076   7.8554
     8.3891   8.8786   9.2905  10.1455

     occupation numbers 
     1.0000   1.0000   1.0000   1.0000   0.0000   0.0000   0.0000   0.0000
     0.0000   0.0000   0.0000   0.0000

          k = 0.1333 0.5389 0.0000 (  9964 PWs)   bands (ev):

   -17.0112 -15.2469 -10.2838  -4.7620  -0.8161   6.6603   8.0202   8.7026
     9.3798   9.7723  10.0037  10.2715

     occupation numbers 
     1.0000   1.0000   1.0000   1.0000   0.0000   0.0000   0.0000   0.0000
     0.0000   0.0000   0.0000   0.0000

          k = 0.1333 0.5774 0.0000 (  9932 PWs)   bands (ev):

   -16.6503 -15.6434 -10.3118  -4.5861  -1.0255   6.6483   8.9144   9.0875
     9.2543  10.0199  10.4410  10.4467

     occupation numbers 
     1.0000   1.0000   1.0000   1.0000   0.0000   0.0000   0.0000   0.0000
     0.0000   0.0000   0.0000   0.0000

          k = 0.1667 0.2887 0.0000 (  9987 PWs)   bands (ev):

   -20.2401 -10.3966  -9.0575  -7.9652   3.3371   3.8286   4.1411   4.4934
     5.0786   5.4288   6.5671   7.0325

     occupation numbers 
     1.0000   1.0000   1.0000   1.0000   0.0000   0.0000   0.0000   0.0000
     0.0000   0.0000   0.0000   0.0000

          k = 0.1667 0.3272 0.0000 (  9974 PWs)   bands (ev):

   -19.8306 -11.0424  -9.5473  -7.4945   3.0615   3.9072   4.7122   5.0815
     5.6576   6.0121   7.1350   7.5767

     occupation numbers 
     1.0000   1.0000   1.0000   1.0000   0.0000   0.0000   0.0000   0.0000
     0.0000   0.0000   0.0000   0.0000

          k = 0.1667 0.3657 0.0000 (  9975 PWs)   bands (ev):

   -19.3737 -11.7572  -9.9510  -6.9774   2.2699   4.5464   5.3505   5.7431
     6.3069   6.6669   7.7673   7.7899

     occupation numbers 
     1.0000   1.0000   1.0000   1.0000   0.0000   0.0000   0.0000   0.0000
     0.0000   0.0000   0.0000   0.0000

          k = 0.1667 0.4041 0.0000 (  9989 PWs)   bands (ev):

   -18.8712 -12.5155 -10.2718  -6.4222   1.4702   5.2537   6.0521   6.4778
     7.0245   7.3860   7.7470   8.4562

     occupation numbers 
     1.0000   1.0000   1.0000   1.0000   0.0000   0.0000   0.0000   0.0000
     0.0000   0.0000   0.0000   0.0000

          k = 0.1667 0.4426 0.0000 (  9993 PWs)   bands (ev):

   -18.3264 -13.2893 -10.5193  -5.8433   0.6842   6.0266   6.8091   7.2848
     7.6454   7.8063   8.2081   9.1816

     occupation numbers 
     1.0000   1.0000   1.0000   1.0000   0.0000   0.0000   0.0000   0.0000
     0.0000   0.0000   0.0000   0.0000

          k = 0.1667 0.4811 0.0000 (  9951 PWs)   bands (ev):

   -17.7455 -14.0544 -10.7007  -5.2679  -0.0538   6.8582   7.5790   7.6029
     8.1693   8.6422   9.0733   9.8778

     occupation numbers 
     1.0000   1.0000   1.0000   1.0000   0.0000   0.0000   0.0000   0.0000
     0.0000   0.0000   0.0000   0.0000

          k = 0.1667 0.5196 0.0000 (  9951 PWs)   bands (ev):

   -17.1455 -14.7827 -10.8200  -4.7530  -0.6806   7.4816   7.7988   8.3803
     9.1229   9.4959  10.0095  10.3734

     occupation numbers 
     1.0000   1.0000   1.0000   1.0000   0.0000   0.0000   0.0000   0.0000
     0.0000   0.0000   0.0000   0.0000

          k = 0.1667 0.5581 0.0000 (  9953 PWs)   bands (ev):

   -16.6099 -15.3839 -10.8793  -4.4177  -1.0731   7.4760   8.7160   8.9622
     9.7037  10.1506  10.1652  10.7456

     occupation numbers 
     1.0000   1.0000   1.0000   1.0000   0.0000   0.0000   0.0000   0.0000
     0.0000   0.0000   0.0000   0.0000

          k = 0.2000 0.3464 0.0000 (  9967 PWs)   bands (ev):

   -19.3991 -11.5757 -10.1139  -7.0036   2.3417   4.5112   5.3107   5.7064
     6.2688   6.6317   7.7283   8.1789

     occupation numbers 
     1.0000   1.0000   1.0000   1.0000   0.0000   0.0000   0.0000   0.0000
     0.0000   0.0000   0.0000   0.0000

          k = 0.2000 0.3849 0.0000 ( 10011 PWs)   bands (ev):

   -18.9214 -12.1850 -10.5824  -6.4698   1.6018   5.1836   5.9716   6.4045
     6.9477   7.3226   8.3754   8.5770

     occupation numbers 
     1.0000   1.0000   1.0000   1.0000   0.0000   0.0000   0.0000   0.0000
     0.0000   0.0000   0.0000   0.0000

          k = 0.2000 0.4234 0.0000 (  9999 PWs)   bands (ev):

   -18.4004 -12.8635 -10.9374  -5.9029   0.8569   5.9225   6.6842   7.1759
     7.6890   8.0806   8.5893   9.0511

     occupation numbers 
     1.0000   1.0000   1.0000   1.0000   0.0000   0.0000   0.0000   0.0000
     0.0000   0.0000   0.0000   0.0000

          k = 0.2000 0.4619 0.0000 (  9981 PWs)   bands (ev):

   -17.8404 -13.5792 -11.1929  -5.3207   0.1293   6.7247   7.4238   8.0198
     8.4800   8.5014   8.9352   9.6815

     occupation numbers 
     1.0000   1.0000   1.0000   1.0000   0.0000   0.0000   0.0000   0.0000
     0.0000   0.0000   0.0000   0.0000

          k = 0.2000 0.5004 0.0000 (  9955 PWs)   bands (ev):

   -17.2515 -14.2955 -11.3655  -4.7590  -0.5403   7.5822   8.1223   8.4439
     8.9401   9.2835   9.8299  10.1712

     occupation numbers 
     1.0000   1.0000   1.0000   1.0000   0.0000   0.0000   0.0000   0.0000
     0.0000   0.0000   0.0000   0.0000

          k = 0.2000 0.5389 0.0000 (  9944 PWs)   bands (ev):

   -16.6674 -14.9617 -11.4658  -4.2996  -1.0663   8.3385   8.5541   8.6195
     9.9286  10.0324  10.3633  10.7295

     occupation numbers 
     1.0000   1.0000   1.0000   1.0000   0.0000   0.0000   0.0000   0.0000
     0.0000   0.0000   0.0000   0.0000

          k = 0.2000 0.5774 0.0000 (  9948 PWs)   bands (ev):

   -16.3134 -15.3440 -11.4988  -4.1061  -1.2824   8.3635   8.7819   9.3474
     9.5676  10.5648  10.9869  10.9952

     occupation numbers 
     1.0000   1.0000   1.0000   1.0000   0.0000   0.0000   0.0000   0.0000
     0.0000   0.0000   0.0000   0.0000

          k = 0.2333 0.4041 0.0000 (  9999 PWs)   bands (ev):

   -18.4251 -12.6649 -11.1349  -5.9231   0.9184   5.8876   6.6416   7.1393
     7.6495   8.0490   9.0063   9.2662

     occupation numbers 
     1.0000   1.0000   1.0000   1.0000   0.0000   0.0000   0.0000   0.0000
     0.0000   0.0000   0.0000   0.0000

          k = 0.2333 0.4426 0.0000 (  9981 PWs)   bands (ev):

   -17.8884 -13.2261 -11.5577  -5.3487   0.2319   6.6554   7.3297   7.9472
     8.3970   8.8423   9.4558   9.5772

     occupation numbers 
     1.0000   1.0000   1.0000   1.0000   0.0000   0.0000   0.0000   0.0000
     0.0000   0.0000   0.0000   0.0000

          k = 0.2333 0.4811 0.0000 (  9971 PWs)   bands (ev):

   -17.3178 -13.8553 -11.8446  -4.7678  -0.4354   7.4817   7.9513   8.8273
     9.1506   9.3746   9.7313  10.0286

     occupation numbers 
     1.0000   1.0000   1.0000   1.0000   0.0000   0.0000   0.0000   0.0000
     0.0000   0.0000   0.0000   0.0000

          k = 0.2333 0.5196 0.0000 (  9957 PWs)   bands (ev):

   -16.7302 -14.5035 -12.0188  -4.2283  -1.0339   8.3474   8.3539   9.3223
     9.7831   9.8869  10.6326  10.6337

     occupation numbers 
     1.0000   1.0000   1.0000   1.0000   0.0000   0.0000   0.0000   0.0000
     0.0000   0.0000   0.0000   0.0000

          k = 0.2333 0.5581 0.0000 (  9941 PWs)   bands (ev):

   -16.2050 -15.0652 -12.1011  -3.8525  -1.4397   8.4867   9.1739   9.3583
    10.1851  10.6722  10.8085  11.4004

     occupation numbers 
     1.0000   1.0000   1.0000   1.0000   0.0000   0.0000   0.0000   0.0000
     0.0000   0.0000   0.0000   0.0000

          k = 0.2667 0.4619 0.0000 (  9977 PWs)   bands (ev):

   -17.3403 -13.6451 -12.0685  -4.7717  -0.3965   7.4473   7.8909   8.7912
     9.1054   9.6662   9.9788  10.2227

     occupation numbers 
     1.0000   1.0000   1.0000   1.0000   0.0000   0.0000   0.0000   0.0000
     0.0000   0.0000   0.0000   0.0000

          k = 0.2667 0.5004 0.0000 (  9963 PWs)   bands (ev):

   -16.7662 -14.1486 -12.4195  -4.1956  -1.0075   8.1981   8.2875   9.7065
     9.8075  10.1612  10.5594  10.5696

     occupation numbers 
     1.0000   1.0000   1.0000   1.0000   0.0000   0.0000   0.0000   0.0000
     0.0000   0.0000   0.0000   0.0000

          k = 0.2667 0.5389 0.0000 (  9955 PWs)   bands (ev):

   -16.1972 -14.6965 -12.6118  -3.6844  -1.5390   8.2672   9.1486  10.0925
    10.6151  10.6669  10.7409  11.4040

     occupation numbers 
     1.0000   1.0000   1.0000   1.0000   0.0000   0.0000   0.0000   0.0000
     0.0000   0.0000   0.0000   0.0000

          k = 0.2667 0.5774 0.0000 (  9962 PWs)   bands (ev):

   -15.8425 -15.0487 -12.6719  -3.4394  -1.7908   8.2686   9.8809   9.9303
    10.3260  11.3265  11.7443  11.7609

     occupation numbers 
     1.0000   1.0000   1.0000   1.0000   0.0000   0.0000   0.0000   0.0000
     0.0000   0.0000   0.0000   0.0000

          k = 0.3000 0.5196 0.0000 (  9963 PWs)   bands (ev):

   -16.2019 -14.5054 -12.8438  -3.6251  -1.5733   8.1881   9.1173  10.5211
    10.5877  10.6476  10.8413  11.3849

     occupation numbers 
     1.0000   1.0000   1.0000   1.0000   0.0000   0.0000   0.0000   0.0000
     0.0000   0.0000   0.0000   0.0000

          k = 0.3000 0.5581 0.0000 (  9970 PWs)   bands (ev):

   -15.6824 -14.9184 -13.0603  -3.1362  -2.0585   8.1331   9.8950  10.4171
    10.8455  11.4740  11.6821  12.2744

     occupation numbers 
     1.0000   1.0000   1.0000   1.0000   0.0000   0.0000   0.0000   0.0000
     0.0000   0.0000   0.0000   0.0000

          k = 0.3333 0.5774 0.0000 (  9978 PWs)   bands (ev):

   -15.2392 -15.2390 -13.2354  -2.5924  -2.5918   8.0779  10.3580  10.3582
    10.9418  12.3037  12.3037  12.6668

     occupation numbers 
     1.0000   1.0000   1.0000   0.5012   0.4988   0.0000   0.0000   0.0000
     0.0000   0.0000   0.0000   0.0000

     the Fermi energy is    -2.5921 ev
     (compare with:    -2.5921 eV, computed in scf)

     Writing all to output data dir /home/ubuntu/projects/Graphene-Band-Structure-Quantum-Espresso/outputs/field_0/grimme/bottom/data/bottom.save/ :
     XML data file, pseudopotentials, collected wavefunctions

     init_run     :      1.44s CPU      1.60s WALL (       1 calls)
     electrons    :    104.54s CPU    105.91s WALL (       1 calls)

     Called by init_run:
     wfcinit      :      0.00s CPU      0.00s WALL (       1 calls)
     wfcinit:atom :      0.03s CPU      0.03s WALL (      23 calls)
     wfcinit:wfcr :      1.60s CPU      1.62s WALL (      23 calls)
     potinit      :      0.53s CPU      0.58s WALL (       1 calls)
     hinit0       :      0.82s CPU      0.86s WALL (       1 calls)

     Called by electrons:
     c_bands      :    104.53s CPU    105.90s WALL (       1 calls)
     v_of_rho     :      0.11s CPU      0.15s WALL (       1 calls)
     v_h          :      0.01s CPU      0.01s WALL (       1 calls)
     v_xc         :      0.11s CPU      0.14s WALL (       1 calls)

     Called by c_bands:
     init_us_2    :      0.05s CPU      0.05s WALL (      23 calls)
     cegterg      :     81.59s CPU     82.74s WALL (      94 calls)

     Called by sum_band:

     Called by *egterg:
     cdiaghg      :      0.42s CPU      0.43s WALL (    1739 calls)
     cegterg:over :      9.04s CPU      9.17s WALL (    1716 calls)
     cegterg:upda :      5.90s CPU      5.99s WALL (    1716 calls)
     cegterg:last :     12.60s CPU     12.74s WALL (    1117 calls)
     h_psi        :     53.43s CPU     54.23s WALL (    1833 calls)
     g_psi        :      0.54s CPU      0.54s WALL (    1716 calls)

     Called by h_psi:
     h_psi:calbec :      4.04s CPU      4.09s WALL (    1833 calls)
     vloc_psi     :     45.08s CPU     45.76s WALL (    1833 calls)
     add_vuspsi   :      4.07s CPU      4.14s WALL (    1833 calls)

     General routines
     calbec       :      4.03s CPU      4.08s WALL (    1833 calls)
     fft          :      0.71s CPU      0.72s WALL (      12 calls)
     ffts         :      0.39s CPU      0.39s WALL (       1 calls)
     fftw         :     40.26s CPU     40.82s WALL (   23362 calls)
     interpolate  :      0.40s CPU      0.40s WALL (       1 calls)

     Parallel routines

     PWSCF        :   1m46.21s CPU   1m47.96s WALL


   This run was terminated on:   2:29:51  25Sep2026            

=------------------------------------------------------------------------------=
   JOB DONE.
=------------------------------------------------------------------------------=
