
     Program PWSCF v.7.6 starts on 25Sep2026 at  2:27:41 

     This program is part of the open-source Quantum ESPRESSO suite
     for quantum simulation of materials; please cite
         "P. Giannozzi et al., J. Phys.:Condens. Matter 21 395502 (2009);
         "P. Giannozzi et al., J. Phys.:Condens. Matter 29 465901 (2017);
         "P. Giannozzi et al., J. Chem. Phys. 152 154105 (2020);
          URL http://www.quantum-espresso.org", 
     in publications or presentations arising from this work. More details at
     http://www.quantum-espresso.org/quote

     Parallel version (MPI), running on     4 processors

     MPI processes distributed on     1 nodes
     3606 MiB available memory on the printing compute node when the environment starts

     Waiting for input...
     Reading input from standard input
Warning: card &CELL ignored
Warning: card &FCP ignored
Warning: card &RISM ignored

     Current dimensions of program PWSCF are:
     Max number of different atomic species (ntypx) = 10
     Max number of k-points (npk) =  40000
     Max angular momentum in pseudopotentials (lmaxx) =  4
     Message from routine setup:
     using ibrav=0 with symmetry is DISCOURAGED, use correct ibrav instead

     K-points division:     npool     =       4
     Subspace diagonalization in iterative solution of the eigenvalue problem:
     a serial algorithm will be used


     G-vector sticks info
     --------------------
     sticks:   dense  smooth     PW     G-vecs:    dense   smooth      PW
     Sum         595     475    151               111671    79745   13381

     Using Slab Decomposition



     bravais-lattice index     =            0
     lattice parameter (alat)  =       4.6487  a.u.
     unit-cell volume          =     825.8174 (a.u.)^3
     number of atoms/cell      =            2
     number of atomic types    =            1
     number of electrons       =         8.00
     number of Kohn-Sham states=           10
     kinetic-energy cutoff     =      80.0000  Ry
     charge density cutoff     =     400.0000  Ry
     scf convergence threshold =      1.0E-08
     mixing beta               =       0.7000
     number of iterations used =            8  plain     mixing
     Exchange-correlation= PBE
                           (   1   4   3   4   0   0   0)

     celldm(1)=   4.648726  celldm(2)=   0.000000  celldm(3)=   0.000000
     celldm(4)=   0.000000  celldm(5)=   0.000000  celldm(6)=   0.000000

     crystal axes: (cart. coord. in units of alat)
               a(1) = (   1.000000   0.000000   0.000000 )  
               a(2) = (  -0.500000   0.866025   0.000000 )  
               a(3) = (   0.000000   0.000000   9.491870 )  

     reciprocal axes: (cart. coord. in units 2 pi/alat)
               b(1) = (  1.000000  0.577351 -0.000000 )  
               b(2) = (  0.000000  1.154701  0.000000 )  
               b(3) = (  0.000000 -0.000000  0.105353 )  


     PseudoPot. # 1 for C  read from file:
     /home/ubuntu/projects/Graphene-Band-Structure-Quantum-Espresso/pseudo/C.upf
     MD5 check sum: 34a24e64c0a39f27c6c36b90a16ac686
     Pseudo is Norm-conserving + core correction, Zval =  4.0
     Generated using ONCVPSP code by D. R. Hamann
     Using radial grid of 1248 points,  4 beta functions with: 
                l(1) =   0
                l(2) =   0
                l(3) =   1
                l(4) =   1

     atomic species   valence    mass     pseudopotential
     C                 4.00    12.01100     C ( 1.00)

      6 Sym. Ops. (no inversion) found


                                    s                        frac. trans.

      isym =  1     identity                                     

 cryst.   s( 1) = (     1          0          0      )
                  (     0          1          0      )
                  (     0          0          1      )

 cart.    s( 1) = (  1.0000000  0.0000000  0.0000000 )
                  (  0.0000000  1.0000000  0.0000000 )
                  (  0.0000000  0.0000000  1.0000000 )


      isym =  2     120 deg rotation - cryst. axis [0,0,1]       

 cryst.   s( 2) = (     0          1          0      )
                  (    -1         -1          0      )
                  (     0          0          1      )

 cart.    s( 2) = ( -0.5000000 -0.8660258  0.0000000 )
                  (  0.8660250 -0.5000000  0.0000000 )
                  (  0.0000000  0.0000000  1.0000000 )


      isym =  3     120 deg rotation - cryst. axis [0,0,-1]      

 cryst.   s( 3) = (    -1         -1          0      )
                  (     1          0          0      )
                  (     0          0          1      )

 cart.    s( 3) = ( -0.5000000  0.8660258  0.0000000 )
                  ( -0.8660250 -0.5000000  0.0000000 )
                  (  0.0000000  0.0000000  1.0000000 )


      isym =  4     inv. 180 deg rotation - cart. axis [1,0,0]   

 cryst.   s( 4) = (    -1          0          0      )
                  (     1          1          0      )
                  (     0          0          1      )

 cart.    s( 4) = ( -1.0000000  0.0000000  0.0000000 )
                  (  0.0000000  1.0000000  0.0000000 )
                  (  0.0000000  0.0000000  1.0000000 )


      isym =  5     inv. 180 deg rotation - cryst. axis [0,1,0]  

 cryst.   s( 5) = (     1          1          0      )
                  (     0         -1          0      )
                  (     0          0          1      )

 cart.    s( 5) = (  0.5000000  0.8660258  0.0000000 )
                  (  0.8660250 -0.5000000  0.0000000 )
                  (  0.0000000  0.0000000  1.0000000 )


      isym =  6     inv. 180 deg rotation - cryst. axis [1,1,0]  

 cryst.   s( 6) = (     0         -1          0      )
                  (    -1          0          0      )
                  (     0          0          1      )

 cart.    s( 6) = (  0.5000000 -0.8660258  0.0000000 )
                  ( -0.8660250 -0.5000000  0.0000000 )
                  (  0.0000000  0.0000000  1.0000000 )


   Cartesian axes

     site n.     atom                  positions (alat units)
         1        C      tau(   1) = (   0.0000000   0.0000000   4.0322439  )
         2        C      tau(   2) = (   0.5000000   0.2886752   4.0328737  )

     --------------------------------------------
     DFT-D3 Dispersion Correction (3-body terms):
     --------------------------------------------
       Reference C6 values for interpolation: 

         atom   Coordination number   C6
         C          0.000            98.23
         C          0.987            86.49
         C          1.998            58.72
         C          2.999            51.56
         C          3.984            36.41

       Values used:

         atom   Coordination number  R0_AB[au]  C6      C8
         C          3.315            2.750     48.27   1395.93
         C          3.315            2.750     48.27   1395.93

         Molecular C6 ( Ry / a.u.^6 ) =       193.06


   Crystallographic axes

     site n.     atom                  positions (cryst. coord.)
         1        C      tau(   1) = (  0.0000000  0.0000000  0.4248103  )
         2        C      tau(   2) = (  0.6666668  0.3333335  0.4248766  )

     number of k points=    27  Gaussian smearing, width (Ry)=  0.0100
                       cart. coord. in units 2pi/alat
        k(    1) = (   0.0000000   0.0000000   0.0000000), wk =   0.0088889
        k(    2) = (   0.0000000   0.0769801   0.0000000), wk =   0.0533333
        k(    3) = (   0.0000000   0.1539601   0.0000000), wk =   0.0533333
        k(    4) = (   0.0000000   0.2309402   0.0000000), wk =   0.0533333
        k(    5) = (   0.0000000   0.3079203   0.0000000), wk =   0.0533333
        k(    6) = (   0.0000000   0.3849004   0.0000000), wk =   0.0533333
        k(    7) = (   0.0000000   0.4618804   0.0000000), wk =   0.0533333
        k(    8) = (   0.0000000   0.5388605   0.0000000), wk =   0.0533333
        k(    9) = (   0.0666667   0.1154701   0.0000000), wk =   0.0533333
        k(   10) = (   0.0666667   0.1924502   0.0000000), wk =   0.1066667
        k(   11) = (   0.0666667   0.2694303   0.0000000), wk =   0.1066667
        k(   12) = (   0.0666667   0.3464103   0.0000000), wk =   0.1066667
        k(   13) = (   0.0666667   0.4233904   0.0000000), wk =   0.1066667
        k(   14) = (   0.0666667   0.5003705   0.0000000), wk =   0.1066667
        k(   15) = (   0.0666667   0.5773505   0.0000000), wk =   0.0533333
        k(   16) = (   0.1333333   0.2309402   0.0000000), wk =   0.0533333
        k(   17) = (   0.1333333   0.3079203   0.0000000), wk =   0.1066667
        k(   18) = (   0.1333333   0.3849004   0.0000000), wk =   0.1066667
        k(   19) = (   0.1333333   0.4618804   0.0000000), wk =   0.1066667
        k(   20) = (   0.1333333   0.5388605   0.0000000), wk =   0.1066667
        k(   21) = (   0.2000000   0.3464103   0.0000000), wk =   0.0533333
        k(   22) = (   0.2000000   0.4233904   0.0000000), wk =   0.1066667
        k(   23) = (   0.2000000   0.5003705   0.0000000), wk =   0.1066667
        k(   24) = (   0.2000000   0.5773505   0.0000000), wk =   0.0533333
        k(   25) = (   0.2666667   0.4618804   0.0000000), wk =   0.0533333
        k(   26) = (   0.2666667   0.5388605   0.0000000), wk =   0.1066667
        k(   27) = (   0.3333333   0.5773505   0.0000000), wk =   0.0177778

                       cryst. coord.
        k(    1) = (   0.0000000   0.0000000   0.0000000), wk =   0.0088889
        k(    2) = (   0.0000000   0.0666667   0.0000000), wk =   0.0533333
        k(    3) = (   0.0000000   0.1333333   0.0000000), wk =   0.0533333
        k(    4) = (   0.0000000   0.2000000   0.0000000), wk =   0.0533333
        k(    5) = (   0.0000000   0.2666667   0.0000000), wk =   0.0533333
        k(    6) = (   0.0000000   0.3333333   0.0000000), wk =   0.0533333
        k(    7) = (   0.0000000   0.4000000   0.0000000), wk =   0.0533333
        k(    8) = (   0.0000000   0.4666667   0.0000000), wk =   0.0533333
        k(    9) = (   0.0666667   0.0666667   0.0000000), wk =   0.0533333
        k(   10) = (   0.0666667   0.1333333   0.0000000), wk =   0.1066667
        k(   11) = (   0.0666667   0.2000000   0.0000000), wk =   0.1066667
        k(   12) = (   0.0666667   0.2666667   0.0000000), wk =   0.1066667
        k(   13) = (   0.0666667   0.3333333   0.0000000), wk =   0.1066667
        k(   14) = (   0.0666667   0.4000000   0.0000000), wk =   0.1066667
        k(   15) = (   0.0666667   0.4666667   0.0000000), wk =   0.0533333
        k(   16) = (   0.1333333   0.1333333   0.0000000), wk =   0.0533333
        k(   17) = (   0.1333333   0.2000000   0.0000000), wk =   0.1066667
        k(   18) = (   0.1333333   0.2666667   0.0000000), wk =   0.1066667
        k(   19) = (   0.1333333   0.3333333   0.0000000), wk =   0.1066667
        k(   20) = (   0.1333333   0.4000000   0.0000000), wk =   0.1066667
        k(   21) = (   0.2000000   0.2000000   0.0000000), wk =   0.0533333
        k(   22) = (   0.2000000   0.2666667   0.0000000), wk =   0.1066667
        k(   23) = (   0.2000000   0.3333333   0.0000000), wk =   0.1066667
        k(   24) = (   0.2000000   0.4000000   0.0000000), wk =   0.0533333
        k(   25) = (   0.2666667   0.2666667   0.0000000), wk =   0.0533333
        k(   26) = (   0.2666667   0.3333333   0.0000000), wk =   0.1066667
        k(   27) = (   0.3333333   0.3333333   0.0000000), wk =   0.0177778

     Dense  grid:   111671 G-vectors     FFT dimensions: (  30,  30, 288)

     Smooth grid:    79745 G-vectors     FFT dimensions: (  27,  27, 256)

     Dynamical RAM for                 wfc:       1.52 MB

     Dynamical RAM for     wfc (w. buffer):      12.18 MB

     Dynamical RAM for           str. fact:       1.70 MB

     Dynamical RAM for           local pot:       0.00 MB

     Dynamical RAM for          nlocal pot:       2.44 MB

     Dynamical RAM for                qrad:       0.46 MB

     Dynamical RAM for          rho,v,vnew:      11.04 MB

     Dynamical RAM for               rhoin:       3.68 MB

     Dynamical RAM for            rho*nmix:      27.26 MB

     Dynamical RAM for           G-vectors:       7.00 MB

     Dynamical RAM for          h,s,v(r/c):       0.02 MB

     Dynamical RAM for          <psi|beta>:       0.00 MB

     Dynamical RAM for                 psi:       3.05 MB

     Dynamical RAM for                hpsi:       3.05 MB

     Dynamical RAM for      wfcinit/wfcrot:       3.05 MB

     Estimated static dynamical RAM per process >      51.80 MB

     Estimated max dynamical RAM per process >      85.18 MB

     Estimated total dynamical RAM >     258.91 MB

     Initial potential from superposition of free atoms

     starting charge       7.9999, renormalised to       8.0000

     negative rho (up, down):  2.716E-06 0.000E+00
     Starting wfcs are    8 randomized atomic wfcs +    2 random wfcs

     total cpu time spent up to now is        3.0 secs

     Self-consistent Calculation

     iteration #  1     ecut=    80.00 Ry     beta= 0.70
     Davidson diagonalization with overlap

---- Real-time Memory Report at c_bands before calling an iterative solver
           102 MiB given to the printing process from OS
             0 MiB allocation reported by mallinfo(arena+hblkhd)
          3310 MiB available memory on the node where the printing process lives
------------------
     ethr =  1.00E-02,  avg # of iterations =  9.7

     negative rho (up, down):  3.677E-08 0.000E+00

     total cpu time spent up to now is        7.1 secs

     total energy              =     -24.06951771 Ry
     estimated scf accuracy    <       0.20236284 Ry

     iteration #  2     ecut=    80.00 Ry     beta= 0.70
     Davidson diagonalization with overlap

---- Real-time Memory Report at c_bands before calling an iterative solver
           129 MiB given to the printing process from OS
             0 MiB allocation reported by mallinfo(arena+hblkhd)
          3205 MiB available memory on the node where the printing process lives
------------------
     ethr =  2.53E-03,  avg # of iterations =  3.6

     total cpu time spent up to now is        9.4 secs

     total energy              =     -24.10027636 Ry
     estimated scf accuracy    <       0.00225510 Ry

     iteration #  3     ecut=    80.00 Ry     beta= 0.70
     Davidson diagonalization with overlap

---- Real-time Memory Report at c_bands before calling an iterative solver
           131 MiB given to the printing process from OS
             0 MiB allocation reported by mallinfo(arena+hblkhd)
          3213 MiB available memory on the node where the printing process lives
------------------
     ethr =  2.82E-05,  avg # of iterations = 13.4

     negative rho (up, down):  5.060E-07 0.000E+00

     total cpu time spent up to now is       14.0 secs

     total energy              =     -24.10066049 Ry
     estimated scf accuracy    <       0.00016559 Ry

     iteration #  4     ecut=    80.00 Ry     beta= 0.70
     Davidson diagonalization with overlap

---- Real-time Memory Report at c_bands before calling an iterative solver
           134 MiB given to the printing process from OS
             0 MiB allocation reported by mallinfo(arena+hblkhd)
          3244 MiB available memory on the node where the printing process lives
------------------
     ethr =  2.07E-06,  avg # of iterations =  6.8

     negative rho (up, down):  1.689E-07 0.000E+00

     total cpu time spent up to now is       16.8 secs

     total energy              =     -24.10067051 Ry
     estimated scf accuracy    <       0.00000137 Ry

     iteration #  5     ecut=    80.00 Ry     beta= 0.70
     Davidson diagonalization with overlap

---- Real-time Memory Report at c_bands before calling an iterative solver
           136 MiB given to the printing process from OS
             0 MiB allocation reported by mallinfo(arena+hblkhd)
          3239 MiB available memory on the node where the printing process lives
------------------
     ethr =  1.71E-08,  avg # of iterations =  3.2

     negative rho (up, down):  2.600E-08 0.000E+00

     total cpu time spent up to now is       18.6 secs

     total energy              =     -24.10067145 Ry
     estimated scf accuracy    <       0.00000003 Ry

     iteration #  6     ecut=    80.00 Ry     beta= 0.70
     Davidson diagonalization with overlap

---- Real-time Memory Report at c_bands before calling an iterative solver
           138 MiB given to the printing process from OS
             0 MiB allocation reported by mallinfo(arena+hblkhd)
          3247 MiB available memory on the node where the printing process lives
------------------
     ethr =  3.89E-10,  avg # of iterations =  2.8

     total cpu time spent up to now is       20.0 secs

     End of self-consistent calculation

          k = 0.0000 0.0000 0.0000 ( 10049 PWs)   bands (ev):

   -22.1927 -10.2716  -5.6503  -5.6503   0.6543   1.4343   1.7356   2.3482
     2.6913   3.8637

     occupation numbers 
     1.0000   1.0000   1.0000   1.0000   0.0000   0.0000   0.0000   0.0000
     0.0000   0.0000

          k = 0.0000 0.0770 0.0000 ( 10077 PWs)   bands (ev):

   -22.0874 -10.1452  -6.0763  -5.8749   0.7975   1.5795   1.8827   2.4942
     2.8372   4.0088

     occupation numbers 
     1.0000   1.0000   1.0000   1.0000   0.0000   0.0000   0.0000   0.0000
     0.0000   0.0000

          k = 0.0000 0.1540 0.0000 ( 10059 PWs)   bands (ev):

   -21.7722  -9.7680  -7.2085  -6.4440   1.2271   2.0148   2.3238   2.9322
     3.2751   4.4438

     occupation numbers 
     1.0000   1.0000   1.0000   1.0000   0.0000   0.0000   0.0000   0.0000
     0.0000   0.0000

          k = 0.0000 0.2309 0.0000 ( 10009 PWs)   bands (ev):

   -21.2493  -9.1470  -8.7622  -7.1560   1.9426   2.7377   3.0590   3.6605
     4.0044   5.1625

     occupation numbers 
     1.0000   1.0000   1.0000   1.0000   0.0000   0.0000   0.0000   0.0000
     0.0000   0.0000

          k = 0.0000 0.3079 0.0000 (  9969 PWs)   bands (ev):

   -20.5228 -10.5014  -8.2977  -7.8490   2.9419   3.7087   4.0880   4.2620
     4.7088   5.0183

     occupation numbers 
     1.0000   1.0000   1.0000   1.0000   0.0000   0.0000   0.0000   0.0000
     0.0000   0.0000

          k = 0.0000 0.3849 0.0000 (  9978 PWs)   bands (ev):

   -19.6002 -12.2735  -8.4256  -7.2535   2.3518   4.2168   5.0702   5.2540
     5.4183   6.0002

     occupation numbers 
     1.0000   1.0000   1.0000   1.0000   0.0000   0.0000   0.0000   0.0000
     0.0000   0.0000

          k = 0.0000 0.4619 0.0000 (  9950 PWs)   bands (ev):

   -18.4971 -13.9794  -8.8324  -6.1016   0.5943   5.0300   5.8099   6.6430
     7.0297   7.5961

     occupation numbers 
     1.0000   1.0000   1.0000   1.0000   0.0000   0.0000   0.0000   0.0000
     0.0000   0.0000

          k = 0.0000 0.5389 0.0000 (  9930 PWs)   bands (ev):

   -17.2887 -15.4990  -9.0418  -5.1389  -0.6912   4.9366   7.6183   8.4788
     8.9396   9.4687

     occupation numbers 
     1.0000   1.0000   1.0000   1.0000   0.0000   0.0000   0.0000   0.0000
     0.0000   0.0000

          k = 0.0667 0.1155 0.0000 ( 10077 PWs)   bands (ev):

   -21.8771  -9.8933  -6.8036  -6.3241   1.0840   1.8698   2.1768   2.7863
     3.1292   4.2990

     occupation numbers 
     1.0000   1.0000   1.0000   1.0000   0.0000   0.0000   0.0000   0.0000
     0.0000   0.0000

          k = 0.0667 0.1925 0.0000 ( 10034 PWs)   bands (ev):

   -21.4581  -9.3940  -8.0569  -7.0559   1.6569   2.4493   2.7650   3.3697
     3.7133   4.8779

     occupation numbers 
     1.0000   1.0000   1.0000   1.0000   0.0000   0.0000   0.0000   0.0000
     0.0000   0.0000

          k = 0.0667 0.2694 0.0000 (  9986 PWs)   bands (ev):

   -20.8334  -9.6446  -8.6577  -7.8185   2.5149   3.3124   3.6472   4.2389
     4.5881   5.0187

     occupation numbers 
     1.0000   1.0000   1.0000   1.0000   0.0000   0.0000   0.0000   0.0000
     0.0000   0.0000

          k = 0.0667 0.3464 0.0000 (  9960 PWs)   bands (ev):

   -20.0087 -11.3694  -8.4844  -7.7065   3.1944   3.6551   4.4935   4.8230
     5.4156   5.7170

     occupation numbers 
     1.0000   1.0000   1.0000   1.0000   0.0000   0.0000   0.0000   0.0000
     0.0000   0.0000

          k = 0.0667 0.4234 0.0000 (  9952 PWs)   bands (ev):

   -18.9946 -13.0942  -8.9910  -6.5920   1.3996   5.0585   5.6286   5.9191
     6.2955   6.8661

     occupation numbers 
     1.0000   1.0000   1.0000   1.0000   0.0000   0.0000   0.0000   0.0000
     0.0000   0.0000

          k = 0.0667 0.5004 0.0000 (  9948 PWs)   bands (ev):

   -17.8204 -14.7183  -9.3055  -5.4678  -0.1750   5.4413   6.7836   7.6179
     8.0582   8.5975

     occupation numbers 
     1.0000   1.0000   1.0000   1.0000   0.0000   0.0000   0.0000   0.0000
     0.0000   0.0000

          k = 0.0667 0.5774 0.0000 (  9926 PWs)   bands (ev):

   -16.8527 -15.8396  -9.4120  -4.8755  -0.9237   5.3914   8.6410   8.7935
     9.3870   9.6932

     occupation numbers 
     1.0000   1.0000   1.0000   1.0000   0.0000   0.0000   0.0000   0.0000
     0.0000   0.0000

          k = 0.1333 0.2309 0.0000 (  9979 PWs)   bands (ev):

   -20.9373  -9.1606  -8.7784  -8.0239   2.3728   3.1716   3.5002   4.0980
     4.4436   5.3119

     occupation numbers 
     1.0000   1.0000   1.0000   1.0000   0.0000   0.0000   0.0000   0.0000
     0.0000   0.0000

          k = 0.1333 0.3079 0.0000 (  9973 PWs)   bands (ev):

   -20.2144 -10.5598  -8.9350  -7.9363   3.3724   3.7439   4.1873   4.5295
     5.1165   5.4647

     occupation numbers 
     1.0000   1.0000   1.0000   1.0000   0.0000   0.0000   0.0000   0.0000
     0.0000   0.0000

          k = 0.1333 0.3849 0.0000 (  9950 PWs)   bands (ev):

   -19.2975 -12.1563  -9.6129  -6.8992   2.0677   4.6516   5.4678   5.8524
     6.4199   6.7568

     occupation numbers 
     1.0000   1.0000   1.0000   1.0000   0.0000   0.0000   0.0000   0.0000
     0.0000   0.0000

          k = 0.1333 0.4619 0.0000 (  9968 PWs)   bands (ev):

   -18.2038 -13.7742 -10.0603  -5.7472   0.4302   6.1919   6.7915   7.0098
     7.4709   7.9983

     occupation numbers 
     1.0000   1.0000   1.0000   1.0000   0.0000   0.0000   0.0000   0.0000
     0.0000   0.0000

          k = 0.1333 0.5389 0.0000 (  9964 PWs)   bands (ev):

   -17.0112 -15.2469 -10.2838  -4.7620  -0.8161   6.6603   8.0201   8.7026
     9.3792   9.7724

     occupation numbers 
     1.0000   1.0000   1.0000   1.0000   0.0000   0.0000   0.0000   0.0000
     0.0000   0.0000

          k = 0.2000 0.3464 0.0000 (  9967 PWs)   bands (ev):

   -19.3991 -11.5757 -10.1139  -7.0036   2.3417   4.5112   5.3107   5.7057
     6.2685   6.6317

     occupation numbers 
     1.0000   1.0000   1.0000   1.0000   0.0000   0.0000   0.0000   0.0000
     0.0000   0.0000

          k = 0.2000 0.4234 0.0000 (  9999 PWs)   bands (ev):

   -18.4004 -12.8635 -10.9374  -5.9029   0.8569   5.9225   6.6842   7.1753
     7.6887   8.0806

     occupation numbers 
     1.0000   1.0000   1.0000   1.0000   0.0000   0.0000   0.0000   0.0000
     0.0000   0.0000

          k = 0.2000 0.5004 0.0000 (  9955 PWs)   bands (ev):

   -17.2514 -14.2955 -11.3655  -4.7590  -0.5403   7.5822   8.1222   8.4439
     8.9395   9.2834

     occupation numbers 
     1.0000   1.0000   1.0000   1.0000   0.0000   0.0000   0.0000   0.0000
     0.0000   0.0000

          k = 0.2000 0.5774 0.0000 (  9948 PWs)   bands (ev):

   -16.3133 -15.3440 -11.4988  -4.1060  -1.2824   8.3635   8.7818   9.3474
     9.5676  10.5648

     occupation numbers 
     1.0000   1.0000   1.0000   1.0000   0.0000   0.0000   0.0000   0.0000
     0.0000   0.0000

          k = 0.2667 0.4619 0.0000 (  9977 PWs)   bands (ev):

   -17.3402 -13.6451 -12.0685  -4.7717  -0.3965   7.4473   7.8908   8.7905
     9.1053   9.6661

     occupation numbers 
     1.0000   1.0000   1.0000   1.0000   0.0000   0.0000   0.0000   0.0000
     0.0000   0.0000

          k = 0.2667 0.5389 0.0000 (  9955 PWs)   bands (ev):

   -16.1972 -14.6965 -12.6118  -3.6844  -1.5390   8.2670   9.1486  10.0925
    10.6158  10.6677

     occupation numbers 
     1.0000   1.0000   1.0000   1.0000   0.0000   0.0000   0.0000   0.0000
     0.0000   0.0000

          k = 0.3333 0.5774 0.0000 (  9978 PWs)   bands (ev):

   -15.2392 -15.2390 -13.2354  -2.5923  -2.5919   8.0777  10.3581  10.3582
    10.9417  12.3039

     occupation numbers 
     1.0000   1.0000   1.0000   0.5008   0.4992   0.0000   0.0000   0.0000
     0.0000   0.0000

     the Fermi energy is    -2.5921 ev

!    total energy              =     -24.10067146 Ry
     estimated scf accuracy    <          9.6E-09 Ry
     smearing contrib. (-TS)   =      -0.00010030 Ry
     internal energy E=F+TS    =     -24.10057116 Ry

     The total energy is F=E-TS. E is the sum of the following terms:
     one-electron contribution =    -270.27243581 Ry
     hartree contribution      =     136.37236624 Ry
     xc contribution           =      -8.58982124 Ry
     ewald contribution        =     118.39454101 Ry
     DFT-D3 Dispersion         =      -0.00522136 Ry

     convergence has been achieved in   6 iterations

     Forces acting on atoms (cartesian axes, Ry/au):

     atom    1 type  1   force =     0.00000000   -0.00000000    0.00101974
     atom    2 type  1   force =     0.00000000    0.00000000   -0.00101974
     The non-local contrib.  to forces
     atom    1 type  1   force =    -0.00000000    0.00000000    0.00196507
     atom    2 type  1   force =     0.00000000   -0.00000000   -0.00196659
     The ionic contribution  to forces
     atom    1 type  1   force =     0.00000053    0.00000661   -0.02016483
     atom    2 type  1   force =    -0.00000053   -0.00000661    0.02016483
     The local contribution  to forces
     atom    1 type  1   force =     0.00000000   -0.00000181    0.01927987
     atom    2 type  1   force =    -0.00000042   -0.00000023   -0.01919989
     The core correction contribution to forces
     atom    1 type  1   force =    -0.00000000   -0.00000001   -0.00002080
     atom    2 type  1   force =     0.00000003    0.00000016    0.00002139
     The Hubbard contrib.    to forces
     atom    1 type  1   force =     0.00000000    0.00000000    0.00000000
     atom    2 type  1   force =     0.00000000    0.00000000    0.00000000
     The SCF correction term to forces
     atom    1 type  1   force =    -0.00000000   -0.00000000   -0.00003993
     atom    2 type  1   force =     0.00000000   -0.00000000   -0.00003953

     DFT-D3 dispersion contribution to forces:
     atom    1 type  1   force =    -0.00000000   -0.00000000    0.00000015
     atom    2 type  1   force =     0.00000000    0.00000000   -0.00000015

     Total force =     0.001442     Total SCF correction =     0.000056

     DFT-D3 dispersion Force =     0.000000

     Writing all to output data dir /home/ubuntu/projects/Graphene-Band-Structure-Quantum-Espresso/outputs/field_0/grimme/bottom/data/bottom.save/ :
     XML data file, charge density, pseudopotentials, collected wavefunctions

     init_run     :      2.14s CPU      2.64s WALL (       1 calls)
     electrons    :     16.78s CPU     17.21s WALL (       1 calls)
     forces       :      0.39s CPU      0.43s WALL (       1 calls)
     force_dftd3  :      0.11s CPU      0.12s WALL (       1 calls)

     Called by init_run:
     wfcinit      :      0.59s CPU      0.59s WALL (       1 calls)
     wfcinit:atom :      0.01s CPU      0.01s WALL (       7 calls)
     wfcinit:wfcr :      0.55s CPU      0.55s WALL (       7 calls)
     potinit      :      0.63s CPU      0.91s WALL (       1 calls)
     hinit0       :      0.83s CPU      0.94s WALL (       1 calls)

     Called by electrons:
     c_bands      :     14.06s CPU     14.12s WALL (       6 calls)
     sum_band     :      1.49s CPU      1.51s WALL (       6 calls)
     v_of_rho     :      0.66s CPU      1.16s WALL (       7 calls)
     v_h          :      0.04s CPU      0.04s WALL (       7 calls)
     v_xc         :      0.68s CPU      1.21s WALL (       8 calls)
     mix_rho      :      0.13s CPU      0.21s WALL (       6 calls)
     energy_dftd3 :      0.04s CPU      0.04s WALL (       1 calls)

     Called by c_bands:
     init_us_2    :      0.18s CPU      0.19s WALL (      98 calls)
     cegterg      :     10.24s CPU     10.29s WALL (      42 calls)

     Called by sum_band:
     sum_band:wei :      0.01s CPU      0.01s WALL (       6 calls)
     sum_band:loo :      0.90s CPU      0.90s WALL (       6 calls)
     sum_band:buf :      0.03s CPU      0.03s WALL (      42 calls)
     sum_band:ini :      0.08s CPU      0.08s WALL (      42 calls)

     Called by *egterg:
     cdiaghg      :      0.06s CPU      0.06s WALL (     310 calls)
     cegterg:over :      0.85s CPU      0.86s WALL (     268 calls)
     cegterg:upda :      0.59s CPU      0.60s WALL (     268 calls)
     cegterg:last :      1.01s CPU      1.01s WALL (     124 calls)
     h_psi        :      7.90s CPU      7.94s WALL (     317 calls)
     g_psi        :      0.06s CPU      0.06s WALL (     268 calls)

     Called by h_psi:
     h_psi:calbec :      0.59s CPU      0.59s WALL (     317 calls)
     vloc_psi     :      6.69s CPU      6.72s WALL (     317 calls)
     add_vuspsi   :      0.59s CPU      0.59s WALL (     317 calls)

     General routines
     calbec       :      0.67s CPU      0.67s WALL (     345 calls)
     fft          :      1.00s CPU      1.06s WALL (      92 calls)
     ffts         :      0.42s CPU      0.42s WALL (      13 calls)
     fftw         :      6.67s CPU      6.70s WALL (    3414 calls)
     interpolate  :      0.43s CPU      0.43s WALL (       7 calls)

     Parallel routines

     PWSCF        :     19.65s CPU     20.68s WALL


   This run was terminated on:   2:28: 1  25Sep2026            

=------------------------------------------------------------------------------=
   JOB DONE.
=------------------------------------------------------------------------------=
