
     Program PWSCF v.7.6 starts on 25Sep2026 at  2:59:37 

     This program is part of the open-source Quantum ESPRESSO suite
     for quantum simulation of materials; please cite
         "P. Giannozzi et al., J. Phys.:Condens. Matter 21 395502 (2009);
         "P. Giannozzi et al., J. Phys.:Condens. Matter 29 465901 (2017);
         "P. Giannozzi et al., J. Chem. Phys. 152 154105 (2020);
          URL http://www.quantum-espresso.org", 
     in publications or presentations arising from this work. More details at
     http://www.quantum-espresso.org/quote

     Parallel version (MPI), running on     4 processors

     MPI processes distributed on     1 nodes
     510 MiB available memory on the printing compute node when the environment starts

     Waiting for input...
     Reading input from standard input
Warning: card &IONS ignored
Warning: card &CELL ignored
Warning: card &FCP ignored
Warning: card &RISM ignored

     Current dimensions of program PWSCF are:
     Max number of different atomic species (ntypx) = 10
     Max number of k-points (npk) =  40000
     Max angular momentum in pseudopotentials (lmaxx) =  4

     Atomic positions and unit cell read from directory:
     /home/ubuntu/projects/Graphene-Band-Structure-Quantum-Espresso/outputs/field_0/ts/top/data/top.save/

     Message from routine setup:
     using ibrav=0 with symmetry is DISCOURAGED, use correct ibrav instead

     K-points division:     npool     =       4
     Subspace diagonalization in iterative solution of the eigenvalue problem:
     a serial algorithm will be used


     G-vector sticks info
     --------------------
     sticks:   dense  smooth     PW     G-vecs:    dense   smooth      PW
     Sum         595     475    151               111671    79745   13381

     Using Slab Decomposition



     bravais-lattice index     =            0
     lattice parameter (alat)  =       4.6487  a.u.
     unit-cell volume          =     825.8174 (a.u.)^3
     number of atoms/cell      =            2
     number of atomic types    =            1
     number of electrons       =         8.00
     number of Kohn-Sham states=           12
     kinetic-energy cutoff     =      80.0000  Ry
     charge density cutoff     =     400.0000  Ry
     Exchange-correlation= PBE
                           (   1   4   3   4   0   0   0)

     celldm(1)=   4.648726  celldm(2)=   0.000000  celldm(3)=   0.000000
     celldm(4)=   0.000000  celldm(5)=   0.000000  celldm(6)=   0.000000

     crystal axes: (cart. coord. in units of alat)
               a(1) = (   1.000000   0.000000   0.000000 )  
               a(2) = (  -0.500000   0.866025   0.000000 )  
               a(3) = (   0.000000   0.000000   9.491870 )  

     reciprocal axes: (cart. coord. in units 2 pi/alat)
               b(1) = (  1.000000  0.577351 -0.000000 )  
               b(2) = (  0.000000  1.154701  0.000000 )  
               b(3) = (  0.000000 -0.000000  0.105353 )  


     PseudoPot. # 1 for C  read from file:
     /home/ubuntu/projects/Graphene-Band-Structure-Quantum-Espresso/pseudo/C.upf
     MD5 check sum: 34a24e64c0a39f27c6c36b90a16ac686
     Pseudo is Norm-conserving + core correction, Zval =  4.0
     Generated using ONCVPSP code by D. R. Hamann
     Using radial grid of 1248 points,  4 beta functions with: 
                l(1) =   0
                l(2) =   0
                l(3) =   1
                l(4) =   1

     atomic species   valence    mass     pseudopotential
     C                 4.00    12.01100     C ( 1.00)

      6 Sym. Ops. (no inversion) found


                                    s                        frac. trans.

      isym =  1     identity                                     

 cryst.   s( 1) = (     1          0          0      )
                  (     0          1          0      )
                  (     0          0          1      )

 cart.    s( 1) = (  1.0000000  0.0000000  0.0000000 )
                  (  0.0000000  1.0000000  0.0000000 )
                  (  0.0000000  0.0000000  1.0000000 )


      isym =  2     120 deg rotation - cryst. axis [0,0,1]       

 cryst.   s( 2) = (     0          1          0      )
                  (    -1         -1          0      )
                  (     0          0          1      )

 cart.    s( 2) = ( -0.5000000 -0.8660258  0.0000000 )
                  (  0.8660250 -0.5000000  0.0000000 )
                  (  0.0000000  0.0000000  1.0000000 )


      isym =  3     120 deg rotation - cryst. axis [0,0,-1]      

 cryst.   s( 3) = (    -1         -1          0      )
                  (     1          0          0      )
                  (     0          0          1      )

 cart.    s( 3) = ( -0.5000000  0.8660258  0.0000000 )
                  ( -0.8660250 -0.5000000  0.0000000 )
                  (  0.0000000  0.0000000  1.0000000 )


      isym =  4     inv. 180 deg rotation - cart. axis [1,0,0]   

 cryst.   s( 4) = (    -1          0          0      )
                  (     1          1          0      )
                  (     0          0          1      )

 cart.    s( 4) = ( -1.0000000  0.0000000  0.0000000 )
                  (  0.0000000  1.0000000  0.0000000 )
                  (  0.0000000  0.0000000  1.0000000 )


      isym =  5     inv. 180 deg rotation - cryst. axis [0,1,0]  

 cryst.   s( 5) = (     1          1          0      )
                  (     0         -1          0      )
                  (     0          0          1      )

 cart.    s( 5) = (  0.5000000  0.8660258  0.0000000 )
                  (  0.8660250 -0.5000000  0.0000000 )
                  (  0.0000000  0.0000000  1.0000000 )


      isym =  6     inv. 180 deg rotation - cryst. axis [1,1,0]  

 cryst.   s( 6) = (     0         -1          0      )
                  (    -1          0          0      )
                  (     0          0          1      )

 cart.    s( 6) = (  0.5000000 -0.8660258  0.0000000 )
                  ( -0.8660250 -0.5000000  0.0000000 )
                  (  0.0000000  0.0000000  1.0000000 )


   Cartesian axes

     site n.     atom                  positions (alat units)
         1        C      tau(   1) = (   0.5000000   0.2886752   5.4589968  )
         2        C      tau(   2) = (   0.0000000   0.5773503   5.4596266  )

   Crystallographic axes

     site n.     atom                  positions (cryst. coord.)
         1        C      tau(   1) = (  0.6666668  0.3333335  0.5751234  )
         2        C      tau(   2) = (  0.3333335  0.6666670  0.5751898  )

     number of k points=    91  Gaussian smearing, width (Ry)=  0.0100
                       cart. coord. in units 2pi/alat
        k(    1) = (   0.0000000   0.0000000   0.0000000), wk =   0.0022222
        k(    2) = (   0.0000000   0.0384900   0.0000000), wk =   0.0133333
        k(    3) = (   0.0000000   0.0769801   0.0000000), wk =   0.0133333
        k(    4) = (   0.0000000   0.1154701   0.0000000), wk =   0.0133333
        k(    5) = (   0.0000000   0.1539601   0.0000000), wk =   0.0133333
        k(    6) = (   0.0000000   0.1924502   0.0000000), wk =   0.0133333
        k(    7) = (   0.0000000   0.2309402   0.0000000), wk =   0.0133333
        k(    8) = (   0.0000000   0.2694303   0.0000000), wk =   0.0133333
        k(    9) = (   0.0000000   0.3079203   0.0000000), wk =   0.0133333
        k(   10) = (   0.0000000   0.3464103   0.0000000), wk =   0.0133333
        k(   11) = (   0.0000000   0.3849004   0.0000000), wk =   0.0133333
        k(   12) = (   0.0000000   0.4233904   0.0000000), wk =   0.0133333
        k(   13) = (   0.0000000   0.4618804   0.0000000), wk =   0.0133333
        k(   14) = (   0.0000000   0.5003705   0.0000000), wk =   0.0133333
        k(   15) = (   0.0000000   0.5388605   0.0000000), wk =   0.0133333
        k(   16) = (   0.0000000  -0.5773505   0.0000000), wk =   0.0066667
        k(   17) = (   0.0333333   0.0577351   0.0000000), wk =   0.0133333
        k(   18) = (   0.0333333   0.0962251   0.0000000), wk =   0.0266667
        k(   19) = (   0.0333333   0.1347151   0.0000000), wk =   0.0266667
        k(   20) = (   0.0333333   0.1732052   0.0000000), wk =   0.0266667
        k(   21) = (   0.0333333   0.2116952   0.0000000), wk =   0.0266667
        k(   22) = (   0.0333333   0.2501852   0.0000000), wk =   0.0266667
        k(   23) = (   0.0333333   0.2886753   0.0000000), wk =   0.0266667
        k(   24) = (   0.0333333   0.3271653   0.0000000), wk =   0.0266667
        k(   25) = (   0.0333333   0.3656553   0.0000000), wk =   0.0266667
        k(   26) = (   0.0333333   0.4041454   0.0000000), wk =   0.0266667
        k(   27) = (   0.0333333   0.4426354   0.0000000), wk =   0.0266667
        k(   28) = (   0.0333333   0.4811254   0.0000000), wk =   0.0266667
        k(   29) = (   0.0333333   0.5196155   0.0000000), wk =   0.0266667
        k(   30) = (   0.0333333   0.5581055   0.0000000), wk =   0.0266667
        k(   31) = (   0.0666667   0.1154701   0.0000000), wk =   0.0133333
        k(   32) = (   0.0666667   0.1539601   0.0000000), wk =   0.0266667
        k(   33) = (   0.0666667   0.1924502   0.0000000), wk =   0.0266667
        k(   34) = (   0.0666667   0.2309402   0.0000000), wk =   0.0266667
        k(   35) = (   0.0666667   0.2694303   0.0000000), wk =   0.0266667
        k(   36) = (   0.0666667   0.3079203   0.0000000), wk =   0.0266667
        k(   37) = (   0.0666667   0.3464103   0.0000000), wk =   0.0266667
        k(   38) = (   0.0666667   0.3849004   0.0000000), wk =   0.0266667
        k(   39) = (   0.0666667   0.4233904   0.0000000), wk =   0.0266667
        k(   40) = (   0.0666667   0.4618804   0.0000000), wk =   0.0266667
        k(   41) = (   0.0666667   0.5003705   0.0000000), wk =   0.0266667
        k(   42) = (   0.0666667   0.5388605   0.0000000), wk =   0.0266667
        k(   43) = (   0.0666667   0.5773505   0.0000000), wk =   0.0133333
        k(   44) = (   0.1000000   0.1732052   0.0000000), wk =   0.0133333
        k(   45) = (   0.1000000   0.2116952   0.0000000), wk =   0.0266667
        k(   46) = (   0.1000000   0.2501852   0.0000000), wk =   0.0266667
        k(   47) = (   0.1000000   0.2886753   0.0000000), wk =   0.0266667
        k(   48) = (   0.1000000   0.3271653   0.0000000), wk =   0.0266667
        k(   49) = (   0.1000000   0.3656553   0.0000000), wk =   0.0266667
        k(   50) = (   0.1000000   0.4041454   0.0000000), wk =   0.0266667
        k(   51) = (   0.1000000   0.4426354   0.0000000), wk =   0.0266667
        k(   52) = (   0.1000000   0.4811254   0.0000000), wk =   0.0266667
        k(   53) = (   0.1000000   0.5196155   0.0000000), wk =   0.0266667
        k(   54) = (   0.1000000   0.5581055   0.0000000), wk =   0.0266667
        k(   55) = (   0.1333333   0.2309402   0.0000000), wk =   0.0133333
        k(   56) = (   0.1333333   0.2694303   0.0000000), wk =   0.0266667
        k(   57) = (   0.1333333   0.3079203   0.0000000), wk =   0.0266667
        k(   58) = (   0.1333333   0.3464103   0.0000000), wk =   0.0266667
        k(   59) = (   0.1333333   0.3849004   0.0000000), wk =   0.0266667
        k(   60) = (   0.1333333   0.4233904   0.0000000), wk =   0.0266667
        k(   61) = (   0.1333333   0.4618804   0.0000000), wk =   0.0266667
        k(   62) = (   0.1333333   0.5003705   0.0000000), wk =   0.0266667
        k(   63) = (   0.1333333   0.5388605   0.0000000), wk =   0.0266667
        k(   64) = (   0.1333333   0.5773505   0.0000000), wk =   0.0133333
        k(   65) = (   0.1666667   0.2886753   0.0000000), wk =   0.0133333
        k(   66) = (   0.1666667   0.3271653   0.0000000), wk =   0.0266667
        k(   67) = (   0.1666667   0.3656553   0.0000000), wk =   0.0266667
        k(   68) = (   0.1666667   0.4041454   0.0000000), wk =   0.0266667
        k(   69) = (   0.1666667   0.4426354   0.0000000), wk =   0.0266667
        k(   70) = (   0.1666667   0.4811254   0.0000000), wk =   0.0266667
        k(   71) = (   0.1666667   0.5196155   0.0000000), wk =   0.0266667
        k(   72) = (   0.1666667   0.5581055   0.0000000), wk =   0.0266667
        k(   73) = (   0.2000000   0.3464103   0.0000000), wk =   0.0133333
        k(   74) = (   0.2000000   0.3849004   0.0000000), wk =   0.0266667
        k(   75) = (   0.2000000   0.4233904   0.0000000), wk =   0.0266667
        k(   76) = (   0.2000000   0.4618804   0.0000000), wk =   0.0266667
        k(   77) = (   0.2000000   0.5003705   0.0000000), wk =   0.0266667
        k(   78) = (   0.2000000   0.5388605   0.0000000), wk =   0.0266667
        k(   79) = (   0.2000000   0.5773505   0.0000000), wk =   0.0133333
        k(   80) = (   0.2333333   0.4041454   0.0000000), wk =   0.0133333
        k(   81) = (   0.2333333   0.4426354   0.0000000), wk =   0.0266667
        k(   82) = (   0.2333333   0.4811254   0.0000000), wk =   0.0266667
        k(   83) = (   0.2333333   0.5196155   0.0000000), wk =   0.0266667
        k(   84) = (   0.2333333   0.5581055   0.0000000), wk =   0.0266667
        k(   85) = (   0.2666667   0.4618804   0.0000000), wk =   0.0133333
        k(   86) = (   0.2666667   0.5003705   0.0000000), wk =   0.0266667
        k(   87) = (   0.2666667   0.5388605   0.0000000), wk =   0.0266667
        k(   88) = (   0.2666667   0.5773505   0.0000000), wk =   0.0133333
        k(   89) = (   0.3000000   0.5196155   0.0000000), wk =   0.0133333
        k(   90) = (   0.3000000   0.5581055   0.0000000), wk =   0.0266667
        k(   91) = (   0.3333333   0.5773505   0.0000000), wk =   0.0044444

                       cryst. coord.
        k(    1) = (   0.0000000   0.0000000   0.0000000), wk =   0.0022222
        k(    2) = (   0.0000000   0.0333333   0.0000000), wk =   0.0133333
        k(    3) = (   0.0000000   0.0666667   0.0000000), wk =   0.0133333
        k(    4) = (   0.0000000   0.1000000   0.0000000), wk =   0.0133333
        k(    5) = (   0.0000000   0.1333333   0.0000000), wk =   0.0133333
        k(    6) = (   0.0000000   0.1666667   0.0000000), wk =   0.0133333
        k(    7) = (   0.0000000   0.2000000   0.0000000), wk =   0.0133333
        k(    8) = (   0.0000000   0.2333333   0.0000000), wk =   0.0133333
        k(    9) = (   0.0000000   0.2666667   0.0000000), wk =   0.0133333
        k(   10) = (   0.0000000   0.3000000   0.0000000), wk =   0.0133333
        k(   11) = (   0.0000000   0.3333333   0.0000000), wk =   0.0133333
        k(   12) = (   0.0000000   0.3666667   0.0000000), wk =   0.0133333
        k(   13) = (   0.0000000   0.4000000   0.0000000), wk =   0.0133333
        k(   14) = (   0.0000000   0.4333333   0.0000000), wk =   0.0133333
        k(   15) = (   0.0000000   0.4666667   0.0000000), wk =   0.0133333
        k(   16) = (   0.0000000  -0.5000000   0.0000000), wk =   0.0066667
        k(   17) = (   0.0333333   0.0333333   0.0000000), wk =   0.0133333
        k(   18) = (   0.0333333   0.0666667   0.0000000), wk =   0.0266667
        k(   19) = (   0.0333333   0.1000000   0.0000000), wk =   0.0266667
        k(   20) = (   0.0333333   0.1333333   0.0000000), wk =   0.0266667
        k(   21) = (   0.0333333   0.1666667   0.0000000), wk =   0.0266667
        k(   22) = (   0.0333333   0.2000000   0.0000000), wk =   0.0266667
        k(   23) = (   0.0333333   0.2333333   0.0000000), wk =   0.0266667
        k(   24) = (   0.0333333   0.2666667   0.0000000), wk =   0.0266667
        k(   25) = (   0.0333333   0.3000000   0.0000000), wk =   0.0266667
        k(   26) = (   0.0333333   0.3333333   0.0000000), wk =   0.0266667
        k(   27) = (   0.0333333   0.3666667   0.0000000), wk =   0.0266667
        k(   28) = (   0.0333333   0.4000000   0.0000000), wk =   0.0266667
        k(   29) = (   0.0333333   0.4333333   0.0000000), wk =   0.0266667
        k(   30) = (   0.0333333   0.4666667   0.0000000), wk =   0.0266667
        k(   31) = (   0.0666667   0.0666667   0.0000000), wk =   0.0133333
        k(   32) = (   0.0666667   0.1000000   0.0000000), wk =   0.0266667
        k(   33) = (   0.0666667   0.1333333   0.0000000), wk =   0.0266667
        k(   34) = (   0.0666667   0.1666667   0.0000000), wk =   0.0266667
        k(   35) = (   0.0666667   0.2000000   0.0000000), wk =   0.0266667
        k(   36) = (   0.0666667   0.2333333   0.0000000), wk =   0.0266667
        k(   37) = (   0.0666667   0.2666667   0.0000000), wk =   0.0266667
        k(   38) = (   0.0666667   0.3000000   0.0000000), wk =   0.0266667
        k(   39) = (   0.0666667   0.3333333   0.0000000), wk =   0.0266667
        k(   40) = (   0.0666667   0.3666667   0.0000000), wk =   0.0266667
        k(   41) = (   0.0666667   0.4000000   0.0000000), wk =   0.0266667
        k(   42) = (   0.0666667   0.4333333   0.0000000), wk =   0.0266667
        k(   43) = (   0.0666667   0.4666667   0.0000000), wk =   0.0133333
        k(   44) = (   0.1000000   0.1000000   0.0000000), wk =   0.0133333
        k(   45) = (   0.1000000   0.1333333   0.0000000), wk =   0.0266667
        k(   46) = (   0.1000000   0.1666667   0.0000000), wk =   0.0266667
        k(   47) = (   0.1000000   0.2000000   0.0000000), wk =   0.0266667
        k(   48) = (   0.1000000   0.2333333   0.0000000), wk =   0.0266667
        k(   49) = (   0.1000000   0.2666667   0.0000000), wk =   0.0266667
        k(   50) = (   0.1000000   0.3000000   0.0000000), wk =   0.0266667
        k(   51) = (   0.1000000   0.3333333   0.0000000), wk =   0.0266667
        k(   52) = (   0.1000000   0.3666667   0.0000000), wk =   0.0266667
        k(   53) = (   0.1000000   0.4000000   0.0000000), wk =   0.0266667
        k(   54) = (   0.1000000   0.4333333   0.0000000), wk =   0.0266667
        k(   55) = (   0.1333333   0.1333333   0.0000000), wk =   0.0133333
        k(   56) = (   0.1333333   0.1666667   0.0000000), wk =   0.0266667
        k(   57) = (   0.1333333   0.2000000   0.0000000), wk =   0.0266667
        k(   58) = (   0.1333333   0.2333333   0.0000000), wk =   0.0266667
        k(   59) = (   0.1333333   0.2666667   0.0000000), wk =   0.0266667
        k(   60) = (   0.1333333   0.3000000   0.0000000), wk =   0.0266667
        k(   61) = (   0.1333333   0.3333333   0.0000000), wk =   0.0266667
        k(   62) = (   0.1333333   0.3666667   0.0000000), wk =   0.0266667
        k(   63) = (   0.1333333   0.4000000   0.0000000), wk =   0.0266667
        k(   64) = (   0.1333333   0.4333333   0.0000000), wk =   0.0133333
        k(   65) = (   0.1666667   0.1666667   0.0000000), wk =   0.0133333
        k(   66) = (   0.1666667   0.2000000   0.0000000), wk =   0.0266667
        k(   67) = (   0.1666667   0.2333333   0.0000000), wk =   0.0266667
        k(   68) = (   0.1666667   0.2666667   0.0000000), wk =   0.0266667
        k(   69) = (   0.1666667   0.3000000   0.0000000), wk =   0.0266667
        k(   70) = (   0.1666667   0.3333333   0.0000000), wk =   0.0266667
        k(   71) = (   0.1666667   0.3666667   0.0000000), wk =   0.0266667
        k(   72) = (   0.1666667   0.4000000   0.0000000), wk =   0.0266667
        k(   73) = (   0.2000000   0.2000000   0.0000000), wk =   0.0133333
        k(   74) = (   0.2000000   0.2333333   0.0000000), wk =   0.0266667
        k(   75) = (   0.2000000   0.2666667   0.0000000), wk =   0.0266667
        k(   76) = (   0.2000000   0.3000000   0.0000000), wk =   0.0266667
        k(   77) = (   0.2000000   0.3333333   0.0000000), wk =   0.0266667
        k(   78) = (   0.2000000   0.3666667   0.0000000), wk =   0.0266667
        k(   79) = (   0.2000000   0.4000000   0.0000000), wk =   0.0133333
        k(   80) = (   0.2333333   0.2333333   0.0000000), wk =   0.0133333
        k(   81) = (   0.2333333   0.2666667   0.0000000), wk =   0.0266667
        k(   82) = (   0.2333333   0.3000000   0.0000000), wk =   0.0266667
        k(   83) = (   0.2333333   0.3333333   0.0000000), wk =   0.0266667
        k(   84) = (   0.2333333   0.3666667   0.0000000), wk =   0.0266667
        k(   85) = (   0.2666667   0.2666667   0.0000000), wk =   0.0133333
        k(   86) = (   0.2666667   0.3000000   0.0000000), wk =   0.0266667
        k(   87) = (   0.2666667   0.3333333   0.0000000), wk =   0.0266667
        k(   88) = (   0.2666667   0.3666667   0.0000000), wk =   0.0133333
        k(   89) = (   0.3000000   0.3000000   0.0000000), wk =   0.0133333
        k(   90) = (   0.3000000   0.3333333   0.0000000), wk =   0.0266667
        k(   91) = (   0.3333333   0.3333333   0.0000000), wk =   0.0044444

     Dense  grid:   111671 G-vectors     FFT dimensions: (  30,  30, 288)

     Smooth grid:    79745 G-vectors     FFT dimensions: (  27,  27, 256)

     Dynamical RAM for                 wfc:       1.83 MB

     Dynamical RAM for     wfc (w. buffer):      43.85 MB

     Dynamical RAM for           str. fact:       1.70 MB

     Dynamical RAM for           local pot:       0.00 MB

     Dynamical RAM for          nlocal pot:       2.44 MB

     Dynamical RAM for                qrad:       0.46 MB

     Dynamical RAM for          rho,v,vnew:      11.04 MB

     Dynamical RAM for           G-vectors:       7.00 MB

     Dynamical RAM for          h,s,v(r/c):       0.03 MB

     Dynamical RAM for          <psi|beta>:       0.00 MB

     Dynamical RAM for                 psi:       3.65 MB

     Dynamical RAM for                hpsi:       3.65 MB

     Dynamical RAM for      wfcinit/wfcrot:       3.66 MB

     Estimated static dynamical RAM per process >      79.79 MB

     Estimated max dynamical RAM per process >      87.13 MB

     Estimated total dynamical RAM >     348.51 MB

   TS-vdW initialization
   ---------------------

   Determining TS-vdW damping function parameters...
     ddamp = 20.000000
     sR =  0.940000
   Initializing species #   1 with atomic symbol C  
     Equispaced/Uniform radial atomic grid detected...
     Radial grid parameter: NrgpA is  1248.
     Radial grid parameter: gfctrA is  1.000000.
     Radial grid parameter: dxA is  0.010000.
     The number of valence electrons, eref, is         3.999997992905759.
     The reference free atom volume, vref, is        38.949206933621483 bohr^3.
     Determining intial radial grid cutoff...
     An acceptable radial grid cutoff was determined by retaining  801 of 1248 radial grid points.
     The magnitude of the atomic pseudo-density at the radial grid cutoff is  8.758705E-07.
     Using this radial grid cutoff value of         8.000000000000000 au:
     The free atom volume computed with this cutoff is        38.564933645733234 bohr^3 with an error of  0.987%.
     Linear grid spacing was computed as:         0.001800000000000 bohr.
     The free atom static dipole polarizability is     12.000000 bohr^3.
     The free atom homonuclear C6 coefficient is     46.600000 Hartree bohr^6.
     The free atom vdW radius is      3.590000 bohr.

     The potential is recalculated from file :
     /home/ubuntu/projects/Graphene-Band-Structure-Quantum-Espresso/outputs/field_0/ts/top/data/top.save/charge-density

     Starting wfcs are    8 randomized atomic wfcs +    4 random wfcs

     Band Structure Calculation
     Davidson diagonalization with overlap

     Computing kpt #:     1  of    23 on this pool
     total cpu time spent up to now is        5.1 secs

     Computing kpt #:     2  of    23 on this pool
     c_bands:  1 eigenvalues not converged
     total cpu time spent up to now is        9.0 secs

     Computing kpt #:     3  of    23 on this pool
     total cpu time spent up to now is       13.9 secs

     Computing kpt #:     4  of    23 on this pool
     total cpu time spent up to now is       19.6 secs

     Computing kpt #:     5  of    23 on this pool
     total cpu time spent up to now is       23.9 secs

     Computing kpt #:     6  of    23 on this pool
     total cpu time spent up to now is       28.0 secs

     Computing kpt #:     7  of    23 on this pool
     total cpu time spent up to now is       33.8 secs

     Computing kpt #:     8  of    23 on this pool
     total cpu time spent up to now is       37.8 secs

     Computing kpt #:     9  of    23 on this pool
     total cpu time spent up to now is       44.0 secs

     Computing kpt #:    10  of    23 on this pool
     total cpu time spent up to now is       49.1 secs

     Computing kpt #:    11  of    23 on this pool
     total cpu time spent up to now is       54.0 secs

     Computing kpt #:    12  of    23 on this pool
     total cpu time spent up to now is       58.8 secs

     Computing kpt #:    13  of    23 on this pool
     total cpu time spent up to now is       63.1 secs

     Computing kpt #:    14  of    23 on this pool
     total cpu time spent up to now is       66.9 secs

     Computing kpt #:    15  of    23 on this pool
     total cpu time spent up to now is       72.2 secs

     Computing kpt #:    16  of    23 on this pool
     total cpu time spent up to now is       76.2 secs

     Computing kpt #:    17  of    23 on this pool
     total cpu time spent up to now is       82.1 secs

     Computing kpt #:    18  of    23 on this pool
     total cpu time spent up to now is       87.3 secs

     Computing kpt #:    19  of    23 on this pool
     total cpu time spent up to now is       91.8 secs

     Computing kpt #:    20  of    23 on this pool
     total cpu time spent up to now is       96.3 secs

     Computing kpt #:    21  of    23 on this pool
     total cpu time spent up to now is      101.4 secs

     Computing kpt #:    22  of    23 on this pool
     total cpu time spent up to now is      105.9 secs

     Computing kpt #:    23  of    23 on this pool
     total cpu time spent up to now is      110.7 secs

     ethr =  1.25E-10,  avg # of iterations = 69.2

     total cpu time spent up to now is      110.7 secs

     End of band structure calculation

          k = 0.0000 0.0000 0.0000 ( 10049 PWs)   bands (ev):

   -22.1951 -10.2744  -5.6527  -5.6526   0.6385   1.4174   1.7362   2.3447
     2.6890   3.8611   4.3272   5.8411

     occupation numbers 
     1.0000   1.0000   1.0000   1.0000   0.0000   0.0000   0.0000   0.0000
     0.0000   0.0000   0.0000   0.0000

          k = 0.0000 0.0385 0.0000 ( 10077 PWs)   bands (ev):

   -22.1688 -10.2427  -5.7619  -5.7108   0.6743   1.4537   1.7729   2.3812
     2.7254   3.8974   4.3632   5.8566

     occupation numbers 
     1.0000   1.0000   1.0000   1.0000   0.0000   0.0000   0.0000   0.0000
     0.0000   0.0000   0.0000   0.0000

          k = 0.0000 0.0770 0.0000 ( 10077 PWs)   bands (ev):

   -22.0898 -10.1479  -6.0786  -5.8772   0.7817   1.5626   1.8832   2.4907
     2.8349   4.0063   4.4712   5.8915

     occupation numbers 
     1.0000   1.0000   1.0000   1.0000   0.0000   0.0000   0.0000   0.0000
     0.0000   0.0000   0.0000   0.0000

          k = 0.0000 0.1155 0.0000 ( 10079 PWs)   bands (ev):

   -21.9583  -9.9904  -6.5740  -6.1313   0.9607   1.7440   2.0670   2.6733
     3.0173   4.1877   4.6512   5.9190

     occupation numbers 
     1.0000   1.0000   1.0000   1.0000   0.0000   0.0000   0.0000   0.0000
     0.0000   0.0000   0.0000   0.0000

          k = 0.0000 0.1540 0.0000 ( 10059 PWs)   bands (ev):

   -21.7746  -9.7707  -7.2108  -6.4464   1.2114   1.9978   2.3243   2.9288
     3.2727   4.4413   4.9025   5.9151

     occupation numbers 
     1.0000   1.0000   1.0000   1.0000   0.0000   0.0000   0.0000   0.0000
     0.0000   0.0000   0.0000   0.0000

          k = 0.0000 0.1925 0.0000 ( 10013 PWs)   bands (ev):

   -21.5389  -9.4900  -7.9519  -6.7963   1.5336   2.3236   2.6552   3.2569
     3.6010   4.7666   5.2225   5.8722

     occupation numbers 
     1.0000   1.0000   1.0000   1.0000   0.0000   0.0000   0.0000   0.0000
     0.0000   0.0000   0.0000   0.0000

          k = 0.0000 0.2309 0.0000 ( 10009 PWs)   bands (ev):

   -21.2517  -9.1498  -8.7646  -7.1583   1.9271   2.7206   3.0595   3.6572
     4.0020   5.1599   5.5803   5.8249

     occupation numbers 
     1.0000   1.0000   1.0000   1.0000   0.0000   0.0000   0.0000   0.0000
     0.0000   0.0000   0.0000   0.0000

          k = 0.0000 0.2694 0.0000 ( 10009 PWs)   bands (ev):

   -20.9135  -9.6222  -8.7522  -7.5146   2.3916   3.1864   3.5374   4.1264
     4.4750   5.1518   5.6297   5.6573

     occupation numbers 
     1.0000   1.0000   1.0000   1.0000   0.0000   0.0000   0.0000   0.0000
     0.0000   0.0000   0.0000   0.0000

          k = 0.0000 0.3079 0.0000 (  9969 PWs)   bands (ev):

   -20.5252 -10.5038  -8.3004  -7.8513   2.9265   3.6924   4.0886   4.2592
     4.7052   5.0156   5.5202   6.1872

     occupation numbers 
     1.0000   1.0000   1.0000   1.0000   0.0000   0.0000   0.0000   0.0000
     0.0000   0.0000   0.0000   0.0000

          k = 0.0000 0.3464 0.0000 (  9972 PWs)   bands (ev):

   -20.0877 -11.3927  -8.1583  -7.7993   3.2674   3.5313   4.3826   4.7127
     5.3076   5.3609   5.6693   6.7989

     occupation numbers 
     1.0000   1.0000   1.0000   1.0000   0.0000   0.0000   0.0000   0.0000
     0.0000   0.0000   0.0000   0.0000

          k = 0.0000 0.3849 0.0000 (  9978 PWs)   bands (ev):

   -19.6026 -12.2759  -8.4279  -7.2562   2.3492   4.2019   5.0531   5.2512
     5.4187   5.9971   6.3469   7.4820

     occupation numbers 
     1.0000   1.0000   1.0000   1.0000   0.0000   0.0000   0.0000   0.0000
     0.0000   0.0000   0.0000   0.0000

          k = 0.0000 0.4234 0.0000 (  9942 PWs)   bands (ev):

   -19.0718 -13.1424  -8.6548  -6.6836   1.4429   4.9001   5.1971   5.8043
     6.1854   6.7597   7.1099   8.2343

     occupation numbers 
     1.0000   1.0000   1.0000   1.0000   0.0000   0.0000   0.0000   0.0000
     0.0000   0.0000   0.0000   0.0000

          k = 0.0000 0.4619 0.0000 (  9950 PWs)   bands (ev):

   -18.4995 -13.9818  -8.8348  -6.1042   0.5917   5.0274   5.7952   6.6256
     7.0302   7.5937   7.9465   9.0532

     occupation numbers 
     1.0000   1.0000   1.0000   1.0000   0.0000   0.0000   0.0000   0.0000
     0.0000   0.0000   0.0000   0.0000

          k = 0.0000 0.5004 0.0000 (  9918 PWs)   bands (ev):

   -17.8946 -14.7804  -8.9652  -5.5618  -0.1510   4.9719   6.6645   7.5134
     7.9486   8.4975   8.8549   9.9313

     occupation numbers 
     1.0000   1.0000   1.0000   1.0000   0.0000   0.0000   0.0000   0.0000
     0.0000   0.0000   0.0000   0.0000

          k = 0.0000 0.5389 0.0000 (  9930 PWs)   bands (ev):

   -17.2911 -15.5014  -9.0441  -5.1414  -0.6939   4.9341   7.6040   8.4615
     8.9401   9.4667   9.6569   9.8388

     occupation numbers 
     1.0000   1.0000   1.0000   1.0000   0.0000   0.0000   0.0000   0.0000
     0.0000   0.0000   0.0000   0.0000

          k = 0.0000-0.5774 0.0000 (  9910 PWs)   bands (ev):

   -16.9226 -15.9092  -9.0705  -4.9747  -0.9018   4.9211   8.5346   8.6800
     9.3692   9.5660  10.0028  10.0073

     occupation numbers 
     1.0000   1.0000   1.0000   1.0000   0.0000   0.0000   0.0000   0.0000
     0.0000   0.0000   0.0000   0.0000

          k = 0.0333 0.0577 0.0000 ( 10081 PWs)   bands (ev):

   -22.1161 -10.1795  -5.9709  -5.8270   0.7459   1.5263   1.8465   2.4542
     2.7984   3.9700   4.4352   5.8928

     occupation numbers 
     1.0000   1.0000   1.0000   1.0000   0.0000   0.0000   0.0000   0.0000
     0.0000   0.0000   0.0000   0.0000

          k = 0.0333 0.0962 0.0000 ( 10077 PWs)   bands (ev):

   -22.0109 -10.0533  -6.3673  -6.0471   0.8891   1.6715   1.9935   2.6003
     2.9444   4.1151   4.5793   5.9497

     occupation numbers 
     1.0000   1.0000   1.0000   1.0000   0.0000   0.0000   0.0000   0.0000
     0.0000   0.0000   0.0000   0.0000

          k = 0.0333 0.1347 0.0000 ( 10065 PWs)   bands (ev):

   -21.8533  -9.8647  -6.9222  -6.3430   1.1040   1.8891   2.2141   2.8193
     3.1633   4.3327   4.7952   5.9879

     occupation numbers 
     1.0000   1.0000   1.0000   1.0000   0.0000   0.0000   0.0000   0.0000
     0.0000   0.0000   0.0000   0.0000

          k = 0.0333 0.1732 0.0000 ( 10049 PWs)   bands (ev):

   -21.6436  -9.6145  -7.6009  -6.6861   1.3905   2.1789   2.5082   3.1112
     3.4552   4.6223   5.0820   5.9838

     occupation numbers 
     1.0000   1.0000   1.0000   1.0000   0.0000   0.0000   0.0000   0.0000
     0.0000   0.0000   0.0000   0.0000

          k = 0.0333 0.2117 0.0000 ( 10021 PWs)   bands (ev):

   -21.3821  -9.3039  -8.3693  -7.0507   1.7484   2.5405   2.8758   3.4755
     3.8199   4.9827   5.4341   5.9382

     occupation numbers 
     1.0000   1.0000   1.0000   1.0000   0.0000   0.0000   0.0000   0.0000
     0.0000   0.0000   0.0000   0.0000

          k = 0.0333 0.2502 0.0000 ( 10003 PWs)   bands (ev):

   -21.0694  -9.1981  -8.9349  -7.4164   2.1774   2.9725   3.3169   3.9112
     4.2572   5.3825   5.6005   5.7460

     occupation numbers 
     1.0000   1.0000   1.0000   1.0000   0.0000   0.0000   0.0000   0.0000
     0.0000   0.0000   0.0000   0.0000

          k = 0.0333 0.2887 0.0000 (  9984 PWs)   bands (ev):

   -20.7062 -10.0629  -8.5099  -7.7678   2.6773   3.4683   3.8314   4.3965
     4.7087   4.7661   5.6884   5.9348

     occupation numbers 
     1.0000   1.0000   1.0000   1.0000   0.0000   0.0000   0.0000   0.0000
     0.0000   0.0000   0.0000   0.0000

          k = 0.0333 0.3272 0.0000 (  9983 PWs)   bands (ev):

   -20.2933 -10.9447  -8.0931  -8.0330   3.2473   3.6721   4.1301   4.4193
     5.0178   5.3304   5.5868   6.5095

     occupation numbers 
     1.0000   1.0000   1.0000   1.0000   0.0000   0.0000   0.0000   0.0000
     0.0000   0.0000   0.0000   0.0000

          k = 0.0333 0.3657 0.0000 (  9974 PWs)   bands (ev):

   -19.8319 -11.8282  -8.3839  -7.5099   2.7936   3.8862   4.7304   5.0790
     5.4297   5.6693   6.0233   7.1569

     occupation numbers 
     1.0000   1.0000   1.0000   1.0000   0.0000   0.0000   0.0000   0.0000
     0.0000   0.0000   0.0000   0.0000

          k = 0.0333 0.4041 0.0000 (  9958 PWs)   bands (ev):

   -19.3239 -12.7014  -8.6338  -6.9502   1.8789   4.5871   5.3249   5.4443
     5.8189   6.3955   6.7465   7.8743

     occupation numbers 
     1.0000   1.0000   1.0000   1.0000   0.0000   0.0000   0.0000   0.0000
     0.0000   0.0000   0.0000   0.0000

          k = 0.0333 0.4426 0.0000 (  9934 PWs)   bands (ev):

   -18.7719 -13.5535  -8.8384  -6.3704   0.9983   5.1488   5.4460   6.2305
     6.6262   7.1936   7.5464   8.6592

     occupation numbers 
     1.0000   1.0000   1.0000   1.0000   0.0000   0.0000   0.0000   0.0000
     0.0000   0.0000   0.0000   0.0000

          k = 0.0333 0.4811 0.0000 (  9940 PWs)   bands (ev):

   -18.1819 -14.3731  -8.9943  -5.8017   0.1953   5.1177   6.2464   7.0845
     7.5078   8.0622   8.4189   9.5070

     occupation numbers 
     1.0000   1.0000   1.0000   1.0000   0.0000   0.0000   0.0000   0.0000
     0.0000   0.0000   0.0000   0.0000

          k = 0.0333 0.5196 0.0000 (  9948 PWs)   bands (ev):

   -17.5701 -15.1400  -9.0994  -5.3055  -0.4611   5.0696   7.1521   8.0013
     8.4627   8.9986   9.3623  10.2184

     occupation numbers 
     1.0000   1.0000   1.0000   1.0000   0.0000   0.0000   0.0000   0.0000
     0.0000   0.0000   0.0000   0.0000

          k = 0.0333 0.5581 0.0000 (  9932 PWs)   bands (ev):

   -17.0207 -15.7676  -9.1523  -4.9940  -0.8539   5.0440   8.1195   8.9682
     9.1550   9.4915   9.9255  10.0912

     occupation numbers 
     1.0000   1.0000   1.0000   1.0000   0.0000   0.0000   0.0000   0.0000
     0.0000   0.0000   0.0000   0.0000

          k = 0.0667 0.1155 0.0000 ( 10077 PWs)   bands (ev):

   -21.8795  -9.8961  -6.8059  -6.3264   1.0682   1.8528   2.1773   2.7828
     3.1268   4.2964   4.7595   6.0658

     occupation numbers 
     1.0000   1.0000   1.0000   1.0000   0.0000   0.0000   0.0000   0.0000
     0.0000   0.0000   0.0000   0.0000

          k = 0.0667 0.1540 0.0000 ( 10049 PWs)   bands (ev):

   -21.6960  -9.6768  -7.3772  -6.6761   1.3190   2.1065   2.4346   3.0383
     3.3823   4.5500   5.0117   6.1701

     occupation numbers 
     1.0000   1.0000   1.0000   1.0000   0.0000   0.0000   0.0000   0.0000
     0.0000   0.0000   0.0000   0.0000

          k = 0.0667 0.1925 0.0000 ( 10034 PWs)   bands (ev):

   -21.4605  -9.3967  -8.0593  -7.0583   1.6412   2.4322   2.7655   3.3664
     3.7108   4.8754   5.3345   6.2116

     occupation numbers 
     1.0000   1.0000   1.0000   1.0000   0.0000   0.0000   0.0000   0.0000
     0.0000   0.0000   0.0000   0.0000

          k = 0.0667 0.2309 0.0000 ( 10004 PWs)   bands (ev):

   -21.1736  -9.0572  -8.8248  -7.4459   2.0348   2.8293   3.1699   3.7668
     4.1120   5.2688   5.7207   5.8549

     occupation numbers 
     1.0000   1.0000   1.0000   1.0000   0.0000   0.0000   0.0000   0.0000
     0.0000   0.0000   0.0000   0.0000

          k = 0.0667 0.2694 0.0000 (  9986 PWs)   bands (ev):

   -20.8358  -9.6469  -8.6604  -7.8209   2.4995   3.2953   3.6477   4.2359
     4.5856   5.0162   5.7522   6.0252

     occupation numbers 
     1.0000   1.0000   1.0000   1.0000   0.0000   0.0000   0.0000   0.0000
     0.0000   0.0000   0.0000   0.0000

          k = 0.0667 0.3079 0.0000 (  9972 PWs)   bands (ev):

   -20.4480 -10.5021  -8.2095  -8.1708   3.0347   3.7904   4.1667   4.1991
     4.8001   5.1302   5.9611   6.2898

     occupation numbers 
     1.0000   1.0000   1.0000   1.0000   0.0000   0.0000   0.0000   0.0000
     0.0000   0.0000   0.0000   0.0000

          k = 0.0667 0.3464 0.0000 (  9960 PWs)   bands (ev):

   -20.0111 -11.3717  -8.4868  -7.7092   3.1917   3.6399   4.4766   4.8236
     5.4124   5.7123   5.8846   6.9009

     occupation numbers 
     1.0000   1.0000   1.0000   1.0000   0.0000   0.0000   0.0000   0.0000
     0.0000   0.0000   0.0000   0.0000

          k = 0.0667 0.3849 0.0000 (  9955 PWs)   bands (ev):

   -19.5267 -12.2406  -8.7625  -7.1668   2.2875   4.3128   5.1519   5.5183
     5.7203   6.1020   6.4584   7.5820

     occupation numbers 
     1.0000   1.0000   1.0000   1.0000   0.0000   0.0000   0.0000   0.0000
     0.0000   0.0000   0.0000   0.0000

          k = 0.0667 0.4234 0.0000 (  9952 PWs)   bands (ev):

   -18.9970 -13.0966  -8.9934  -6.5946   1.3971   5.0442   5.6253   5.9018
     6.2960   6.8636   7.2194   8.3305

     occupation numbers 
     1.0000   1.0000   1.0000   1.0000   0.0000   0.0000   0.0000   0.0000
     0.0000   0.0000   0.0000   0.0000

          k = 0.0667 0.4619 0.0000 (  9951 PWs)   bands (ev):

   -18.4260 -13.9281  -9.1759  -6.0147   0.5579   5.4820   5.9132   6.7196
     7.1404   7.6955   8.0554   9.1422

     occupation numbers 
     1.0000   1.0000   1.0000   1.0000   0.0000   0.0000   0.0000   0.0000
     0.0000   0.0000   0.0000   0.0000

          k = 0.0667 0.5004 0.0000 (  9948 PWs)   bands (ev):

   -17.8228 -14.7207  -9.3079  -5.4704  -0.1776   5.4388   6.7690   7.6005
     8.0587   8.5956   8.9631  10.0033

     occupation numbers 
     1.0000   1.0000   1.0000   1.0000   0.0000   0.0000   0.0000   0.0000
     0.0000   0.0000   0.0000   0.0000

          k = 0.0667 0.5389 0.0000 (  9944 PWs)   bands (ev):

   -17.2215 -15.4370  -9.3876  -5.0467  -0.7183   5.4018   7.7048   8.5345
     9.0500   9.5548   9.7434   9.9463

     occupation numbers 
     1.0000   1.0000   1.0000   1.0000   0.0000   0.0000   0.0000   0.0000
     0.0000   0.0000   0.0000   0.0000

          k = 0.0667 0.5774 0.0000 (  9926 PWs)   bands (ev):

   -16.8551 -15.8420  -9.4143  -4.8780  -0.9264   5.3889   8.6276   8.7791
     9.3712   9.6751  10.1124  10.1171

     occupation numbers 
     1.0000   1.0000   1.0000   1.0000   0.0000   0.0000   0.0000   0.0000
     0.0000   0.0000   0.0000   0.0000

          k = 0.1000 0.1732 0.0000 ( 10027 PWs)   bands (ev):

   -21.4866  -9.4277  -7.9297  -7.0873   1.6055   2.3962   2.7288   3.3300
     3.6744   4.8395   5.3003   6.3934

     occupation numbers 
     1.0000   1.0000   1.0000   1.0000   0.0000   0.0000   0.0000   0.0000
     0.0000   0.0000   0.0000   0.0000

          k = 0.1000 0.2117 0.0000 ( 10002 PWs)   bands (ev):

   -21.2257  -9.1184  -8.5773  -7.5243   1.9636   2.7576   3.0964   3.6944
     4.0394   5.2005   5.6599   6.0021

     occupation numbers 
     1.0000   1.0000   1.0000   1.0000   0.0000   0.0000   0.0000   0.0000
     0.0000   0.0000   0.0000   0.0000

          k = 0.1000 0.2502 0.0000 (  9984 PWs)   bands (ev):

   -20.9137  -9.3085  -8.7509  -7.9491   2.3928   3.1898   3.5375   4.1305
     4.4772   5.2311   5.6384   6.0846

     occupation numbers 
     1.0000   1.0000   1.0000   1.0000   0.0000   0.0000   0.0000   0.0000
     0.0000   0.0000   0.0000   0.0000

          k = 0.1000 0.2887 0.0000 (  9985 PWs)   bands (ev):

   -20.5513 -10.1012  -8.3427  -8.3277   2.8929   3.6859   4.0521   4.4011
     4.6549   4.9874   6.1407   6.4584

     occupation numbers 
     1.0000   1.0000   1.0000   1.0000   0.0000   0.0000   0.0000   0.0000
     0.0000   0.0000   0.0000   0.0000

          k = 0.1000 0.3272 0.0000 (  9972 PWs)   bands (ev):

   -20.1396 -10.9310  -8.6966  -7.8526   3.4622   3.5185   4.2907   4.6402
     5.2269   5.5686   6.4272   6.7154

     occupation numbers 
     1.0000   1.0000   1.0000   1.0000   0.0000   0.0000   0.0000   0.0000
     0.0000   0.0000   0.0000   0.0000

          k = 0.1000 0.3657 0.0000 (  9976 PWs)   bands (ev):

   -19.6796 -11.7774  -9.0062  -7.3312   2.6427   4.1032   4.9280   5.3015
     5.8799   6.1895   6.3606   7.3594

     occupation numbers 
     1.0000   1.0000   1.0000   1.0000   0.0000   0.0000   0.0000   0.0000
     0.0000   0.0000   0.0000   0.0000

          k = 0.1000 0.4041 0.0000 (  9961 PWs)   bands (ev):

   -19.1733 -12.6236  -9.2685  -6.7727   1.7632   4.8105   5.6411   6.0326
     6.2106   6.6045   6.9677   8.0701

     occupation numbers 
     1.0000   1.0000   1.0000   1.0000   0.0000   0.0000   0.0000   0.0000
     0.0000   0.0000   0.0000   0.0000

          k = 0.1000 0.4426 0.0000 (  9961 PWs)   bands (ev):

   -18.6237 -13.4561  -9.4810  -6.1930   0.9121   5.5755   6.1251   6.4214
     6.8470   7.3990   7.7649   8.8426

     occupation numbers 
     1.0000   1.0000   1.0000   1.0000   0.0000   0.0000   0.0000   0.0000
     0.0000   0.0000   0.0000   0.0000

          k = 0.1000 0.4811 0.0000 (  9974 PWs)   bands (ev):

   -18.0367 -14.2611  -9.6418  -5.6220   0.1292   6.0011   6.4679   7.2633
     7.7281   8.2610   8.6361   9.6636

     occupation numbers 
     1.0000   1.0000   1.0000   1.0000   0.0000   0.0000   0.0000   0.0000
     0.0000   0.0000   0.0000   0.0000

          k = 0.1000 0.5196 0.0000 (  9966 PWs)   bands (ev):

   -17.4288 -15.0170  -9.7498  -5.1202  -0.5178   5.9649   7.3575   8.1560
     8.6828   9.1831   9.5775  10.3689

     occupation numbers 
     1.0000   1.0000   1.0000   1.0000   0.0000   0.0000   0.0000   0.0000
     0.0000   0.0000   0.0000   0.0000

          k = 0.1000 0.5581 0.0000 (  9938 PWs)   bands (ev):

   -16.8843 -15.6362  -9.8040  -4.8020  -0.9098   5.9402   8.3157   9.0557
     9.3385   9.7112   9.9904  10.3040

     occupation numbers 
     1.0000   1.0000   1.0000   1.0000   0.0000   0.0000   0.0000   0.0000
     0.0000   0.0000   0.0000   0.0000

          k = 0.1333 0.2309 0.0000 (  9979 PWs)   bands (ev):

   -20.9397  -9.1630  -8.7812  -8.0262   2.3572   3.1545   3.5008   4.0949
     4.4410   5.3096   5.5972   6.0570

     occupation numbers 
     1.0000   1.0000   1.0000   1.0000   0.0000   0.0000   0.0000   0.0000
     0.0000   0.0000   0.0000   0.0000

          k = 0.1333 0.2694 0.0000 (  9979 PWs)   bands (ev):

   -20.6031  -9.8265  -8.5080  -8.3870   2.8219   3.6215   3.9787   4.5405
     4.5823   4.9154   6.0648   6.5209

     occupation numbers 
     1.0000   1.0000   1.0000   1.0000   0.0000   0.0000   0.0000   0.0000
     0.0000   0.0000   0.0000   0.0000

          k = 0.1333 0.3079 0.0000 (  9973 PWs)   bands (ev):

   -20.2168 -10.5621  -8.9374  -7.9390   3.3571   3.7411   4.1704   4.5301
     5.1137   5.4621   6.6025   6.9934

     occupation numbers 
     1.0000   1.0000   1.0000   1.0000   0.0000   0.0000   0.0000   0.0000
     0.0000   0.0000   0.0000   0.0000

          k = 0.1333 0.3464 0.0000 (  9972 PWs)   bands (ev):

   -19.7818 -11.3477  -9.3061  -7.4416   2.9117   3.9625   4.7743   5.1549
     5.7302   6.0802   7.0508   7.2086

     occupation numbers 
     1.0000   1.0000   1.0000   1.0000   0.0000   0.0000   0.0000   0.0000
     0.0000   0.0000   0.0000   0.0000

          k = 0.1333 0.3849 0.0000 (  9950 PWs)   bands (ev):

   -19.2999 -12.1586  -9.6153  -6.9018   2.0652   4.6366   5.4505   5.8529
     6.4175   6.7539   6.9869   7.8804

     occupation numbers 
     1.0000   1.0000   1.0000   1.0000   0.0000   0.0000   0.0000   0.0000
     0.0000   0.0000   0.0000   0.0000

          k = 0.1333 0.4234 0.0000 (  9971 PWs)   bands (ev):

   -18.7733 -12.9740  -9.8671  -6.3309   1.2271   5.3777   6.1920   6.6222
     6.8644   7.1740   7.5502   8.6117

     occupation numbers 
     1.0000   1.0000   1.0000   1.0000   0.0000   0.0000   0.0000   0.0000
     0.0000   0.0000   0.0000   0.0000

          k = 0.1333 0.4619 0.0000 (  9968 PWs)   bands (ev):

   -18.2062 -13.7766 -10.0626  -5.7498   0.4277   6.1777   6.7884   6.9925
     7.4714   7.9966   8.3821   9.3864

     occupation numbers 
     1.0000   1.0000   1.0000   1.0000   0.0000   0.0000   0.0000   0.0000
     0.0000   0.0000   0.0000   0.0000

          k = 0.1333 0.5004 0.0000 (  9957 PWs)   bands (ev):

   -17.6082 -14.5483 -10.2023  -5.1993  -0.2845   6.6811   7.0935   7.8383
     8.3890   8.8772   9.2874  10.1409

     occupation numbers 
     1.0000   1.0000   1.0000   1.0000   0.0000   0.0000   0.0000   0.0000
     0.0000   0.0000   0.0000   0.0000

          k = 0.1333 0.5389 0.0000 (  9964 PWs)   bands (ev):

   -17.0135 -15.2493 -10.2862  -4.7645  -0.8187   6.6578   8.0061   8.6868
     9.3797   9.7705   9.9912  10.2680

     occupation numbers 
     1.0000   1.0000   1.0000   1.0000   0.0000   0.0000   0.0000   0.0000
     0.0000   0.0000   0.0000   0.0000

          k = 0.1333 0.5774 0.0000 (  9932 PWs)   bands (ev):

   -16.6527 -15.6459 -10.3141  -4.5886  -1.0281   6.6457   8.9015   9.0734
     9.2418  10.0023  10.4408  10.4466

     occupation numbers 
     1.0000   1.0000   1.0000   1.0000   0.0000   0.0000   0.0000   0.0000
     0.0000   0.0000   0.0000   0.0000

          k = 0.1667 0.2887 0.0000 (  9987 PWs)   bands (ev):

   -20.2425 -10.3989  -9.0598  -7.9679   3.3217   3.8262   4.1238   4.4933
     5.0754   5.4262   6.5644   7.0248

     occupation numbers 
     1.0000   1.0000   1.0000   1.0000   0.0000   0.0000   0.0000   0.0000
     0.0000   0.0000   0.0000   0.0000

          k = 0.1667 0.3272 0.0000 (  9974 PWs)   bands (ev):

   -19.8330 -11.0447  -9.5496  -7.4971   3.0591   3.8920   4.6949   5.0815
     5.6546   6.0095   7.1323   7.5697

     occupation numbers 
     1.0000   1.0000   1.0000   1.0000   0.0000   0.0000   0.0000   0.0000
     0.0000   0.0000   0.0000   0.0000

          k = 0.1667 0.3657 0.0000 (  9975 PWs)   bands (ev):

   -19.3760 -11.7595  -9.9534  -6.9800   2.2675   4.5313   5.3331   5.7430
     6.3042   6.6641   7.7646   7.7869

     occupation numbers 
     1.0000   1.0000   1.0000   1.0000   0.0000   0.0000   0.0000   0.0000
     0.0000   0.0000   0.0000   0.0000

          k = 0.1667 0.4041 0.0000 (  9989 PWs)   bands (ev):

   -18.8735 -12.5178 -10.2741  -6.4249   1.4678   5.2387   6.0347   6.4777
     7.0221   7.3830   7.7444   8.4534

     occupation numbers 
     1.0000   1.0000   1.0000   1.0000   0.0000   0.0000   0.0000   0.0000
     0.0000   0.0000   0.0000   0.0000

          k = 0.1667 0.4426 0.0000 (  9993 PWs)   bands (ev):

   -18.3288 -13.2916 -10.5216  -5.8459   0.6817   6.0119   6.7918   7.2847
     7.6426   7.8044   8.2052   9.1783

     occupation numbers 
     1.0000   1.0000   1.0000   1.0000   0.0000   0.0000   0.0000   0.0000
     0.0000   0.0000   0.0000   0.0000

          k = 0.1667 0.4811 0.0000 (  9951 PWs)   bands (ev):

   -17.7479 -14.0568 -10.7030  -5.2704  -0.0563   6.8441   7.5760   7.5861
     8.1692   8.6409   9.0702   9.8729

     occupation numbers 
     1.0000   1.0000   1.0000   1.0000   0.0000   0.0000   0.0000   0.0000
     0.0000   0.0000   0.0000   0.0000

          k = 0.1667 0.5196 0.0000 (  9951 PWs)   bands (ev):

   -17.1478 -14.7851 -10.8224  -4.7555  -0.6832   7.4782   7.7855   8.3651
     9.1228   9.4944  10.0062  10.3644

     occupation numbers 
     1.0000   1.0000   1.0000   1.0000   0.0000   0.0000   0.0000   0.0000
     0.0000   0.0000   0.0000   0.0000

          k = 0.1667 0.5581 0.0000 (  9953 PWs)   bands (ev):

   -16.6122 -15.3863 -10.8817  -4.4202  -1.0757   7.4734   8.7026   8.9510
     9.6909  10.1504  10.1533  10.7386

     occupation numbers 
     1.0000   1.0000   1.0000   1.0000   0.0000   0.0000   0.0000   0.0000
     0.0000   0.0000   0.0000   0.0000

          k = 0.2000 0.3464 0.0000 (  9967 PWs)   bands (ev):

   -19.4015 -11.5780 -10.1163  -7.0062   2.3393   4.4961   5.2933   5.7063
     6.2661   6.6289   7.7255   8.1721

     occupation numbers 
     1.0000   1.0000   1.0000   1.0000   0.0000   0.0000   0.0000   0.0000
     0.0000   0.0000   0.0000   0.0000

          k = 0.2000 0.3849 0.0000 ( 10011 PWs)   bands (ev):

   -18.9238 -12.1873 -10.5847  -6.4724   1.5994   5.1686   5.9542   6.4044
     6.9454   7.3198   8.3725   8.5736

     occupation numbers 
     1.0000   1.0000   1.0000   1.0000   0.0000   0.0000   0.0000   0.0000
     0.0000   0.0000   0.0000   0.0000

          k = 0.2000 0.4234 0.0000 (  9999 PWs)   bands (ev):

   -18.4028 -12.8659 -10.9398  -5.9055   0.8545   5.9078   6.6669   7.1758
     7.6873   8.0776   8.5867   9.0477

     occupation numbers 
     1.0000   1.0000   1.0000   1.0000   0.0000   0.0000   0.0000   0.0000
     0.0000   0.0000   0.0000   0.0000

          k = 0.2000 0.4619 0.0000 (  9981 PWs)   bands (ev):

   -17.8428 -13.5815 -11.1952  -5.3233   0.1269   6.7103   7.4072   8.0197
     8.4788   8.4985   8.9323   9.6763

     occupation numbers 
     1.0000   1.0000   1.0000   1.0000   0.0000   0.0000   0.0000   0.0000
     0.0000   0.0000   0.0000   0.0000

          k = 0.2000 0.5004 0.0000 (  9955 PWs)   bands (ev):

   -17.2538 -14.2978 -11.3679  -4.7615  -0.5428   7.5683   8.1077   8.4410
     8.9400   9.2818   9.8266  10.1626

     occupation numbers 
     1.0000   1.0000   1.0000   1.0000   0.0000   0.0000   0.0000   0.0000
     0.0000   0.0000   0.0000   0.0000

          k = 0.2000 0.5389 0.0000 (  9944 PWs)   bands (ev):

   -16.6698 -14.9640 -11.4682  -4.3021  -1.0688   8.3337   8.5427   8.6092
     9.9284  10.0243  10.3521  10.7212

     occupation numbers 
     1.0000   1.0000   1.0000   1.0000   0.0000   0.0000   0.0000   0.0000
     0.0000   0.0000   0.0000   0.0000

          k = 0.2000 0.5774 0.0000 (  9948 PWs)   bands (ev):

   -16.3157 -15.3464 -11.5012  -4.1085  -1.2849   8.3609   8.7739   9.3354
     9.5540  10.5471  10.9865  10.9950

     occupation numbers 
     1.0000   1.0000   1.0000   1.0000   0.0000   0.0000   0.0000   0.0000
     0.0000   0.0000   0.0000   0.0000

          k = 0.2333 0.4041 0.0000 (  9999 PWs)   bands (ev):

   -18.4275 -12.6672 -11.1373  -5.9257   0.9160   5.8728   6.6243   7.1392
     7.6478   8.0461   9.0029   9.2626

     occupation numbers 
     1.0000   1.0000   1.0000   1.0000   0.0000   0.0000   0.0000   0.0000
     0.0000   0.0000   0.0000   0.0000

          k = 0.2333 0.4426 0.0000 (  9981 PWs)   bands (ev):

   -17.8907 -13.2284 -11.5601  -5.3513   0.2295   6.6410   7.3131   7.9470
     8.3958   8.8392   9.4529   9.5718

     occupation numbers 
     1.0000   1.0000   1.0000   1.0000   0.0000   0.0000   0.0000   0.0000
     0.0000   0.0000   0.0000   0.0000

          k = 0.2333 0.4811 0.0000 (  9971 PWs)   bands (ev):

   -17.3201 -13.8576 -11.8470  -4.7704  -0.4378   7.4677   7.9372   8.8272
     9.1487   9.3716   9.7282  10.0198

     occupation numbers 
     1.0000   1.0000   1.0000   1.0000   0.0000   0.0000   0.0000   0.0000
     0.0000   0.0000   0.0000   0.0000

          k = 0.2333 0.5196 0.0000 (  9957 PWs)   bands (ev):

   -16.7326 -14.5059 -12.0212  -4.2308  -1.0364   8.3376   8.3407   9.3193
     9.7830   9.8791  10.6253  10.6285

     occupation numbers 
     1.0000   1.0000   1.0000   1.0000   0.0000   0.0000   0.0000   0.0000
     0.0000   0.0000   0.0000   0.0000

          k = 0.2333 0.5581 0.0000 (  9941 PWs)   bands (ev):

   -16.2074 -15.0676 -12.1035  -3.8550  -1.4422   8.4796   9.1663   9.3505
    10.1735  10.6575  10.8083  11.3942

     occupation numbers 
     1.0000   1.0000   1.0000   1.0000   0.0000   0.0000   0.0000   0.0000
     0.0000   0.0000   0.0000   0.0000

          k = 0.2667 0.4619 0.0000 (  9977 PWs)   bands (ev):

   -17.3426 -13.6474 -12.0709  -4.7742  -0.3989   7.4332   7.8770   8.7910
     9.1033   9.6628   9.9700  10.2193

     occupation numbers 
     1.0000   1.0000   1.0000   1.0000   0.0000   0.0000   0.0000   0.0000
     0.0000   0.0000   0.0000   0.0000

          k = 0.2667 0.5004 0.0000 (  9963 PWs)   bands (ev):

   -16.7686 -14.1509 -12.4219  -4.1982  -1.0099   8.1888   8.2740   9.7063
     9.7996  10.1578  10.5555  10.5613

     occupation numbers 
     1.0000   1.0000   1.0000   1.0000   0.0000   0.0000   0.0000   0.0000
     0.0000   0.0000   0.0000   0.0000

          k = 0.2667 0.5389 0.0000 (  9955 PWs)   bands (ev):

   -16.1996 -14.6988 -12.6142  -3.6869  -1.5415   8.2604   9.1362  10.0890
    10.6019  10.6628  10.7362  11.3981

     occupation numbers 
     1.0000   1.0000   1.0000   1.0000   0.0000   0.0000   0.0000   0.0000
     0.0000   0.0000   0.0000   0.0000

          k = 0.2667 0.5774 0.0000 (  9962 PWs)   bands (ev):

   -15.8448 -15.0510 -12.6743  -3.4419  -1.7933   8.2625   9.8706   9.9244
    10.3162  11.3088  11.7435  11.7606

     occupation numbers 
     1.0000   1.0000   1.0000   1.0000   0.0000   0.0000   0.0000   0.0000
     0.0000   0.0000   0.0000   0.0000

          k = 0.3000 0.5196 0.0000 (  9963 PWs)   bands (ev):

   -16.2042 -14.5077 -12.8463  -3.6276  -1.5758   8.1815   9.1048  10.5168
    10.5747  10.6468  10.8359  11.3788

     occupation numbers 
     1.0000   1.0000   1.0000   1.0000   0.0000   0.0000   0.0000   0.0000
     0.0000   0.0000   0.0000   0.0000

          k = 0.3000 0.5581 0.0000 (  9970 PWs)   bands (ev):

   -15.6847 -14.9208 -13.0627  -3.1387  -2.0610   8.1273   9.8846  10.4111
    10.8370  11.4581  11.6816  12.2687

     occupation numbers 
     1.0000   1.0000   1.0000   1.0000   0.0000   0.0000   0.0000   0.0000
     0.0000   0.0000   0.0000   0.0000

          k = 0.3333 0.5774 0.0000 (  9978 PWs)   bands (ev):

   -15.2414 -15.2414 -13.2379  -2.5946  -2.5945   8.0722  10.3508  10.3508
    10.9308  12.2860  12.2860  12.6624

     occupation numbers 
     1.0000   1.0000   1.0000   0.5002   0.4998   0.0000   0.0000   0.0000
     0.0000   0.0000   0.0000   0.0000

     the Fermi energy is    -2.5946 ev
     (compare with:    -2.5946 eV, computed in scf)

     Writing all to output data dir /home/ubuntu/projects/Graphene-Band-Structure-Quantum-Espresso/outputs/field_0/ts/top/data/top.save/ :
     XML data file, pseudopotentials, collected wavefunctions

     init_run     :      1.51s CPU      1.65s WALL (       1 calls)
     electrons    :    107.84s CPU    108.98s WALL (       1 calls)

     Called by init_run:
     wfcinit      :      0.00s CPU      0.00s WALL (       1 calls)
     wfcinit:atom :      0.03s CPU      0.03s WALL (      23 calls)
     wfcinit:wfcr :      1.60s CPU      1.62s WALL (      23 calls)
     potinit      :      0.57s CPU      0.65s WALL (       1 calls)
     hinit0       :      0.83s CPU      0.86s WALL (       1 calls)
     tsvdw_pair   :      0.00s CPU      0.00s WALL (       1 calls)

     Called by electrons:
     c_bands      :    107.84s CPU    108.96s WALL (       1 calls)
     v_of_rho     :      0.19s CPU      0.26s WALL (       1 calls)
     v_h          :      0.01s CPU      0.01s WALL (       1 calls)
     v_xc         :      0.11s CPU      0.15s WALL (       1 calls)
     tsvdw_rhotot :      0.00s CPU      0.00s WALL (       1 calls)
     tsvdw_screen :      0.05s CPU      0.06s WALL (       1 calls)
     tsvdw_veff   :      0.00s CPU      0.00s WALL (       1 calls)
     tsvdw_dveff  :      0.02s CPU      0.02s WALL (       1 calls)
     tsvdw_energy :      0.00s CPU      0.00s WALL (       1 calls)

     Called by c_bands:
     init_us_2    :      0.05s CPU      0.05s WALL (      23 calls)
     cegterg      :     84.12s CPU     84.99s WALL (      95 calls)

     Called by sum_band:

     Called by *egterg:
     cdiaghg      :      0.42s CPU      0.43s WALL (    1704 calls)
     cegterg:over :      9.27s CPU      9.36s WALL (    1681 calls)
     cegterg:upda :      6.06s CPU      6.11s WALL (    1681 calls)
     cegterg:last :     13.01s CPU     13.14s WALL (    1128 calls)
     h_psi        :     55.11s CPU     55.70s WALL (    1799 calls)
     g_psi        :      0.55s CPU      0.56s WALL (    1681 calls)

     Called by h_psi:
     h_psi:calbec :      4.45s CPU      4.49s WALL (    1799 calls)
     vloc_psi     :     46.24s CPU     46.76s WALL (    1799 calls)
     add_vuspsi   :      4.18s CPU      4.21s WALL (    1799 calls)

     General routines
     calbec       :      4.44s CPU      4.48s WALL (    1799 calls)
     fft          :      0.72s CPU      0.72s WALL (      12 calls)
     ffts         :      0.35s CPU      0.35s WALL (       1 calls)
     fftw         :     41.01s CPU     41.43s WALL (   23540 calls)
     interpolate  :      0.36s CPU      0.36s WALL (       1 calls)

     Parallel routines

     PWSCF        :   1m49.62s CPU   1m51.17s WALL


   This run was terminated on:   3: 1:28  25Sep2026            

=------------------------------------------------------------------------------=
   JOB DONE.
=------------------------------------------------------------------------------=
Note: The following floating-point exceptions are signalling: IEEE_UNDERFLOW_FLAG
Note: The following floating-point exceptions are signalling: IEEE_UNDERFLOW_FLAG
