
     Program PWSCF v.7.6 starts on  4Oct2026 at  8:18: 7 

     This program is part of the open-source Quantum ESPRESSO suite
     for quantum simulation of materials; please cite
         "P. Giannozzi et al., J. Phys.:Condens. Matter 21 395502 (2009);
         "P. Giannozzi et al., J. Phys.:Condens. Matter 29 465901 (2017);
         "P. Giannozzi et al., J. Chem. Phys. 152 154105 (2020);
          URL http://www.quantum-espresso.org", 
     in publications or presentations arising from this work. More details at
     http://www.quantum-espresso.org/quote

     Parallel version (MPI), running on    16 processors

     MPI processes distributed on     1 nodes
     28989 MiB available memory on the printing compute node when the environment starts

     Waiting for input...
     Reading input from standard input
Warning: card &IONS ignored
Warning: card &CELL ignored
Warning: card &FCP ignored
Warning: card &RISM ignored

     Current dimensions of program PWSCF are:
     Max number of different atomic species (ntypx) = 10
     Max number of k-points (npk) =  40000
     Max angular momentum in pseudopotentials (lmaxx) =  4

     IMPORTANT: XC functional enforced from input :
     Exchange-correlation= VDW-DF2-C09
                           (   1   4  16   0   2   0   0)
     Any further DFT definition will be discarded
     Please, verify this is what you really want


     Atomic positions and unit cell read from directory:
     /home/ubuntu/projects/Graphene-Band-Structure-Quantum-Espresso/outputs/field_0/vdw-df2-c09/top/data/top.save/

     Message from routine setup:
     using ibrav=0 with symmetry is DISCOURAGED, use correct ibrav instead

     K-points division:     npool     =      16
     Subspace diagonalization in iterative solution of the eigenvalue problem:
     a serial algorithm will be used


     G-vector sticks info
     --------------------
     sticks:   dense  smooth     PW     G-vecs:    dense   smooth      PW
     Sum         535     535    163                94953    94953   15739

     Using Slab Decomposition



     bravais-lattice index     =            0
     lattice parameter (alat)  =       4.6487  a.u.
     unit-cell volume          =     825.8174 (a.u.)^3
     number of atoms/cell      =            2
     number of atomic types    =            1
     number of electrons       =         8.00
     number of Kohn-Sham states=           30
     kinetic-energy cutoff     =      90.0000  Ry
     charge density cutoff     =     360.0000  Ry
     Exchange-correlation= VDW-DF2-C09
                           (   1   4  16   0   2   0   0)

     celldm(1)=   4.648726  celldm(2)=   0.000000  celldm(3)=   0.000000
     celldm(4)=   0.000000  celldm(5)=   0.000000  celldm(6)=   0.000000

     crystal axes: (cart. coord. in units of alat)
               a(1) = (   1.000000   0.000000   0.000000 )  
               a(2) = (  -0.500000   0.866025   0.000000 )  
               a(3) = (   0.000000   0.000000   9.491870 )  

     reciprocal axes: (cart. coord. in units 2 pi/alat)
               b(1) = (  1.000000  0.577351 -0.000000 )  
               b(2) = (  0.000000  1.154701  0.000000 )  
               b(3) = (  0.000000 -0.000000  0.105353 )  


     PseudoPot. # 1 for C  read from file:
     /home/ubuntu/projects/Graphene-Band-Structure-Quantum-Espresso/pseudo/C.upf
     MD5 check sum: 34a24e64c0a39f27c6c36b90a16ac686
     Pseudo is Norm-conserving + core correction, Zval =  4.0
     Generated using ONCVPSP code by D. R. Hamann
     Using radial grid of 1248 points,  4 beta functions with: 
                l(1) =   0
                l(2) =   0
                l(3) =   1
                l(4) =   1

     atomic species   valence    mass     pseudopotential
     C                 4.00    12.01100     C ( 1.00)

      6 Sym. Ops. (no inversion) found


                                    s                        frac. trans.

      isym =  1     identity                                     

 cryst.   s( 1) = (     1          0          0      )
                  (     0          1          0      )
                  (     0          0          1      )

 cart.    s( 1) = (  1.0000000  0.0000000  0.0000000 )
                  (  0.0000000  1.0000000  0.0000000 )
                  (  0.0000000  0.0000000  1.0000000 )


      isym =  2     120 deg rotation - cryst. axis [0,0,1]       

 cryst.   s( 2) = (     0          1          0      )
                  (    -1         -1          0      )
                  (     0          0          1      )

 cart.    s( 2) = ( -0.5000000 -0.8660258  0.0000000 )
                  (  0.8660250 -0.5000000  0.0000000 )
                  (  0.0000000  0.0000000  1.0000000 )


      isym =  3     120 deg rotation - cryst. axis [0,0,-1]      

 cryst.   s( 3) = (    -1         -1          0      )
                  (     1          0          0      )
                  (     0          0          1      )

 cart.    s( 3) = ( -0.5000000  0.8660258  0.0000000 )
                  ( -0.8660250 -0.5000000  0.0000000 )
                  (  0.0000000  0.0000000  1.0000000 )


      isym =  4     inv. 180 deg rotation - cart. axis [1,0,0]   

 cryst.   s( 4) = (    -1          0          0      )
                  (     1          1          0      )
                  (     0          0          1      )

 cart.    s( 4) = ( -1.0000000  0.0000000  0.0000000 )
                  (  0.0000000  1.0000000  0.0000000 )
                  (  0.0000000  0.0000000  1.0000000 )


      isym =  5     inv. 180 deg rotation - cryst. axis [0,1,0]  

 cryst.   s( 5) = (     1          1          0      )
                  (     0         -1          0      )
                  (     0          0          1      )

 cart.    s( 5) = (  0.5000000  0.8660258  0.0000000 )
                  (  0.8660250 -0.5000000  0.0000000 )
                  (  0.0000000  0.0000000  1.0000000 )


      isym =  6     inv. 180 deg rotation - cryst. axis [1,1,0]  

 cryst.   s( 6) = (     0         -1          0      )
                  (    -1          0          0      )
                  (     0          0          1      )

 cart.    s( 6) = (  0.5000000 -0.8660258  0.0000000 )
                  ( -0.8660250 -0.5000000  0.0000000 )
                  (  0.0000000  0.0000000  1.0000000 )


   Cartesian axes

     site n.     atom                  positions (alat units)
         1        C      tau(   1) = (   0.5000000   0.2886752   5.4590294  )
         2        C      tau(   2) = (   0.0000000   0.5773503   5.4596845  )

   Crystallographic axes

     site n.     atom                  positions (cryst. coord.)
         1        C      tau(   1) = (  0.6666668  0.3333335  0.5751269  )
         2        C      tau(   2) = (  0.3333335  0.6666670  0.5751959  )

     number of k points=   507  Gaussian smearing, width (Ry)=  0.0100
                       cart. coord. in units 2pi/alat
        k(    1) = (   0.0000000   0.0000000   0.0000000), wk =   0.0003556
        k(    2) = (   0.0000000   0.0153960   0.0000000), wk =   0.0021333
        k(    3) = (   0.0000000   0.0307920   0.0000000), wk =   0.0021333
        k(    4) = (   0.0000000   0.0461880   0.0000000), wk =   0.0021333
        k(    5) = (   0.0000000   0.0615841   0.0000000), wk =   0.0021333
        k(    6) = (   0.0000000   0.0769801   0.0000000), wk =   0.0021333
        k(    7) = (   0.0000000   0.0923761   0.0000000), wk =   0.0021333
        k(    8) = (   0.0000000   0.1077721   0.0000000), wk =   0.0021333
        k(    9) = (   0.0000000   0.1231681   0.0000000), wk =   0.0021333
        k(   10) = (   0.0000000   0.1385641   0.0000000), wk =   0.0021333
        k(   11) = (   0.0000000   0.1539601   0.0000000), wk =   0.0021333
        k(   12) = (   0.0000000   0.1693562   0.0000000), wk =   0.0021333
        k(   13) = (   0.0000000   0.1847522   0.0000000), wk =   0.0021333
        k(   14) = (   0.0000000   0.2001482   0.0000000), wk =   0.0021333
        k(   15) = (   0.0000000   0.2155442   0.0000000), wk =   0.0021333
        k(   16) = (   0.0000000   0.2309402   0.0000000), wk =   0.0021333
        k(   17) = (   0.0000000   0.2463362   0.0000000), wk =   0.0021333
        k(   18) = (   0.0000000   0.2617322   0.0000000), wk =   0.0021333
        k(   19) = (   0.0000000   0.2771283   0.0000000), wk =   0.0021333
        k(   20) = (   0.0000000   0.2925243   0.0000000), wk =   0.0021333
        k(   21) = (   0.0000000   0.3079203   0.0000000), wk =   0.0021333
        k(   22) = (   0.0000000   0.3233163   0.0000000), wk =   0.0021333
        k(   23) = (   0.0000000   0.3387123   0.0000000), wk =   0.0021333
        k(   24) = (   0.0000000   0.3541083   0.0000000), wk =   0.0021333
        k(   25) = (   0.0000000   0.3695043   0.0000000), wk =   0.0021333
        k(   26) = (   0.0000000   0.3849004   0.0000000), wk =   0.0021333
        k(   27) = (   0.0000000   0.4002964   0.0000000), wk =   0.0021333
        k(   28) = (   0.0000000   0.4156924   0.0000000), wk =   0.0021333
        k(   29) = (   0.0000000   0.4310884   0.0000000), wk =   0.0021333
        k(   30) = (   0.0000000   0.4464844   0.0000000), wk =   0.0021333
        k(   31) = (   0.0000000   0.4618804   0.0000000), wk =   0.0021333
        k(   32) = (   0.0000000   0.4772764   0.0000000), wk =   0.0021333
        k(   33) = (   0.0000000   0.4926725   0.0000000), wk =   0.0021333
        k(   34) = (   0.0000000   0.5080685   0.0000000), wk =   0.0021333
        k(   35) = (   0.0000000   0.5234645   0.0000000), wk =   0.0021333
        k(   36) = (   0.0000000   0.5388605   0.0000000), wk =   0.0021333
        k(   37) = (   0.0000000   0.5542565   0.0000000), wk =   0.0021333
        k(   38) = (   0.0000000   0.5696525   0.0000000), wk =   0.0021333
        k(   39) = (   0.0133333   0.0230940   0.0000000), wk =   0.0021333
        k(   40) = (   0.0133333   0.0384900   0.0000000), wk =   0.0042667
        k(   41) = (   0.0133333   0.0538861   0.0000000), wk =   0.0042667
        k(   42) = (   0.0133333   0.0692821   0.0000000), wk =   0.0042667
        k(   43) = (   0.0133333   0.0846781   0.0000000), wk =   0.0042667
        k(   44) = (   0.0133333   0.1000741   0.0000000), wk =   0.0042667
        k(   45) = (   0.0133333   0.1154701   0.0000000), wk =   0.0042667
        k(   46) = (   0.0133333   0.1308661   0.0000000), wk =   0.0042667
        k(   47) = (   0.0133333   0.1462621   0.0000000), wk =   0.0042667
        k(   48) = (   0.0133333   0.1616582   0.0000000), wk =   0.0042667
        k(   49) = (   0.0133333   0.1770542   0.0000000), wk =   0.0042667
        k(   50) = (   0.0133333   0.1924502   0.0000000), wk =   0.0042667
        k(   51) = (   0.0133333   0.2078462   0.0000000), wk =   0.0042667
        k(   52) = (   0.0133333   0.2232422   0.0000000), wk =   0.0042667
        k(   53) = (   0.0133333   0.2386382   0.0000000), wk =   0.0042667
        k(   54) = (   0.0133333   0.2540342   0.0000000), wk =   0.0042667
        k(   55) = (   0.0133333   0.2694303   0.0000000), wk =   0.0042667
        k(   56) = (   0.0133333   0.2848263   0.0000000), wk =   0.0042667
        k(   57) = (   0.0133333   0.3002223   0.0000000), wk =   0.0042667
        k(   58) = (   0.0133333   0.3156183   0.0000000), wk =   0.0042667
        k(   59) = (   0.0133333   0.3310143   0.0000000), wk =   0.0042667
        k(   60) = (   0.0133333   0.3464103   0.0000000), wk =   0.0042667
        k(   61) = (   0.0133333   0.3618063   0.0000000), wk =   0.0042667
        k(   62) = (   0.0133333   0.3772024   0.0000000), wk =   0.0042667
        k(   63) = (   0.0133333   0.3925984   0.0000000), wk =   0.0042667
        k(   64) = (   0.0133333   0.4079944   0.0000000), wk =   0.0042667
        k(   65) = (   0.0133333   0.4233904   0.0000000), wk =   0.0042667
        k(   66) = (   0.0133333   0.4387864   0.0000000), wk =   0.0042667
        k(   67) = (   0.0133333   0.4541824   0.0000000), wk =   0.0042667
        k(   68) = (   0.0133333   0.4695784   0.0000000), wk =   0.0042667
        k(   69) = (   0.0133333   0.4849745   0.0000000), wk =   0.0042667
        k(   70) = (   0.0133333   0.5003705   0.0000000), wk =   0.0042667
        k(   71) = (   0.0133333   0.5157665   0.0000000), wk =   0.0042667
        k(   72) = (   0.0133333   0.5311625   0.0000000), wk =   0.0042667
        k(   73) = (   0.0133333   0.5465585   0.0000000), wk =   0.0042667
        k(   74) = (   0.0133333   0.5619545   0.0000000), wk =   0.0042667
        k(   75) = (   0.0133333   0.5773505   0.0000000), wk =   0.0021333
        k(   76) = (   0.0266667   0.0461880   0.0000000), wk =   0.0021333
        k(   77) = (   0.0266667   0.0615841   0.0000000), wk =   0.0042667
        k(   78) = (   0.0266667   0.0769801   0.0000000), wk =   0.0042667
        k(   79) = (   0.0266667   0.0923761   0.0000000), wk =   0.0042667
        k(   80) = (   0.0266667   0.1077721   0.0000000), wk =   0.0042667
        k(   81) = (   0.0266667   0.1231681   0.0000000), wk =   0.0042667
        k(   82) = (   0.0266667   0.1385641   0.0000000), wk =   0.0042667
        k(   83) = (   0.0266667   0.1539601   0.0000000), wk =   0.0042667
        k(   84) = (   0.0266667   0.1693562   0.0000000), wk =   0.0042667
        k(   85) = (   0.0266667   0.1847522   0.0000000), wk =   0.0042667
        k(   86) = (   0.0266667   0.2001482   0.0000000), wk =   0.0042667
        k(   87) = (   0.0266667   0.2155442   0.0000000), wk =   0.0042667
        k(   88) = (   0.0266667   0.2309402   0.0000000), wk =   0.0042667
        k(   89) = (   0.0266667   0.2463362   0.0000000), wk =   0.0042667
        k(   90) = (   0.0266667   0.2617322   0.0000000), wk =   0.0042667
        k(   91) = (   0.0266667   0.2771283   0.0000000), wk =   0.0042667
        k(   92) = (   0.0266667   0.2925243   0.0000000), wk =   0.0042667
        k(   93) = (   0.0266667   0.3079203   0.0000000), wk =   0.0042667
        k(   94) = (   0.0266667   0.3233163   0.0000000), wk =   0.0042667
        k(   95) = (   0.0266667   0.3387123   0.0000000), wk =   0.0042667
        k(   96) = (   0.0266667   0.3541083   0.0000000), wk =   0.0042667
        k(   97) = (   0.0266667   0.3695043   0.0000000), wk =   0.0042667
        k(   98) = (   0.0266667   0.3849004   0.0000000), wk =   0.0042667
        k(   99) = (   0.0266667   0.4002964   0.0000000), wk =   0.0042667
        k(  100) = (   0.0266667   0.4156924   0.0000000), wk =   0.0042667
        k(  101) = (   0.0266667   0.4310884   0.0000000), wk =   0.0042667
        k(  102) = (   0.0266667   0.4464844   0.0000000), wk =   0.0042667
        k(  103) = (   0.0266667   0.4618804   0.0000000), wk =   0.0042667
        k(  104) = (   0.0266667   0.4772764   0.0000000), wk =   0.0042667
        k(  105) = (   0.0266667   0.4926725   0.0000000), wk =   0.0042667
        k(  106) = (   0.0266667   0.5080685   0.0000000), wk =   0.0042667
        k(  107) = (   0.0266667   0.5234645   0.0000000), wk =   0.0042667
        k(  108) = (   0.0266667   0.5388605   0.0000000), wk =   0.0042667
        k(  109) = (   0.0266667   0.5542565   0.0000000), wk =   0.0042667
        k(  110) = (   0.0266667   0.5696525   0.0000000), wk =   0.0042667
        k(  111) = (   0.0400000   0.0692821   0.0000000), wk =   0.0021333
        k(  112) = (   0.0400000   0.0846781   0.0000000), wk =   0.0042667
        k(  113) = (   0.0400000   0.1000741   0.0000000), wk =   0.0042667
        k(  114) = (   0.0400000   0.1154701   0.0000000), wk =   0.0042667
        k(  115) = (   0.0400000   0.1308661   0.0000000), wk =   0.0042667
        k(  116) = (   0.0400000   0.1462621   0.0000000), wk =   0.0042667
        k(  117) = (   0.0400000   0.1616582   0.0000000), wk =   0.0042667
        k(  118) = (   0.0400000   0.1770542   0.0000000), wk =   0.0042667
        k(  119) = (   0.0400000   0.1924502   0.0000000), wk =   0.0042667
        k(  120) = (   0.0400000   0.2078462   0.0000000), wk =   0.0042667
        k(  121) = (   0.0400000   0.2232422   0.0000000), wk =   0.0042667
        k(  122) = (   0.0400000   0.2386382   0.0000000), wk =   0.0042667
        k(  123) = (   0.0400000   0.2540342   0.0000000), wk =   0.0042667
        k(  124) = (   0.0400000   0.2694303   0.0000000), wk =   0.0042667
        k(  125) = (   0.0400000   0.2848263   0.0000000), wk =   0.0042667
        k(  126) = (   0.0400000   0.3002223   0.0000000), wk =   0.0042667
        k(  127) = (   0.0400000   0.3156183   0.0000000), wk =   0.0042667
        k(  128) = (   0.0400000   0.3310143   0.0000000), wk =   0.0042667
        k(  129) = (   0.0400000   0.3464103   0.0000000), wk =   0.0042667
        k(  130) = (   0.0400000   0.3618063   0.0000000), wk =   0.0042667
        k(  131) = (   0.0400000   0.3772024   0.0000000), wk =   0.0042667
        k(  132) = (   0.0400000   0.3925984   0.0000000), wk =   0.0042667
        k(  133) = (   0.0400000   0.4079944   0.0000000), wk =   0.0042667
        k(  134) = (   0.0400000   0.4233904   0.0000000), wk =   0.0042667
        k(  135) = (   0.0400000   0.4387864   0.0000000), wk =   0.0042667
        k(  136) = (   0.0400000   0.4541824   0.0000000), wk =   0.0042667
        k(  137) = (   0.0400000   0.4695784   0.0000000), wk =   0.0042667
        k(  138) = (   0.0400000   0.4849745   0.0000000), wk =   0.0042667
        k(  139) = (   0.0400000   0.5003705   0.0000000), wk =   0.0042667
        k(  140) = (   0.0400000   0.5157665   0.0000000), wk =   0.0042667
        k(  141) = (   0.0400000   0.5311625   0.0000000), wk =   0.0042667
        k(  142) = (   0.0400000   0.5465585   0.0000000), wk =   0.0042667
        k(  143) = (   0.0400000   0.5619545   0.0000000), wk =   0.0042667
        k(  144) = (   0.0400000   0.5773505   0.0000000), wk =   0.0021333
        k(  145) = (   0.0533333   0.0923761   0.0000000), wk =   0.0021333
        k(  146) = (   0.0533333   0.1077721   0.0000000), wk =   0.0042667
        k(  147) = (   0.0533333   0.1231681   0.0000000), wk =   0.0042667
        k(  148) = (   0.0533333   0.1385641   0.0000000), wk =   0.0042667
        k(  149) = (   0.0533333   0.1539601   0.0000000), wk =   0.0042667
        k(  150) = (   0.0533333   0.1693562   0.0000000), wk =   0.0042667
        k(  151) = (   0.0533333   0.1847522   0.0000000), wk =   0.0042667
        k(  152) = (   0.0533333   0.2001482   0.0000000), wk =   0.0042667
        k(  153) = (   0.0533333   0.2155442   0.0000000), wk =   0.0042667
        k(  154) = (   0.0533333   0.2309402   0.0000000), wk =   0.0042667
        k(  155) = (   0.0533333   0.2463362   0.0000000), wk =   0.0042667
        k(  156) = (   0.0533333   0.2617322   0.0000000), wk =   0.0042667
        k(  157) = (   0.0533333   0.2771283   0.0000000), wk =   0.0042667
        k(  158) = (   0.0533333   0.2925243   0.0000000), wk =   0.0042667
        k(  159) = (   0.0533333   0.3079203   0.0000000), wk =   0.0042667
        k(  160) = (   0.0533333   0.3233163   0.0000000), wk =   0.0042667
        k(  161) = (   0.0533333   0.3387123   0.0000000), wk =   0.0042667
        k(  162) = (   0.0533333   0.3541083   0.0000000), wk =   0.0042667
        k(  163) = (   0.0533333   0.3695043   0.0000000), wk =   0.0042667
        k(  164) = (   0.0533333   0.3849004   0.0000000), wk =   0.0042667
        k(  165) = (   0.0533333   0.4002964   0.0000000), wk =   0.0042667
        k(  166) = (   0.0533333   0.4156924   0.0000000), wk =   0.0042667
        k(  167) = (   0.0533333   0.4310884   0.0000000), wk =   0.0042667
        k(  168) = (   0.0533333   0.4464844   0.0000000), wk =   0.0042667
        k(  169) = (   0.0533333   0.4618804   0.0000000), wk =   0.0042667
        k(  170) = (   0.0533333   0.4772764   0.0000000), wk =   0.0042667
        k(  171) = (   0.0533333   0.4926725   0.0000000), wk =   0.0042667
        k(  172) = (   0.0533333   0.5080685   0.0000000), wk =   0.0042667
        k(  173) = (   0.0533333   0.5234645   0.0000000), wk =   0.0042667
        k(  174) = (   0.0533333   0.5388605   0.0000000), wk =   0.0042667
        k(  175) = (   0.0533333   0.5542565   0.0000000), wk =   0.0042667
        k(  176) = (   0.0533333   0.5696525   0.0000000), wk =   0.0042667
        k(  177) = (   0.0666667   0.1154701   0.0000000), wk =   0.0021333
        k(  178) = (   0.0666667   0.1308661   0.0000000), wk =   0.0042667
        k(  179) = (   0.0666667   0.1462621   0.0000000), wk =   0.0042667
        k(  180) = (   0.0666667   0.1616582   0.0000000), wk =   0.0042667
        k(  181) = (   0.0666667   0.1770542   0.0000000), wk =   0.0042667
        k(  182) = (   0.0666667   0.1924502   0.0000000), wk =   0.0042667
        k(  183) = (   0.0666667   0.2078462   0.0000000), wk =   0.0042667
        k(  184) = (   0.0666667   0.2232422   0.0000000), wk =   0.0042667
        k(  185) = (   0.0666667   0.2386382   0.0000000), wk =   0.0042667
        k(  186) = (   0.0666667   0.2540342   0.0000000), wk =   0.0042667
        k(  187) = (   0.0666667   0.2694303   0.0000000), wk =   0.0042667
        k(  188) = (   0.0666667   0.2848263   0.0000000), wk =   0.0042667
        k(  189) = (   0.0666667   0.3002223   0.0000000), wk =   0.0042667
        k(  190) = (   0.0666667   0.3156183   0.0000000), wk =   0.0042667
        k(  191) = (   0.0666667   0.3310143   0.0000000), wk =   0.0042667
        k(  192) = (   0.0666667   0.3464103   0.0000000), wk =   0.0042667
        k(  193) = (   0.0666667   0.3618063   0.0000000), wk =   0.0042667
        k(  194) = (   0.0666667   0.3772024   0.0000000), wk =   0.0042667
        k(  195) = (   0.0666667   0.3925984   0.0000000), wk =   0.0042667
        k(  196) = (   0.0666667   0.4079944   0.0000000), wk =   0.0042667
        k(  197) = (   0.0666667   0.4233904   0.0000000), wk =   0.0042667
        k(  198) = (   0.0666667   0.4387864   0.0000000), wk =   0.0042667
        k(  199) = (   0.0666667   0.4541824   0.0000000), wk =   0.0042667
        k(  200) = (   0.0666667   0.4695784   0.0000000), wk =   0.0042667
        k(  201) = (   0.0666667   0.4849745   0.0000000), wk =   0.0042667
        k(  202) = (   0.0666667   0.5003705   0.0000000), wk =   0.0042667
        k(  203) = (   0.0666667   0.5157665   0.0000000), wk =   0.0042667
        k(  204) = (   0.0666667   0.5311625   0.0000000), wk =   0.0042667
        k(  205) = (   0.0666667   0.5465585   0.0000000), wk =   0.0042667
        k(  206) = (   0.0666667   0.5619545   0.0000000), wk =   0.0042667
        k(  207) = (   0.0666667   0.5773505   0.0000000), wk =   0.0021333
        k(  208) = (   0.0800000   0.1385641   0.0000000), wk =   0.0021333
        k(  209) = (   0.0800000   0.1539601   0.0000000), wk =   0.0042667
        k(  210) = (   0.0800000   0.1693562   0.0000000), wk =   0.0042667
        k(  211) = (   0.0800000   0.1847522   0.0000000), wk =   0.0042667
        k(  212) = (   0.0800000   0.2001482   0.0000000), wk =   0.0042667
        k(  213) = (   0.0800000   0.2155442   0.0000000), wk =   0.0042667
        k(  214) = (   0.0800000   0.2309402   0.0000000), wk =   0.0042667
        k(  215) = (   0.0800000   0.2463362   0.0000000), wk =   0.0042667
        k(  216) = (   0.0800000   0.2617322   0.0000000), wk =   0.0042667
        k(  217) = (   0.0800000   0.2771283   0.0000000), wk =   0.0042667
        k(  218) = (   0.0800000   0.2925243   0.0000000), wk =   0.0042667
        k(  219) = (   0.0800000   0.3079203   0.0000000), wk =   0.0042667
        k(  220) = (   0.0800000   0.3233163   0.0000000), wk =   0.0042667
        k(  221) = (   0.0800000   0.3387123   0.0000000), wk =   0.0042667
        k(  222) = (   0.0800000   0.3541083   0.0000000), wk =   0.0042667
        k(  223) = (   0.0800000   0.3695043   0.0000000), wk =   0.0042667
        k(  224) = (   0.0800000   0.3849004   0.0000000), wk =   0.0042667
        k(  225) = (   0.0800000   0.4002964   0.0000000), wk =   0.0042667
        k(  226) = (   0.0800000   0.4156924   0.0000000), wk =   0.0042667
        k(  227) = (   0.0800000   0.4310884   0.0000000), wk =   0.0042667
        k(  228) = (   0.0800000   0.4464844   0.0000000), wk =   0.0042667
        k(  229) = (   0.0800000   0.4618804   0.0000000), wk =   0.0042667
        k(  230) = (   0.0800000   0.4772764   0.0000000), wk =   0.0042667
        k(  231) = (   0.0800000   0.4926725   0.0000000), wk =   0.0042667
        k(  232) = (   0.0800000   0.5080685   0.0000000), wk =   0.0042667
        k(  233) = (   0.0800000   0.5234645   0.0000000), wk =   0.0042667
        k(  234) = (   0.0800000   0.5388605   0.0000000), wk =   0.0042667
        k(  235) = (   0.0800000   0.5542565   0.0000000), wk =   0.0042667
        k(  236) = (   0.0800000   0.5696525   0.0000000), wk =   0.0042667
        k(  237) = (   0.0933333   0.1616582   0.0000000), wk =   0.0021333
        k(  238) = (   0.0933333   0.1770542   0.0000000), wk =   0.0042667
        k(  239) = (   0.0933333   0.1924502   0.0000000), wk =   0.0042667
        k(  240) = (   0.0933333   0.2078462   0.0000000), wk =   0.0042667
        k(  241) = (   0.0933333   0.2232422   0.0000000), wk =   0.0042667
        k(  242) = (   0.0933333   0.2386382   0.0000000), wk =   0.0042667
        k(  243) = (   0.0933333   0.2540342   0.0000000), wk =   0.0042667
        k(  244) = (   0.0933333   0.2694303   0.0000000), wk =   0.0042667
        k(  245) = (   0.0933333   0.2848263   0.0000000), wk =   0.0042667
        k(  246) = (   0.0933333   0.3002223   0.0000000), wk =   0.0042667
        k(  247) = (   0.0933333   0.3156183   0.0000000), wk =   0.0042667
        k(  248) = (   0.0933333   0.3310143   0.0000000), wk =   0.0042667
        k(  249) = (   0.0933333   0.3464103   0.0000000), wk =   0.0042667
        k(  250) = (   0.0933333   0.3618063   0.0000000), wk =   0.0042667
        k(  251) = (   0.0933333   0.3772024   0.0000000), wk =   0.0042667
        k(  252) = (   0.0933333   0.3925984   0.0000000), wk =   0.0042667
        k(  253) = (   0.0933333   0.4079944   0.0000000), wk =   0.0042667
        k(  254) = (   0.0933333   0.4233904   0.0000000), wk =   0.0042667
        k(  255) = (   0.0933333   0.4387864   0.0000000), wk =   0.0042667
        k(  256) = (   0.0933333   0.4541824   0.0000000), wk =   0.0042667
        k(  257) = (   0.0933333   0.4695784   0.0000000), wk =   0.0042667
        k(  258) = (   0.0933333   0.4849745   0.0000000), wk =   0.0042667
        k(  259) = (   0.0933333   0.5003705   0.0000000), wk =   0.0042667
        k(  260) = (   0.0933333   0.5157665   0.0000000), wk =   0.0042667
        k(  261) = (   0.0933333   0.5311625   0.0000000), wk =   0.0042667
        k(  262) = (   0.0933333   0.5465585   0.0000000), wk =   0.0042667
        k(  263) = (   0.0933333   0.5619545   0.0000000), wk =   0.0042667
        k(  264) = (   0.0933333   0.5773505   0.0000000), wk =   0.0021333
        k(  265) = (   0.1066667   0.1847522   0.0000000), wk =   0.0021333
        k(  266) = (   0.1066667   0.2001482   0.0000000), wk =   0.0042667
        k(  267) = (   0.1066667   0.2155442   0.0000000), wk =   0.0042667
        k(  268) = (   0.1066667   0.2309402   0.0000000), wk =   0.0042667
        k(  269) = (   0.1066667   0.2463362   0.0000000), wk =   0.0042667
        k(  270) = (   0.1066667   0.2617322   0.0000000), wk =   0.0042667
        k(  271) = (   0.1066667   0.2771283   0.0000000), wk =   0.0042667
        k(  272) = (   0.1066667   0.2925243   0.0000000), wk =   0.0042667
        k(  273) = (   0.1066667   0.3079203   0.0000000), wk =   0.0042667
        k(  274) = (   0.1066667   0.3233163   0.0000000), wk =   0.0042667
        k(  275) = (   0.1066667   0.3387123   0.0000000), wk =   0.0042667
        k(  276) = (   0.1066667   0.3541083   0.0000000), wk =   0.0042667
        k(  277) = (   0.1066667   0.3695043   0.0000000), wk =   0.0042667
        k(  278) = (   0.1066667   0.3849004   0.0000000), wk =   0.0042667
        k(  279) = (   0.1066667   0.4002964   0.0000000), wk =   0.0042667
        k(  280) = (   0.1066667   0.4156924   0.0000000), wk =   0.0042667
        k(  281) = (   0.1066667   0.4310884   0.0000000), wk =   0.0042667
        k(  282) = (   0.1066667   0.4464844   0.0000000), wk =   0.0042667
        k(  283) = (   0.1066667   0.4618804   0.0000000), wk =   0.0042667
        k(  284) = (   0.1066667   0.4772764   0.0000000), wk =   0.0042667
        k(  285) = (   0.1066667   0.4926725   0.0000000), wk =   0.0042667
        k(  286) = (   0.1066667   0.5080685   0.0000000), wk =   0.0042667
        k(  287) = (   0.1066667   0.5234645   0.0000000), wk =   0.0042667
        k(  288) = (   0.1066667   0.5388605   0.0000000), wk =   0.0042667
        k(  289) = (   0.1066667   0.5542565   0.0000000), wk =   0.0042667
        k(  290) = (   0.1066667   0.5696525   0.0000000), wk =   0.0042667
        k(  291) = (   0.1200000   0.2078462   0.0000000), wk =   0.0021333
        k(  292) = (   0.1200000   0.2232422   0.0000000), wk =   0.0042667
        k(  293) = (   0.1200000   0.2386382   0.0000000), wk =   0.0042667
        k(  294) = (   0.1200000   0.2540342   0.0000000), wk =   0.0042667
        k(  295) = (   0.1200000   0.2694303   0.0000000), wk =   0.0042667
        k(  296) = (   0.1200000   0.2848263   0.0000000), wk =   0.0042667
        k(  297) = (   0.1200000   0.3002223   0.0000000), wk =   0.0042667
        k(  298) = (   0.1200000   0.3156183   0.0000000), wk =   0.0042667
        k(  299) = (   0.1200000   0.3310143   0.0000000), wk =   0.0042667
        k(  300) = (   0.1200000   0.3464103   0.0000000), wk =   0.0042667
        k(  301) = (   0.1200000   0.3618063   0.0000000), wk =   0.0042667
        k(  302) = (   0.1200000   0.3772024   0.0000000), wk =   0.0042667
        k(  303) = (   0.1200000   0.3925984   0.0000000), wk =   0.0042667
        k(  304) = (   0.1200000   0.4079944   0.0000000), wk =   0.0042667
        k(  305) = (   0.1200000   0.4233904   0.0000000), wk =   0.0042667
        k(  306) = (   0.1200000   0.4387864   0.0000000), wk =   0.0042667
        k(  307) = (   0.1200000   0.4541824   0.0000000), wk =   0.0042667
        k(  308) = (   0.1200000   0.4695784   0.0000000), wk =   0.0042667
        k(  309) = (   0.1200000   0.4849745   0.0000000), wk =   0.0042667
        k(  310) = (   0.1200000   0.5003705   0.0000000), wk =   0.0042667
        k(  311) = (   0.1200000   0.5157665   0.0000000), wk =   0.0042667
        k(  312) = (   0.1200000   0.5311625   0.0000000), wk =   0.0042667
        k(  313) = (   0.1200000   0.5465585   0.0000000), wk =   0.0042667
        k(  314) = (   0.1200000   0.5619545   0.0000000), wk =   0.0042667
        k(  315) = (   0.1200000   0.5773505   0.0000000), wk =   0.0021333
        k(  316) = (   0.1333333   0.2309402   0.0000000), wk =   0.0021333
        k(  317) = (   0.1333333   0.2463362   0.0000000), wk =   0.0042667
        k(  318) = (   0.1333333   0.2617322   0.0000000), wk =   0.0042667
        k(  319) = (   0.1333333   0.2771283   0.0000000), wk =   0.0042667
        k(  320) = (   0.1333333   0.2925243   0.0000000), wk =   0.0042667
        k(  321) = (   0.1333333   0.3079203   0.0000000), wk =   0.0042667
        k(  322) = (   0.1333333   0.3233163   0.0000000), wk =   0.0042667
        k(  323) = (   0.1333333   0.3387123   0.0000000), wk =   0.0042667
        k(  324) = (   0.1333333   0.3541083   0.0000000), wk =   0.0042667
        k(  325) = (   0.1333333   0.3695043   0.0000000), wk =   0.0042667
        k(  326) = (   0.1333333   0.3849004   0.0000000), wk =   0.0042667
        k(  327) = (   0.1333333   0.4002964   0.0000000), wk =   0.0042667
        k(  328) = (   0.1333333   0.4156924   0.0000000), wk =   0.0042667
        k(  329) = (   0.1333333   0.4310884   0.0000000), wk =   0.0042667
        k(  330) = (   0.1333333   0.4464844   0.0000000), wk =   0.0042667
        k(  331) = (   0.1333333   0.4618804   0.0000000), wk =   0.0042667
        k(  332) = (   0.1333333   0.4772764   0.0000000), wk =   0.0042667
        k(  333) = (   0.1333333   0.4926725   0.0000000), wk =   0.0042667
        k(  334) = (   0.1333333   0.5080685   0.0000000), wk =   0.0042667
        k(  335) = (   0.1333333   0.5234645   0.0000000), wk =   0.0042667
        k(  336) = (   0.1333333   0.5388605   0.0000000), wk =   0.0042667
        k(  337) = (   0.1333333   0.5542565   0.0000000), wk =   0.0042667
        k(  338) = (   0.1333333   0.5696525   0.0000000), wk =   0.0042667
        k(  339) = (   0.1466667   0.2540342   0.0000000), wk =   0.0021333
        k(  340) = (   0.1466667   0.2694303   0.0000000), wk =   0.0042667
        k(  341) = (   0.1466667   0.2848263   0.0000000), wk =   0.0042667
        k(  342) = (   0.1466667   0.3002223   0.0000000), wk =   0.0042667
        k(  343) = (   0.1466667   0.3156183   0.0000000), wk =   0.0042667
        k(  344) = (   0.1466667   0.3310143   0.0000000), wk =   0.0042667
        k(  345) = (   0.1466667   0.3464103   0.0000000), wk =   0.0042667
        k(  346) = (   0.1466667   0.3618063   0.0000000), wk =   0.0042667
        k(  347) = (   0.1466667   0.3772024   0.0000000), wk =   0.0042667
        k(  348) = (   0.1466667   0.3925984   0.0000000), wk =   0.0042667
        k(  349) = (   0.1466667   0.4079944   0.0000000), wk =   0.0042667
        k(  350) = (   0.1466667   0.4233904   0.0000000), wk =   0.0042667
        k(  351) = (   0.1466667   0.4387864   0.0000000), wk =   0.0042667
        k(  352) = (   0.1466667   0.4541824   0.0000000), wk =   0.0042667
        k(  353) = (   0.1466667   0.4695784   0.0000000), wk =   0.0042667
        k(  354) = (   0.1466667   0.4849745   0.0000000), wk =   0.0042667
        k(  355) = (   0.1466667   0.5003705   0.0000000), wk =   0.0042667
        k(  356) = (   0.1466667   0.5157665   0.0000000), wk =   0.0042667
        k(  357) = (   0.1466667   0.5311625   0.0000000), wk =   0.0042667
        k(  358) = (   0.1466667   0.5465585   0.0000000), wk =   0.0042667
        k(  359) = (   0.1466667   0.5619545   0.0000000), wk =   0.0042667
        k(  360) = (   0.1466667   0.5773505   0.0000000), wk =   0.0021333
        k(  361) = (   0.1600000   0.2771283   0.0000000), wk =   0.0021333
        k(  362) = (   0.1600000   0.2925243   0.0000000), wk =   0.0042667
        k(  363) = (   0.1600000   0.3079203   0.0000000), wk =   0.0042667
        k(  364) = (   0.1600000   0.3233163   0.0000000), wk =   0.0042667
        k(  365) = (   0.1600000   0.3387123   0.0000000), wk =   0.0042667
        k(  366) = (   0.1600000   0.3541083   0.0000000), wk =   0.0042667
        k(  367) = (   0.1600000   0.3695043   0.0000000), wk =   0.0042667
        k(  368) = (   0.1600000   0.3849004   0.0000000), wk =   0.0042667
        k(  369) = (   0.1600000   0.4002964   0.0000000), wk =   0.0042667
        k(  370) = (   0.1600000   0.4156924   0.0000000), wk =   0.0042667
        k(  371) = (   0.1600000   0.4310884   0.0000000), wk =   0.0042667
        k(  372) = (   0.1600000   0.4464844   0.0000000), wk =   0.0042667
        k(  373) = (   0.1600000   0.4618804   0.0000000), wk =   0.0042667
        k(  374) = (   0.1600000   0.4772764   0.0000000), wk =   0.0042667
        k(  375) = (   0.1600000   0.4926725   0.0000000), wk =   0.0042667
        k(  376) = (   0.1600000   0.5080685   0.0000000), wk =   0.0042667
        k(  377) = (   0.1600000   0.5234645   0.0000000), wk =   0.0042667
        k(  378) = (   0.1600000   0.5388605   0.0000000), wk =   0.0042667
        k(  379) = (   0.1600000   0.5542565   0.0000000), wk =   0.0042667
        k(  380) = (   0.1600000   0.5696525   0.0000000), wk =   0.0042667
        k(  381) = (   0.1733333   0.3002223   0.0000000), wk =   0.0021333
        k(  382) = (   0.1733333   0.3156183   0.0000000), wk =   0.0042667
        k(  383) = (   0.1733333   0.3310143   0.0000000), wk =   0.0042667
        k(  384) = (   0.1733333   0.3464103   0.0000000), wk =   0.0042667
        k(  385) = (   0.1733333   0.3618063   0.0000000), wk =   0.0042667
        k(  386) = (   0.1733333   0.3772024   0.0000000), wk =   0.0042667
        k(  387) = (   0.1733333   0.3925984   0.0000000), wk =   0.0042667
        k(  388) = (   0.1733333   0.4079944   0.0000000), wk =   0.0042667
        k(  389) = (   0.1733333   0.4233904   0.0000000), wk =   0.0042667
        k(  390) = (   0.1733333   0.4387864   0.0000000), wk =   0.0042667
        k(  391) = (   0.1733333   0.4541824   0.0000000), wk =   0.0042667
        k(  392) = (   0.1733333   0.4695784   0.0000000), wk =   0.0042667
        k(  393) = (   0.1733333   0.4849745   0.0000000), wk =   0.0042667
        k(  394) = (   0.1733333   0.5003705   0.0000000), wk =   0.0042667
        k(  395) = (   0.1733333   0.5157665   0.0000000), wk =   0.0042667
        k(  396) = (   0.1733333   0.5311625   0.0000000), wk =   0.0042667
        k(  397) = (   0.1733333   0.5465585   0.0000000), wk =   0.0042667
        k(  398) = (   0.1733333   0.5619545   0.0000000), wk =   0.0042667
        k(  399) = (   0.1733333   0.5773505   0.0000000), wk =   0.0021333
        k(  400) = (   0.1866667   0.3233163   0.0000000), wk =   0.0021333
        k(  401) = (   0.1866667   0.3387123   0.0000000), wk =   0.0042667
        k(  402) = (   0.1866667   0.3541083   0.0000000), wk =   0.0042667
        k(  403) = (   0.1866667   0.3695043   0.0000000), wk =   0.0042667
        k(  404) = (   0.1866667   0.3849004   0.0000000), wk =   0.0042667
        k(  405) = (   0.1866667   0.4002964   0.0000000), wk =   0.0042667
        k(  406) = (   0.1866667   0.4156924   0.0000000), wk =   0.0042667
        k(  407) = (   0.1866667   0.4310884   0.0000000), wk =   0.0042667
        k(  408) = (   0.1866667   0.4464844   0.0000000), wk =   0.0042667
        k(  409) = (   0.1866667   0.4618804   0.0000000), wk =   0.0042667
        k(  410) = (   0.1866667   0.4772764   0.0000000), wk =   0.0042667
        k(  411) = (   0.1866667   0.4926725   0.0000000), wk =   0.0042667
        k(  412) = (   0.1866667   0.5080685   0.0000000), wk =   0.0042667
        k(  413) = (   0.1866667   0.5234645   0.0000000), wk =   0.0042667
        k(  414) = (   0.1866667   0.5388605   0.0000000), wk =   0.0042667
        k(  415) = (   0.1866667   0.5542565   0.0000000), wk =   0.0042667
        k(  416) = (   0.1866667   0.5696525   0.0000000), wk =   0.0042667
        k(  417) = (   0.2000000   0.3464103   0.0000000), wk =   0.0021333
        k(  418) = (   0.2000000   0.3618063   0.0000000), wk =   0.0042667
        k(  419) = (   0.2000000   0.3772024   0.0000000), wk =   0.0042667
        k(  420) = (   0.2000000   0.3925984   0.0000000), wk =   0.0042667
        k(  421) = (   0.2000000   0.4079944   0.0000000), wk =   0.0042667
        k(  422) = (   0.2000000   0.4233904   0.0000000), wk =   0.0042667
        k(  423) = (   0.2000000   0.4387864   0.0000000), wk =   0.0042667
        k(  424) = (   0.2000000   0.4541824   0.0000000), wk =   0.0042667
        k(  425) = (   0.2000000   0.4695784   0.0000000), wk =   0.0042667
        k(  426) = (   0.2000000   0.4849745   0.0000000), wk =   0.0042667
        k(  427) = (   0.2000000   0.5003705   0.0000000), wk =   0.0042667
        k(  428) = (   0.2000000   0.5157665   0.0000000), wk =   0.0042667
        k(  429) = (   0.2000000   0.5311625   0.0000000), wk =   0.0042667
        k(  430) = (   0.2000000   0.5465585   0.0000000), wk =   0.0042667
        k(  431) = (   0.2000000   0.5619545   0.0000000), wk =   0.0042667
        k(  432) = (   0.2000000   0.5773505   0.0000000), wk =   0.0021333
        k(  433) = (   0.2133333   0.3695043   0.0000000), wk =   0.0021333
        k(  434) = (   0.2133333   0.3849004   0.0000000), wk =   0.0042667
        k(  435) = (   0.2133333   0.4002964   0.0000000), wk =   0.0042667
        k(  436) = (   0.2133333   0.4156924   0.0000000), wk =   0.0042667
        k(  437) = (   0.2133333   0.4310884   0.0000000), wk =   0.0042667
        k(  438) = (   0.2133333   0.4464844   0.0000000), wk =   0.0042667
        k(  439) = (   0.2133333   0.4618804   0.0000000), wk =   0.0042667
        k(  440) = (   0.2133333   0.4772764   0.0000000), wk =   0.0042667
        k(  441) = (   0.2133333   0.4926725   0.0000000), wk =   0.0042667
        k(  442) = (   0.2133333   0.5080685   0.0000000), wk =   0.0042667
        k(  443) = (   0.2133333   0.5234645   0.0000000), wk =   0.0042667
        k(  444) = (   0.2133333   0.5388605   0.0000000), wk =   0.0042667
        k(  445) = (   0.2133333   0.5542565   0.0000000), wk =   0.0042667
        k(  446) = (   0.2133333   0.5696525   0.0000000), wk =   0.0042667
        k(  447) = (   0.2266667   0.3925984   0.0000000), wk =   0.0021333
        k(  448) = (   0.2266667   0.4079944   0.0000000), wk =   0.0042667
        k(  449) = (   0.2266667   0.4233904   0.0000000), wk =   0.0042667
        k(  450) = (   0.2266667   0.4387864   0.0000000), wk =   0.0042667
        k(  451) = (   0.2266667   0.4541824   0.0000000), wk =   0.0042667
        k(  452) = (   0.2266667   0.4695784   0.0000000), wk =   0.0042667
        k(  453) = (   0.2266667   0.4849745   0.0000000), wk =   0.0042667
        k(  454) = (   0.2266667   0.5003705   0.0000000), wk =   0.0042667
        k(  455) = (   0.2266667   0.5157665   0.0000000), wk =   0.0042667
        k(  456) = (   0.2266667   0.5311625   0.0000000), wk =   0.0042667
        k(  457) = (   0.2266667   0.5465585   0.0000000), wk =   0.0042667
        k(  458) = (   0.2266667   0.5619545   0.0000000), wk =   0.0042667
        k(  459) = (   0.2266667   0.5773505   0.0000000), wk =   0.0021333
        k(  460) = (   0.2400000   0.4156924   0.0000000), wk =   0.0021333
        k(  461) = (   0.2400000   0.4310884   0.0000000), wk =   0.0042667
        k(  462) = (   0.2400000   0.4464844   0.0000000), wk =   0.0042667
        k(  463) = (   0.2400000   0.4618804   0.0000000), wk =   0.0042667
        k(  464) = (   0.2400000   0.4772764   0.0000000), wk =   0.0042667
        k(  465) = (   0.2400000   0.4926725   0.0000000), wk =   0.0042667
        k(  466) = (   0.2400000   0.5080685   0.0000000), wk =   0.0042667
        k(  467) = (   0.2400000   0.5234645   0.0000000), wk =   0.0042667
        k(  468) = (   0.2400000   0.5388605   0.0000000), wk =   0.0042667
        k(  469) = (   0.2400000   0.5542565   0.0000000), wk =   0.0042667
        k(  470) = (   0.2400000   0.5696525   0.0000000), wk =   0.0042667
        k(  471) = (   0.2533333   0.4387864   0.0000000), wk =   0.0021333
        k(  472) = (   0.2533333   0.4541824   0.0000000), wk =   0.0042667
        k(  473) = (   0.2533333   0.4695784   0.0000000), wk =   0.0042667
        k(  474) = (   0.2533333   0.4849745   0.0000000), wk =   0.0042667
        k(  475) = (   0.2533333   0.5003705   0.0000000), wk =   0.0042667
        k(  476) = (   0.2533333   0.5157665   0.0000000), wk =   0.0042667
        k(  477) = (   0.2533333   0.5311625   0.0000000), wk =   0.0042667
        k(  478) = (   0.2533333   0.5465585   0.0000000), wk =   0.0042667
        k(  479) = (   0.2533333   0.5619545   0.0000000), wk =   0.0042667
        k(  480) = (   0.2533333   0.5773505   0.0000000), wk =   0.0021333
        k(  481) = (   0.2666667   0.4618804   0.0000000), wk =   0.0021333
        k(  482) = (   0.2666667   0.4772764   0.0000000), wk =   0.0042667
        k(  483) = (   0.2666667   0.4926725   0.0000000), wk =   0.0042667
        k(  484) = (   0.2666667   0.5080685   0.0000000), wk =   0.0042667
        k(  485) = (   0.2666667   0.5234645   0.0000000), wk =   0.0042667
        k(  486) = (   0.2666667   0.5388605   0.0000000), wk =   0.0042667
        k(  487) = (   0.2666667   0.5542565   0.0000000), wk =   0.0042667
        k(  488) = (   0.2666667   0.5696525   0.0000000), wk =   0.0042667
        k(  489) = (   0.2800000   0.4849745   0.0000000), wk =   0.0021333
        k(  490) = (   0.2800000   0.5003705   0.0000000), wk =   0.0042667
        k(  491) = (   0.2800000   0.5157665   0.0000000), wk =   0.0042667
        k(  492) = (   0.2800000   0.5311625   0.0000000), wk =   0.0042667
        k(  493) = (   0.2800000   0.5465585   0.0000000), wk =   0.0042667
        k(  494) = (   0.2800000   0.5619545   0.0000000), wk =   0.0042667
        k(  495) = (   0.2800000   0.5773505   0.0000000), wk =   0.0021333
        k(  496) = (   0.2933333   0.5080685   0.0000000), wk =   0.0021333
        k(  497) = (   0.2933333   0.5234645   0.0000000), wk =   0.0042667
        k(  498) = (   0.2933333   0.5388605   0.0000000), wk =   0.0042667
        k(  499) = (   0.2933333   0.5542565   0.0000000), wk =   0.0042667
        k(  500) = (   0.2933333   0.5696525   0.0000000), wk =   0.0042667
        k(  501) = (   0.3066667   0.5311625   0.0000000), wk =   0.0021333
        k(  502) = (   0.3066667   0.5465585   0.0000000), wk =   0.0042667
        k(  503) = (   0.3066667   0.5619545   0.0000000), wk =   0.0042667
        k(  504) = (   0.3066667   0.5773505   0.0000000), wk =   0.0021333
        k(  505) = (   0.3200000   0.5542565   0.0000000), wk =   0.0021333
        k(  506) = (   0.3200000   0.5696525   0.0000000), wk =   0.0042667
        k(  507) = (   0.3333333   0.5773505   0.0000000), wk =   0.0007111

                       cryst. coord.
        k(    1) = (   0.0000000   0.0000000   0.0000000), wk =   0.0003556
        k(    2) = (   0.0000000   0.0133333   0.0000000), wk =   0.0021333
        k(    3) = (   0.0000000   0.0266667   0.0000000), wk =   0.0021333
        k(    4) = (   0.0000000   0.0400000   0.0000000), wk =   0.0021333
        k(    5) = (   0.0000000   0.0533333   0.0000000), wk =   0.0021333
        k(    6) = (   0.0000000   0.0666667   0.0000000), wk =   0.0021333
        k(    7) = (   0.0000000   0.0800000   0.0000000), wk =   0.0021333
        k(    8) = (   0.0000000   0.0933333   0.0000000), wk =   0.0021333
        k(    9) = (   0.0000000   0.1066667   0.0000000), wk =   0.0021333
        k(   10) = (   0.0000000   0.1200000   0.0000000), wk =   0.0021333
        k(   11) = (   0.0000000   0.1333333   0.0000000), wk =   0.0021333
        k(   12) = (   0.0000000   0.1466667   0.0000000), wk =   0.0021333
        k(   13) = (   0.0000000   0.1600000   0.0000000), wk =   0.0021333
        k(   14) = (   0.0000000   0.1733333   0.0000000), wk =   0.0021333
        k(   15) = (   0.0000000   0.1866667   0.0000000), wk =   0.0021333
        k(   16) = (   0.0000000   0.2000000   0.0000000), wk =   0.0021333
        k(   17) = (   0.0000000   0.2133333   0.0000000), wk =   0.0021333
        k(   18) = (   0.0000000   0.2266667   0.0000000), wk =   0.0021333
        k(   19) = (   0.0000000   0.2400000   0.0000000), wk =   0.0021333
        k(   20) = (   0.0000000   0.2533333   0.0000000), wk =   0.0021333
        k(   21) = (   0.0000000   0.2666667   0.0000000), wk =   0.0021333
        k(   22) = (   0.0000000   0.2800000   0.0000000), wk =   0.0021333
        k(   23) = (   0.0000000   0.2933333   0.0000000), wk =   0.0021333
        k(   24) = (   0.0000000   0.3066667   0.0000000), wk =   0.0021333
        k(   25) = (   0.0000000   0.3200000   0.0000000), wk =   0.0021333
        k(   26) = (   0.0000000   0.3333333   0.0000000), wk =   0.0021333
        k(   27) = (   0.0000000   0.3466667   0.0000000), wk =   0.0021333
        k(   28) = (   0.0000000   0.3600000   0.0000000), wk =   0.0021333
        k(   29) = (   0.0000000   0.3733333   0.0000000), wk =   0.0021333
        k(   30) = (   0.0000000   0.3866667   0.0000000), wk =   0.0021333
        k(   31) = (   0.0000000   0.4000000   0.0000000), wk =   0.0021333
        k(   32) = (   0.0000000   0.4133333   0.0000000), wk =   0.0021333
        k(   33) = (   0.0000000   0.4266667   0.0000000), wk =   0.0021333
        k(   34) = (   0.0000000   0.4400000   0.0000000), wk =   0.0021333
        k(   35) = (   0.0000000   0.4533333   0.0000000), wk =   0.0021333
        k(   36) = (   0.0000000   0.4666667   0.0000000), wk =   0.0021333
        k(   37) = (   0.0000000   0.4800000   0.0000000), wk =   0.0021333
        k(   38) = (   0.0000000   0.4933333   0.0000000), wk =   0.0021333
        k(   39) = (   0.0133333   0.0133333   0.0000000), wk =   0.0021333
        k(   40) = (   0.0133333   0.0266667   0.0000000), wk =   0.0042667
        k(   41) = (   0.0133333   0.0400000   0.0000000), wk =   0.0042667
        k(   42) = (   0.0133333   0.0533333   0.0000000), wk =   0.0042667
        k(   43) = (   0.0133333   0.0666667   0.0000000), wk =   0.0042667
        k(   44) = (   0.0133333   0.0800000   0.0000000), wk =   0.0042667
        k(   45) = (   0.0133333   0.0933333   0.0000000), wk =   0.0042667
        k(   46) = (   0.0133333   0.1066667   0.0000000), wk =   0.0042667
        k(   47) = (   0.0133333   0.1200000   0.0000000), wk =   0.0042667
        k(   48) = (   0.0133333   0.1333333   0.0000000), wk =   0.0042667
        k(   49) = (   0.0133333   0.1466667   0.0000000), wk =   0.0042667
        k(   50) = (   0.0133333   0.1600000   0.0000000), wk =   0.0042667
        k(   51) = (   0.0133333   0.1733333   0.0000000), wk =   0.0042667
        k(   52) = (   0.0133333   0.1866667   0.0000000), wk =   0.0042667
        k(   53) = (   0.0133333   0.2000000   0.0000000), wk =   0.0042667
        k(   54) = (   0.0133333   0.2133333   0.0000000), wk =   0.0042667
        k(   55) = (   0.0133333   0.2266667   0.0000000), wk =   0.0042667
        k(   56) = (   0.0133333   0.2400000   0.0000000), wk =   0.0042667
        k(   57) = (   0.0133333   0.2533333   0.0000000), wk =   0.0042667
        k(   58) = (   0.0133333   0.2666667   0.0000000), wk =   0.0042667
        k(   59) = (   0.0133333   0.2800000   0.0000000), wk =   0.0042667
        k(   60) = (   0.0133333   0.2933333   0.0000000), wk =   0.0042667
        k(   61) = (   0.0133333   0.3066667   0.0000000), wk =   0.0042667
        k(   62) = (   0.0133333   0.3200000   0.0000000), wk =   0.0042667
        k(   63) = (   0.0133333   0.3333333   0.0000000), wk =   0.0042667
        k(   64) = (   0.0133333   0.3466667   0.0000000), wk =   0.0042667
        k(   65) = (   0.0133333   0.3600000   0.0000000), wk =   0.0042667
        k(   66) = (   0.0133333   0.3733333   0.0000000), wk =   0.0042667
        k(   67) = (   0.0133333   0.3866667   0.0000000), wk =   0.0042667
        k(   68) = (   0.0133333   0.4000000   0.0000000), wk =   0.0042667
        k(   69) = (   0.0133333   0.4133333   0.0000000), wk =   0.0042667
        k(   70) = (   0.0133333   0.4266667   0.0000000), wk =   0.0042667
        k(   71) = (   0.0133333   0.4400000   0.0000000), wk =   0.0042667
        k(   72) = (   0.0133333   0.4533333   0.0000000), wk =   0.0042667
        k(   73) = (   0.0133333   0.4666667   0.0000000), wk =   0.0042667
        k(   74) = (   0.0133333   0.4800000   0.0000000), wk =   0.0042667
        k(   75) = (   0.0133333   0.4933333   0.0000000), wk =   0.0021333
        k(   76) = (   0.0266667   0.0266667   0.0000000), wk =   0.0021333
        k(   77) = (   0.0266667   0.0400000   0.0000000), wk =   0.0042667
        k(   78) = (   0.0266667   0.0533333   0.0000000), wk =   0.0042667
        k(   79) = (   0.0266667   0.0666667   0.0000000), wk =   0.0042667
        k(   80) = (   0.0266667   0.0800000   0.0000000), wk =   0.0042667
        k(   81) = (   0.0266667   0.0933333   0.0000000), wk =   0.0042667
        k(   82) = (   0.0266667   0.1066667   0.0000000), wk =   0.0042667
        k(   83) = (   0.0266667   0.1200000   0.0000000), wk =   0.0042667
        k(   84) = (   0.0266667   0.1333333   0.0000000), wk =   0.0042667
        k(   85) = (   0.0266667   0.1466667   0.0000000), wk =   0.0042667
        k(   86) = (   0.0266667   0.1600000   0.0000000), wk =   0.0042667
        k(   87) = (   0.0266667   0.1733333   0.0000000), wk =   0.0042667
        k(   88) = (   0.0266667   0.1866667   0.0000000), wk =   0.0042667
        k(   89) = (   0.0266667   0.2000000   0.0000000), wk =   0.0042667
        k(   90) = (   0.0266667   0.2133333   0.0000000), wk =   0.0042667
        k(   91) = (   0.0266667   0.2266667   0.0000000), wk =   0.0042667
        k(   92) = (   0.0266667   0.2400000   0.0000000), wk =   0.0042667
        k(   93) = (   0.0266667   0.2533333   0.0000000), wk =   0.0042667
        k(   94) = (   0.0266667   0.2666667   0.0000000), wk =   0.0042667
        k(   95) = (   0.0266667   0.2800000   0.0000000), wk =   0.0042667
        k(   96) = (   0.0266667   0.2933333   0.0000000), wk =   0.0042667
        k(   97) = (   0.0266667   0.3066667   0.0000000), wk =   0.0042667
        k(   98) = (   0.0266667   0.3200000   0.0000000), wk =   0.0042667
        k(   99) = (   0.0266667   0.3333333   0.0000000), wk =   0.0042667
        k(  100) = (   0.0266667   0.3466667   0.0000000), wk =   0.0042667
        k(  101) = (   0.0266667   0.3600000   0.0000000), wk =   0.0042667
        k(  102) = (   0.0266667   0.3733333   0.0000000), wk =   0.0042667
        k(  103) = (   0.0266667   0.3866667   0.0000000), wk =   0.0042667
        k(  104) = (   0.0266667   0.4000000   0.0000000), wk =   0.0042667
        k(  105) = (   0.0266667   0.4133333   0.0000000), wk =   0.0042667
        k(  106) = (   0.0266667   0.4266667   0.0000000), wk =   0.0042667
        k(  107) = (   0.0266667   0.4400000   0.0000000), wk =   0.0042667
        k(  108) = (   0.0266667   0.4533333   0.0000000), wk =   0.0042667
        k(  109) = (   0.0266667   0.4666667   0.0000000), wk =   0.0042667
        k(  110) = (   0.0266667   0.4800000   0.0000000), wk =   0.0042667
        k(  111) = (   0.0400000   0.0400000   0.0000000), wk =   0.0021333
        k(  112) = (   0.0400000   0.0533333   0.0000000), wk =   0.0042667
        k(  113) = (   0.0400000   0.0666667   0.0000000), wk =   0.0042667
        k(  114) = (   0.0400000   0.0800000   0.0000000), wk =   0.0042667
        k(  115) = (   0.0400000   0.0933333   0.0000000), wk =   0.0042667
        k(  116) = (   0.0400000   0.1066667   0.0000000), wk =   0.0042667
        k(  117) = (   0.0400000   0.1200000   0.0000000), wk =   0.0042667
        k(  118) = (   0.0400000   0.1333333   0.0000000), wk =   0.0042667
        k(  119) = (   0.0400000   0.1466667   0.0000000), wk =   0.0042667
        k(  120) = (   0.0400000   0.1600000   0.0000000), wk =   0.0042667
        k(  121) = (   0.0400000   0.1733333   0.0000000), wk =   0.0042667
        k(  122) = (   0.0400000   0.1866667   0.0000000), wk =   0.0042667
        k(  123) = (   0.0400000   0.2000000   0.0000000), wk =   0.0042667
        k(  124) = (   0.0400000   0.2133333   0.0000000), wk =   0.0042667
        k(  125) = (   0.0400000   0.2266667   0.0000000), wk =   0.0042667
        k(  126) = (   0.0400000   0.2400000   0.0000000), wk =   0.0042667
        k(  127) = (   0.0400000   0.2533333   0.0000000), wk =   0.0042667
        k(  128) = (   0.0400000   0.2666667   0.0000000), wk =   0.0042667
        k(  129) = (   0.0400000   0.2800000   0.0000000), wk =   0.0042667
        k(  130) = (   0.0400000   0.2933333   0.0000000), wk =   0.0042667
        k(  131) = (   0.0400000   0.3066667   0.0000000), wk =   0.0042667
        k(  132) = (   0.0400000   0.3200000   0.0000000), wk =   0.0042667
        k(  133) = (   0.0400000   0.3333333   0.0000000), wk =   0.0042667
        k(  134) = (   0.0400000   0.3466667   0.0000000), wk =   0.0042667
        k(  135) = (   0.0400000   0.3600000   0.0000000), wk =   0.0042667
        k(  136) = (   0.0400000   0.3733333   0.0000000), wk =   0.0042667
        k(  137) = (   0.0400000   0.3866667   0.0000000), wk =   0.0042667
        k(  138) = (   0.0400000   0.4000000   0.0000000), wk =   0.0042667
        k(  139) = (   0.0400000   0.4133333   0.0000000), wk =   0.0042667
        k(  140) = (   0.0400000   0.4266667   0.0000000), wk =   0.0042667
        k(  141) = (   0.0400000   0.4400000   0.0000000), wk =   0.0042667
        k(  142) = (   0.0400000   0.4533333   0.0000000), wk =   0.0042667
        k(  143) = (   0.0400000   0.4666667   0.0000000), wk =   0.0042667
        k(  144) = (   0.0400000   0.4800000   0.0000000), wk =   0.0021333
        k(  145) = (   0.0533333   0.0533333   0.0000000), wk =   0.0021333
        k(  146) = (   0.0533333   0.0666667   0.0000000), wk =   0.0042667
        k(  147) = (   0.0533333   0.0800000   0.0000000), wk =   0.0042667
        k(  148) = (   0.0533333   0.0933333   0.0000000), wk =   0.0042667
        k(  149) = (   0.0533333   0.1066667   0.0000000), wk =   0.0042667
        k(  150) = (   0.0533333   0.1200000   0.0000000), wk =   0.0042667
        k(  151) = (   0.0533333   0.1333333   0.0000000), wk =   0.0042667
        k(  152) = (   0.0533333   0.1466667   0.0000000), wk =   0.0042667
        k(  153) = (   0.0533333   0.1600000   0.0000000), wk =   0.0042667
        k(  154) = (   0.0533333   0.1733333   0.0000000), wk =   0.0042667
        k(  155) = (   0.0533333   0.1866667   0.0000000), wk =   0.0042667
        k(  156) = (   0.0533333   0.2000000   0.0000000), wk =   0.0042667
        k(  157) = (   0.0533333   0.2133333   0.0000000), wk =   0.0042667
        k(  158) = (   0.0533333   0.2266667   0.0000000), wk =   0.0042667
        k(  159) = (   0.0533333   0.2400000   0.0000000), wk =   0.0042667
        k(  160) = (   0.0533333   0.2533333   0.0000000), wk =   0.0042667
        k(  161) = (   0.0533333   0.2666667   0.0000000), wk =   0.0042667
        k(  162) = (   0.0533333   0.2800000   0.0000000), wk =   0.0042667
        k(  163) = (   0.0533333   0.2933333   0.0000000), wk =   0.0042667
        k(  164) = (   0.0533333   0.3066667   0.0000000), wk =   0.0042667
        k(  165) = (   0.0533333   0.3200000   0.0000000), wk =   0.0042667
        k(  166) = (   0.0533333   0.3333333   0.0000000), wk =   0.0042667
        k(  167) = (   0.0533333   0.3466667   0.0000000), wk =   0.0042667
        k(  168) = (   0.0533333   0.3600000   0.0000000), wk =   0.0042667
        k(  169) = (   0.0533333   0.3733333   0.0000000), wk =   0.0042667
        k(  170) = (   0.0533333   0.3866667   0.0000000), wk =   0.0042667
        k(  171) = (   0.0533333   0.4000000   0.0000000), wk =   0.0042667
        k(  172) = (   0.0533333   0.4133333   0.0000000), wk =   0.0042667
        k(  173) = (   0.0533333   0.4266667   0.0000000), wk =   0.0042667
        k(  174) = (   0.0533333   0.4400000   0.0000000), wk =   0.0042667
        k(  175) = (   0.0533333   0.4533333   0.0000000), wk =   0.0042667
        k(  176) = (   0.0533333   0.4666667   0.0000000), wk =   0.0042667
        k(  177) = (   0.0666667   0.0666667   0.0000000), wk =   0.0021333
        k(  178) = (   0.0666667   0.0800000   0.0000000), wk =   0.0042667
        k(  179) = (   0.0666667   0.0933333   0.0000000), wk =   0.0042667
        k(  180) = (   0.0666667   0.1066667   0.0000000), wk =   0.0042667
        k(  181) = (   0.0666667   0.1200000   0.0000000), wk =   0.0042667
        k(  182) = (   0.0666667   0.1333333   0.0000000), wk =   0.0042667
        k(  183) = (   0.0666667   0.1466667   0.0000000), wk =   0.0042667
        k(  184) = (   0.0666667   0.1600000   0.0000000), wk =   0.0042667
        k(  185) = (   0.0666667   0.1733333   0.0000000), wk =   0.0042667
        k(  186) = (   0.0666667   0.1866667   0.0000000), wk =   0.0042667
        k(  187) = (   0.0666667   0.2000000   0.0000000), wk =   0.0042667
        k(  188) = (   0.0666667   0.2133333   0.0000000), wk =   0.0042667
        k(  189) = (   0.0666667   0.2266667   0.0000000), wk =   0.0042667
        k(  190) = (   0.0666667   0.2400000   0.0000000), wk =   0.0042667
        k(  191) = (   0.0666667   0.2533333   0.0000000), wk =   0.0042667
        k(  192) = (   0.0666667   0.2666667   0.0000000), wk =   0.0042667
        k(  193) = (   0.0666667   0.2800000   0.0000000), wk =   0.0042667
        k(  194) = (   0.0666667   0.2933333   0.0000000), wk =   0.0042667
        k(  195) = (   0.0666667   0.3066667   0.0000000), wk =   0.0042667
        k(  196) = (   0.0666667   0.3200000   0.0000000), wk =   0.0042667
        k(  197) = (   0.0666667   0.3333333   0.0000000), wk =   0.0042667
        k(  198) = (   0.0666667   0.3466667   0.0000000), wk =   0.0042667
        k(  199) = (   0.0666667   0.3600000   0.0000000), wk =   0.0042667
        k(  200) = (   0.0666667   0.3733333   0.0000000), wk =   0.0042667
        k(  201) = (   0.0666667   0.3866667   0.0000000), wk =   0.0042667
        k(  202) = (   0.0666667   0.4000000   0.0000000), wk =   0.0042667
        k(  203) = (   0.0666667   0.4133333   0.0000000), wk =   0.0042667
        k(  204) = (   0.0666667   0.4266667   0.0000000), wk =   0.0042667
        k(  205) = (   0.0666667   0.4400000   0.0000000), wk =   0.0042667
        k(  206) = (   0.0666667   0.4533333   0.0000000), wk =   0.0042667
        k(  207) = (   0.0666667   0.4666667   0.0000000), wk =   0.0021333
        k(  208) = (   0.0800000   0.0800000   0.0000000), wk =   0.0021333
        k(  209) = (   0.0800000   0.0933333   0.0000000), wk =   0.0042667
        k(  210) = (   0.0800000   0.1066667   0.0000000), wk =   0.0042667
        k(  211) = (   0.0800000   0.1200000   0.0000000), wk =   0.0042667
        k(  212) = (   0.0800000   0.1333333   0.0000000), wk =   0.0042667
        k(  213) = (   0.0800000   0.1466667   0.0000000), wk =   0.0042667
        k(  214) = (   0.0800000   0.1600000   0.0000000), wk =   0.0042667
        k(  215) = (   0.0800000   0.1733333   0.0000000), wk =   0.0042667
        k(  216) = (   0.0800000   0.1866667   0.0000000), wk =   0.0042667
        k(  217) = (   0.0800000   0.2000000   0.0000000), wk =   0.0042667
        k(  218) = (   0.0800000   0.2133333   0.0000000), wk =   0.0042667
        k(  219) = (   0.0800000   0.2266667   0.0000000), wk =   0.0042667
        k(  220) = (   0.0800000   0.2400000   0.0000000), wk =   0.0042667
        k(  221) = (   0.0800000   0.2533333   0.0000000), wk =   0.0042667
        k(  222) = (   0.0800000   0.2666667   0.0000000), wk =   0.0042667
        k(  223) = (   0.0800000   0.2800000   0.0000000), wk =   0.0042667
        k(  224) = (   0.0800000   0.2933333   0.0000000), wk =   0.0042667
        k(  225) = (   0.0800000   0.3066667   0.0000000), wk =   0.0042667
        k(  226) = (   0.0800000   0.3200000   0.0000000), wk =   0.0042667
        k(  227) = (   0.0800000   0.3333333   0.0000000), wk =   0.0042667
        k(  228) = (   0.0800000   0.3466667   0.0000000), wk =   0.0042667
        k(  229) = (   0.0800000   0.3600000   0.0000000), wk =   0.0042667
        k(  230) = (   0.0800000   0.3733333   0.0000000), wk =   0.0042667
        k(  231) = (   0.0800000   0.3866667   0.0000000), wk =   0.0042667
        k(  232) = (   0.0800000   0.4000000   0.0000000), wk =   0.0042667
        k(  233) = (   0.0800000   0.4133333   0.0000000), wk =   0.0042667
        k(  234) = (   0.0800000   0.4266667   0.0000000), wk =   0.0042667
        k(  235) = (   0.0800000   0.4400000   0.0000000), wk =   0.0042667
        k(  236) = (   0.0800000   0.4533333   0.0000000), wk =   0.0042667
        k(  237) = (   0.0933333   0.0933333   0.0000000), wk =   0.0021333
        k(  238) = (   0.0933333   0.1066667   0.0000000), wk =   0.0042667
        k(  239) = (   0.0933333   0.1200000   0.0000000), wk =   0.0042667
        k(  240) = (   0.0933333   0.1333333   0.0000000), wk =   0.0042667
        k(  241) = (   0.0933333   0.1466667   0.0000000), wk =   0.0042667
        k(  242) = (   0.0933333   0.1600000   0.0000000), wk =   0.0042667
        k(  243) = (   0.0933333   0.1733333   0.0000000), wk =   0.0042667
        k(  244) = (   0.0933333   0.1866667   0.0000000), wk =   0.0042667
        k(  245) = (   0.0933333   0.2000000   0.0000000), wk =   0.0042667
        k(  246) = (   0.0933333   0.2133333   0.0000000), wk =   0.0042667
        k(  247) = (   0.0933333   0.2266667   0.0000000), wk =   0.0042667
        k(  248) = (   0.0933333   0.2400000   0.0000000), wk =   0.0042667
        k(  249) = (   0.0933333   0.2533333   0.0000000), wk =   0.0042667
        k(  250) = (   0.0933333   0.2666667   0.0000000), wk =   0.0042667
        k(  251) = (   0.0933333   0.2800000   0.0000000), wk =   0.0042667
        k(  252) = (   0.0933333   0.2933333   0.0000000), wk =   0.0042667
        k(  253) = (   0.0933333   0.3066667   0.0000000), wk =   0.0042667
        k(  254) = (   0.0933333   0.3200000   0.0000000), wk =   0.0042667
        k(  255) = (   0.0933333   0.3333333   0.0000000), wk =   0.0042667
        k(  256) = (   0.0933333   0.3466667   0.0000000), wk =   0.0042667
        k(  257) = (   0.0933333   0.3600000   0.0000000), wk =   0.0042667
        k(  258) = (   0.0933333   0.3733333   0.0000000), wk =   0.0042667
        k(  259) = (   0.0933333   0.3866667   0.0000000), wk =   0.0042667
        k(  260) = (   0.0933333   0.4000000   0.0000000), wk =   0.0042667
        k(  261) = (   0.0933333   0.4133333   0.0000000), wk =   0.0042667
        k(  262) = (   0.0933333   0.4266667   0.0000000), wk =   0.0042667
        k(  263) = (   0.0933333   0.4400000   0.0000000), wk =   0.0042667
        k(  264) = (   0.0933333   0.4533333   0.0000000), wk =   0.0021333
        k(  265) = (   0.1066667   0.1066667   0.0000000), wk =   0.0021333
        k(  266) = (   0.1066667   0.1200000   0.0000000), wk =   0.0042667
        k(  267) = (   0.1066667   0.1333333   0.0000000), wk =   0.0042667
        k(  268) = (   0.1066667   0.1466667   0.0000000), wk =   0.0042667
        k(  269) = (   0.1066667   0.1600000   0.0000000), wk =   0.0042667
        k(  270) = (   0.1066667   0.1733333   0.0000000), wk =   0.0042667
        k(  271) = (   0.1066667   0.1866667   0.0000000), wk =   0.0042667
        k(  272) = (   0.1066667   0.2000000   0.0000000), wk =   0.0042667
        k(  273) = (   0.1066667   0.2133333   0.0000000), wk =   0.0042667
        k(  274) = (   0.1066667   0.2266667   0.0000000), wk =   0.0042667
        k(  275) = (   0.1066667   0.2400000   0.0000000), wk =   0.0042667
        k(  276) = (   0.1066667   0.2533333   0.0000000), wk =   0.0042667
        k(  277) = (   0.1066667   0.2666667   0.0000000), wk =   0.0042667
        k(  278) = (   0.1066667   0.2800000   0.0000000), wk =   0.0042667
        k(  279) = (   0.1066667   0.2933333   0.0000000), wk =   0.0042667
        k(  280) = (   0.1066667   0.3066667   0.0000000), wk =   0.0042667
        k(  281) = (   0.1066667   0.3200000   0.0000000), wk =   0.0042667
        k(  282) = (   0.1066667   0.3333333   0.0000000), wk =   0.0042667
        k(  283) = (   0.1066667   0.3466667   0.0000000), wk =   0.0042667
        k(  284) = (   0.1066667   0.3600000   0.0000000), wk =   0.0042667
        k(  285) = (   0.1066667   0.3733333   0.0000000), wk =   0.0042667
        k(  286) = (   0.1066667   0.3866667   0.0000000), wk =   0.0042667
        k(  287) = (   0.1066667   0.4000000   0.0000000), wk =   0.0042667
        k(  288) = (   0.1066667   0.4133333   0.0000000), wk =   0.0042667
        k(  289) = (   0.1066667   0.4266667   0.0000000), wk =   0.0042667
        k(  290) = (   0.1066667   0.4400000   0.0000000), wk =   0.0042667
        k(  291) = (   0.1200000   0.1200000   0.0000000), wk =   0.0021333
        k(  292) = (   0.1200000   0.1333333   0.0000000), wk =   0.0042667
        k(  293) = (   0.1200000   0.1466667   0.0000000), wk =   0.0042667
        k(  294) = (   0.1200000   0.1600000   0.0000000), wk =   0.0042667
        k(  295) = (   0.1200000   0.1733333   0.0000000), wk =   0.0042667
        k(  296) = (   0.1200000   0.1866667   0.0000000), wk =   0.0042667
        k(  297) = (   0.1200000   0.2000000   0.0000000), wk =   0.0042667
        k(  298) = (   0.1200000   0.2133333   0.0000000), wk =   0.0042667
        k(  299) = (   0.1200000   0.2266667   0.0000000), wk =   0.0042667
        k(  300) = (   0.1200000   0.2400000   0.0000000), wk =   0.0042667
        k(  301) = (   0.1200000   0.2533333   0.0000000), wk =   0.0042667
        k(  302) = (   0.1200000   0.2666667   0.0000000), wk =   0.0042667
        k(  303) = (   0.1200000   0.2800000   0.0000000), wk =   0.0042667
        k(  304) = (   0.1200000   0.2933333   0.0000000), wk =   0.0042667
        k(  305) = (   0.1200000   0.3066667   0.0000000), wk =   0.0042667
        k(  306) = (   0.1200000   0.3200000   0.0000000), wk =   0.0042667
        k(  307) = (   0.1200000   0.3333333   0.0000000), wk =   0.0042667
        k(  308) = (   0.1200000   0.3466667   0.0000000), wk =   0.0042667
        k(  309) = (   0.1200000   0.3600000   0.0000000), wk =   0.0042667
        k(  310) = (   0.1200000   0.3733333   0.0000000), wk =   0.0042667
        k(  311) = (   0.1200000   0.3866667   0.0000000), wk =   0.0042667
        k(  312) = (   0.1200000   0.4000000   0.0000000), wk =   0.0042667
        k(  313) = (   0.1200000   0.4133333   0.0000000), wk =   0.0042667
        k(  314) = (   0.1200000   0.4266667   0.0000000), wk =   0.0042667
        k(  315) = (   0.1200000   0.4400000   0.0000000), wk =   0.0021333
        k(  316) = (   0.1333333   0.1333333   0.0000000), wk =   0.0021333
        k(  317) = (   0.1333333   0.1466667   0.0000000), wk =   0.0042667
        k(  318) = (   0.1333333   0.1600000   0.0000000), wk =   0.0042667
        k(  319) = (   0.1333333   0.1733333   0.0000000), wk =   0.0042667
        k(  320) = (   0.1333333   0.1866667   0.0000000), wk =   0.0042667
        k(  321) = (   0.1333333   0.2000000   0.0000000), wk =   0.0042667
        k(  322) = (   0.1333333   0.2133333   0.0000000), wk =   0.0042667
        k(  323) = (   0.1333333   0.2266667   0.0000000), wk =   0.0042667
        k(  324) = (   0.1333333   0.2400000   0.0000000), wk =   0.0042667
        k(  325) = (   0.1333333   0.2533333   0.0000000), wk =   0.0042667
        k(  326) = (   0.1333333   0.2666667   0.0000000), wk =   0.0042667
        k(  327) = (   0.1333333   0.2800000   0.0000000), wk =   0.0042667
        k(  328) = (   0.1333333   0.2933333   0.0000000), wk =   0.0042667
        k(  329) = (   0.1333333   0.3066667   0.0000000), wk =   0.0042667
        k(  330) = (   0.1333333   0.3200000   0.0000000), wk =   0.0042667
        k(  331) = (   0.1333333   0.3333333   0.0000000), wk =   0.0042667
        k(  332) = (   0.1333333   0.3466667   0.0000000), wk =   0.0042667
        k(  333) = (   0.1333333   0.3600000   0.0000000), wk =   0.0042667
        k(  334) = (   0.1333333   0.3733333   0.0000000), wk =   0.0042667
        k(  335) = (   0.1333333   0.3866667   0.0000000), wk =   0.0042667
        k(  336) = (   0.1333333   0.4000000   0.0000000), wk =   0.0042667
        k(  337) = (   0.1333333   0.4133333   0.0000000), wk =   0.0042667
        k(  338) = (   0.1333333   0.4266667   0.0000000), wk =   0.0042667
        k(  339) = (   0.1466667   0.1466667   0.0000000), wk =   0.0021333
        k(  340) = (   0.1466667   0.1600000   0.0000000), wk =   0.0042667
        k(  341) = (   0.1466667   0.1733333   0.0000000), wk =   0.0042667
        k(  342) = (   0.1466667   0.1866667   0.0000000), wk =   0.0042667
        k(  343) = (   0.1466667   0.2000000   0.0000000), wk =   0.0042667
        k(  344) = (   0.1466667   0.2133333   0.0000000), wk =   0.0042667
        k(  345) = (   0.1466667   0.2266667   0.0000000), wk =   0.0042667
        k(  346) = (   0.1466667   0.2400000   0.0000000), wk =   0.0042667
        k(  347) = (   0.1466667   0.2533333   0.0000000), wk =   0.0042667
        k(  348) = (   0.1466667   0.2666667   0.0000000), wk =   0.0042667
        k(  349) = (   0.1466667   0.2800000   0.0000000), wk =   0.0042667
        k(  350) = (   0.1466667   0.2933333   0.0000000), wk =   0.0042667
        k(  351) = (   0.1466667   0.3066667   0.0000000), wk =   0.0042667
        k(  352) = (   0.1466667   0.3200000   0.0000000), wk =   0.0042667
        k(  353) = (   0.1466667   0.3333333   0.0000000), wk =   0.0042667
        k(  354) = (   0.1466667   0.3466667   0.0000000), wk =   0.0042667
        k(  355) = (   0.1466667   0.3600000   0.0000000), wk =   0.0042667
        k(  356) = (   0.1466667   0.3733333   0.0000000), wk =   0.0042667
        k(  357) = (   0.1466667   0.3866667   0.0000000), wk =   0.0042667
        k(  358) = (   0.1466667   0.4000000   0.0000000), wk =   0.0042667
        k(  359) = (   0.1466667   0.4133333   0.0000000), wk =   0.0042667
        k(  360) = (   0.1466667   0.4266667   0.0000000), wk =   0.0021333
        k(  361) = (   0.1600000   0.1600000   0.0000000), wk =   0.0021333
        k(  362) = (   0.1600000   0.1733333   0.0000000), wk =   0.0042667
        k(  363) = (   0.1600000   0.1866667   0.0000000), wk =   0.0042667
        k(  364) = (   0.1600000   0.2000000   0.0000000), wk =   0.0042667
        k(  365) = (   0.1600000   0.2133333   0.0000000), wk =   0.0042667
        k(  366) = (   0.1600000   0.2266667   0.0000000), wk =   0.0042667
        k(  367) = (   0.1600000   0.2400000   0.0000000), wk =   0.0042667
        k(  368) = (   0.1600000   0.2533333   0.0000000), wk =   0.0042667
        k(  369) = (   0.1600000   0.2666667   0.0000000), wk =   0.0042667
        k(  370) = (   0.1600000   0.2800000   0.0000000), wk =   0.0042667
        k(  371) = (   0.1600000   0.2933333   0.0000000), wk =   0.0042667
        k(  372) = (   0.1600000   0.3066667   0.0000000), wk =   0.0042667
        k(  373) = (   0.1600000   0.3200000   0.0000000), wk =   0.0042667
        k(  374) = (   0.1600000   0.3333333   0.0000000), wk =   0.0042667
        k(  375) = (   0.1600000   0.3466667   0.0000000), wk =   0.0042667
        k(  376) = (   0.1600000   0.3600000   0.0000000), wk =   0.0042667
        k(  377) = (   0.1600000   0.3733333   0.0000000), wk =   0.0042667
        k(  378) = (   0.1600000   0.3866667   0.0000000), wk =   0.0042667
        k(  379) = (   0.1600000   0.4000000   0.0000000), wk =   0.0042667
        k(  380) = (   0.1600000   0.4133333   0.0000000), wk =   0.0042667
        k(  381) = (   0.1733333   0.1733333   0.0000000), wk =   0.0021333
        k(  382) = (   0.1733333   0.1866667   0.0000000), wk =   0.0042667
        k(  383) = (   0.1733333   0.2000000   0.0000000), wk =   0.0042667
        k(  384) = (   0.1733333   0.2133333   0.0000000), wk =   0.0042667
        k(  385) = (   0.1733333   0.2266667   0.0000000), wk =   0.0042667
        k(  386) = (   0.1733333   0.2400000   0.0000000), wk =   0.0042667
        k(  387) = (   0.1733333   0.2533333   0.0000000), wk =   0.0042667
        k(  388) = (   0.1733333   0.2666667   0.0000000), wk =   0.0042667
        k(  389) = (   0.1733333   0.2800000   0.0000000), wk =   0.0042667
        k(  390) = (   0.1733333   0.2933333   0.0000000), wk =   0.0042667
        k(  391) = (   0.1733333   0.3066667   0.0000000), wk =   0.0042667
        k(  392) = (   0.1733333   0.3200000   0.0000000), wk =   0.0042667
        k(  393) = (   0.1733333   0.3333333   0.0000000), wk =   0.0042667
        k(  394) = (   0.1733333   0.3466667   0.0000000), wk =   0.0042667
        k(  395) = (   0.1733333   0.3600000   0.0000000), wk =   0.0042667
        k(  396) = (   0.1733333   0.3733333   0.0000000), wk =   0.0042667
        k(  397) = (   0.1733333   0.3866667   0.0000000), wk =   0.0042667
        k(  398) = (   0.1733333   0.4000000   0.0000000), wk =   0.0042667
        k(  399) = (   0.1733333   0.4133333   0.0000000), wk =   0.0021333
        k(  400) = (   0.1866667   0.1866667   0.0000000), wk =   0.0021333
        k(  401) = (   0.1866667   0.2000000   0.0000000), wk =   0.0042667
        k(  402) = (   0.1866667   0.2133333   0.0000000), wk =   0.0042667
        k(  403) = (   0.1866667   0.2266667   0.0000000), wk =   0.0042667
        k(  404) = (   0.1866667   0.2400000   0.0000000), wk =   0.0042667
        k(  405) = (   0.1866667   0.2533333   0.0000000), wk =   0.0042667
        k(  406) = (   0.1866667   0.2666667   0.0000000), wk =   0.0042667
        k(  407) = (   0.1866667   0.2800000   0.0000000), wk =   0.0042667
        k(  408) = (   0.1866667   0.2933333   0.0000000), wk =   0.0042667
        k(  409) = (   0.1866667   0.3066667   0.0000000), wk =   0.0042667
        k(  410) = (   0.1866667   0.3200000   0.0000000), wk =   0.0042667
        k(  411) = (   0.1866667   0.3333333   0.0000000), wk =   0.0042667
        k(  412) = (   0.1866667   0.3466667   0.0000000), wk =   0.0042667
        k(  413) = (   0.1866667   0.3600000   0.0000000), wk =   0.0042667
        k(  414) = (   0.1866667   0.3733333   0.0000000), wk =   0.0042667
        k(  415) = (   0.1866667   0.3866667   0.0000000), wk =   0.0042667
        k(  416) = (   0.1866667   0.4000000   0.0000000), wk =   0.0042667
        k(  417) = (   0.2000000   0.2000000   0.0000000), wk =   0.0021333
        k(  418) = (   0.2000000   0.2133333   0.0000000), wk =   0.0042667
        k(  419) = (   0.2000000   0.2266667   0.0000000), wk =   0.0042667
        k(  420) = (   0.2000000   0.2400000   0.0000000), wk =   0.0042667
        k(  421) = (   0.2000000   0.2533333   0.0000000), wk =   0.0042667
        k(  422) = (   0.2000000   0.2666667   0.0000000), wk =   0.0042667
        k(  423) = (   0.2000000   0.2800000   0.0000000), wk =   0.0042667
        k(  424) = (   0.2000000   0.2933333   0.0000000), wk =   0.0042667
        k(  425) = (   0.2000000   0.3066667   0.0000000), wk =   0.0042667
        k(  426) = (   0.2000000   0.3200000   0.0000000), wk =   0.0042667
        k(  427) = (   0.2000000   0.3333333   0.0000000), wk =   0.0042667
        k(  428) = (   0.2000000   0.3466667   0.0000000), wk =   0.0042667
        k(  429) = (   0.2000000   0.3600000   0.0000000), wk =   0.0042667
        k(  430) = (   0.2000000   0.3733333   0.0000000), wk =   0.0042667
        k(  431) = (   0.2000000   0.3866667   0.0000000), wk =   0.0042667
        k(  432) = (   0.2000000   0.4000000   0.0000000), wk =   0.0021333
        k(  433) = (   0.2133333   0.2133333   0.0000000), wk =   0.0021333
        k(  434) = (   0.2133333   0.2266667   0.0000000), wk =   0.0042667
        k(  435) = (   0.2133333   0.2400000   0.0000000), wk =   0.0042667
        k(  436) = (   0.2133333   0.2533333   0.0000000), wk =   0.0042667
        k(  437) = (   0.2133333   0.2666667   0.0000000), wk =   0.0042667
        k(  438) = (   0.2133333   0.2800000   0.0000000), wk =   0.0042667
        k(  439) = (   0.2133333   0.2933333   0.0000000), wk =   0.0042667
        k(  440) = (   0.2133333   0.3066667   0.0000000), wk =   0.0042667
        k(  441) = (   0.2133333   0.3200000   0.0000000), wk =   0.0042667
        k(  442) = (   0.2133333   0.3333333   0.0000000), wk =   0.0042667
        k(  443) = (   0.2133333   0.3466667   0.0000000), wk =   0.0042667
        k(  444) = (   0.2133333   0.3600000   0.0000000), wk =   0.0042667
        k(  445) = (   0.2133333   0.3733333   0.0000000), wk =   0.0042667
        k(  446) = (   0.2133333   0.3866667   0.0000000), wk =   0.0042667
        k(  447) = (   0.2266667   0.2266667   0.0000000), wk =   0.0021333
        k(  448) = (   0.2266667   0.2400000   0.0000000), wk =   0.0042667
        k(  449) = (   0.2266667   0.2533333   0.0000000), wk =   0.0042667
        k(  450) = (   0.2266667   0.2666667   0.0000000), wk =   0.0042667
        k(  451) = (   0.2266667   0.2800000   0.0000000), wk =   0.0042667
        k(  452) = (   0.2266667   0.2933333   0.0000000), wk =   0.0042667
        k(  453) = (   0.2266667   0.3066667   0.0000000), wk =   0.0042667
        k(  454) = (   0.2266667   0.3200000   0.0000000), wk =   0.0042667
        k(  455) = (   0.2266667   0.3333333   0.0000000), wk =   0.0042667
        k(  456) = (   0.2266667   0.3466667   0.0000000), wk =   0.0042667
        k(  457) = (   0.2266667   0.3600000   0.0000000), wk =   0.0042667
        k(  458) = (   0.2266667   0.3733333   0.0000000), wk =   0.0042667
        k(  459) = (   0.2266667   0.3866667   0.0000000), wk =   0.0021333
        k(  460) = (   0.2400000   0.2400000   0.0000000), wk =   0.0021333
        k(  461) = (   0.2400000   0.2533333   0.0000000), wk =   0.0042667
        k(  462) = (   0.2400000   0.2666667   0.0000000), wk =   0.0042667
        k(  463) = (   0.2400000   0.2800000   0.0000000), wk =   0.0042667
        k(  464) = (   0.2400000   0.2933333   0.0000000), wk =   0.0042667
        k(  465) = (   0.2400000   0.3066667   0.0000000), wk =   0.0042667
        k(  466) = (   0.2400000   0.3200000   0.0000000), wk =   0.0042667
        k(  467) = (   0.2400000   0.3333333   0.0000000), wk =   0.0042667
        k(  468) = (   0.2400000   0.3466667   0.0000000), wk =   0.0042667
        k(  469) = (   0.2400000   0.3600000   0.0000000), wk =   0.0042667
        k(  470) = (   0.2400000   0.3733333   0.0000000), wk =   0.0042667
        k(  471) = (   0.2533333   0.2533333   0.0000000), wk =   0.0021333
        k(  472) = (   0.2533333   0.2666667   0.0000000), wk =   0.0042667
        k(  473) = (   0.2533333   0.2800000   0.0000000), wk =   0.0042667
        k(  474) = (   0.2533333   0.2933333   0.0000000), wk =   0.0042667
        k(  475) = (   0.2533333   0.3066667   0.0000000), wk =   0.0042667
        k(  476) = (   0.2533333   0.3200000   0.0000000), wk =   0.0042667
        k(  477) = (   0.2533333   0.3333333   0.0000000), wk =   0.0042667
        k(  478) = (   0.2533333   0.3466667   0.0000000), wk =   0.0042667
        k(  479) = (   0.2533333   0.3600000   0.0000000), wk =   0.0042667
        k(  480) = (   0.2533333   0.3733333   0.0000000), wk =   0.0021333
        k(  481) = (   0.2666667   0.2666667   0.0000000), wk =   0.0021333
        k(  482) = (   0.2666667   0.2800000   0.0000000), wk =   0.0042667
        k(  483) = (   0.2666667   0.2933333   0.0000000), wk =   0.0042667
        k(  484) = (   0.2666667   0.3066667   0.0000000), wk =   0.0042667
        k(  485) = (   0.2666667   0.3200000   0.0000000), wk =   0.0042667
        k(  486) = (   0.2666667   0.3333333   0.0000000), wk =   0.0042667
        k(  487) = (   0.2666667   0.3466667   0.0000000), wk =   0.0042667
        k(  488) = (   0.2666667   0.3600000   0.0000000), wk =   0.0042667
        k(  489) = (   0.2800000   0.2800000   0.0000000), wk =   0.0021333
        k(  490) = (   0.2800000   0.2933333   0.0000000), wk =   0.0042667
        k(  491) = (   0.2800000   0.3066667   0.0000000), wk =   0.0042667
        k(  492) = (   0.2800000   0.3200000   0.0000000), wk =   0.0042667
        k(  493) = (   0.2800000   0.3333333   0.0000000), wk =   0.0042667
        k(  494) = (   0.2800000   0.3466667   0.0000000), wk =   0.0042667
        k(  495) = (   0.2800000   0.3600000   0.0000000), wk =   0.0021333
        k(  496) = (   0.2933333   0.2933333   0.0000000), wk =   0.0021333
        k(  497) = (   0.2933333   0.3066667   0.0000000), wk =   0.0042667
        k(  498) = (   0.2933333   0.3200000   0.0000000), wk =   0.0042667
        k(  499) = (   0.2933333   0.3333333   0.0000000), wk =   0.0042667
        k(  500) = (   0.2933333   0.3466667   0.0000000), wk =   0.0042667
        k(  501) = (   0.3066667   0.3066667   0.0000000), wk =   0.0021333
        k(  502) = (   0.3066667   0.3200000   0.0000000), wk =   0.0042667
        k(  503) = (   0.3066667   0.3333333   0.0000000), wk =   0.0042667
        k(  504) = (   0.3066667   0.3466667   0.0000000), wk =   0.0021333
        k(  505) = (   0.3200000   0.3200000   0.0000000), wk =   0.0021333
        k(  506) = (   0.3200000   0.3333333   0.0000000), wk =   0.0042667
        k(  507) = (   0.3333333   0.3333333   0.0000000), wk =   0.0007111

     Dense  grid:    94953 G-vectors     FFT dimensions: (  30,  30, 270)

     Dynamical RAM for                 wfc:       5.45 MB

     Dynamical RAM for     wfc (w. buffer):     179.87 MB

     Dynamical RAM for           str. fact:       1.45 MB

     Dynamical RAM for           local pot:       0.00 MB

     Dynamical RAM for          nlocal pot:       2.91 MB

     Dynamical RAM for                qrad:       0.44 MB

     Dynamical RAM for          rho,v,vnew:       9.91 MB

     Dynamical RAM for           G-vectors:       6.16 MB

     Dynamical RAM for          h,s,v(r/c):       0.16 MB

     Dynamical RAM for          <psi|beta>:       0.01 MB

     Dynamical RAM for                 psi:      10.90 MB

     Dynamical RAM for                hpsi:      10.90 MB

     Dynamical RAM for      wfcinit/wfcrot:      10.92 MB

     Estimated static dynamical RAM per process >     212.89 MB

     Estimated max dynamical RAM per process >     234.87 MB

     Estimated total dynamical RAM >       3.67 GB

     The potential is recalculated from file :
     /home/ubuntu/projects/Graphene-Band-Structure-Quantum-Espresso/outputs/field_0/vdw-df2-c09/top/data/top.save/charge-density



     %%%%%%%%%%%%%%%%%%%%%%%%%%%%%%%%%%%%%%%%%%%%%%%%%%%%%%%%%%%%%%%%%%%%%%%%
     %                                                                      %
     % You are using vdW-DF, which was implemented by the Thonhauser group. %
     % Please cite the following two papers that made this development      %
     % possible and the two reviews that describe the various versions:     %
     %                                                                      %
     %   T. Thonhauser et al., PRL 115, 136402 (2015).                      %
     %   T. Thonhauser et al., PRB 76,  125112 (2007).                      %
     %   K. Berland et al., Rep. Prog. Phys. 78, 066501 (2015).             %
     %   D.C. Langreth et al., J. Phys.: Condens. Matter 21, 084203 (2009). %
     %                                                                      %
     % If you are calculating stress with vdW-DF, please also cite:         %
     %                                                                      %
     %   R. Sabatini et al., J. Phys.: Condens. Matter 24, 424209 (2012).   %
     %                                                                      %
     %   And for spin-polarized stress cases also:                          %
     %   C.M. Frostenson et al., Electr. Struct. 4, 014001 (2022).          %
     %                                                                      %
     %%%%%%%%%%%%%%%%%%%%%%%%%%%%%%%%%%%%%%%%%%%%%%%%%%%%%%%%%%%%%%%%%%%%%%%%

     %%%%%%%%%%%%%%%%%%%%%%%%%%%%%%%%%%%%%%%%%%%%%%%%%%%%%%%%%%%%%%%%%%%%%%%%
     %                                                                      %
     %  vdW-DF NEWS:                                                        %
     %                                                                      %
     %  * vdW-DF3-mc is now available. DOI: 10.1103/hp9d-4kpf               %
     %    use with input_dft = 'vdW-DF3-mc'                                 %
     %  * vdW-DF3 is now available. DOI: 10.1021/acs.jctc.0c00471           %
     %    use with input_dft = 'vdW-DF3-opt1' or 'vdW-DF3-opt2'             %
     %                                                                      %
     %  * Unscreened and range-separated hybrid vdW-DF-cx functionals       %
     %    DOI: 10.1063/1.4986522 and 10.1088/1361-648X/ac2ad2               %
     %    use with input_dft = 'vdW-DF-cx0' and 'vdW-DF-ahcx'               %
     %  * Unscreened and range-separated hybrid vdW-DF2-b86r functionals    %
     %    DOI: 10.1063/1.4986522 and DOI: 10.1103/PhysRevX.12.041003        %
     %    use with input_dft = 'vdW-DF2-br0' and 'vdW-DF2-ahbr'             %
     %                                                                      %
     %%%%%%%%%%%%%%%%%%%%%%%%%%%%%%%%%%%%%%%%%%%%%%%%%%%%%%%%%%%%%%%%%%%%%%%%


     Carrying out vdW-DF run using the following parameters:
     Nqs    =  20  Npoints =  1024  r_max =  100.000
     q_mesh =  0.00001000  0.04494208  0.09755937  0.15916263
               0.23128650  0.31572767  0.41458969  0.53033537
               0.66584808  0.82450364  1.01025438  1.22772762
               1.48234092  1.78043706  2.12944203  2.53805004
               3.01644009  3.57652955  4.23227104  5.00000000


     -----------------------------------------------
     Non-local corr. energy    =       0.10385277 Ry
     -----------------------------------------------

     Starting wfcs are    8 randomized atomic wfcs +   22 random wfcs

     Band Structure Calculation
     Davidson diagonalization with overlap

     Computing kpt #:     1  of    32 on this pool
     total cpu time spent up to now is       25.3 secs

     Computing kpt #:     2  of    32 on this pool
     total cpu time spent up to now is       39.7 secs

     Computing kpt #:     3  of    32 on this pool
     total cpu time spent up to now is       54.5 secs

     Computing kpt #:     4  of    32 on this pool
     total cpu time spent up to now is       67.2 secs

     Computing kpt #:     5  of    32 on this pool
     total cpu time spent up to now is       77.8 secs

     Computing kpt #:     6  of    32 on this pool
     total cpu time spent up to now is       89.3 secs

     Computing kpt #:     7  of    32 on this pool
     total cpu time spent up to now is      102.1 secs

     Computing kpt #:     8  of    32 on this pool
     total cpu time spent up to now is      117.6 secs

     Computing kpt #:     9  of    32 on this pool
     total cpu time spent up to now is      130.6 secs

     Computing kpt #:    10  of    32 on this pool
     total cpu time spent up to now is      144.4 secs

     Computing kpt #:    11  of    32 on this pool
     total cpu time spent up to now is      157.6 secs

     Computing kpt #:    12  of    32 on this pool
     total cpu time spent up to now is      171.8 secs

     Computing kpt #:    13  of    32 on this pool
     total cpu time spent up to now is      184.9 secs

     Computing kpt #:    14  of    32 on this pool
     total cpu time spent up to now is      197.7 secs

     Computing kpt #:    15  of    32 on this pool
     total cpu time spent up to now is      209.4 secs

     Computing kpt #:    16  of    32 on this pool
     total cpu time spent up to now is      221.9 secs

     Computing kpt #:    17  of    32 on this pool
     total cpu time spent up to now is      235.6 secs

     Computing kpt #:    18  of    32 on this pool
     total cpu time spent up to now is      250.8 secs

     Computing kpt #:    19  of    32 on this pool
     total cpu time spent up to now is      263.3 secs

     Computing kpt #:    20  of    32 on this pool
     total cpu time spent up to now is      277.6 secs

     Computing kpt #:    21  of    32 on this pool
     total cpu time spent up to now is      291.8 secs

     Computing kpt #:    22  of    32 on this pool
     total cpu time spent up to now is      304.7 secs

     Computing kpt #:    23  of    32 on this pool
     total cpu time spent up to now is      318.1 secs

     Computing kpt #:    24  of    32 on this pool
     total cpu time spent up to now is      331.6 secs

     Computing kpt #:    25  of    32 on this pool
     total cpu time spent up to now is      346.8 secs

     Computing kpt #:    26  of    32 on this pool
     total cpu time spent up to now is      357.9 secs

     Computing kpt #:    27  of    32 on this pool
     total cpu time spent up to now is      371.3 secs

     Computing kpt #:    28  of    32 on this pool
     total cpu time spent up to now is      384.6 secs

     Computing kpt #:    29  of    32 on this pool
     total cpu time spent up to now is      399.9 secs

     Computing kpt #:    30  of    32 on this pool
     total cpu time spent up to now is      414.1 secs

     Computing kpt #:    31  of    32 on this pool
     total cpu time spent up to now is      430.6 secs

     Computing kpt #:    32  of    32 on this pool
     total cpu time spent up to now is      439.5 secs

     ethr =  1.25E-10,  avg # of iterations = 46.4

     total cpu time spent up to now is      439.7 secs

     End of band structure calculation

          k = 0.0000 0.0000 0.0000 ( 11659 PWs)   bands (ev):

   -22.2871 -10.4024  -5.7479  -5.7479   0.2611   1.1277   1.7675   2.2995
     2.6871   3.8166   4.3012   5.7485   5.7485   5.9794   6.4978   8.6778
     8.8063   9.3162   9.9985  11.9107  12.7925  15.7351  16.8768  19.8785
    20.1124  21.4903  24.7998  25.7441  25.7441  26.6289

     occupation numbers 
     1.0000   1.0000   1.0000   1.0000   0.0000   0.0000   0.0000   0.0000
     0.0000   0.0000   0.0000   0.0000   0.0000   0.0000   0.0000   0.0000
     0.0000   0.0000   0.0000   0.0000   0.0000   0.0000   0.0000   0.0000
     0.0000   0.0000   0.0000   0.0000   0.0000   0.0000

          k = 0.0000 0.0154 0.0000 ( 11711 PWs)   bands (ev):

   -22.2829 -10.3973  -5.7655  -5.7573   0.2669   1.1334   1.7734   2.3054
     2.6929   3.8224   4.3070   5.7511   5.7671   5.9852   6.5038   8.6835
     8.7914   9.3220  10.0057  11.9162  12.7983  15.7403  16.8826  19.8924
    20.1164  21.4960  24.7944  25.6915  25.7007  26.6345

     occupation numbers 
     1.0000   1.0000   1.0000   1.0000   0.0000   0.0000   0.0000   0.0000
     0.0000   0.0000   0.0000   0.0000   0.0000   0.0000   0.0000   0.0000
     0.0000   0.0000   0.0000   0.0000   0.0000   0.0000   0.0000   0.0000
     0.0000   0.0000   0.0000   0.0000   0.0000   0.0000

          k = 0.0000 0.0308 0.0000 ( 11747 PWs)   bands (ev):

   -22.2702 -10.3821  -5.8179  -5.7852   0.2840   1.1508   1.7910   2.3229
     2.7104   3.8399   4.3242   5.7584   5.8227   6.0025   6.5217   8.7004
     8.7470   9.3395  10.0275  11.9327  12.8157  15.7558  16.8998  19.9340
    20.1285  21.5132  24.7696  25.5450  25.5794  26.6513

     occupation numbers 
     1.0000   1.0000   1.0000   1.0000   0.0000   0.0000   0.0000   0.0000
     0.0000   0.0000   0.0000   0.0000   0.0000   0.0000   0.0000   0.0000
     0.0000   0.0000   0.0000   0.0000   0.0000   0.0000   0.0000   0.0000
     0.0000   0.0000   0.0000   0.0000   0.0000   0.0000

          k = 0.0000 0.0462 0.0000 ( 11759 PWs)   bands (ev):

   -22.2491 -10.3568  -5.9044  -5.8311   0.3127   1.1797   1.8204   2.3522
     2.7396   3.8690   4.3529   5.7695   5.9146   6.0312   6.5517   8.6733
     8.7287   9.3686  10.0644  11.9601  12.8446  15.7817  16.9285  20.0024
    20.1481  21.5417  24.6914  25.3292  25.4201  26.6793

     occupation numbers 
     1.0000   1.0000   1.0000   1.0000   0.0000   0.0000   0.0000   0.0000
     0.0000   0.0000   0.0000   0.0000   0.0000   0.0000   0.0000   0.0000
     0.0000   0.0000   0.0000   0.0000   0.0000   0.0000   0.0000   0.0000
     0.0000   0.0000   0.0000   0.0000   0.0000   0.0000

          k = 0.0000 0.0616 0.0000 ( 11767 PWs)   bands (ev):

   -22.2197 -10.3213  -6.0234  -5.8938   0.3528   1.2202   1.8616   2.3932
     2.7805   3.9097   4.3932   5.7831   6.0417   6.0715   6.5934   8.5713
     8.7683   9.4093  10.1171  11.9985  12.8851  15.8177  16.9687  20.0962
    20.1744  21.5819  24.4996  25.0690  25.3018  26.7186

     occupation numbers 
     1.0000   1.0000   1.0000   1.0000   0.0000   0.0000   0.0000   0.0000
     0.0000   0.0000   0.0000   0.0000   0.0000   0.0000   0.0000   0.0000
     0.0000   0.0000   0.0000   0.0000   0.0000   0.0000   0.0000   0.0000
     0.0000   0.0000   0.0000   0.0000   0.0000   0.0000

          k = 0.0000 0.0770 0.0000 ( 11791 PWs)   bands (ev):

   -22.1817 -10.2757  -6.1733  -5.9722   0.4044   1.2723   1.9146   2.4460
     2.8331   3.9621   4.4449   5.7972   6.1233   6.2027   6.6468   8.4416
     8.8191   9.4617  10.1863  12.0478  12.9371  15.8637  17.0202  20.2060
    20.2135  21.6338  24.1802  24.7828  25.2648  26.7691

     occupation numbers 
     1.0000   1.0000   1.0000   1.0000   0.0000   0.0000   0.0000   0.0000
     0.0000   0.0000   0.0000   0.0000   0.0000   0.0000   0.0000   0.0000
     0.0000   0.0000   0.0000   0.0000   0.0000   0.0000   0.0000   0.0000
     0.0000   0.0000   0.0000   0.0000   0.0000   0.0000

          k = 0.0000 0.0924 0.0000 ( 11782 PWs)   bands (ev):

   -22.1354 -10.2201  -6.3518  -6.0647   0.4674   1.3359   1.9793   2.5104
     2.8973   4.0261   4.5081   5.8102   6.1866   6.3959   6.7118   8.2856
     8.8812   9.5256  10.2728  12.1079  13.0007  15.9195  17.0831  20.2406
    20.3514  21.6976  23.7848  24.4829  25.2823  26.8308

     occupation numbers 
     1.0000   1.0000   1.0000   1.0000   0.0000   0.0000   0.0000   0.0000
     0.0000   0.0000   0.0000   0.0000   0.0000   0.0000   0.0000   0.0000
     0.0000   0.0000   0.0000   0.0000   0.0000   0.0000   0.0000   0.0000
     0.0000   0.0000   0.0000   0.0000   0.0000   0.0000

          k = 0.0000 0.1078 0.0000 ( 11796 PWs)   bands (ev):

   -22.0807 -10.1544  -6.5566  -6.1696   0.5419   1.4110   2.0558   2.5865
     2.9732   4.1017   4.5828   5.8201   6.2613   6.6195   6.7883   8.1046
     8.9545   9.6010  10.3770  12.1788  13.0757  15.9847  17.1572  20.2746
    20.5065  21.7738  23.3601  24.1773  25.3265  26.9034

     occupation numbers 
     1.0000   1.0000   1.0000   1.0000   0.0000   0.0000   0.0000   0.0000
     0.0000   0.0000   0.0000   0.0000   0.0000   0.0000   0.0000   0.0000
     0.0000   0.0000   0.0000   0.0000   0.0000   0.0000   0.0000   0.0000
     0.0000   0.0000   0.0000   0.0000   0.0000   0.0000

          k = 0.0000 0.1232 0.0000 ( 11794 PWs)   bands (ev):

   -22.0176 -10.0787  -6.7853  -6.2851   0.6278   1.4977   2.1441   2.6743
     3.0608   4.1889   4.6689   5.8254   6.3473   6.8715   6.8760   7.8999
     9.0390   9.6878  10.4992  12.2603  13.1622  16.0590  17.2425  20.3018
    20.6741  21.8626  22.9357  23.8711  25.3808  26.6459

     occupation numbers 
     1.0000   1.0000   1.0000   1.0000   0.0000   0.0000   0.0000   0.0000
     0.0000   0.0000   0.0000   0.0000   0.0000   0.0000   0.0000   0.0000
     0.0000   0.0000   0.0000   0.0000   0.0000   0.0000   0.0000   0.0000
     0.0000   0.0000   0.0000   0.0000   0.0000   0.0000

          k = 0.0000 0.1386 0.0000 ( 11786 PWs)   bands (ev):

   -21.9462  -9.9932  -7.0353  -6.4095   0.7253   1.5959   2.2441   2.7739
     3.1601   4.2877   4.7663   5.8251   6.4447   6.9750   7.1499   7.6733
     9.1347   9.7861  10.6391  12.3524  13.2601  16.1419  17.3390  20.3117
    20.8480  21.9646  22.5346  23.5677  25.4294  25.9264

     occupation numbers 
     1.0000   1.0000   1.0000   1.0000   0.0000   0.0000   0.0000   0.0000
     0.0000   0.0000   0.0000   0.0000   0.0000   0.0000   0.0000   0.0000
     0.0000   0.0000   0.0000   0.0000   0.0000   0.0000   0.0000   0.0000
     0.0000   0.0000   0.0000   0.0000   0.0000   0.0000

          k = 0.0000 0.1540 0.0000 ( 11788 PWs)   bands (ev):

   -21.8664  -9.8977  -7.3043  -6.5410   0.8341   1.7055   2.3559   2.8851
     3.2711   4.3980   4.8749   5.8185   6.5532   7.0852   7.4266   7.4528
     9.2415   9.8958  10.7959  12.4548  13.3693  16.2324  17.4466  20.2871
    21.0199  22.0799  22.1811  23.2693  25.2281  25.4391

     occupation numbers 
     1.0000   1.0000   1.0000   1.0000   0.0000   0.0000   0.0000   0.0000
     0.0000   0.0000   0.0000   0.0000   0.0000   0.0000   0.0000   0.0000
     0.0000   0.0000   0.0000   0.0000   0.0000   0.0000   0.0000   0.0000
     0.0000   0.0000   0.0000   0.0000   0.0000   0.0000

          k = 0.0000 0.1694 0.0000 ( 11786 PWs)   bands (ev):

   -21.7783  -9.7925  -7.5900  -6.6781   0.9545   1.8266   2.4794   3.0080
     3.3937   4.5199   4.9944   5.8056   6.6716   7.1609   7.2081   7.7782
     9.3594  10.0168  10.9685  12.5676  13.4899  16.3296  17.5651  20.2038
    21.1771  21.9033  22.2079  22.9775  24.5610  25.3016

     occupation numbers 
     1.0000   1.0000   1.0000   1.0000   0.0000   0.0000   0.0000   0.0000
     0.0000   0.0000   0.0000   0.0000   0.0000   0.0000   0.0000   0.0000
     0.0000   0.0000   0.0000   0.0000   0.0000   0.0000   0.0000   0.0000
     0.0000   0.0000   0.0000   0.0000   0.0000   0.0000

          k = 0.0000 0.1848 0.0000 ( 11800 PWs)   bands (ev):

   -21.6819  -9.6775  -7.8901  -6.8191   1.0862   1.9592   2.6148   3.1426
     3.5280   4.6532   5.1242   5.7870   6.7814   6.9005   7.3398   8.1242
     9.4883  10.1491  11.1552  12.6903  13.6219  16.4320  17.6946  20.0416
    21.2990  21.7230  22.3440  22.6934  23.9443  24.8554

     occupation numbers 
     1.0000   1.0000   1.0000   1.0000   0.0000   0.0000   0.0000   0.0000
     0.0000   0.0000   0.0000   0.0000   0.0000   0.0000   0.0000   0.0000
     0.0000   0.0000   0.0000   0.0000   0.0000   0.0000   0.0000   0.0000
     0.0000   0.0000   0.0000   0.0000   0.0000   0.0000

          k = 0.0000 0.2001 0.0000 ( 11800 PWs)   bands (ev):

   -21.5773  -9.5529  -8.2025  -6.9627   1.2294   2.1031   2.7619   3.2888
     3.6739   4.7978   5.2628   5.7647   6.5673   6.9590   7.4838   8.4891
     9.6281  10.2928  11.3540  12.8227  13.7651  16.5371  17.8349  19.8046
    21.3463  21.6355  22.4180  22.4735  23.4228  24.2431

     occupation numbers 
     1.0000   1.0000   1.0000   1.0000   0.0000   0.0000   0.0000   0.0000
     0.0000   0.0000   0.0000   0.0000   0.0000   0.0000   0.0000   0.0000
     0.0000   0.0000   0.0000   0.0000   0.0000   0.0000   0.0000   0.0000
     0.0000   0.0000   0.0000   0.0000   0.0000   0.0000

          k = 0.0000 0.2155 0.0000 ( 11830 PWs)   bands (ev):

   -21.4644  -9.4189  -8.5254  -7.1076   1.3840   2.2583   2.9207   3.4466
     3.8314   4.9534   5.4050   5.7444   6.2582   7.1102   7.6393   8.8710
     9.7787  10.4477  11.5624  12.9646  13.9196  16.6413  17.9859  19.5198
    21.2494  21.6092  22.1518  22.5502  23.0929  23.6048

     occupation numbers 
     1.0000   1.0000   1.0000   1.0000   0.0000   0.0000   0.0000   0.0000
     0.0000   0.0000   0.0000   0.0000   0.0000   0.0000   0.0000   0.0000
     0.0000   0.0000   0.0000   0.0000   0.0000   0.0000   0.0000   0.0000
     0.0000   0.0000   0.0000   0.0000   0.0000   0.0000

          k = 0.0000 0.2309 0.0000 ( 11848 PWs)   bands (ev):

   -21.3433  -9.2754  -8.8570  -7.2525   1.5500   2.4247   3.0913   3.6159
     4.0005   5.1187   5.5279   5.7498   5.9361   7.2753   7.8061   9.2683
     9.9400  10.6140  11.7777  13.1153  14.0852  16.7386  18.1473  19.2178
    20.9511  21.5980  21.8952  22.5211  22.9206  22.9857

     occupation numbers 
     1.0000   1.0000   1.0000   1.0000   0.0000   0.0000   0.0000   0.0000
     0.0000   0.0000   0.0000   0.0000   0.0000   0.0000   0.0000   0.0000
     0.0000   0.0000   0.0000   0.0000   0.0000   0.0000   0.0000   0.0000
     0.0000   0.0000   0.0000   0.0000   0.0000   0.0000

          k = 0.0000 0.2463 0.0000 ( 11844 PWs)   bands (ev):

   -21.2141  -9.1959  -9.1227  -7.3965   1.7274   2.6020   3.2737   3.7965
     4.1812   5.2847   5.5694   5.6147   5.8433   7.4523   7.9843   9.6793
    10.1119  10.7916  11.9967  13.2742  14.2620  16.8191  18.3189  18.9245
    20.4953  21.5267  21.6486  22.2180  22.4278  22.5390

     occupation numbers 
     1.0000   1.0000   1.0000   1.0000   0.0000   0.0000   0.0000   0.0000
     0.0000   0.0000   0.0000   0.0000   0.0000   0.0000   0.0000   0.0000
     0.0000   0.0000   0.0000   0.0000   0.0000   0.0000   0.0000   0.0000
     0.0000   0.0000   0.0000   0.0000   0.0000   0.0000

          k = 0.0000 0.2617 0.0000 ( 11840 PWs)   bands (ev):

   -21.0767  -9.5404  -8.9611  -7.5386   1.9161   2.7898   3.4678   3.9881
     4.3732   5.2211   5.5240   5.5493   6.0089   7.6406   8.1740  10.1023
    10.2943  10.9805  12.2159  13.4405  14.4498  16.8664  18.4999  18.6633
    19.9657  21.2612  21.4123  21.5678  21.9800  22.2553

     occupation numbers 
     1.0000   1.0000   1.0000   1.0000   0.0000   0.0000   0.0000   0.0000
     0.0000   0.0000   0.0000   0.0000   0.0000   0.0000   0.0000   0.0000
     0.0000   0.0000   0.0000   0.0000   0.0000   0.0000   0.0000   0.0000
     0.0000   0.0000   0.0000   0.0000   0.0000   0.0000

          k = 0.0000 0.2771 0.0000 ( 11854 PWs)   bands (ev):

   -20.9313  -9.8893  -8.7906  -7.6779   2.1162   2.9874   3.6737   4.1887
     4.5763   4.8891   5.5095   5.7108   6.2020   7.8402   8.3750  10.4867
    10.5356  11.1806  12.4307  13.6128  14.6486  16.8574  18.4587  18.6875
    19.4146  20.7896  20.9012  21.1865  21.5290  21.7258

     occupation numbers 
     1.0000   1.0000   1.0000   1.0000   0.0000   0.0000   0.0000   0.0000
     0.0000   0.0000   0.0000   0.0000   0.0000   0.0000   0.0000   0.0000
     0.0000   0.0000   0.0000   0.0000   0.0000   0.0000   0.0000   0.0000
     0.0000   0.0000   0.0000   0.0000   0.0000   0.0000

          k = 0.0000 0.2925 0.0000 ( 11866 PWs)   bands (ev):

   -20.7779 -10.2414  -8.6115  -7.8136   2.3275   3.1922   3.8914   4.3719
     4.5701   4.7902   5.4647   5.9220   6.4116   8.0510   8.5875  10.6891
    10.9777  11.3919  12.6358  13.7891  14.8582  16.7703  18.3275  18.7839
    18.9633  20.2420  20.2467  20.9715  21.0040  21.1214

     occupation numbers 
     1.0000   1.0000   1.0000   1.0000   0.0000   0.0000   0.0000   0.0000
     0.0000   0.0000   0.0000   0.0000   0.0000   0.0000   0.0000   0.0000
     0.0000   0.0000   0.0000   0.0000   0.0000   0.0000   0.0000   0.0000
     0.0000   0.0000   0.0000   0.0000   0.0000   0.0000

          k = 0.0000 0.3079 0.0000 ( 11876 PWs)   bands (ev):

   -20.6166 -10.5956  -8.4241  -7.9452   2.5501   3.3948   4.1207   4.1674
     4.6570   5.0119   5.4206   6.1466   6.6346   8.2727   8.8113  10.9010
    11.4267  11.6143  12.8240  13.9661  15.0785  16.6030  18.2581  18.2939
    19.1193  19.5943  19.6995  20.4695  20.5069  20.7672

     occupation numbers 
     1.0000   1.0000   1.0000   1.0000   0.0000   0.0000   0.0000   0.0000
     0.0000   0.0000   0.0000   0.0000   0.0000   0.0000   0.0000   0.0000
     0.0000   0.0000   0.0000   0.0000   0.0000   0.0000   0.0000   0.0000
     0.0000   0.0000   0.0000   0.0000   0.0000   0.0000

          k = 0.0000 0.3233 0.0000 ( 11876 PWs)   bands (ev):

   -20.4474 -10.9510  -8.2287  -8.0720   2.7839   3.5217   3.9114   4.3618
     4.8893   5.2221   5.3988   6.3833   6.8701   8.5054   9.0465  11.1218
    11.8478  11.8809  12.9860  14.1383  15.3092  16.3765  17.7768  18.1971
    18.9552  19.1790  19.3341  19.9011  19.9720  20.5739

     occupation numbers 
     1.0000   1.0000   1.0000   1.0000   0.0000   0.0000   0.0000   0.0000
     0.0000   0.0000   0.0000   0.0000   0.0000   0.0000   0.0000   0.0000
     0.0000   0.0000   0.0000   0.0000   0.0000   0.0000   0.0000   0.0000
     0.0000   0.0000   0.0000   0.0000   0.0000   0.0000

          k = 0.0000 0.3387 0.0000 ( 11886 PWs)   bands (ev):

   -20.2703 -11.3067  -8.1934  -8.0257   3.0287   3.3181   3.9893   4.6144
     5.1385   5.2790   5.5420   6.6316   7.1176   8.7488   9.2929  11.3510
    12.0921  12.3383  13.1092  14.2952  15.5498  16.1204  17.2894  18.0444
    18.3327  18.7222  19.2819  19.5567  19.5801  20.3917

     occupation numbers 
     1.0000   1.0000   1.0000   1.0000   0.0000   0.0000   0.0000   0.0000
     0.0000   0.0000   0.0000   0.0000   0.0000   0.0000   0.0000   0.0000
     0.0000   0.0000   0.0000   0.0000   0.0000   0.0000   0.0000   0.0000
     0.0000   0.0000   0.0000   0.0000   0.0000   0.0000

          k = 0.0000 0.3541 0.0000 ( 11904 PWs)   bands (ev):

   -20.0856 -11.6618  -8.3091  -7.8157   2.9720   3.2851   4.2181   4.8781
     5.2433   5.4006   5.7911   6.8915   7.3769   9.0027   9.5507  11.5874
    12.3471  12.7967  13.1777  14.4154  15.7992  15.8670  16.8436  17.7108
    17.7241  18.3414  18.7111  19.2644  19.7930  20.2205

     occupation numbers 
     1.0000   1.0000   1.0000   1.0000   0.0000   0.0000   0.0000   0.0000
     0.0000   0.0000   0.0000   0.0000   0.0000   0.0000   0.0000   0.0000
     0.0000   0.0000   0.0000   0.0000   0.0000   0.0000   0.0000   0.0000
     0.0000   0.0000   0.0000   0.0000   0.0000   0.0000

          k = 0.0000 0.3695 0.0000 ( 11914 PWs)   bands (ev):

   -19.8933 -12.0157  -8.4186  -7.5992   2.6069   3.5517   4.4776   5.1419
     5.2113   5.6747   6.0614   7.1628   7.6479   9.2670   9.8197  11.8294
    12.6118  13.1738  13.2538  14.4567  15.6609  16.0518  16.4501  17.1337
    17.2551  17.9699  18.1538  19.0388  19.7299  20.0539

     occupation numbers 
     1.0000   1.0000   1.0000   1.0000   0.0000   0.0000   0.0000   0.0000
     0.0000   0.0000   0.0000   0.0000   0.0000   0.0000   0.0000   0.0000
     0.0000   0.0000   0.0000   0.0000   0.0000   0.0000   0.0000   0.0000
     0.0000   0.0000   0.0000   0.0000   0.0000   0.0000

          k = 0.0000 0.3849 0.0000 ( 11914 PWs)   bands (ev):

   -19.6935 -12.3675  -8.5216  -7.3769   2.2383   3.8289   4.7535   5.1492
     5.4479   5.9605   6.3455   7.4453   7.9304   9.5412  10.0998  12.0740
    12.8781  13.0897  13.7070  14.3657  15.5500  16.0535  16.3472  16.5755
    16.7631  17.5899  17.6268  18.7591  19.2337  19.8820

     occupation numbers 
     1.0000   1.0000   1.0000   1.0000   0.0000   0.0000   0.0000   0.0000
     0.0000   0.0000   0.0000   0.0000   0.0000   0.0000   0.0000   0.0000
     0.0000   0.0000   0.0000   0.0000   0.0000   0.0000   0.0000   0.0000
     0.0000   0.0000   0.0000   0.0000   0.0000   0.0000

          k = 0.0000 0.4003 0.0000 ( 11916 PWs)   bands (ev):

   -19.4865 -12.7167  -8.6177  -7.1497   1.8713   4.1159   5.0426   5.1092
     5.7464   6.2581   6.6420   7.7389   8.2244   9.8250  10.3909  12.3154
    12.8720  13.1941  14.1418  14.1534  15.5122  15.6868  16.0601  16.2822
    16.6182  17.1461  17.2227  18.4191  18.7485  19.7746

     occupation numbers 
     1.0000   1.0000   1.0000   1.0000   0.0000   0.0000   0.0000   0.0000
     0.0000   0.0000   0.0000   0.0000   0.0000   0.0000   0.0000   0.0000
     0.0000   0.0000   0.0000   0.0000   0.0000   0.0000   0.0000   0.0000
     0.0000   0.0000   0.0000   0.0000   0.0000   0.0000

          k = 0.0000 0.4157 0.0000 ( 11916 PWs)   bands (ev):

   -19.2723 -13.0625  -8.7066  -6.9188   1.5089   4.4103   5.0740   5.3436
     6.0577   6.5673   6.9504   8.0436   8.5297  10.1176  10.6930  12.5385
    12.6046  13.4856  13.8479  14.5898  15.2293  15.3996  15.6387  15.8980
    16.6858  16.8877  16.9311  18.0812  18.3042  19.6389

     occupation numbers 
     1.0000   1.0000   1.0000   1.0000   0.0000   0.0000   0.0000   0.0000
     0.0000   0.0000   0.0000   0.0000   0.0000   0.0000   0.0000   0.0000
     0.0000   0.0000   0.0000   0.0000   0.0000   0.0000   0.0000   0.0000
     0.0000   0.0000   0.0000   0.0000   0.0000   0.0000

          k = 0.0000 0.4311 0.0000 ( 11914 PWs)   bands (ev):

   -19.0512 -13.4044  -8.7881  -6.6856   1.1536   4.7014   5.0556   5.6561
     6.3810   6.8880   7.2706   8.3592   8.8464  10.4180  11.0058  12.2666
    12.6941  13.5724  13.7926  14.7140  15.0123  15.0430  15.2372  15.6992
    16.3237  16.6107  17.2023  17.7924  17.9173  19.3792

     occupation numbers 
     1.0000   1.0000   1.0000   1.0000   0.0000   0.0000   0.0000   0.0000
     0.0000   0.0000   0.0000   0.0000   0.0000   0.0000   0.0000   0.0000
     0.0000   0.0000   0.0000   0.0000   0.0000   0.0000   0.0000   0.0000
     0.0000   0.0000   0.0000   0.0000   0.0000   0.0000

          k = 0.0000 0.4465 0.0000 ( 11924 PWs)   bands (ev):

   -18.8236 -13.7417  -8.8621  -6.4521   0.8082   4.8999   5.1437   5.9798
     6.7162   7.2203   7.6024   8.6853   9.1742  10.7237  11.3283  11.8843
    12.6455  13.4678  14.1082  14.1876  14.5797  14.8065  15.4167  15.4916
    15.9683  16.4090  17.4286  17.5794  17.6488  19.0773

     occupation numbers 
     1.0000   1.0000   1.0000   1.0000   0.0000   0.0000   0.0000   0.0000
     0.0000   0.0000   0.0000   0.0000   0.0000   0.0000   0.0000   0.0000
     0.0000   0.0000   0.0000   0.0000   0.0000   0.0000   0.0000   0.0000
     0.0000   0.0000   0.0000   0.0000   0.0000   0.0000

          k = 0.0000 0.4619 0.0000 ( 11910 PWs)   bands (ev):

   -18.5899 -14.0736  -8.9282  -6.2207   0.4759   4.9179   5.4266   6.3142
     7.0631   7.5639   7.9457   9.0218   9.5131  11.0290  11.4625  11.6725
    12.3669  13.5471  13.6601  14.1231  14.3382  14.4474  15.1979  15.5969
    15.7984  16.2473  17.2351  17.4395  17.8383  18.8063

     occupation numbers 
     1.0000   1.0000   1.0000   1.0000   0.0000   0.0000   0.0000   0.0000
     0.0000   0.0000   0.0000   0.0000   0.0000   0.0000   0.0000   0.0000
     0.0000   0.0000   0.0000   0.0000   0.0000   0.0000   0.0000   0.0000
     0.0000   0.0000   0.0000   0.0000   0.0000   0.0000

          k = 0.0000 0.4773 0.0000 ( 11916 PWs)   bands (ev):

   -18.3508 -14.3992  -8.9865  -5.9946   0.1604   4.8999   5.7597   6.6593
     7.4218   7.9189   8.3005   9.3679   9.8627  11.0403  11.3077  12.0115
    12.0266  13.1427  13.4565  13.8731  13.8877  14.7751  14.8685  15.2000
    16.0797  16.1519  16.9429  17.3310  18.1189  18.6187

     occupation numbers 
     1.0000   1.0000   1.0000   1.0000   0.0000   0.0000   0.0000   0.0000
     0.0000   0.0000   0.0000   0.0000   0.0000   0.0000   0.0000   0.0000
     0.0000   0.0000   0.0000   0.0000   0.0000   0.0000   0.0000   0.0000
     0.0000   0.0000   0.0000   0.0000   0.0000   0.0000

          k = 0.0000 0.4927 0.0000 ( 11908 PWs)   bands (ev):

   -18.1074 -14.7171  -9.0366  -5.7783  -0.1334   4.8790   6.1101   7.0146
     7.7922   8.2851   8.6667   9.7225  10.2215  10.6071  11.3635  11.8819
    12.3657  12.6350  13.0375  13.3975  13.9039  14.6000  14.7718  15.1275
    15.8969  16.4717  16.6203  17.2091  18.3435  18.5336

     occupation numbers 
     1.0000   1.0000   1.0000   1.0000   0.0000   0.0000   0.0000   0.0000
     0.0000   0.0000   0.0000   0.0000   0.0000   0.0000   0.0000   0.0000
     0.0000   0.0000   0.0000   0.0000   0.0000   0.0000   0.0000   0.0000
     0.0000   0.0000   0.0000   0.0000   0.0000   0.0000

          k = 0.0000 0.5081 0.0000 ( 11912 PWs)   bands (ev):

   -17.8614 -15.0254  -9.0785  -5.5773  -0.3994   4.8599   6.4730   7.3799
     8.1743   8.6624   9.0440  10.0813  10.1635  10.5990  11.0439  12.0917
    12.1375  12.5903  12.7290  12.9250  13.7319  14.3415  14.5289  15.4765
    15.7142  16.2663  16.7514  17.0728  18.3379  18.5136

     occupation numbers 
     1.0000   1.0000   1.0000   1.0000   0.0000   0.0000   0.0000   0.0000
     0.0000   0.0000   0.0000   0.0000   0.0000   0.0000   0.0000   0.0000
     0.0000   0.0000   0.0000   0.0000   0.0000   0.0000   0.0000   0.0000
     0.0000   0.0000   0.0000   0.0000   0.0000   0.0000

          k = 0.0000 0.5235 0.0000 ( 11912 PWs)   bands (ev):

   -17.6165 -15.3205  -9.1122  -5.3991  -0.6301   4.8440   6.8468   7.7545
     8.5681   9.0502   9.4309   9.7305  10.3962  10.6976  10.9792  11.6513
    12.0476  12.4543  12.4604  13.1048  13.4073  13.9044  14.5495  15.5670
    15.8068  15.9143  16.9504  16.9850  18.1627  18.4883

     occupation numbers 
     1.0000   1.0000   1.0000   1.0000   0.0000   0.0000   0.0000   0.0000
     0.0000   0.0000   0.0000   0.0000   0.0000   0.0000   0.0000   0.0000
     0.0000   0.0000   0.0000   0.0000   0.0000   0.0000   0.0000   0.0000
     0.0000   0.0000   0.0000   0.0000   0.0000   0.0000

          k = 0.0000 0.5389 0.0000 ( 11924 PWs)   bands (ev):

   -17.3800 -15.5946  -9.1375  -5.2523  -0.8164   4.8318   7.2306   8.1378
     8.9734   9.2945   9.4468   9.8351  10.1772  10.8806  11.1760  11.3711
    11.6179  11.9941  12.6428  13.1247  13.4501  13.5042  14.4913  15.4838
    15.5000  16.2046  16.8637  17.1665  17.9179  18.4154

     occupation numbers 
     1.0000   1.0000   1.0000   1.0000   0.0000   0.0000   0.0000   0.0000
     0.0000   0.0000   0.0000   0.0000   0.0000   0.0000   0.0000   0.0000
     0.0000   0.0000   0.0000   0.0000   0.0000   0.0000   0.0000   0.0000
     0.0000   0.0000   0.0000   0.0000   0.0000   0.0000

          k = 0.0000 0.5543 0.0000 ( 11930 PWs)   bands (ev):

   -17.1698 -15.8300  -9.1544  -5.1468  -0.9483   4.8235   7.6233   8.5278
     8.8690   9.3913   9.7340   9.8967  10.2451  10.7127  11.1230  11.3026
    11.5406  11.7743  12.4629  13.0323  13.1990  13.8788  14.3323  15.0828
    15.5054  16.5656  16.8174  17.2908  17.6240  18.3176

     occupation numbers 
     1.0000   1.0000   1.0000   1.0000   0.0000   0.0000   0.0000   0.0000
     0.0000   0.0000   0.0000   0.0000   0.0000   0.0000   0.0000   0.0000
     0.0000   0.0000   0.0000   0.0000   0.0000   0.0000   0.0000   0.0000
     0.0000   0.0000   0.0000   0.0000   0.0000   0.0000

          k = 0.0000 0.5697 0.0000 ( 11940 PWs)   bands (ev):

   -17.0301 -15.9822  -9.1629  -5.0914  -1.0171   4.8193   8.0182   8.4577
     8.9135   9.3662   9.8200  10.2605  10.2858  10.6665  10.7198  11.0993
    11.6341  12.1186  12.1840  12.6058  13.3864  14.1670  14.2741  14.6804
    15.5263  16.8011  16.9150  17.3050  17.3539  18.2491

     occupation numbers 
     1.0000   1.0000   1.0000   1.0000   0.0000   0.0000   0.0000   0.0000
     0.0000   0.0000   0.0000   0.0000   0.0000   0.0000   0.0000   0.0000
     0.0000   0.0000   0.0000   0.0000   0.0000   0.0000   0.0000   0.0000
     0.0000   0.0000   0.0000   0.0000   0.0000   0.0000

          k = 0.0133 0.0231 0.0000 ( 11741 PWs)   bands (ev):

   -22.2744 -10.3872  -5.8004  -5.7760   0.2783   1.1450   1.7851   2.3171
     2.7046   3.8341   4.3184   5.7563   5.8039   5.9967   6.5158   8.6948
     8.7618   9.3337  10.0202  11.9272  12.8099  15.7506  16.8941  19.9202
    20.1245  21.5074  24.7793  25.5908  25.6198  26.6457

     occupation numbers 
     1.0000   1.0000   1.0000   1.0000   0.0000   0.0000   0.0000   0.0000
     0.0000   0.0000   0.0000   0.0000   0.0000   0.0000   0.0000   0.0000
     0.0000   0.0000   0.0000   0.0000   0.0000   0.0000   0.0000   0.0000
     0.0000   0.0000   0.0000   0.0000   0.0000   0.0000

          k = 0.0133 0.0385 0.0000 ( 11763 PWs)   bands (ev):

   -22.2576 -10.3669  -5.8695  -5.8132   0.3012   1.1682   1.8087   2.3405
     2.7280   3.8574   4.3414   5.7664   5.8768   6.0197   6.5397   8.7027
     8.7174   9.3570  10.0496  11.9492  12.8330  15.7713  16.9170  19.9752
    20.1403  21.5303  24.7266  25.4174  25.4743  26.6681

     occupation numbers 
     1.0000   1.0000   1.0000   1.0000   0.0000   0.0000   0.0000   0.0000
     0.0000   0.0000   0.0000   0.0000   0.0000   0.0000   0.0000   0.0000
     0.0000   0.0000   0.0000   0.0000   0.0000   0.0000   0.0000   0.0000
     0.0000   0.0000   0.0000   0.0000   0.0000   0.0000

          k = 0.0133 0.0539 0.0000 ( 11769 PWs)   bands (ev):

   -22.2323 -10.3365  -5.9718  -5.8680   0.3356   1.2029   1.8440   2.3757
     2.7630   3.8923   4.3759   5.7799   5.9850   6.0543   6.5755   8.6149
     8.7513   9.3919  10.0945  11.9821  12.8677  15.8022  16.9515  20.0563
    20.1633  21.5647  24.5817  25.2033  25.3245  26.7018

     occupation numbers 
     1.0000   1.0000   1.0000   1.0000   0.0000   0.0000   0.0000   0.0000
     0.0000   0.0000   0.0000   0.0000   0.0000   0.0000   0.0000   0.0000
     0.0000   0.0000   0.0000   0.0000   0.0000   0.0000   0.0000   0.0000
     0.0000   0.0000   0.0000   0.0000   0.0000   0.0000

          k = 0.0133 0.0693 0.0000 ( 11779 PWs)   bands (ev):

   -22.1986 -10.2960  -6.1057  -5.9391   0.3814   1.2491   1.8910   2.4225
     2.8097   3.9388   4.4219   5.7953   6.1003   6.1274   6.6231   8.4991
     8.7965   9.4384  10.1556  12.0259  12.9140  15.8433  16.9973  20.1618
    20.1922  21.6107  24.3049  24.9462  25.2564  26.7466

     occupation numbers 
     1.0000   1.0000   1.0000   1.0000   0.0000   0.0000   0.0000   0.0000
     0.0000   0.0000   0.0000   0.0000   0.0000   0.0000   0.0000   0.0000
     0.0000   0.0000   0.0000   0.0000   0.0000   0.0000   0.0000   0.0000
     0.0000   0.0000   0.0000   0.0000   0.0000   0.0000

          k = 0.0133 0.0847 0.0000 ( 11787 PWs)   bands (ev):

   -22.1565 -10.2454  -6.2693  -6.0252   0.4387   1.3070   1.9499   2.4811
     2.8681   3.9970   4.4794   5.8104   6.1578   6.3026   6.6824   8.3563
     8.8529   9.4966  10.2337  12.0806  12.9718  15.8941  17.0545  20.2253
    20.2894  21.6686  23.9336  24.6604  25.2588  26.8028

     occupation numbers 
     1.0000   1.0000   1.0000   1.0000   0.0000   0.0000   0.0000   0.0000
     0.0000   0.0000   0.0000   0.0000   0.0000   0.0000   0.0000   0.0000
     0.0000   0.0000   0.0000   0.0000   0.0000   0.0000   0.0000   0.0000
     0.0000   0.0000   0.0000   0.0000   0.0000   0.0000

          k = 0.0133 0.1001 0.0000 ( 11789 PWs)   bands (ev):

   -22.1060 -10.1847  -6.4603  -6.1246   0.5075   1.3763   2.0205   2.5514
     2.9382   4.0668   4.5484   5.8235   6.2268   6.5088   6.7531   8.1878
     8.9206   9.5662  10.3296  12.1461  13.0411  15.9547  17.1230  20.2595
    20.4360  21.7385  23.5191  24.3607  25.2968  26.8700

     occupation numbers 
     1.0000   1.0000   1.0000   1.0000   0.0000   0.0000   0.0000   0.0000
     0.0000   0.0000   0.0000   0.0000   0.0000   0.0000   0.0000   0.0000
     0.0000   0.0000   0.0000   0.0000   0.0000   0.0000   0.0000   0.0000
     0.0000   0.0000   0.0000   0.0000   0.0000   0.0000

          k = 0.0133 0.1155 0.0000 ( 11801 PWs)   bands (ev):

   -22.0471 -10.1140  -6.6763  -6.2355   0.5877   1.4572   2.1029   2.6334
     3.0200   4.1482   4.6288   5.8328   6.3072   6.7441   6.8353   7.9950
     8.9995   9.6474  10.4435  12.2223  13.1218  16.0244  17.2027  20.2899
    20.5974  21.8210  23.0946  24.0559  25.3508  26.9431

     occupation numbers 
     1.0000   1.0000   1.0000   1.0000   0.0000   0.0000   0.0000   0.0000
     0.0000   0.0000   0.0000   0.0000   0.0000   0.0000   0.0000   0.0000
     0.0000   0.0000   0.0000   0.0000   0.0000   0.0000   0.0000   0.0000
     0.0000   0.0000   0.0000   0.0000   0.0000   0.0000

          k = 0.0133 0.1309 0.0000 ( 11791 PWs)   bands (ev):

   -21.9798 -10.0334  -6.9150  -6.3561   0.6794   1.5497   2.1970   2.7270
     3.1134   4.2412   4.7205   5.8368   6.3990   6.9284   7.0071   7.7795
     9.0896   9.7399  10.5756  12.3090  13.2140  16.1029  17.2937  20.3083
    20.7685  21.9165  22.6837  23.7508  25.4073  26.2866

     occupation numbers 
     1.0000   1.0000   1.0000   1.0000   0.0000   0.0000   0.0000   0.0000
     0.0000   0.0000   0.0000   0.0000   0.0000   0.0000   0.0000   0.0000
     0.0000   0.0000   0.0000   0.0000   0.0000   0.0000   0.0000   0.0000
     0.0000   0.0000   0.0000   0.0000   0.0000   0.0000

          k = 0.0133 0.1463 0.0000 ( 11791 PWs)   bands (ev):

   -21.9042  -9.9429  -7.1739  -6.4847   0.7826   1.6536   2.3029   2.8324
     3.2185   4.3458   4.8236   5.8347   6.5019   7.0331   7.2951   7.5429
     9.1909   9.8439  10.7253  12.4063  13.3176  16.1896  17.3957  20.3004
    20.9419  22.0252  22.3095  23.4488  25.4461  25.5769

     occupation numbers 
     1.0000   1.0000   1.0000   1.0000   0.0000   0.0000   0.0000   0.0000
     0.0000   0.0000   0.0000   0.0000   0.0000   0.0000   0.0000   0.0000
     0.0000   0.0000   0.0000   0.0000   0.0000   0.0000   0.0000   0.0000
     0.0000   0.0000   0.0000   0.0000   0.0000   0.0000

          k = 0.0133 0.1617 0.0000 ( 11794 PWs)   bands (ev):

   -21.8203  -9.8425  -7.4506  -6.6197   0.8972   1.7690   2.4206   2.9495
     3.3353   4.4619   4.9377   5.8261   6.6156   7.1486   7.2876   7.6065
     9.3032   9.9592  10.8917  12.5138  13.4325  16.2834  17.5087  20.2445
    21.1075  21.9987  22.1472  23.1516  24.8927  25.4095

     occupation numbers 
     1.0000   1.0000   1.0000   1.0000   0.0000   0.0000   0.0000   0.0000
     0.0000   0.0000   0.0000   0.0000   0.0000   0.0000   0.0000   0.0000
     0.0000   0.0000   0.0000   0.0000   0.0000   0.0000   0.0000   0.0000
     0.0000   0.0000   0.0000   0.0000   0.0000   0.0000

          k = 0.0133 0.1771 0.0000 ( 11784 PWs)   bands (ev):

   -21.7280  -9.7324  -7.7428  -6.7594   1.0232   1.8958   2.5500   3.0782
     3.4638   4.5895   5.0626   5.8112   6.7368   7.0171   7.2764   7.9395
     9.4266  10.0859  11.0733  12.6315  13.5588  16.3830  17.6327  20.1164
    21.2496  21.7786  22.2801  22.8607  24.2474  25.1279

     occupation numbers 
     1.0000   1.0000   1.0000   1.0000   0.0000   0.0000   0.0000   0.0000
     0.0000   0.0000   0.0000   0.0000   0.0000   0.0000   0.0000   0.0000
     0.0000   0.0000   0.0000   0.0000   0.0000   0.0000   0.0000   0.0000
     0.0000   0.0000   0.0000   0.0000   0.0000   0.0000

          k = 0.0133 0.1925 0.0000 ( 11790 PWs)   bands (ev):

   -21.6275  -9.6127  -8.0486  -6.9022   1.1607   2.0341   2.6912   3.2186
     3.6039   4.7285   5.1972   5.7911   6.7037   6.8968   7.4147   8.2920
     9.5609  10.2239  11.2683  12.7591  13.6964  16.4866  17.7676  19.9085
    21.3401  21.6574  22.4158  22.5766  23.6699  24.5712

     occupation numbers 
     1.0000   1.0000   1.0000   1.0000   0.0000   0.0000   0.0000   0.0000
     0.0000   0.0000   0.0000   0.0000   0.0000   0.0000   0.0000   0.0000
     0.0000   0.0000   0.0000   0.0000   0.0000   0.0000   0.0000   0.0000
     0.0000   0.0000   0.0000   0.0000   0.0000   0.0000

          k = 0.0133 0.2078 0.0000 ( 11813 PWs)   bands (ev):

   -21.5187  -9.4833  -8.3657  -7.0470   1.3096   2.1836   2.8442   3.3706
     3.7556   4.8787   5.3392   5.7689   6.4074   7.0365   7.5645   8.6624
     9.7061  10.3733  11.4746  12.8961  13.8452  16.5910  17.9132  19.6404
    21.3251  21.6136  22.2996  22.5275  23.2287  23.9380

     occupation numbers 
     1.0000   1.0000   1.0000   1.0000   0.0000   0.0000   0.0000   0.0000
     0.0000   0.0000   0.0000   0.0000   0.0000   0.0000   0.0000   0.0000
     0.0000   0.0000   0.0000   0.0000   0.0000   0.0000   0.0000   0.0000
     0.0000   0.0000   0.0000   0.0000   0.0000   0.0000

          k = 0.0133 0.2232 0.0000 ( 11837 PWs)   bands (ev):

   -21.4017  -9.3446  -8.6926  -7.1924   1.4699   2.3444   3.0090   3.5342
     3.9189   5.0394   5.4787   5.7550   6.0912   7.1953   7.7256   9.0487
     9.8620  10.5340  11.6895  13.0423  14.0053  16.6915  18.0695  19.3432
    21.1289  21.6076  22.0304  22.5509  23.0244  23.3063

     occupation numbers 
     1.0000   1.0000   1.0000   1.0000   0.0000   0.0000   0.0000   0.0000
     0.0000   0.0000   0.0000   0.0000   0.0000   0.0000   0.0000   0.0000
     0.0000   0.0000   0.0000   0.0000   0.0000   0.0000   0.0000   0.0000
     0.0000   0.0000   0.0000   0.0000   0.0000   0.0000

          k = 0.0133 0.2386 0.0000 ( 11835 PWs)   bands (ev):

   -21.2766  -9.1966  -9.0274  -7.3372   1.6416   2.5163   3.1855   3.7092
     4.0938   5.2077   5.5733   5.7664   5.7928   7.3664   7.8981   9.4493
    10.0286  10.7060  11.9102  13.1971  14.1765  16.7801  18.2360  19.0448
    20.7408  21.5759  21.7793  22.4506  22.6850  22.7104

     occupation numbers 
     1.0000   1.0000   1.0000   1.0000   0.0000   0.0000   0.0000   0.0000
     0.0000   0.0000   0.0000   0.0000   0.0000   0.0000   0.0000   0.0000
     0.0000   0.0000   0.0000   0.0000   0.0000   0.0000   0.0000   0.0000
     0.0000   0.0000   0.0000   0.0000   0.0000   0.0000

          k = 0.0133 0.2540 0.0000 ( 11835 PWs)   bands (ev):

   -21.1433  -9.3687  -9.0393  -7.4806   1.8246   2.6990   3.3737   3.8954
     4.2802   5.3270   5.4921   5.5801   5.9269   7.5491   8.0820   9.8624
    10.2056  10.8892  12.1334  13.3595  14.3588  16.8437  18.4125  18.7691
    20.2394  21.3744  21.5913  21.9041  22.1988  22.4340

     occupation numbers 
     1.0000   1.0000   1.0000   1.0000   0.0000   0.0000   0.0000   0.0000
     0.0000   0.0000   0.0000   0.0000   0.0000   0.0000   0.0000   0.0000
     0.0000   0.0000   0.0000   0.0000   0.0000   0.0000   0.0000   0.0000
     0.0000   0.0000   0.0000   0.0000   0.0000   0.0000

          k = 0.0133 0.2694 0.0000 ( 11846 PWs)   bands (ev):

   -21.0019  -9.7151  -8.8732  -7.6216   2.0191   2.8918   3.5737   4.0920
     4.4779   5.0538   5.5478   5.6159   6.1079   7.7431   8.2774  10.2860
    10.3930  11.0838  12.3553  13.5286  14.5521  16.8619  18.5398  18.5976
    19.6942  20.9900  21.2383  21.3600  21.7754  22.0123

     occupation numbers 
     1.0000   1.0000   1.0000   1.0000   0.0000   0.0000   0.0000   0.0000
     0.0000   0.0000   0.0000   0.0000   0.0000   0.0000   0.0000   0.0000
     0.0000   0.0000   0.0000   0.0000   0.0000   0.0000   0.0000   0.0000
     0.0000   0.0000   0.0000   0.0000   0.0000   0.0000

          k = 0.0133 0.2848 0.0000 ( 11851 PWs)   bands (ev):

   -20.8525 -10.0653  -8.6984  -7.7594   2.2248   3.0935   3.7855   4.2933
     4.6858   4.7156   5.5053   5.8186   6.3096   7.9482   8.4841  10.5903
    10.7182  11.2898  12.5712  13.7027  14.7563  16.8112  18.3788  18.7806
    19.1497  20.4917  20.5747  21.0704  21.3298  21.4308

     occupation numbers 
     1.0000   1.0000   1.0000   1.0000   0.0000   0.0000   0.0000   0.0000
     0.0000   0.0000   0.0000   0.0000   0.0000   0.0000   0.0000   0.0000
     0.0000   0.0000   0.0000   0.0000   0.0000   0.0000   0.0000   0.0000
     0.0000   0.0000   0.0000   0.0000   0.0000   0.0000

          k = 0.0133 0.3002 0.0000 ( 11864 PWs)   bands (ev):

   -20.6951 -10.4183  -8.5151  -7.8933   2.4418   3.2995   4.0090   4.3167
     4.5624   4.9051   5.4602   6.0368   6.5260   8.1645   8.7023  10.7973
    11.1565  11.5072  12.7756  13.8791  14.9712  16.6796  18.2889  18.5601
    19.0248  19.9209  19.9556  20.6609  20.8180  20.9742

     occupation numbers 
     1.0000   1.0000   1.0000   1.0000   0.0000   0.0000   0.0000   0.0000
     0.0000   0.0000   0.0000   0.0000   0.0000   0.0000   0.0000   0.0000
     0.0000   0.0000   0.0000   0.0000   0.0000   0.0000   0.0000   0.0000
     0.0000   0.0000   0.0000   0.0000   0.0000   0.0000

          k = 0.0133 0.3156 0.0000 ( 11876 PWs)   bands (ev):

   -20.5299 -10.7729  -8.3237  -8.0227   2.6700   3.4852   4.0131   4.2442
     4.7744   5.1279   5.4204   6.2676   6.7553   8.3916   8.9317  11.0136
    11.5965  11.7374  12.9615  14.0536  15.1968  16.4793  18.0364  18.2358
    19.2202  19.2873  19.4275  20.1716  20.2061  20.7238

     occupation numbers 
     1.0000   1.0000   1.0000   1.0000   0.0000   0.0000   0.0000   0.0000
     0.0000   0.0000   0.0000   0.0000   0.0000   0.0000   0.0000   0.0000
     0.0000   0.0000   0.0000   0.0000   0.0000   0.0000   0.0000   0.0000
     0.0000   0.0000   0.0000   0.0000   0.0000   0.0000

          k = 0.0133 0.3310 0.0000 ( 11880 PWs)   bands (ev):

   -20.3567 -11.1282  -8.1470  -8.1245   2.9093   3.4580   3.9118   4.4911
     5.0164   5.2913   5.4513   6.5101   6.9968   8.6296   9.1726  11.2385
    11.9655  12.0482  13.1206  14.2183  15.4325  16.2371  17.5327  18.1411
    18.6469  18.9416  19.4322  19.6216  19.7234  20.4958

     occupation numbers 
     1.0000   1.0000   1.0000   1.0000   0.0000   0.0000   0.0000   0.0000
     0.0000   0.0000   0.0000   0.0000   0.0000   0.0000   0.0000   0.0000
     0.0000   0.0000   0.0000   0.0000   0.0000   0.0000   0.0000   0.0000
     0.0000   0.0000   0.0000   0.0000   0.0000   0.0000

          k = 0.0133 0.3464 0.0000 ( 11892 PWs)   bands (ev):

   -20.1759 -11.4835  -8.2658  -7.9180   3.1436   3.1636   4.1009   4.7494
     5.2722   5.2817   5.6675   6.7643   7.2502   8.8782   9.4247  11.4711
    12.2199  12.4724  13.2473  14.3581  15.6777  15.9828  17.0655  17.8952
    18.0308  18.5295  19.0013  19.3844  19.6893  20.2614

     occupation numbers 
     1.0000   1.0000   1.0000   1.0000   0.0000   0.0000   0.0000   0.0000
     0.0000   0.0000   0.0000   0.0000   0.0000   0.0000   0.0000   0.0000
     0.0000   0.0000   0.0000   0.0000   0.0000   0.0000   0.0000   0.0000
     0.0000   0.0000   0.0000   0.0000   0.0000   0.0000

          k = 0.0133 0.3618 0.0000 ( 11898 PWs)   bands (ev):

   -19.9874 -11.8378  -8.3785  -7.7046   2.7878   3.4214   4.3491   5.0179
     5.2414   5.5404   5.9289   7.0298   7.5153   9.1373   9.6880  11.7102
    12.4803  12.8484  13.3620  14.4423  15.7526  15.9305  16.6454  17.4306
    17.4870  18.1532  18.4337  19.1550  19.8697  20.0170

     occupation numbers 
     1.0000   1.0000   1.0000   1.0000   0.0000   0.0000   0.0000   0.0000
     0.0000   0.0000   0.0000   0.0000   0.0000   0.0000   0.0000   0.0000
     0.0000   0.0000   0.0000   0.0000   0.0000   0.0000   0.0000   0.0000
     0.0000   0.0000   0.0000   0.0000   0.0000   0.0000

          k = 0.0133 0.3772 0.0000 ( 11912 PWs)   bands (ev):

   -19.7913 -12.1905  -8.4848  -7.4851   2.4203   3.6934   4.6176   5.1859
     5.3108   5.8204   6.2063   7.3067   7.7921   9.4065   9.9626  11.9534
    12.7469  13.0301  13.5893  14.4199  15.5956  16.1551  16.3067  16.8531
    17.0090  17.7696  17.8902  18.9095  19.4890  19.8467

     occupation numbers 
     1.0000   1.0000   1.0000   1.0000   0.0000   0.0000   0.0000   0.0000
     0.0000   0.0000   0.0000   0.0000   0.0000   0.0000   0.0000   0.0000
     0.0000   0.0000   0.0000   0.0000   0.0000   0.0000   0.0000   0.0000
     0.0000   0.0000   0.0000   0.0000   0.0000   0.0000

          k = 0.0133 0.3926 0.0000 ( 11912 PWs)   bands (ev):

   -19.5879 -12.5409  -8.5845  -7.2602   2.0523   3.9757   4.9003   5.1478
     5.5999   6.1121   6.4967   7.5948   8.0803   9.6854  10.2482  12.1965
    12.9179  13.0709  13.9626  14.2580  15.5316  15.8914  16.3039  16.4936
    16.5201  17.3839  17.3940  18.5815  18.9913  19.7902

     occupation numbers 
     1.0000   1.0000   1.0000   1.0000   0.0000   0.0000   0.0000   0.0000
     0.0000   0.0000   0.0000   0.0000   0.0000   0.0000   0.0000   0.0000
     0.0000   0.0000   0.0000   0.0000   0.0000   0.0000   0.0000   0.0000
     0.0000   0.0000   0.0000   0.0000   0.0000   0.0000

          k = 0.0133 0.4080 0.0000 ( 11914 PWs)   bands (ev):

   -19.3772 -12.8883  -8.6771  -7.0310   1.6875   4.2670   5.1094   5.1955
     5.9050   6.4155   6.7991   7.8939   8.3800   9.9735  10.5449  12.4304
    12.7309  13.3412  13.9935  14.3712  15.4793  15.4820  15.8533  16.0721
    16.7448  16.9482  17.0447  18.2287  18.5249  19.7040

     occupation numbers 
     1.0000   1.0000   1.0000   1.0000   0.0000   0.0000   0.0000   0.0000
     0.0000   0.0000   0.0000   0.0000   0.0000   0.0000   0.0000   0.0000
     0.0000   0.0000   0.0000   0.0000   0.0000   0.0000   0.0000   0.0000
     0.0000   0.0000   0.0000   0.0000   0.0000   0.0000

          k = 0.0133 0.4234 0.0000 ( 11914 PWs)   bands (ev):

   -19.1596 -13.2322  -8.7624  -6.7988   1.3285   4.5631   5.0792   5.5023
     6.2223   6.7305   7.1134   8.2040   8.6910  10.2699  10.8523  12.4345
    12.6279  13.6416  13.6998  14.7622  14.9971  15.2456  15.4656  15.7850
    16.5159  16.7418  17.0663  17.9101  18.1083  19.4544

     occupation numbers 
     1.0000   1.0000   1.0000   1.0000   0.0000   0.0000   0.0000   0.0000
     0.0000   0.0000   0.0000   0.0000   0.0000   0.0000   0.0000   0.0000
     0.0000   0.0000   0.0000   0.0000   0.0000   0.0000   0.0000   0.0000
     0.0000   0.0000   0.0000   0.0000   0.0000   0.0000

          k = 0.0133 0.4388 0.0000 ( 11920 PWs)   bands (ev):

   -18.9352 -13.5717  -8.8402  -6.5652   0.9780   4.8355   5.0866   5.8203
     6.5516   7.0569   7.4394   8.5248   9.0132  10.5730  11.1701  12.0767
    12.6993  13.4927  13.9538  14.4519  14.8165  14.9797  15.2515  15.6004
    16.1671  16.5054  17.3418  17.6630  17.7619  19.1612

     occupation numbers 
     1.0000   1.0000   1.0000   1.0000   0.0000   0.0000   0.0000   0.0000
     0.0000   0.0000   0.0000   0.0000   0.0000   0.0000   0.0000   0.0000
     0.0000   0.0000   0.0000   0.0000   0.0000   0.0000   0.0000   0.0000
     0.0000   0.0000   0.0000   0.0000   0.0000   0.0000

          k = 0.0133 0.4542 0.0000 ( 11928 PWs)   bands (ev):

   -18.7045 -13.9063  -8.9103  -6.3324   0.6389   4.9370   5.2788   6.1494
     6.8926   7.3949   7.7770   8.8560   9.3465  10.8791  11.4930  11.6860
    12.5200  13.5014  13.9254  14.2752  14.3483  14.5776  15.3479  15.5485
    15.8513  16.3249  17.3786  17.4995  17.7107  18.8729

     occupation numbers 
     1.0000   1.0000   1.0000   1.0000   0.0000   0.0000   0.0000   0.0000
     0.0000   0.0000   0.0000   0.0000   0.0000   0.0000   0.0000   0.0000
     0.0000   0.0000   0.0000   0.0000   0.0000   0.0000   0.0000   0.0000
     0.0000   0.0000   0.0000   0.0000   0.0000   0.0000

          k = 0.0133 0.4696 0.0000 ( 11926 PWs)   bands (ev):

   -18.4680 -14.2350  -8.9725  -6.1031   0.3146   4.9289   5.5949   6.4891
     7.2454   7.7442   8.1260   9.1973   9.6908  11.1765  11.2559  11.8432
    12.1938  13.4043  13.5599  13.9519  14.1105  14.6114  15.0320  15.3845
    15.9842  16.1567  17.1114  17.3889  17.9835  18.6483

     occupation numbers 
     1.0000   1.0000   1.0000   1.0000   0.0000   0.0000   0.0000   0.0000
     0.0000   0.0000   0.0000   0.0000   0.0000   0.0000   0.0000   0.0000
     0.0000   0.0000   0.0000   0.0000   0.0000   0.0000   0.0000   0.0000
     0.0000   0.0000   0.0000   0.0000   0.0000   0.0000

          k = 0.0133 0.4850 0.0000 ( 11918 PWs)   bands (ev):

   -18.2266 -14.5569  -9.0268  -5.8813   0.0095   4.9085   5.9375   6.8392
     7.6099   8.1048   8.4865   9.5477  10.0455  10.8261  11.3911  11.9021
    12.1915  12.8918  13.2619  13.6380  13.9004  14.7205  14.9268  15.0120
    15.9794  16.2868  16.8203  17.2739  18.2521  18.5301

     occupation numbers 
     1.0000   1.0000   1.0000   1.0000   0.0000   0.0000   0.0000   0.0000
     0.0000   0.0000   0.0000   0.0000   0.0000   0.0000   0.0000   0.0000
     0.0000   0.0000   0.0000   0.0000   0.0000   0.0000   0.0000   0.0000
     0.0000   0.0000   0.0000   0.0000   0.0000   0.0000

          k = 0.0133 0.5004 0.0000 ( 11908 PWs)   bands (ev):

   -17.9817 -14.8703  -9.0728  -5.6718  -0.2712   4.8883   6.2943   7.1994
     7.9862   8.4765   8.8583   9.9051  10.3638  10.4375  11.2230  11.9739
    12.3888  12.5511  12.8135  13.1636  13.8444  14.5417  14.5589  15.3038
    15.7981  16.3934  16.6671  17.1328  18.3875  18.5078

     occupation numbers 
     1.0000   1.0000   1.0000   1.0000   0.0000   0.0000   0.0000   0.0000
     0.0000   0.0000   0.0000   0.0000   0.0000   0.0000   0.0000   0.0000
     0.0000   0.0000   0.0000   0.0000   0.0000   0.0000   0.0000   0.0000
     0.0000   0.0000   0.0000   0.0000   0.0000   0.0000

          k = 0.0133 0.5158 0.0000 ( 11906 PWs)   bands (ev):

   -17.7357 -15.1725  -9.1106  -5.4811  -0.5206   4.8708   6.6627   7.5693
     8.3742   8.8590   9.2410   9.9497  10.2580  10.7915  10.8570  11.8973
    12.1704  12.4294  12.6905  12.9219  13.5764  14.1253  14.5383  15.6341
    15.6547  16.0740  16.8729  16.9927  18.2782  18.5092

     occupation numbers 
     1.0000   1.0000   1.0000   1.0000   0.0000   0.0000   0.0000   0.0000
     0.0000   0.0000   0.0000   0.0000   0.0000   0.0000   0.0000   0.0000
     0.0000   0.0000   0.0000   0.0000   0.0000   0.0000   0.0000   0.0000
     0.0000   0.0000   0.0000   0.0000   0.0000   0.0000

          k = 0.0133 0.5312 0.0000 ( 11908 PWs)   bands (ev):

   -17.4936 -15.4583  -9.1401  -5.3174  -0.7303   4.8566   7.0416   7.9482
     8.7738   9.2516   9.5084   9.6428  10.3544  10.7256  11.1778  11.4169
    11.8408  12.2271  12.5700  13.2467  13.2979  13.6893  14.5276  15.5263
    15.6774  16.0292  16.8862  17.0695  18.0668  18.4553

     occupation numbers 
     1.0000   1.0000   1.0000   1.0000   0.0000   0.0000   0.0000   0.0000
     0.0000   0.0000   0.0000   0.0000   0.0000   0.0000   0.0000   0.0000
     0.0000   0.0000   0.0000   0.0000   0.0000   0.0000   0.0000   0.0000
     0.0000   0.0000   0.0000   0.0000   0.0000   0.0000

          k = 0.0133 0.5466 0.0000 ( 11920 PWs)   bands (ev):

   -17.2669 -15.7164  -9.1613  -5.1900  -0.8906   4.8464   7.4300   8.3350
     9.0831   9.1868   9.6466   9.9867  10.0428  10.9473  11.0583  11.4074
    11.5738  11.7719  12.6005  13.1193  13.2510  13.6872  14.4155  15.2852
    15.4970  16.3855  16.8268  17.2154  17.7994  18.3436

     occupation numbers 
     1.0000   1.0000   1.0000   1.0000   0.0000   0.0000   0.0000   0.0000
     0.0000   0.0000   0.0000   0.0000   0.0000   0.0000   0.0000   0.0000
     0.0000   0.0000   0.0000   0.0000   0.0000   0.0000   0.0000   0.0000
     0.0000   0.0000   0.0000   0.0000   0.0000   0.0000

          k = 0.0133 0.5620 0.0000 ( 11928 PWs)   bands (ev):

   -17.0841 -15.9181  -9.1740  -5.1085  -0.9919   4.8401   7.8257   8.6641
     8.7257   9.5594   9.6086  10.0839  10.4579  10.4904  10.9356  11.3231
    11.4640  11.9819  12.2920  12.8218  13.3005  14.0794  14.2415  14.8836
    15.5100  16.7389  16.8065  17.2923  17.5078  18.2373

     occupation numbers 
     1.0000   1.0000   1.0000   1.0000   0.0000   0.0000   0.0000   0.0000
     0.0000   0.0000   0.0000   0.0000   0.0000   0.0000   0.0000   0.0000
     0.0000   0.0000   0.0000   0.0000   0.0000   0.0000   0.0000   0.0000
     0.0000   0.0000   0.0000   0.0000   0.0000   0.0000

          k = 0.0133 0.5774 0.0000 ( 11936 PWs)   bands (ev):

   -17.0070 -16.0015  -9.1782  -5.0804  -1.0266   4.8380   8.1648   8.3169
     9.0396   9.2441  10.0410  10.0454  10.4652  10.5457  10.8731  10.8985
    11.7352  12.0224  12.3763  12.4192  13.4146  14.1415  14.4488  14.5109
    15.5195  16.8039  16.9997  17.1991  17.3857  18.1943

     occupation numbers 
     1.0000   1.0000   1.0000   1.0000   0.0000   0.0000   0.0000   0.0000
     0.0000   0.0000   0.0000   0.0000   0.0000   0.0000   0.0000   0.0000
     0.0000   0.0000   0.0000   0.0000   0.0000   0.0000   0.0000   0.0000
     0.0000   0.0000   0.0000   0.0000   0.0000   0.0000

          k = 0.0267 0.0462 0.0000 ( 11765 PWs)   bands (ev):

   -22.2365 -10.3416  -5.9540  -5.8599   0.3299   1.1971   1.8381   2.3698
     2.7572   3.8865   4.3702   5.7803   5.9645   6.0485   6.5696   8.6295
     8.7456   9.3861  10.0870  11.9766  12.8620  15.7971  16.9457  20.0429
    20.1595  21.5589  24.6017  25.2788  25.3132  26.6961

     occupation numbers 
     1.0000   1.0000   1.0000   1.0000   0.0000   0.0000   0.0000   0.0000
     0.0000   0.0000   0.0000   0.0000   0.0000   0.0000   0.0000   0.0000
     0.0000   0.0000   0.0000   0.0000   0.0000   0.0000   0.0000   0.0000
     0.0000   0.0000   0.0000   0.0000   0.0000   0.0000

          k = 0.0267 0.0616 0.0000 ( 11787 PWs)   bands (ev):

   -22.2070 -10.3061  -6.0702  -5.9239   0.3700   1.2376   1.8793   2.4108
     2.7980   3.9272   4.4104   5.7982   6.0853   6.0888   6.6113   8.5279
     8.7852   9.4268  10.1405  12.0150  12.9025  15.8330  16.9859  20.1357
    20.1851  21.5992  24.3484  25.0928  25.2182  26.7354

     occupation numbers 
     1.0000   1.0000   1.0000   1.0000   0.0000   0.0000   0.0000   0.0000
     0.0000   0.0000   0.0000   0.0000   0.0000   0.0000   0.0000   0.0000
     0.0000   0.0000   0.0000   0.0000   0.0000   0.0000   0.0000   0.0000
     0.0000   0.0000   0.0000   0.0000   0.0000   0.0000

          k = 0.0267 0.0770 0.0000 ( 11795 PWs)   bands (ev):

   -22.1691 -10.2605  -6.2166  -6.0040   0.4216   1.2896   1.9322   2.4635
     2.8506   3.9796   4.4622   5.8178   6.1406   6.2382   6.6647   8.3990
     8.8360   9.4792  10.2110  12.0642  12.9545  15.8789  17.0374  20.2154
    20.2517  21.6511  23.9946  24.8410  25.2188  26.7859

     occupation numbers 
     1.0000   1.0000   1.0000   1.0000   0.0000   0.0000   0.0000   0.0000
     0.0000   0.0000   0.0000   0.0000   0.0000   0.0000   0.0000   0.0000
     0.0000   0.0000   0.0000   0.0000   0.0000   0.0000   0.0000   0.0000
     0.0000   0.0000   0.0000   0.0000   0.0000   0.0000

          k = 0.0267 0.0924 0.0000 ( 11788 PWs)   bands (ev):

   -22.1228 -10.2049  -6.3913  -6.0983   0.4846   1.3532   1.9970   2.5280
     2.9148   4.0435   4.5254   5.8367   6.2038   6.4220   6.7297   8.2439
     8.8980   9.5430  10.2992  12.1242  13.0180  15.9345  17.1002  20.2480
    20.3879  21.7151  23.5910  24.5639  25.2569  26.8477

     occupation numbers 
     1.0000   1.0000   1.0000   1.0000   0.0000   0.0000   0.0000   0.0000
     0.0000   0.0000   0.0000   0.0000   0.0000   0.0000   0.0000   0.0000
     0.0000   0.0000   0.0000   0.0000   0.0000   0.0000   0.0000   0.0000
     0.0000   0.0000   0.0000   0.0000   0.0000   0.0000

          k = 0.0267 0.1078 0.0000 ( 11798 PWs)   bands (ev):

   -22.0681 -10.1393  -6.5921  -6.2051   0.5591   1.4283   2.0734   2.6041
     2.9908   4.1191   4.6001   5.8528   6.2785   6.6353   6.8062   8.0638
     8.9713   9.6185  10.4060  12.1950  13.0930  15.9994  17.1743  20.2785
    20.5410  21.7915  23.1714  24.2724  25.3138  26.9202

     occupation numbers 
     1.0000   1.0000   1.0000   1.0000   0.0000   0.0000   0.0000   0.0000
     0.0000   0.0000   0.0000   0.0000   0.0000   0.0000   0.0000   0.0000
     0.0000   0.0000   0.0000   0.0000   0.0000   0.0000   0.0000   0.0000
     0.0000   0.0000   0.0000   0.0000   0.0000   0.0000

          k = 0.0267 0.1232 0.0000 ( 11802 PWs)   bands (ev):

   -22.0050 -10.0636  -6.8167  -6.3226   0.6451   1.5150   2.1617   2.6919
     3.0784   4.2063   4.6862   5.8642   6.3646   6.8746   6.8957   7.8603
     9.0557   9.7053  10.5315  12.2764  13.1794  16.0733  17.2596  20.2999
    20.7062  21.8805  22.7595  23.9738  25.3780  26.6550

     occupation numbers 
     1.0000   1.0000   1.0000   1.0000   0.0000   0.0000   0.0000   0.0000
     0.0000   0.0000   0.0000   0.0000   0.0000   0.0000   0.0000   0.0000
     0.0000   0.0000   0.0000   0.0000   0.0000   0.0000   0.0000   0.0000
     0.0000   0.0000   0.0000   0.0000   0.0000   0.0000

          k = 0.0267 0.1386 0.0000 ( 11797 PWs)   bands (ev):

   -21.9336  -9.9781  -7.0627  -6.4490   0.7425   1.6132   2.2617   2.7914
     3.1777   4.3051   4.7837   5.8696   6.4620   6.9924   7.1440   7.6350
     9.1514   9.8036  10.6756  12.3683  13.2773  16.1556  17.3560  20.2997
    20.8774  21.9828  22.3774  23.6728  25.4366  25.9368

     occupation numbers 
     1.0000   1.0000   1.0000   1.0000   0.0000   0.0000   0.0000   0.0000
     0.0000   0.0000   0.0000   0.0000   0.0000   0.0000   0.0000   0.0000
     0.0000   0.0000   0.0000   0.0000   0.0000   0.0000   0.0000   0.0000
     0.0000   0.0000   0.0000   0.0000   0.0000   0.0000

          k = 0.0267 0.1540 0.0000 ( 11801 PWs)   bands (ev):

   -21.8538  -9.8826  -7.3279  -6.5825   0.8514   1.7228   2.3735   2.9027
     3.2886   4.4155   4.8925   5.8681   6.5705   7.1027   7.3896   7.4351
     9.2581   9.9133  10.8377  12.4706  13.3865  16.2453  17.4635  20.2582
    21.0460  22.0507  22.0985  23.3724  25.2393  25.4605

     occupation numbers 
     1.0000   1.0000   1.0000   1.0000   0.0000   0.0000   0.0000   0.0000
     0.0000   0.0000   0.0000   0.0000   0.0000   0.0000   0.0000   0.0000
     0.0000   0.0000   0.0000   0.0000   0.0000   0.0000   0.0000   0.0000
     0.0000   0.0000   0.0000   0.0000   0.0000   0.0000

          k = 0.0267 0.1694 0.0000 ( 11791 PWs)   bands (ev):

   -21.7657  -9.7774  -7.6100  -6.7213   0.9717   1.8440   2.4971   3.0256
     3.4112   4.5373   5.0122   5.8597   6.6889   7.1261   7.2250   7.7485
     9.3758  10.0344  11.0165  12.5831  13.5071  16.3414  17.5820  20.1507
    21.1998  21.8083  22.2264  23.0742  24.5724  25.3455

     occupation numbers 
     1.0000   1.0000   1.0000   1.0000   0.0000   0.0000   0.0000   0.0000
     0.0000   0.0000   0.0000   0.0000   0.0000   0.0000   0.0000   0.0000
     0.0000   0.0000   0.0000   0.0000   0.0000   0.0000   0.0000   0.0000
     0.0000   0.0000   0.0000   0.0000   0.0000   0.0000

          k = 0.0267 0.1848 0.0000 ( 11791 PWs)   bands (ev):

   -21.6694  -9.6625  -7.9067  -6.8640   1.1034   1.9765   2.6324   3.1601
     3.5455   4.6707   5.1424   5.8448   6.7864   6.8789   7.3573   8.0824
     9.5046  10.1668  11.2105  12.7055  13.6390  16.4420  17.7115  19.9632
    21.3183  21.6661  22.3623  22.7788  23.9554  24.9091

     occupation numbers 
     1.0000   1.0000   1.0000   1.0000   0.0000   0.0000   0.0000   0.0000
     0.0000   0.0000   0.0000   0.0000   0.0000   0.0000   0.0000   0.0000
     0.0000   0.0000   0.0000   0.0000   0.0000   0.0000   0.0000   0.0000
     0.0000   0.0000   0.0000   0.0000   0.0000   0.0000

          k = 0.0267 0.2001 0.0000 ( 11802 PWs)   bands (ev):

   -21.5647  -9.5380  -8.2161  -7.0092   1.2466   2.1204   2.7795   3.3063
     3.6915   4.8153   5.2818   5.8251   6.5372   6.9741   7.5013   8.4347
     9.6442  10.3105  11.4176  12.8375  13.7822  16.5445  17.8517  19.7090
    21.3629  21.6111  22.4851  22.4919  23.4331  24.2975

     occupation numbers 
     1.0000   1.0000   1.0000   1.0000   0.0000   0.0000   0.0000   0.0000
     0.0000   0.0000   0.0000   0.0000   0.0000   0.0000   0.0000   0.0000
     0.0000   0.0000   0.0000   0.0000   0.0000   0.0000   0.0000   0.0000
     0.0000   0.0000   0.0000   0.0000   0.0000   0.0000

          k = 0.0267 0.2155 0.0000 ( 11819 PWs)   bands (ev):

   -21.4519  -9.4039  -8.5362  -7.1554   1.4012   2.2756   2.9384   3.4641
     3.8490   4.9709   5.4267   5.8050   6.2288   7.1263   7.6567   8.8036
     9.7947  10.4656  11.6355  12.9788  13.9366  16.6447  18.0026  19.4186
    21.2645  21.6096  22.1950  22.5651  23.1030  23.6622

     occupation numbers 
     1.0000   1.0000   1.0000   1.0000   0.0000   0.0000   0.0000   0.0000
     0.0000   0.0000   0.0000   0.0000   0.0000   0.0000   0.0000   0.0000
     0.0000   0.0000   0.0000   0.0000   0.0000   0.0000   0.0000   0.0000
     0.0000   0.0000   0.0000   0.0000   0.0000   0.0000

          k = 0.0267 0.2309 0.0000 ( 11825 PWs)   bands (ev):

   -21.3308  -9.2606  -8.8653  -7.3016   1.5673   2.4420   3.1090   3.6334
     4.0182   5.1362   5.5610   5.8014   5.9084   7.2916   7.8235   9.1872
     9.9558  10.6320  11.8617  13.1288  14.1023  16.7359  18.1640  19.1211
    20.9659  21.6122  21.9141  22.5301  22.9377  23.0454

     occupation numbers 
     1.0000   1.0000   1.0000   1.0000   0.0000   0.0000   0.0000   0.0000
     0.0000   0.0000   0.0000   0.0000   0.0000   0.0000   0.0000   0.0000
     0.0000   0.0000   0.0000   0.0000   0.0000   0.0000   0.0000   0.0000
     0.0000   0.0000   0.0000   0.0000   0.0000   0.0000

          k = 0.0267 0.2463 0.0000 ( 11842 PWs)   bands (ev):

   -21.2016  -9.2019  -9.1079  -7.4467   1.7446   2.6193   3.2914   3.8141
     4.1988   5.3005   5.5880   5.6288   5.8728   7.4686   8.0017   9.5834
    10.1274  10.8098  12.0932  13.2868  14.2790  16.8068  18.3355  18.8412
    20.5102  21.4676  21.7366  22.2335  22.4750  22.5462

     occupation numbers 
     1.0000   1.0000   1.0000   1.0000   0.0000   0.0000   0.0000   0.0000
     0.0000   0.0000   0.0000   0.0000   0.0000   0.0000   0.0000   0.0000
     0.0000   0.0000   0.0000   0.0000   0.0000   0.0000   0.0000   0.0000
     0.0000   0.0000   0.0000   0.0000   0.0000   0.0000

          k = 0.0267 0.2617 0.0000 ( 11856 PWs)   bands (ev):

   -21.0643  -9.5444  -8.9463  -7.5897   1.9334   2.8072   3.4855   4.0057
     4.3909   5.2020   5.5363   5.6163   6.0299   7.6569   8.1913   9.9902
    10.3094  10.9989  12.3267  13.4518  14.4668  16.8401  18.5164  18.6020
    19.9805  21.1162  21.5851  21.6078  21.9966  22.2662

     occupation numbers 
     1.0000   1.0000   1.0000   1.0000   0.0000   0.0000   0.0000   0.0000
     0.0000   0.0000   0.0000   0.0000   0.0000   0.0000   0.0000   0.0000
     0.0000   0.0000   0.0000   0.0000   0.0000   0.0000   0.0000   0.0000
     0.0000   0.0000   0.0000   0.0000   0.0000   0.0000

          k = 0.0267 0.2771 0.0000 ( 11856 PWs)   bands (ev):

   -20.9189  -9.8915  -8.7759  -7.7298   2.1335   3.0047   3.6914   4.2062
     4.5942   4.8681   5.5799   5.7267   6.2210   7.8564   8.3923  10.4051
    10.5015  11.1994  12.5584  13.6223  14.6655  16.8133  18.4260  18.7037
    19.4294  20.6694  20.9186  21.2860  21.6315  21.7411

     occupation numbers 
     1.0000   1.0000   1.0000   1.0000   0.0000   0.0000   0.0000   0.0000
     0.0000   0.0000   0.0000   0.0000   0.0000   0.0000   0.0000   0.0000
     0.0000   0.0000   0.0000   0.0000   0.0000   0.0000   0.0000   0.0000
     0.0000   0.0000   0.0000   0.0000   0.0000   0.0000

          k = 0.0267 0.2925 0.0000 ( 11866 PWs)   bands (ev):

   -20.7655 -10.2420  -8.5968  -7.8664   2.3448   3.2096   3.9090   4.3823
     4.5574   4.8084   5.5365   5.9383   6.4297   8.0670   8.6047  10.7033
    10.8250  11.4115  12.7838  13.7960  14.8751  16.7108  18.3231  18.7988
    18.9794  20.1691  20.2596  20.8312  21.1377  21.2980

     occupation numbers 
     1.0000   1.0000   1.0000   1.0000   0.0000   0.0000   0.0000   0.0000
     0.0000   0.0000   0.0000   0.0000   0.0000   0.0000   0.0000   0.0000
     0.0000   0.0000   0.0000   0.0000   0.0000   0.0000   0.0000   0.0000
     0.0000   0.0000   0.0000   0.0000   0.0000   0.0000

          k = 0.0267 0.3079 0.0000 ( 11879 PWs)   bands (ev):

   -20.6042 -10.5948  -8.4095  -7.9986   2.5674   3.4117   4.1382   4.1516
     4.6726   5.0313   5.4924   6.1631   6.6524   8.2886   8.8285  10.9146
    11.2459  11.6356  12.9977  13.9694  15.0953  16.5381  18.2720  18.3089
    19.1354  19.6118  19.6572  20.3357  20.5235  20.9876

     occupation numbers 
     1.0000   1.0000   1.0000   1.0000   0.0000   0.0000   0.0000   0.0000
     0.0000   0.0000   0.0000   0.0000   0.0000   0.0000   0.0000   0.0000
     0.0000   0.0000   0.0000   0.0000   0.0000   0.0000   0.0000   0.0000
     0.0000   0.0000   0.0000   0.0000   0.0000   0.0000

          k = 0.0267 0.3233 0.0000 ( 11889 PWs)   bands (ev):

   -20.4350 -10.9490  -8.2141  -8.1259   2.8012   3.5294   3.9050   4.3795
     4.9060   5.2511   5.4617   6.3998   6.8877   8.5210   9.0636  11.1346
    11.6599  11.8737  13.1941  14.1363  15.3259  16.3179  17.7925  18.2108
    18.9727  19.1699  19.3499  19.8638  19.9178  20.6847

     occupation numbers 
     1.0000   1.0000   1.0000   1.0000   0.0000   0.0000   0.0000   0.0000
     0.0000   0.0000   0.0000   0.0000   0.0000   0.0000   0.0000   0.0000
     0.0000   0.0000   0.0000   0.0000   0.0000   0.0000   0.0000   0.0000
     0.0000   0.0000   0.0000   0.0000   0.0000   0.0000

          k = 0.0267 0.3387 0.0000 ( 11887 PWs)   bands (ev):

   -20.2580 -11.3035  -8.2479  -8.0112   3.0460   3.3094   4.0005   4.6321
     5.1555   5.3475   5.5660   6.6481   7.1351   8.7641   9.3100  11.3627
    12.0424  12.1405  13.3679  14.2849  15.5665  16.0777  17.3069  18.0363
    18.3502  18.7386  19.2984  19.4877  19.5958  20.3650

     occupation numbers 
     1.0000   1.0000   1.0000   1.0000   0.0000   0.0000   0.0000   0.0000
     0.0000   0.0000   0.0000   0.0000   0.0000   0.0000   0.0000   0.0000
     0.0000   0.0000   0.0000   0.0000   0.0000   0.0000   0.0000   0.0000
     0.0000   0.0000   0.0000   0.0000   0.0000   0.0000

          k = 0.0267 0.3541 0.0000 ( 11901 PWs)   bands (ev):

   -20.0734 -11.6577  -8.3640  -7.8013   2.9616   3.3024   4.2323   4.8961
     5.3172   5.4176   5.8098   6.9080   7.3944   9.0177   9.5678  11.5976
    12.3403  12.4675  13.5209  14.3931  15.8159  15.8474  16.8648  17.6901
    17.7417  18.3430  18.7280  19.2562  19.8079  20.0381

     occupation numbers 
     1.0000   1.0000   1.0000   1.0000   0.0000   0.0000   0.0000   0.0000
     0.0000   0.0000   0.0000   0.0000   0.0000   0.0000   0.0000   0.0000
     0.0000   0.0000   0.0000   0.0000   0.0000   0.0000   0.0000   0.0000
     0.0000   0.0000   0.0000   0.0000   0.0000   0.0000

          k = 0.0267 0.3695 0.0000 ( 11893 PWs)   bands (ev):

   -19.8811 -12.0106  -8.4738  -7.5848   2.5969   3.5692   4.4926   5.1668
     5.2792   5.6917   6.0794   7.1791   7.6653   9.2816   9.8367  11.8375
    12.6046  12.7548  13.6790  14.4209  15.6659  16.0691  16.4776  17.1519
    17.2428  17.9414  18.1713  19.0545  19.7451  19.8044

     occupation numbers 
     1.0000   1.0000   1.0000   1.0000   0.0000   0.0000   0.0000   0.0000
     0.0000   0.0000   0.0000   0.0000   0.0000   0.0000   0.0000   0.0000
     0.0000   0.0000   0.0000   0.0000   0.0000   0.0000   0.0000   0.0000
     0.0000   0.0000   0.0000   0.0000   0.0000   0.0000

          k = 0.0267 0.3849 0.0000 ( 11903 PWs)   bands (ev):

   -19.6814 -12.3617  -8.5771  -7.3625   2.2293   3.8465   4.7687   5.2240
     5.4661   5.9776   6.3632   7.4615   7.9478   9.5553  10.1167  12.0792
    12.8069  12.9518  13.8998  14.3255  15.5670  16.0925  16.3637  16.5962
    16.7640  17.5500  17.6459  18.7398  19.2498  19.7512

     occupation numbers 
     1.0000   1.0000   1.0000   1.0000   0.0000   0.0000   0.0000   0.0000
     0.0000   0.0000   0.0000   0.0000   0.0000   0.0000   0.0000   0.0000
     0.0000   0.0000   0.0000   0.0000   0.0000   0.0000   0.0000   0.0000
     0.0000   0.0000   0.0000   0.0000   0.0000   0.0000

          k = 0.0267 0.4003 0.0000 ( 11909 PWs)   bands (ev):

   -19.4744 -12.7101  -8.6734  -7.1354   1.8632   4.1338   5.0578   5.1844
     5.7642   6.2751   6.6596   7.7550   8.2417   9.8383  10.4078  12.3160
    12.7664  13.2096  14.1119  14.2012  15.5197  15.7335  16.0938  16.2953
    16.6344  17.1698  17.1921  18.3663  18.7661  19.7884

     occupation numbers 
     1.0000   1.0000   1.0000   1.0000   0.0000   0.0000   0.0000   0.0000
     0.0000   0.0000   0.0000   0.0000   0.0000   0.0000   0.0000   0.0000
     0.0000   0.0000   0.0000   0.0000   0.0000   0.0000   0.0000   0.0000
     0.0000   0.0000   0.0000   0.0000   0.0000   0.0000

          k = 0.0267 0.4157 0.0000 ( 11919 PWs)   bands (ev):

   -19.2603 -13.0553  -8.7626  -6.9045   1.5017   4.4293   5.1484   5.3588
     6.0754   6.5843   6.9679   8.0594   8.5470  10.1300  10.7098  12.5316
    12.5552  13.5021  13.8359  14.5324  15.2757  15.3906  15.7056  15.9125
    16.7212  16.8813  16.9477  18.0134  18.3250  19.5552

     occupation numbers 
     1.0000   1.0000   1.0000   1.0000   0.0000   0.0000   0.0000   0.0000
     0.0000   0.0000   0.0000   0.0000   0.0000   0.0000   0.0000   0.0000
     0.0000   0.0000   0.0000   0.0000   0.0000   0.0000   0.0000   0.0000
     0.0000   0.0000   0.0000   0.0000   0.0000   0.0000

          k = 0.0267 0.4311 0.0000 ( 11915 PWs)   bands (ev):

   -19.0393 -13.3967  -8.8443  -6.6713   1.1473   4.7250   5.1255   5.6712
     6.3987   6.9049   7.2881   8.3747   8.8636  10.4290  11.0225  12.2460
    12.6753  13.5807  13.8083  14.6803  14.8995  15.0422  15.3806  15.6855
    16.3839  16.6265  17.2183  17.7319  17.9445  19.2295

     occupation numbers 
     1.0000   1.0000   1.0000   1.0000   0.0000   0.0000   0.0000   0.0000
     0.0000   0.0000   0.0000   0.0000   0.0000   0.0000   0.0000   0.0000
     0.0000   0.0000   0.0000   0.0000   0.0000   0.0000   0.0000   0.0000
     0.0000   0.0000   0.0000   0.0000   0.0000   0.0000

          k = 0.0267 0.4465 0.0000 ( 11915 PWs)   bands (ev):

   -18.8117 -13.7335  -8.9184  -6.4378   0.8027   4.9552   5.1820   5.9947
     6.7338   7.2371   7.6198   8.7005   9.1913  10.7328  11.3446  11.8787
    12.6227  13.4846  14.1218  14.2008  14.5887  14.7595  15.3692  15.4657
    16.0791  16.4169  17.4574  17.5502  17.6757  18.9076

     occupation numbers 
     1.0000   1.0000   1.0000   1.0000   0.0000   0.0000   0.0000   0.0000
     0.0000   0.0000   0.0000   0.0000   0.0000   0.0000   0.0000   0.0000
     0.0000   0.0000   0.0000   0.0000   0.0000   0.0000   0.0000   0.0000
     0.0000   0.0000   0.0000   0.0000   0.0000   0.0000

          k = 0.0267 0.4619 0.0000 ( 11915 PWs)   bands (ev):

   -18.5781 -14.0649  -8.9847  -6.2063   0.4711   4.9916   5.4464   6.3289
     7.0807   7.5806   7.9631   9.0365   9.5301  11.0347  11.4648  11.6892
    12.3565  13.5506  13.6757  14.1393  14.3338  14.4637  15.1839  15.4485
    15.9304  16.2255  17.2957  17.4468  17.8528  18.6383

     occupation numbers 
     1.0000   1.0000   1.0000   1.0000   0.0000   0.0000   0.0000   0.0000
     0.0000   0.0000   0.0000   0.0000   0.0000   0.0000   0.0000   0.0000
     0.0000   0.0000   0.0000   0.0000   0.0000   0.0000   0.0000   0.0000
     0.0000   0.0000   0.0000   0.0000   0.0000   0.0000

          k = 0.0267 0.4773 0.0000 ( 11923 PWs)   bands (ev):

   -18.3391 -14.3901  -9.0430  -5.9802   0.1562   4.9758   5.7773   6.6736
     7.4394   7.9355   8.3179   9.3820   9.8797  11.0475  11.3059  12.0274
    12.0320  13.1593  13.4570  13.8810  13.8937  14.7878  14.8734  15.1725
    16.0399  16.1092  17.0333  17.3462  18.1361  18.4811

     occupation numbers 
     1.0000   1.0000   1.0000   1.0000   0.0000   0.0000   0.0000   0.0000
     0.0000   0.0000   0.0000   0.0000   0.0000   0.0000   0.0000   0.0000
     0.0000   0.0000   0.0000   0.0000   0.0000   0.0000   0.0000   0.0000
     0.0000   0.0000   0.0000   0.0000   0.0000   0.0000

          k = 0.0267 0.4927 0.0000 ( 11911 PWs)   bands (ev):

   -18.0958 -14.7077  -9.0932  -5.7637  -0.1372   4.9554   6.1271   7.0285
     7.8098   8.3015   8.6840   9.7356  10.2383  10.6174  11.3533  11.8990
    12.3819  12.6521  13.0479  13.4098  13.8875  14.6174  14.7672  15.1420
    15.8638  16.2969  16.7973  17.1968  18.3751  18.4586

     occupation numbers 
     1.0000   1.0000   1.0000   1.0000   0.0000   0.0000   0.0000   0.0000
     0.0000   0.0000   0.0000   0.0000   0.0000   0.0000   0.0000   0.0000
     0.0000   0.0000   0.0000   0.0000   0.0000   0.0000   0.0000   0.0000
     0.0000   0.0000   0.0000   0.0000   0.0000   0.0000

          k = 0.0267 0.5081 0.0000 ( 11907 PWs)   bands (ev):

   -17.8500 -15.0156  -9.1352  -5.5626  -0.4030   4.9365   6.4897   7.3932
     8.1919   8.6786   9.0613  10.0924  10.1755  10.6158  11.0439  12.0988
    12.1547  12.6060  12.7447  12.9395  13.7213  14.3473  14.5293  15.4874
    15.7053  16.2005  16.7935  17.0267  18.3972  18.5070

     occupation numbers 
     1.0000   1.0000   1.0000   1.0000   0.0000   0.0000   0.0000   0.0000
     0.0000   0.0000   0.0000   0.0000   0.0000   0.0000   0.0000   0.0000
     0.0000   0.0000   0.0000   0.0000   0.0000   0.0000   0.0000   0.0000
     0.0000   0.0000   0.0000   0.0000   0.0000   0.0000

          k = 0.0267 0.5235 0.0000 ( 11915 PWs)   bands (ev):

   -17.6052 -15.3104  -9.1689  -5.3841  -0.6335   4.9206   6.8632   7.7671
     8.5857   9.0660   9.4481   9.7439  10.3989  10.7108  10.9958  11.6687
    12.0563  12.4670  12.4699  13.1203  13.4122  13.9150  14.5254  15.5812
    15.7970  15.9196  16.8890  16.9547  18.2324  18.5025

     occupation numbers 
     1.0000   1.0000   1.0000   1.0000   0.0000   0.0000   0.0000   0.0000
     0.0000   0.0000   0.0000   0.0000   0.0000   0.0000   0.0000   0.0000
     0.0000   0.0000   0.0000   0.0000   0.0000   0.0000   0.0000   0.0000
     0.0000   0.0000   0.0000   0.0000   0.0000   0.0000

          k = 0.0267 0.5389 0.0000 ( 11913 PWs)   bands (ev):

   -17.3688 -15.5842  -9.1943  -5.2371  -0.8197   4.9084   7.2469   8.1494
     8.9909   9.3088   9.4618   9.8522  10.1817  10.8944  11.1935  11.3875
    11.6318  12.0101  12.6344  13.1420  13.4622  13.5199  14.4638  15.4834
    15.5121  16.2107  16.8148  17.1052  17.9954  18.3760

     occupation numbers 
     1.0000   1.0000   1.0000   1.0000   0.0000   0.0000   0.0000   0.0000
     0.0000   0.0000   0.0000   0.0000   0.0000   0.0000   0.0000   0.0000
     0.0000   0.0000   0.0000   0.0000   0.0000   0.0000   0.0000   0.0000
     0.0000   0.0000   0.0000   0.0000   0.0000   0.0000

          k = 0.0267 0.5543 0.0000 ( 11911 PWs)   bands (ev):

   -17.1588 -15.8193  -9.2112  -5.1314  -0.9517   4.9002   7.6393   8.5379
     8.8840   9.4089   9.7400   9.9143  10.2621  10.7302  11.1329  11.3181
    11.5570  11.7905  12.4638  13.0465  13.2013  13.8930  14.3229  15.0902
    15.4913  16.5583  16.8010  17.2074  17.7200  18.2150

     occupation numbers 
     1.0000   1.0000   1.0000   1.0000   0.0000   0.0000   0.0000   0.0000
     0.0000   0.0000   0.0000   0.0000   0.0000   0.0000   0.0000   0.0000
     0.0000   0.0000   0.0000   0.0000   0.0000   0.0000   0.0000   0.0000
     0.0000   0.0000   0.0000   0.0000   0.0000   0.0000

          k = 0.0267 0.5697 0.0000 ( 11927 PWs)   bands (ev):

   -17.0193 -15.9714  -9.2197  -5.0759  -1.0204   4.8960   8.0338   8.4733
     8.9199   9.3784   9.8376  10.2780  10.3011  10.6834  10.7348  11.1161
    11.6397  12.1307  12.1996  12.6211  13.3700  14.1798  14.2866  14.6918
    15.4899  16.8139  16.8636  17.2269  17.4807  18.1086

     occupation numbers 
     1.0000   1.0000   1.0000   1.0000   0.0000   0.0000   0.0000   0.0000
     0.0000   0.0000   0.0000   0.0000   0.0000   0.0000   0.0000   0.0000
     0.0000   0.0000   0.0000   0.0000   0.0000   0.0000   0.0000   0.0000
     0.0000   0.0000   0.0000   0.0000   0.0000   0.0000

          k = 0.0400 0.0693 0.0000 ( 11797 PWs)   bands (ev):

   -22.1733 -10.2656  -6.1983  -5.9975   0.4158   1.2838   1.9263   2.4577
     2.8448   3.9737   4.4564   5.8221   6.1348   6.2146   6.6588   8.4133
     8.8303   9.4733  10.2035  12.0587  12.9487  15.8738  17.0316  20.2120
    20.2390  21.6454  24.0101  24.9283  25.1874  26.7803

     occupation numbers 
     1.0000   1.0000   1.0000   1.0000   0.0000   0.0000   0.0000   0.0000
     0.0000   0.0000   0.0000   0.0000   0.0000   0.0000   0.0000   0.0000
     0.0000   0.0000   0.0000   0.0000   0.0000   0.0000   0.0000   0.0000
     0.0000   0.0000   0.0000   0.0000   0.0000   0.0000

          k = 0.0400 0.0847 0.0000 ( 11795 PWs)   bands (ev):

   -22.1312 -10.2150  -6.3547  -6.0869   0.4731   1.3416   1.9852   2.5162
     2.9032   4.0319   4.5139   5.8486   6.1923   6.3727   6.7180   8.2720
     8.8867   9.5315  10.2845  12.1133  13.0064  15.9243  17.0888  20.2418
    20.3636  21.7035  23.6164  24.7057  25.2178  26.8364

     occupation numbers 
     1.0000   1.0000   1.0000   1.0000   0.0000   0.0000   0.0000   0.0000
     0.0000   0.0000   0.0000   0.0000   0.0000   0.0000   0.0000   0.0000
     0.0000   0.0000   0.0000   0.0000   0.0000   0.0000   0.0000   0.0000
     0.0000   0.0000   0.0000   0.0000   0.0000   0.0000

          k = 0.0400 0.1001 0.0000 ( 11792 PWs)   bands (ev):

   -22.0807 -10.1544  -6.5378  -6.1902   0.5419   1.4110   2.0558   2.5865
     2.9733   4.1017   4.5829   5.8745   6.2613   6.5589   6.7888   8.1054
     8.9543   9.6011  10.3844  12.1786  13.0757  15.9844  17.1572  20.2706
    20.5065  21.7738  23.2022  24.4519  25.2746  26.9037

     occupation numbers 
     1.0000   1.0000   1.0000   1.0000   0.0000   0.0000   0.0000   0.0000
     0.0000   0.0000   0.0000   0.0000   0.0000   0.0000   0.0000   0.0000
     0.0000   0.0000   0.0000   0.0000   0.0000   0.0000   0.0000   0.0000
     0.0000   0.0000   0.0000   0.0000   0.0000   0.0000

          k = 0.0400 0.1155 0.0000 ( 11791 PWs)   bands (ev):

   -22.0218 -10.0838  -6.7455  -6.3052   0.6221   1.4919   2.1382   2.6685
     3.0550   4.1831   4.6634   5.8970   6.3417   6.7723   6.8712   7.9147
     9.0331   9.6823  10.5039  12.2546  13.1564  16.0534  17.2369  20.2918
    20.6635  21.8567  22.7914  24.1786  25.3440  26.9747

     occupation numbers 
     1.0000   1.0000   1.0000   1.0000   0.0000   0.0000   0.0000   0.0000
     0.0000   0.0000   0.0000   0.0000   0.0000   0.0000   0.0000   0.0000
     0.0000   0.0000   0.0000   0.0000   0.0000   0.0000   0.0000   0.0000
     0.0000   0.0000   0.0000   0.0000   0.0000   0.0000

          k = 0.0400 0.1309 0.0000 ( 11799 PWs)   bands (ev):

   -21.9546 -10.0032  -6.9758  -6.4301   0.7138   1.5843   2.2323   2.7622
     3.1485   4.2761   4.7553   5.9139   6.4335   6.9628   7.0137   7.7016
     9.1230   9.7749  10.6431  12.3411  13.2485  16.1310  17.3277  20.2942
    20.8293  21.9526  22.4059  23.8934  25.4161  26.3037

     occupation numbers 
     1.0000   1.0000   1.0000   1.0000   0.0000   0.0000   0.0000   0.0000
     0.0000   0.0000   0.0000   0.0000   0.0000   0.0000   0.0000   0.0000
     0.0000   0.0000   0.0000   0.0000   0.0000   0.0000   0.0000   0.0000
     0.0000   0.0000   0.0000   0.0000   0.0000   0.0000

          k = 0.0400 0.1463 0.0000 ( 11807 PWs)   bands (ev):

   -21.8790  -9.9127  -7.2266  -6.5630   0.8170   1.6882   2.3382   2.8676
     3.2536   4.3807   4.8585   5.9237   6.5365   7.0682   7.2774   7.4676
     9.2241   9.8789  10.8018  12.4380  13.3520  16.2162  17.4296  20.2590
    20.9966  22.0615  22.0715  23.6009  25.4752  25.5969

     occupation numbers 
     1.0000   1.0000   1.0000   1.0000   0.0000   0.0000   0.0000   0.0000
     0.0000   0.0000   0.0000   0.0000   0.0000   0.0000   0.0000   0.0000
     0.0000   0.0000   0.0000   0.0000   0.0000   0.0000   0.0000   0.0000
     0.0000   0.0000   0.0000   0.0000   0.0000   0.0000

          k = 0.0400 0.1617 0.0000 ( 11811 PWs)   bands (ev):

   -21.7951  -9.8125  -7.4956  -6.7019   0.9316   1.8036   2.4559   2.9846
     3.3704   4.4968   4.9729   5.9256   6.6502   7.1824   7.2164   7.5649
     9.3362   9.9943  10.9789  12.5452  13.4669  16.3080  17.5426  20.1618
    21.1556  21.8165  22.1841  23.3039  24.9140  25.4732

     occupation numbers 
     1.0000   1.0000   1.0000   1.0000   0.0000   0.0000   0.0000   0.0000
     0.0000   0.0000   0.0000   0.0000   0.0000   0.0000   0.0000   0.0000
     0.0000   0.0000   0.0000   0.0000   0.0000   0.0000   0.0000   0.0000
     0.0000   0.0000   0.0000   0.0000   0.0000   0.0000

          k = 0.0400 0.1771 0.0000 ( 11803 PWs)   bands (ev):

   -21.7029  -9.7024  -7.7807  -6.8452   1.0577   1.9305   2.5853   3.1133
     3.4989   4.6244   5.0982   5.9198   6.7699   6.9493   7.3115   7.8737
     9.4594  10.1211  11.1732  12.6623  13.5931  16.4048  17.6665  19.9854
    21.2908  21.6620  22.3170  23.0034  24.2688  25.2292

     occupation numbers 
     1.0000   1.0000   1.0000   1.0000   0.0000   0.0000   0.0000   0.0000
     0.0000   0.0000   0.0000   0.0000   0.0000   0.0000   0.0000   0.0000
     0.0000   0.0000   0.0000   0.0000   0.0000   0.0000   0.0000   0.0000
     0.0000   0.0000   0.0000   0.0000   0.0000   0.0000

          k = 0.0400 0.1925 0.0000 ( 11800 PWs)   bands (ev):

   -21.6024  -9.5827  -8.0798  -6.9915   1.1952   2.0687   2.7266   3.2537
     3.6390   4.7634   5.2339   5.9069   6.6459   6.9231   7.4497   8.2020
     9.5934  10.2592  11.3828  12.7891  13.7306  16.5040  17.8012  19.7393
    21.3749  21.6004  22.4519  22.6992  23.6899  24.6734

     occupation numbers 
     1.0000   1.0000   1.0000   1.0000   0.0000   0.0000   0.0000   0.0000
     0.0000   0.0000   0.0000   0.0000   0.0000   0.0000   0.0000   0.0000
     0.0000   0.0000   0.0000   0.0000   0.0000   0.0000   0.0000   0.0000
     0.0000   0.0000   0.0000   0.0000   0.0000   0.0000

          k = 0.0400 0.2078 0.0000 ( 11812 PWs)   bands (ev):

   -21.4937  -9.4535  -8.3910  -7.1394   1.3441   2.2182   2.8795   3.4057
     3.7908   4.9136   5.3782   5.8891   6.3473   7.0684   7.5994   8.5478
     9.7382  10.4087  11.6056  12.9252  13.8794  16.6018  17.9467  19.4532
    21.3556  21.6022  22.3897  22.5608  23.2464  24.0415

     occupation numbers 
     1.0000   1.0000   1.0000   1.0000   0.0000   0.0000   0.0000   0.0000
     0.0000   0.0000   0.0000   0.0000   0.0000   0.0000   0.0000   0.0000
     0.0000   0.0000   0.0000   0.0000   0.0000   0.0000   0.0000   0.0000
     0.0000   0.0000   0.0000   0.0000   0.0000   0.0000

          k = 0.0400 0.2232 0.0000 ( 11833 PWs)   bands (ev):

   -21.3767  -9.3148  -8.7124  -7.2875   1.5044   2.3790   3.0443   3.5693
     3.9541   5.0743   5.5263   5.8724   6.0338   7.2279   7.7604   8.9090
     9.8938  10.5695  11.8390  13.0701  14.0394  16.6922  18.1028  19.1575
    21.1582  21.6297  22.0772  22.5741  23.0468  23.4135

     occupation numbers 
     1.0000   1.0000   1.0000   1.0000   0.0000   0.0000   0.0000   0.0000
     0.0000   0.0000   0.0000   0.0000   0.0000   0.0000   0.0000   0.0000
     0.0000   0.0000   0.0000   0.0000   0.0000   0.0000   0.0000   0.0000
     0.0000   0.0000   0.0000   0.0000   0.0000   0.0000

          k = 0.0400 0.2386 0.0000 ( 11850 PWs)   bands (ev):

   -21.2516  -9.1669  -9.0423  -7.4348   1.6761   2.5509   3.2208   3.7444
     4.1291   5.2422   5.6544   5.7136   5.8805   7.3991   7.9328   9.2836
    10.0599  10.7417  12.0803  13.2231  14.2105  16.7649  18.2692  18.8773
    20.7703  21.5761  21.8304  22.4680  22.7148  22.8116

     occupation numbers 
     1.0000   1.0000   1.0000   1.0000   0.0000   0.0000   0.0000   0.0000
     0.0000   0.0000   0.0000   0.0000   0.0000   0.0000   0.0000   0.0000
     0.0000   0.0000   0.0000   0.0000   0.0000   0.0000   0.0000   0.0000
     0.0000   0.0000   0.0000   0.0000   0.0000   0.0000

          k = 0.0400 0.2540 0.0000 ( 11859 PWs)   bands (ev):

   -21.1184  -9.3792  -9.0098  -7.5804   1.8592   2.7336   3.4090   3.9306
     4.3156   5.3175   5.4860   5.7027   5.9773   7.5817   8.1167   9.6694
    10.2363  10.9253  12.3266  13.3833  14.3928  16.8044  18.4454  18.6358
    20.2690  21.2547  21.7798  21.9379  22.2545  22.4466

     occupation numbers 
     1.0000   1.0000   1.0000   1.0000   0.0000   0.0000   0.0000   0.0000
     0.0000   0.0000   0.0000   0.0000   0.0000   0.0000   0.0000   0.0000
     0.0000   0.0000   0.0000   0.0000   0.0000   0.0000   0.0000   0.0000
     0.0000   0.0000   0.0000   0.0000   0.0000   0.0000

          k = 0.0400 0.2694 0.0000 ( 11863 PWs)   bands (ev):

   -20.9770  -9.7217  -8.8438  -7.7233   2.0536   2.9265   3.6091   4.1271
     4.5134   5.0109   5.6465   5.6839   6.1480   7.7755   8.3119  10.0637
    10.4229  11.1203  12.5745  13.5494  14.5860  16.7902  18.4554  18.6302
    19.7238  20.8246  21.2732  21.5759  21.8594  22.0393

     occupation numbers 
     1.0000   1.0000   1.0000   1.0000   0.0000   0.0000   0.0000   0.0000
     0.0000   0.0000   0.0000   0.0000   0.0000   0.0000   0.0000   0.0000
     0.0000   0.0000   0.0000   0.0000   0.0000   0.0000   0.0000   0.0000
     0.0000   0.0000   0.0000   0.0000   0.0000   0.0000

          k = 0.0400 0.2848 0.0000 ( 11871 PWs)   bands (ev):

   -20.8277 -10.0685  -8.6690  -7.8628   2.2593   3.1283   3.8208   4.3269
     4.6744   4.7229   5.6463   5.8511   6.3468   7.9804   8.5186  10.4636
    10.6193  11.3268  12.8200  13.7191  14.7901  16.7066  18.3491  18.8125
    19.1798  20.3471  20.6097  21.0790  21.4625  21.6203

     occupation numbers 
     1.0000   1.0000   1.0000   1.0000   0.0000   0.0000   0.0000   0.0000
     0.0000   0.0000   0.0000   0.0000   0.0000   0.0000   0.0000   0.0000
     0.0000   0.0000   0.0000   0.0000   0.0000   0.0000   0.0000   0.0000
     0.0000   0.0000   0.0000   0.0000   0.0000   0.0000

          k = 0.0400 0.3002 0.0000 ( 11883 PWs)   bands (ev):

   -20.6704 -10.4183  -8.4859  -7.9981   2.4763   3.3340   4.0443   4.2885
     4.5872   4.9420   5.6032   6.0698   6.5620   8.1963   8.7366  10.8252
    10.8652  11.5448  13.0585  13.8893  15.0050  16.5557  18.3036  18.5895
    19.0572  19.8534  19.9560  20.5441  20.8510  21.3065

     occupation numbers 
     1.0000   1.0000   1.0000   1.0000   0.0000   0.0000   0.0000   0.0000
     0.0000   0.0000   0.0000   0.0000   0.0000   0.0000   0.0000   0.0000
     0.0000   0.0000   0.0000   0.0000   0.0000   0.0000   0.0000   0.0000
     0.0000   0.0000   0.0000   0.0000   0.0000   0.0000

          k = 0.0400 0.3156 0.0000 ( 11888 PWs)   bands (ev):

   -20.5052 -10.7702  -8.2946  -8.1288   2.7046   3.5148   3.9848   4.2796
     4.8074   5.1691   5.5610   6.3007   6.7907   8.4231   8.9661  11.0400
    11.2634  11.7749  13.2845  14.0546  15.2304  16.3577  18.0668  18.2691
    19.2523  19.3220  19.3776  20.0267  20.2394  20.9510

     occupation numbers 
     1.0000   1.0000   1.0000   1.0000   0.0000   0.0000   0.0000   0.0000
     0.0000   0.0000   0.0000   0.0000   0.0000   0.0000   0.0000   0.0000
     0.0000   0.0000   0.0000   0.0000   0.0000   0.0000   0.0000   0.0000
     0.0000   0.0000   0.0000   0.0000   0.0000   0.0000

          k = 0.0400 0.3310 0.0000 ( 11891 PWs)   bands (ev):

   -20.3321 -11.1232  -8.2542  -8.0955   2.9439   3.4488   3.9244   4.5265
     5.0502   5.3800   5.5457   6.5432   7.0319   8.6606   9.2068  11.2629
    11.6498  12.0176  13.4915  14.2055  15.4660  16.1381  17.5654  18.1513
    18.6819  18.9546  19.4632  19.5866  19.6553  20.5633

     occupation numbers 
     1.0000   1.0000   1.0000   1.0000   0.0000   0.0000   0.0000   0.0000
     0.0000   0.0000   0.0000   0.0000   0.0000   0.0000   0.0000   0.0000
     0.0000   0.0000   0.0000   0.0000   0.0000   0.0000   0.0000   0.0000
     0.0000   0.0000   0.0000   0.0000   0.0000   0.0000

          k = 0.0400 0.3464 0.0000 ( 11895 PWs)   bands (ev):

   -20.1513 -11.4762  -8.3738  -7.8890   3.1256   3.1955   4.1278   4.7850
     5.3063   5.4244   5.7087   6.7972   7.2852   8.9086   9.4588  11.4929
    12.0109  12.2742  13.6736  14.3247  15.7111  15.9226  17.1033  17.8636
    18.0660  18.5591  19.0347  19.3216  19.7198  20.1584

     occupation numbers 
     1.0000   1.0000   1.0000   1.0000   0.0000   0.0000   0.0000   0.0000
     0.0000   0.0000   0.0000   0.0000   0.0000   0.0000   0.0000   0.0000
     0.0000   0.0000   0.0000   0.0000   0.0000   0.0000   0.0000   0.0000
     0.0000   0.0000   0.0000   0.0000   0.0000   0.0000

          k = 0.0400 0.3618 0.0000 ( 11901 PWs)   bands (ev):

   -19.9629 -11.8287  -8.4874  -7.6758   2.7669   3.4562   4.3786   5.0545
     5.3884   5.5745   5.9655   7.0626   7.5502   9.1669   9.7221  11.7284
    12.3252  12.5431  13.8300  14.3822  15.7412  15.9641  16.6933  17.4526
    17.4663  18.1324  18.4679  19.1818  19.8155  19.8984

     occupation numbers 
     1.0000   1.0000   1.0000   1.0000   0.0000   0.0000   0.0000   0.0000
     0.0000   0.0000   0.0000   0.0000   0.0000   0.0000   0.0000   0.0000
     0.0000   0.0000   0.0000   0.0000   0.0000   0.0000   0.0000   0.0000
     0.0000   0.0000   0.0000   0.0000   0.0000   0.0000

          k = 0.0400 0.3772 0.0000 ( 11905 PWs)   bands (ev):

   -19.7670 -12.1797  -8.5944  -7.4563   2.4009   3.7284   4.6479   5.3126
     5.3690   5.8545   6.2419   7.3392   7.8268   9.4351   9.9965  11.9665
    12.5608  12.8147  13.9761  14.3403  15.6232  16.2002  16.3610  16.8910
    16.9965  17.7078  17.9264  18.9167  19.5203  19.7001

     occupation numbers 
     1.0000   1.0000   1.0000   1.0000   0.0000   0.0000   0.0000   0.0000
     0.0000   0.0000   0.0000   0.0000   0.0000   0.0000   0.0000   0.0000
     0.0000   0.0000   0.0000   0.0000   0.0000   0.0000   0.0000   0.0000
     0.0000   0.0000   0.0000   0.0000   0.0000   0.0000

          k = 0.0400 0.3926 0.0000 ( 11911 PWs)   bands (ev):

   -19.5637 -12.5286  -8.6946  -7.2316   2.0349   4.0111   4.9308   5.2971
     5.6357   6.1462   6.5319   7.6270   8.1149   9.7127  10.2821  12.2020
    12.6614  13.0884  14.1479  14.1858  15.5613  15.9778  16.3536  16.5266
    16.5342  17.3253  17.4264  18.5250  19.0246  19.7631

     occupation numbers 
     1.0000   1.0000   1.0000   1.0000   0.0000   0.0000   0.0000   0.0000
     0.0000   0.0000   0.0000   0.0000   0.0000   0.0000   0.0000   0.0000
     0.0000   0.0000   0.0000   0.0000   0.0000   0.0000   0.0000   0.0000
     0.0000   0.0000   0.0000   0.0000   0.0000   0.0000

          k = 0.0400 0.4080 0.0000 ( 11909 PWs)   bands (ev):

   -19.3531 -12.8746  -8.7877  -7.0024   1.6720   4.3034   5.2259   5.2585
     5.9404   6.4495   6.8342   7.9257   8.4145   9.9992  10.5785  12.4237
    12.5881  13.3746  13.9510  14.3662  15.4762  15.5625  15.9507  16.1066
    16.7810  17.0012  17.0082  18.1295  18.5626  19.7245

     occupation numbers 
     1.0000   1.0000   1.0000   1.0000   0.0000   0.0000   0.0000   0.0000
     0.0000   0.0000   0.0000   0.0000   0.0000   0.0000   0.0000   0.0000
     0.0000   0.0000   0.0000   0.0000   0.0000   0.0000   0.0000   0.0000
     0.0000   0.0000   0.0000   0.0000   0.0000   0.0000

          k = 0.0400 0.4234 0.0000 ( 11917 PWs)   bands (ev):

   -19.1356 -13.2173  -8.8734  -6.7702   1.3149   4.6028   5.2253   5.5326
     6.2577   6.7643   7.1484   8.2353   8.7254  10.2932  10.8858  12.3678
    12.6013  13.6738  13.6970  14.5836  15.0731  15.2319  15.6230  15.7906
    16.6085  16.7561  17.0977  17.7970  18.1553  19.3617

     occupation numbers 
     1.0000   1.0000   1.0000   1.0000   0.0000   0.0000   0.0000   0.0000
     0.0000   0.0000   0.0000   0.0000   0.0000   0.0000   0.0000   0.0000
     0.0000   0.0000   0.0000   0.0000   0.0000   0.0000   0.0000   0.0000
     0.0000   0.0000   0.0000   0.0000   0.0000   0.0000

          k = 0.0400 0.4388 0.0000 ( 11923 PWs)   bands (ev):

   -18.9114 -13.5557  -8.9516  -6.5366   0.9661   4.8954   5.2125   5.8503
     6.5869   7.0906   7.4743   8.5555   9.0475  10.5929  11.2032  12.0515
    12.6515  13.5245  13.9838  14.4554  14.7942  14.8249  15.3732  15.5572
    16.3142  16.5384  17.3773  17.5807  17.8238  18.9947

     occupation numbers 
     1.0000   1.0000   1.0000   1.0000   0.0000   0.0000   0.0000   0.0000
     0.0000   0.0000   0.0000   0.0000   0.0000   0.0000   0.0000   0.0000
     0.0000   0.0000   0.0000   0.0000   0.0000   0.0000   0.0000   0.0000
     0.0000   0.0000   0.0000   0.0000   0.0000   0.0000

          k = 0.0400 0.4542 0.0000 ( 11923 PWs)   bands (ev):

   -18.6809 -13.8894  -9.0220  -6.3037   0.6285   5.0702   5.3314   6.1789
     6.9279   7.4284   7.8118   8.8859   9.3807  10.8937  11.5228  11.6864
    12.4846  13.5247  13.9532  14.3013  14.3737  14.5459  15.3055  15.3576
    16.0776  16.3156  17.4744  17.4851  17.7422  18.6647

     occupation numbers 
     1.0000   1.0000   1.0000   1.0000   0.0000   0.0000   0.0000   0.0000
     0.0000   0.0000   0.0000   0.0000   0.0000   0.0000   0.0000   0.0000
     0.0000   0.0000   0.0000   0.0000   0.0000   0.0000   0.0000   0.0000
     0.0000   0.0000   0.0000   0.0000   0.0000   0.0000

          k = 0.0400 0.4696 0.0000 ( 11925 PWs)   bands (ev):

   -18.4446 -14.2173  -9.0844  -6.0743   0.3054   5.0777   5.6318   6.5180
     7.2807   7.7774   8.1608   9.2260   9.7248  11.1808  11.2654  11.8764
    12.1873  13.4367  13.5536  13.9858  14.1162  14.6401  15.0228  15.2710
    16.0236  16.0969  17.2488  17.4218  18.0140  18.4364

     occupation numbers 
     1.0000   1.0000   1.0000   1.0000   0.0000   0.0000   0.0000   0.0000
     0.0000   0.0000   0.0000   0.0000   0.0000   0.0000   0.0000   0.0000
     0.0000   0.0000   0.0000   0.0000   0.0000   0.0000   0.0000   0.0000
     0.0000   0.0000   0.0000   0.0000   0.0000   0.0000

          k = 0.0400 0.4850 0.0000 ( 11921 PWs)   bands (ev):

   -18.2034 -14.5384  -9.1388  -5.8522   0.0012   5.0597   5.9720   6.8673
     7.6452   8.1377   8.5213   9.5747  10.0793  10.8435  11.3727  11.9302
    12.2242  12.9255  13.2744  13.6586  13.8863  14.7473  14.9147  15.0251
    15.9070  16.1410  17.0107  17.2850  18.2944  18.3777

     occupation numbers 
     1.0000   1.0000   1.0000   1.0000   0.0000   0.0000   0.0000   0.0000
     0.0000   0.0000   0.0000   0.0000   0.0000   0.0000   0.0000   0.0000
     0.0000   0.0000   0.0000   0.0000   0.0000   0.0000   0.0000   0.0000
     0.0000   0.0000   0.0000   0.0000   0.0000   0.0000

          k = 0.0400 0.5004 0.0000 ( 11911 PWs)   bands (ev):

   -17.9587 -14.8510  -9.1850  -5.6424  -0.2788   5.0401   6.3279   7.2265
     8.0214   8.5090   8.8929   9.9292  10.3883  10.4689  11.2117  11.9995
    12.4231  12.5831  12.8394  13.1905  13.8109  14.5615  14.5676  15.3290
    15.7567  16.1944  16.8457  17.0822  18.4543  18.4793

     occupation numbers 
     1.0000   1.0000   1.0000   1.0000   0.0000   0.0000   0.0000   0.0000
     0.0000   0.0000   0.0000   0.0000   0.0000   0.0000   0.0000   0.0000
     0.0000   0.0000   0.0000   0.0000   0.0000   0.0000   0.0000   0.0000
     0.0000   0.0000   0.0000   0.0000   0.0000   0.0000

          k = 0.0400 0.5158 0.0000 ( 11915 PWs)   bands (ev):

   -17.7129 -15.1526  -9.2230  -5.4514  -0.5277   5.0228   6.6958   7.5951
     8.4094   8.8910   9.2754   9.9751  10.2746  10.8250  10.8672  11.9320
    12.1747  12.4637  12.7200  12.9536  13.5703  14.1420  14.5137  15.6439
    15.6679  16.0211  16.8699  16.8955  18.4030  18.5383

     occupation numbers 
     1.0000   1.0000   1.0000   1.0000   0.0000   0.0000   0.0000   0.0000
     0.0000   0.0000   0.0000   0.0000   0.0000   0.0000   0.0000   0.0000
     0.0000   0.0000   0.0000   0.0000   0.0000   0.0000   0.0000   0.0000
     0.0000   0.0000   0.0000   0.0000   0.0000   0.0000

          k = 0.0400 0.5312 0.0000 ( 11913 PWs)   bands (ev):

   -17.4712 -15.4379  -9.2526  -5.2872  -0.7372   5.0088   7.0743   7.9723
     8.8090   9.2825   9.5361   9.6771  10.3545  10.7593  11.2108  11.4518
    11.8645  12.2586  12.5660  13.2707  13.3280  13.7132  14.4720  15.5608
    15.6599  16.0513  16.7839  16.9878  18.2002  18.4501

     occupation numbers 
     1.0000   1.0000   1.0000   1.0000   0.0000   0.0000   0.0000   0.0000
     0.0000   0.0000   0.0000   0.0000   0.0000   0.0000   0.0000   0.0000
     0.0000   0.0000   0.0000   0.0000   0.0000   0.0000   0.0000   0.0000
     0.0000   0.0000   0.0000   0.0000   0.0000   0.0000

          k = 0.0400 0.5466 0.0000 ( 11909 PWs)   bands (ev):

   -17.2448 -15.6954  -9.2738  -5.1594  -0.8975   4.9985   7.4622   8.3566
     9.1123   9.2220   9.6733  10.0032  10.0771  10.9823  11.0796  11.4390
    11.6062  11.8046  12.5872  13.1454  13.2779  13.7166  14.3766  15.2929
    15.4996  16.3855  16.7677  17.1000  17.9413  18.2427

     occupation numbers 
     1.0000   1.0000   1.0000   1.0000   0.0000   0.0000   0.0000   0.0000
     0.0000   0.0000   0.0000   0.0000   0.0000   0.0000   0.0000   0.0000
     0.0000   0.0000   0.0000   0.0000   0.0000   0.0000   0.0000   0.0000
     0.0000   0.0000   0.0000   0.0000   0.0000   0.0000

          k = 0.0400 0.5620 0.0000 ( 11910 PWs)   bands (ev):

   -17.0623 -15.8967  -9.2865  -5.0777  -0.9988   4.9923   7.8573   8.6945
     8.7429   9.5771   9.6438  10.1164  10.4919  10.5255  10.9628  11.3563
    11.4835  12.0137  12.3048  12.8512  13.2850  14.1062  14.2470  14.9024
    15.4601  16.6910  16.8099  17.1814  17.6692  18.0600

     occupation numbers 
     1.0000   1.0000   1.0000   1.0000   0.0000   0.0000   0.0000   0.0000
     0.0000   0.0000   0.0000   0.0000   0.0000   0.0000   0.0000   0.0000
     0.0000   0.0000   0.0000   0.0000   0.0000   0.0000   0.0000   0.0000
     0.0000   0.0000   0.0000   0.0000   0.0000   0.0000

          k = 0.0400 0.5774 0.0000 ( 11925 PWs)   bands (ev):

   -16.9854 -15.9799  -9.2907  -5.0494  -1.0336   4.9902   8.1950   8.3488
     9.0416   9.2789  10.0761  10.0806  10.4906  10.5809  10.9064  10.9326
    11.7356  12.0575  12.4056  12.4516  13.3746  14.1763  14.4668  14.5407
    15.4464  16.8383  16.8445  17.2236  17.5112  17.9859

     occupation numbers 
     1.0000   1.0000   1.0000   1.0000   0.0000   0.0000   0.0000   0.0000
     0.0000   0.0000   0.0000   0.0000   0.0000   0.0000   0.0000   0.0000
     0.0000   0.0000   0.0000   0.0000   0.0000   0.0000   0.0000   0.0000
     0.0000   0.0000   0.0000   0.0000   0.0000   0.0000

          k = 0.0533 0.0924 0.0000 ( 11791 PWs)   bands (ev):

   -22.0849 -10.1594  -6.5188  -6.1859   0.5362   1.4052   2.0499   2.5807
     2.9674   4.0959   4.5772   5.8842   6.2556   6.5309   6.7830   8.1193
     8.9486   9.5954  10.3774  12.1732  13.0699  15.9793  17.1515  20.2678
    20.4949  21.7679  23.2101  24.5238  25.2552  26.8982

     occupation numbers 
     1.0000   1.0000   1.0000   1.0000   0.0000   0.0000   0.0000   0.0000
     0.0000   0.0000   0.0000   0.0000   0.0000   0.0000   0.0000   0.0000
     0.0000   0.0000   0.0000   0.0000   0.0000   0.0000   0.0000   0.0000
     0.0000   0.0000   0.0000   0.0000   0.0000   0.0000

          k = 0.0533 0.1078 0.0000 ( 11797 PWs)   bands (ev):

   -22.0303 -10.0939  -6.7076  -6.2987   0.6107   1.4803   2.1264   2.6568
     3.0433   4.1715   4.6520   5.9202   6.3302   6.7130   6.8595   7.9421
     9.0217   9.6708  10.4906  12.2437  13.1449  16.0434  17.2255  20.2872
    20.6418  21.8448  22.8022  24.3040  25.3179  26.9706

     occupation numbers 
     1.0000   1.0000   1.0000   1.0000   0.0000   0.0000   0.0000   0.0000
     0.0000   0.0000   0.0000   0.0000   0.0000   0.0000   0.0000   0.0000
     0.0000   0.0000   0.0000   0.0000   0.0000   0.0000   0.0000   0.0000
     0.0000   0.0000   0.0000   0.0000   0.0000   0.0000

          k = 0.0533 0.1232 0.0000 ( 11811 PWs)   bands (ev):

   -21.9672 -10.0183  -6.9194  -6.4228   0.6967   1.5670   2.2147   2.7446
     3.1310   4.2587   4.7382   5.9528   6.4163   6.9186   6.9483   7.7419
     9.1060   9.7577  10.6248  12.3248  13.2312  16.1161  17.3107  20.2891
    20.7996  21.9345  22.4155  24.0572  25.3938  26.6636

     occupation numbers 
     1.0000   1.0000   1.0000   1.0000   0.0000   0.0000   0.0000   0.0000
     0.0000   0.0000   0.0000   0.0000   0.0000   0.0000   0.0000   0.0000
     0.0000   0.0000   0.0000   0.0000   0.0000   0.0000   0.0000   0.0000
     0.0000   0.0000   0.0000   0.0000   0.0000   0.0000

          k = 0.0533 0.1386 0.0000 ( 11811 PWs)   bands (ev):

   -21.8958  -9.9328  -7.1527  -6.5559   0.7941   1.6652   2.3147   2.8441
     3.2303   4.3574   4.8359   5.9791   6.5138   7.0454   7.1513   7.5203
     9.2014   9.8560  10.7800  12.4162  13.3290  16.1965  17.4070  20.2557
    20.9622  22.0375  22.0761  23.7910  25.4713  25.9575

     occupation numbers 
     1.0000   1.0000   1.0000   1.0000   0.0000   0.0000   0.0000   0.0000
     0.0000   0.0000   0.0000   0.0000   0.0000   0.0000   0.0000   0.0000
     0.0000   0.0000   0.0000   0.0000   0.0000   0.0000   0.0000   0.0000
     0.0000   0.0000   0.0000   0.0000   0.0000   0.0000

          k = 0.0533 0.1540 0.0000 ( 11811 PWs)   bands (ev):

   -21.8161  -9.8375  -7.4054  -6.6960   0.9030   1.7748   2.4265   2.9554
     3.3412   4.4678   4.9449   5.9970   6.6223   7.1554   7.2792   7.4055
     9.3078   9.9658  10.9557  12.5179  13.4382  16.2837  17.5144  20.1622
    21.1212  21.8139  22.1537  23.5103  25.2655  25.5279

     occupation numbers 
     1.0000   1.0000   1.0000   1.0000   0.0000   0.0000   0.0000   0.0000
     0.0000   0.0000   0.0000   0.0000   0.0000   0.0000   0.0000   0.0000
     0.0000   0.0000   0.0000   0.0000   0.0000   0.0000   0.0000   0.0000
     0.0000   0.0000   0.0000   0.0000   0.0000   0.0000

          k = 0.0533 0.1694 0.0000 ( 11821 PWs)   bands (ev):

   -21.7280  -9.7324  -7.6757  -6.8412   1.0233   1.8959   2.5500   3.0782
     3.4639   4.5897   5.0650   6.0056   6.7406   7.0202   7.2775   7.6823
     9.4253  10.0869  11.1506  12.6297  13.5587  16.3761  17.6327  19.9901
    21.2645  21.6518  22.2819  23.2176  24.6007  25.4721

     occupation numbers 
     1.0000   1.0000   1.0000   1.0000   0.0000   0.0000   0.0000   0.0000
     0.0000   0.0000   0.0000   0.0000   0.0000   0.0000   0.0000   0.0000
     0.0000   0.0000   0.0000   0.0000   0.0000   0.0000   0.0000   0.0000
     0.0000   0.0000   0.0000   0.0000   0.0000   0.0000

          k = 0.0533 0.1848 0.0000 ( 11816 PWs)   bands (ev):

   -21.6317  -9.6176  -7.9616  -6.9898   1.1551   2.0284   2.6854   3.2128
     3.5982   4.7230   5.1960   6.0050   6.7317   6.8838   7.4099   7.9800
     9.5537  10.2194  11.3630  12.7511  13.6905  16.4711  17.7620  19.7467
    21.3728  21.5858  22.4172  22.9136  23.9830  25.0519

     occupation numbers 
     1.0000   1.0000   1.0000   1.0000   0.0000   0.0000   0.0000   0.0000
     0.0000   0.0000   0.0000   0.0000   0.0000   0.0000   0.0000   0.0000
     0.0000   0.0000   0.0000   0.0000   0.0000   0.0000   0.0000   0.0000
     0.0000   0.0000   0.0000   0.0000   0.0000   0.0000

          k = 0.0533 0.2001 0.0000 ( 11828 PWs)   bands (ev):

   -21.5271  -9.4931  -8.2610  -7.1403   1.2983   2.1723   2.8325   3.3590
     3.7442   4.8677   5.3372   5.9963   6.4448   7.0215   7.5538   8.2967
     9.6928  10.3632  11.5909  12.8818  13.8336  16.5653  17.9020  19.4614
    21.4092  21.5890  22.5435  22.5970  23.4567  24.4336

     occupation numbers 
     1.0000   1.0000   1.0000   1.0000   0.0000   0.0000   0.0000   0.0000
     0.0000   0.0000   0.0000   0.0000   0.0000   0.0000   0.0000   0.0000
     0.0000   0.0000   0.0000   0.0000   0.0000   0.0000   0.0000   0.0000
     0.0000   0.0000   0.0000   0.0000   0.0000   0.0000

          k = 0.0533 0.2155 0.0000 ( 11832 PWs)   bands (ev):

   -21.4143  -9.3593  -8.5721  -7.2914   1.4530   2.3275   2.9913   3.5168
     3.9018   5.0233   5.4868   5.9821   6.1399   7.1753   7.7090   8.6306
     9.8427  10.5184  11.8317  13.0214  13.9879  16.6526  18.0527  19.1655
    21.3073  21.6299  22.2662  22.6089  23.1245  23.7838

     occupation numbers 
     1.0000   1.0000   1.0000   1.0000   0.0000   0.0000   0.0000   0.0000
     0.0000   0.0000   0.0000   0.0000   0.0000   0.0000   0.0000   0.0000
     0.0000   0.0000   0.0000   0.0000   0.0000   0.0000   0.0000   0.0000
     0.0000   0.0000   0.0000   0.0000   0.0000   0.0000

          k = 0.0533 0.2309 0.0000 ( 11852 PWs)   bands (ev):

   -21.2933  -9.2160  -8.8931  -7.4419   1.6190   2.4939   3.1620   3.6862
     4.0710   5.1885   5.6386   5.8244   5.9695   7.3408   7.8756   8.9794
    10.0032  10.6850  12.0829  13.1692  14.1534  16.7236  18.2138  18.8849
    21.0091  21.6537  21.9478  22.5520  22.9876  23.1780

     occupation numbers 
     1.0000   1.0000   1.0000   1.0000   0.0000   0.0000   0.0000   0.0000
     0.0000   0.0000   0.0000   0.0000   0.0000   0.0000   0.0000   0.0000
     0.0000   0.0000   0.0000   0.0000   0.0000   0.0000   0.0000   0.0000
     0.0000   0.0000   0.0000   0.0000   0.0000   0.0000

          k = 0.0533 0.2463 0.0000 ( 11872 PWs)   bands (ev):

   -21.1642  -9.2224  -9.0635  -7.5908   1.7964   2.6712   3.3443   3.8669
     4.2518   5.3434   5.5194   5.7660   5.9873   7.5177   8.0537   9.3409
    10.1740  10.8630  12.3415  13.3242  14.3300  16.7636  18.3851  18.6433
    20.5542  21.4199  21.8515  22.2775  22.5620  22.5833

     occupation numbers 
     1.0000   1.0000   1.0000   1.0000   0.0000   0.0000   0.0000   0.0000
     0.0000   0.0000   0.0000   0.0000   0.0000   0.0000   0.0000   0.0000
     0.0000   0.0000   0.0000   0.0000   0.0000   0.0000   0.0000   0.0000
     0.0000   0.0000   0.0000   0.0000   0.0000   0.0000

          k = 0.0533 0.2617 0.0000 ( 11866 PWs)   bands (ev):

   -21.0269  -9.5584  -8.9021  -7.7371   1.9851   2.8592   3.5385   4.0585
     4.4440   5.1386   5.5782   5.8044   6.0998   7.7058   8.2431   9.7125
    10.3549  11.0523  12.6042  13.4851  14.5177  16.7538  18.4633  18.5656
    20.0248  20.9979  21.6369  21.8361  22.0460  22.2927

     occupation numbers 
     1.0000   1.0000   1.0000   1.0000   0.0000   0.0000   0.0000   0.0000
     0.0000   0.0000   0.0000   0.0000   0.0000   0.0000   0.0000   0.0000
     0.0000   0.0000   0.0000   0.0000   0.0000   0.0000   0.0000   0.0000
     0.0000   0.0000   0.0000   0.0000   0.0000   0.0000

          k = 0.0533 0.2771 0.0000 ( 11881 PWs)   bands (ev):

   -20.8816  -9.8998  -8.7318  -7.8801   2.1852   3.0568   3.7444   4.2585
     4.6476   4.8036   5.7750   5.7838   6.2795   7.9049   8.4440  10.0914
    10.5457  11.2530  12.8673  13.6498  14.7163  16.6791  18.3594  18.7523
    19.4739  20.5258  20.9711  21.3840  21.7853  21.8749

     occupation numbers 
     1.0000   1.0000   1.0000   1.0000   0.0000   0.0000   0.0000   0.0000
     0.0000   0.0000   0.0000   0.0000   0.0000   0.0000   0.0000   0.0000
     0.0000   0.0000   0.0000   0.0000   0.0000   0.0000   0.0000   0.0000
     0.0000   0.0000   0.0000   0.0000   0.0000   0.0000

          k = 0.0533 0.2925 0.0000 ( 11887 PWs)   bands (ev):

   -20.7283 -10.2452  -8.5529  -8.0191   2.3966   3.2616   3.9620   4.3923
     4.5393   4.8625   5.7464   5.9878   6.4849   8.1151   8.6563  10.4743
    10.7460  11.4652  13.1265  13.8154  14.9258  16.5417  18.3231  18.8431
    19.0278  20.0358  20.3121  20.8165  21.1861  21.6309

     occupation numbers 
     1.0000   1.0000   1.0000   1.0000   0.0000   0.0000   0.0000   0.0000
     0.0000   0.0000   0.0000   0.0000   0.0000   0.0000   0.0000   0.0000
     0.0000   0.0000   0.0000   0.0000   0.0000   0.0000   0.0000   0.0000
     0.0000   0.0000   0.0000   0.0000   0.0000   0.0000

          k = 0.0533 0.3079 0.0000 ( 11883 PWs)   bands (ev):

   -20.5671 -10.5936  -8.3657  -8.1535   2.6193   3.4618   4.1015   4.1915
     4.7207   5.0874   5.7044   6.2128   6.7062   8.3361   8.8800  10.8569
    10.9551  11.6889  13.3762  13.9768  15.1458  16.3606  18.3150  18.3535
    19.1835  19.5596  19.6644  20.2563  20.5731  21.2556

     occupation numbers 
     1.0000   1.0000   1.0000   1.0000   0.0000   0.0000   0.0000   0.0000
     0.0000   0.0000   0.0000   0.0000   0.0000   0.0000   0.0000   0.0000
     0.0000   0.0000   0.0000   0.0000   0.0000   0.0000   0.0000   0.0000
     0.0000   0.0000   0.0000   0.0000   0.0000   0.0000

          k = 0.0533 0.3233 0.0000 ( 11891 PWs)   bands (ev):

   -20.3980 -10.9437  -8.2827  -8.1705   2.8531   3.5439   3.8930   4.4325
     4.9565   5.3189   5.6646   6.4495   6.9408   8.5679   9.1150  11.1725
    11.2335  11.9243  13.6095  14.1257  15.3763  16.1607  17.8393  18.2526
    19.0251  19.1437  19.3970  19.7401  19.9679  20.8251

     occupation numbers 
     1.0000   1.0000   1.0000   1.0000   0.0000   0.0000   0.0000   0.0000
     0.0000   0.0000   0.0000   0.0000   0.0000   0.0000   0.0000   0.0000
     0.0000   0.0000   0.0000   0.0000   0.0000   0.0000   0.0000   0.0000
     0.0000   0.0000   0.0000   0.0000   0.0000   0.0000

          k = 0.0533 0.3387 0.0000 ( 11906 PWs)   bands (ev):

   -20.2212 -11.2947  -8.4063  -7.9678   3.0979   3.2800   4.0363   4.6853
     5.2065   5.5173   5.6687   6.6977   7.1878   8.8102   9.3613  11.3970
    11.5958  12.1713  13.8174  14.2477  15.6167  15.9659  17.3588  18.0232
    18.4028  18.7881  19.3477  19.3749  19.6426  20.3687

     occupation numbers 
     1.0000   1.0000   1.0000   1.0000   0.0000   0.0000   0.0000   0.0000
     0.0000   0.0000   0.0000   0.0000   0.0000   0.0000   0.0000   0.0000
     0.0000   0.0000   0.0000   0.0000   0.0000   0.0000   0.0000   0.0000
     0.0000   0.0000   0.0000   0.0000   0.0000   0.0000

          k = 0.0533 0.3541 0.0000 ( 11902 PWs)   bands (ev):

   -20.0367 -11.6458  -8.5238  -7.7580   2.9286   3.3545   4.2756   4.9496
     5.4687   5.5324   5.8681   6.9573   7.4468   9.0627   9.6189  11.6271
    11.9309  12.4297  13.9896  14.3196  15.8003  15.8662  16.9277  17.6422
    17.7946  18.3620  18.7784  19.2513  19.8521  19.9307

     occupation numbers 
     1.0000   1.0000   1.0000   1.0000   0.0000   0.0000   0.0000   0.0000
     0.0000   0.0000   0.0000   0.0000   0.0000   0.0000   0.0000   0.0000
     0.0000   0.0000   0.0000   0.0000   0.0000   0.0000   0.0000   0.0000
     0.0000   0.0000   0.0000   0.0000   0.0000   0.0000

          k = 0.0533 0.3695 0.0000 ( 11908 PWs)   bands (ev):

   -19.8446 -11.9959  -8.6348  -7.5416   2.5658   3.6214   4.5378   5.2245
     5.4951   5.7429   6.1336   7.2281   7.7175   9.3252   9.8877  11.8603
    12.2177  12.6983  14.1196  14.3120  15.6856  16.1208  16.5598  17.2056
    17.2076  17.8980  18.2235  19.1024  19.6727  19.7901

     occupation numbers 
     1.0000   1.0000   1.0000   1.0000   0.0000   0.0000   0.0000   0.0000
     0.0000   0.0000   0.0000   0.0000   0.0000   0.0000   0.0000   0.0000
     0.0000   0.0000   0.0000   0.0000   0.0000   0.0000   0.0000   0.0000
     0.0000   0.0000   0.0000   0.0000   0.0000   0.0000

          k = 0.0533 0.3849 0.0000 ( 11908 PWs)   bands (ev):

   -19.6450 -12.3445  -8.7390  -7.3195   2.2010   3.8991   4.8145   5.4392
     5.5259   6.0287   6.4164   7.5101   7.9998   9.5971  10.1676  12.0920
    12.4213  12.9747  14.2075  14.2175  15.6182  16.2054  16.4135  16.6594
    16.7635  17.4682  17.7035  18.7224  19.2978  19.7121

     occupation numbers 
     1.0000   1.0000   1.0000   1.0000   0.0000   0.0000   0.0000   0.0000
     0.0000   0.0000   0.0000   0.0000   0.0000   0.0000   0.0000   0.0000
     0.0000   0.0000   0.0000   0.0000   0.0000   0.0000   0.0000   0.0000
     0.0000   0.0000   0.0000   0.0000   0.0000   0.0000

          k = 0.0533 0.4003 0.0000 ( 11912 PWs)   bands (ev):

   -19.4382 -12.6908  -8.8362  -7.0924   1.8380   4.1872   5.1037   5.4059
     5.8176   6.3261   6.7124   7.8030   8.2935   9.8779  10.4584  12.3135
    12.4938  13.2585  14.0253  14.3132  15.5447  15.8499  16.2025  16.3349
    16.6830  17.1174  17.2422  18.2884  18.8183  19.8369

     occupation numbers 
     1.0000   1.0000   1.0000   1.0000   0.0000   0.0000   0.0000   0.0000
     0.0000   0.0000   0.0000   0.0000   0.0000   0.0000   0.0000   0.0000
     0.0000   0.0000   0.0000   0.0000   0.0000   0.0000   0.0000   0.0000
     0.0000   0.0000   0.0000   0.0000   0.0000   0.0000

          k = 0.0533 0.4157 0.0000 ( 11916 PWs)   bands (ev):

   -19.2242 -13.0341  -8.9261  -6.8616   1.4794   4.4845   5.3688   5.4045
     6.1285   6.6351   7.0205   8.1068   8.5987  10.1664  10.7602  12.4058
    12.5044  13.5517  13.8029  14.4361  15.3662  15.3693  15.8787  15.9577
    16.8274  16.8678  16.9984  17.8940  18.3869  19.5540

     occupation numbers 
     1.0000   1.0000   1.0000   1.0000   0.0000   0.0000   0.0000   0.0000
     0.0000   0.0000   0.0000   0.0000   0.0000   0.0000   0.0000   0.0000
     0.0000   0.0000   0.0000   0.0000   0.0000   0.0000   0.0000   0.0000
     0.0000   0.0000   0.0000   0.0000   0.0000   0.0000

          k = 0.0533 0.4311 0.0000 ( 11927 PWs)   bands (ev):

   -19.0035 -13.3737  -9.0084  -6.6285   1.1277   4.7878   5.3387   5.7164
     6.4517   6.9556   7.3405   8.4211   8.9151  10.4609  11.0723  12.1781
    12.6134  13.6084  13.8548  14.5224  14.8796  15.0364  15.5679  15.6600
    16.5513  16.6742  17.2665  17.6102  18.0259  19.1501

     occupation numbers 
     1.0000   1.0000   1.0000   1.0000   0.0000   0.0000   0.0000   0.0000
     0.0000   0.0000   0.0000   0.0000   0.0000   0.0000   0.0000   0.0000
     0.0000   0.0000   0.0000   0.0000   0.0000   0.0000   0.0000   0.0000
     0.0000   0.0000   0.0000   0.0000   0.0000   0.0000

          k = 0.0533 0.4465 0.0000 ( 11919 PWs)   bands (ev):

   -18.7762 -13.7089  -9.0830  -6.3948   0.7855   5.0751   5.3381   6.0392
     6.7868   7.2875   7.6722   8.7458   9.2427  10.7579  11.3933  11.8584
    12.5525  13.5349  14.1560  14.2370  14.6137  14.6348  15.3371  15.4002
    16.3002  16.4458  17.4922  17.5345  17.7642  18.7649

     occupation numbers 
     1.0000   1.0000   1.0000   1.0000   0.0000   0.0000   0.0000   0.0000
     0.0000   0.0000   0.0000   0.0000   0.0000   0.0000   0.0000   0.0000
     0.0000   0.0000   0.0000   0.0000   0.0000   0.0000   0.0000   0.0000
     0.0000   0.0000   0.0000   0.0000   0.0000   0.0000

          k = 0.0533 0.4619 0.0000 ( 11925 PWs)   bands (ev):

   -18.5428 -14.0390  -9.1497  -6.1632   0.4558   5.2019   5.5120   6.3726
     7.1337   7.6307   8.0154   9.0801   9.5813  11.0479  11.4692  11.7391
    12.3234  13.5629  13.7210  14.1880  14.3109  14.5123  15.1437  15.2545
    16.1031  16.1830  17.4621  17.4740  17.8962  18.4501

     occupation numbers 
     1.0000   1.0000   1.0000   1.0000   0.0000   0.0000   0.0000   0.0000
     0.0000   0.0000   0.0000   0.0000   0.0000   0.0000   0.0000   0.0000
     0.0000   0.0000   0.0000   0.0000   0.0000   0.0000   0.0000   0.0000
     0.0000   0.0000   0.0000   0.0000   0.0000   0.0000

          k = 0.0533 0.4773 0.0000 ( 11921 PWs)   bands (ev):

   -18.3041 -14.3630  -9.2083  -5.9368   0.1426   5.1981   5.8308   6.7162
     7.4923   7.9851   8.3700   9.4234   9.9305  11.0675  11.2940  12.0472
    12.0777  13.2089  13.4552  13.9010  13.9163  14.8207  14.8891  15.0965
    15.9489  16.0509  17.2391  17.3929  18.1869  18.3057

     occupation numbers 
     1.0000   1.0000   1.0000   1.0000   0.0000   0.0000   0.0000   0.0000
     0.0000   0.0000   0.0000   0.0000   0.0000   0.0000   0.0000   0.0000
     0.0000   0.0000   0.0000   0.0000   0.0000   0.0000   0.0000   0.0000
     0.0000   0.0000   0.0000   0.0000   0.0000   0.0000

          k = 0.0533 0.4927 0.0000 ( 11921 PWs)   bands (ev):

   -18.0611 -14.6794  -9.2588  -5.7200  -0.1495   5.1798   6.1782   7.0697
     7.8627   8.3506   8.7360   9.7735  10.2884  10.6475  11.3191  11.9505
    12.4303  12.7033  13.0770  13.4454  13.8433  14.6696  14.7476  15.1856
    15.7829  16.0940  17.0193  17.1809  18.3672  18.4597

     occupation numbers 
     1.0000   1.0000   1.0000   1.0000   0.0000   0.0000   0.0000   0.0000
     0.0000   0.0000   0.0000   0.0000   0.0000   0.0000   0.0000   0.0000
     0.0000   0.0000   0.0000   0.0000   0.0000   0.0000   0.0000   0.0000
     0.0000   0.0000   0.0000   0.0000   0.0000   0.0000

          k = 0.0533 0.5081 0.0000 ( 11917 PWs)   bands (ev):

   -17.8157 -14.9864  -9.3011  -5.5183  -0.4144   5.1616   6.5397   7.4326
     8.2448   8.7268   9.1131  10.1232  10.2110  10.6663  11.0413  12.1197
    12.2065  12.6530  12.7916  12.9827  13.6875  14.3620  14.5365  15.5165
    15.6866  16.0591  16.8862  16.9380  18.5149  18.5598

     occupation numbers 
     1.0000   1.0000   1.0000   1.0000   0.0000   0.0000   0.0000   0.0000
     0.0000   0.0000   0.0000   0.0000   0.0000   0.0000   0.0000   0.0000
     0.0000   0.0000   0.0000   0.0000   0.0000   0.0000   0.0000   0.0000
     0.0000   0.0000   0.0000   0.0000   0.0000   0.0000

          k = 0.0533 0.5235 0.0000 ( 11931 PWs)   bands (ev):

   -17.5713 -15.2802  -9.3349  -5.3392  -0.6445   5.1460   6.9126   7.8041
     8.6386   9.1130   9.4995   9.7839  10.4020  10.7520  11.0457  11.7209
    12.0787  12.4889  12.5156  13.1666  13.4257  13.9453  14.4642  15.6250
    15.7497  15.9498  16.7619  16.9004  18.4083  18.5477

     occupation numbers 
     1.0000   1.0000   1.0000   1.0000   0.0000   0.0000   0.0000   0.0000
     0.0000   0.0000   0.0000   0.0000   0.0000   0.0000   0.0000   0.0000
     0.0000   0.0000   0.0000   0.0000   0.0000   0.0000   0.0000   0.0000
     0.0000   0.0000   0.0000   0.0000   0.0000   0.0000

          k = 0.0533 0.5389 0.0000 ( 11915 PWs)   bands (ev):

   -17.3354 -15.5532  -9.3604  -5.1916  -0.8305   5.1339   7.2955   8.1832
     9.0437   9.3513   9.5058   9.9038  10.1930  10.9355  11.2459  11.4367
    11.6728  12.0582  12.6078  13.1940  13.4976  13.5671  14.3907  15.4778
    15.5504  16.2276  16.7119  16.9878  18.1688  18.3352

     occupation numbers 
     1.0000   1.0000   1.0000   1.0000   0.0000   0.0000   0.0000   0.0000
     0.0000   0.0000   0.0000   0.0000   0.0000   0.0000   0.0000   0.0000
     0.0000   0.0000   0.0000   0.0000   0.0000   0.0000   0.0000   0.0000
     0.0000   0.0000   0.0000   0.0000   0.0000   0.0000

          k = 0.0533 0.5543 0.0000 ( 11910 PWs)   bands (ev):

   -17.1259 -15.7876  -9.3774  -5.0854  -0.9625   5.1257   7.6871   8.5665
     8.9286   9.4617   9.7565   9.9670  10.3133  10.7827  11.1605  11.3651
    11.6061  11.8389  12.4626  13.0887  13.2099  13.9350  14.2988  15.1100
    15.4623  16.5248  16.7722  17.0927  17.8907  18.0863

     occupation numbers 
     1.0000   1.0000   1.0000   1.0000   0.0000   0.0000   0.0000   0.0000
     0.0000   0.0000   0.0000   0.0000   0.0000   0.0000   0.0000   0.0000
     0.0000   0.0000   0.0000   0.0000   0.0000   0.0000   0.0000   0.0000
     0.0000   0.0000   0.0000   0.0000   0.0000   0.0000

          k = 0.0533 0.5697 0.0000 ( 11903 PWs)   bands (ev):

   -16.9868 -15.9391  -9.3859  -5.0295  -1.0313   5.1215   8.0804   8.5197
     8.9358   9.4152   9.8903  10.3307  10.3466  10.7341  10.7794  11.1662
    11.6534  12.1673  12.2464  12.6665  13.3221  14.2196  14.3232  14.7251
    15.4031  16.7215  16.8543  17.2121  17.6378  17.9175

     occupation numbers 
     1.0000   1.0000   1.0000   1.0000   0.0000   0.0000   0.0000   0.0000
     0.0000   0.0000   0.0000   0.0000   0.0000   0.0000   0.0000   0.0000
     0.0000   0.0000   0.0000   0.0000   0.0000   0.0000   0.0000   0.0000
     0.0000   0.0000   0.0000   0.0000   0.0000   0.0000

          k = 0.0667 0.1155 0.0000 ( 11813 PWs)   bands (ev):

   -21.9714 -10.0233  -6.8997  -6.4212   0.6909   1.5612   2.2088   2.7388
     3.1251   4.2529   4.7325   5.9688   6.4106   6.8855   6.9416   7.7554
     9.1003   9.7519  10.6189  12.3193  13.2255  16.1111  17.3050  20.2871
    20.7896  21.9285  22.4176  24.1184  25.3837  26.8952

     occupation numbers 
     1.0000   1.0000   1.0000   1.0000   0.0000   0.0000   0.0000   0.0000
     0.0000   0.0000   0.0000   0.0000   0.0000   0.0000   0.0000   0.0000
     0.0000   0.0000   0.0000   0.0000   0.0000   0.0000   0.0000   0.0000
     0.0000   0.0000   0.0000   0.0000   0.0000   0.0000

          k = 0.0667 0.1309 0.0000 ( 11817 PWs)   bands (ev):

   -21.9042  -9.9429  -7.1131  -6.5549   0.7826   1.6536   2.3029   2.8324
     3.2186   4.3458   4.8246   6.0153   6.5024   7.0348   7.0782   7.5468
     9.1900   9.8446  10.7699  12.4053  13.3175  16.1866  17.3957  20.2529
    20.9445  22.0253  22.0760  23.9001  25.4638  26.2813

     occupation numbers 
     1.0000   1.0000   1.0000   1.0000   0.0000   0.0000   0.0000   0.0000
     0.0000   0.0000   0.0000   0.0000   0.0000   0.0000   0.0000   0.0000
     0.0000   0.0000   0.0000   0.0000   0.0000   0.0000   0.0000   0.0000
     0.0000   0.0000   0.0000   0.0000   0.0000   0.0000

          k = 0.0667 0.1463 0.0000 ( 11815 PWs)   bands (ev):

   -21.8287  -9.8525  -7.3466  -6.6972   0.8858   1.7575   2.4088   2.9378
     3.3237   4.4504   4.9280   6.0552   6.6055   7.1392   7.2924   7.3179
     9.2908   9.9486  10.9432  12.5016  13.4209  16.2690  17.4974  20.1596
    21.0994  21.8091  22.1355  23.6550  25.5451  25.6088

     occupation numbers 
     1.0000   1.0000   1.0000   1.0000   0.0000   0.0000   0.0000   0.0000
     0.0000   0.0000   0.0000   0.0000   0.0000   0.0000   0.0000   0.0000
     0.0000   0.0000   0.0000   0.0000   0.0000   0.0000   0.0000   0.0000
     0.0000   0.0000   0.0000   0.0000   0.0000   0.0000

          k = 0.0667 0.1617 0.0000 ( 11821 PWs)   bands (ev):

   -21.7448  -9.7524  -7.5987  -6.8456   1.0005   1.8729   2.5265   3.0549
     3.4406   4.5665   5.0428   6.0855   6.7194   7.0698   7.2555   7.5290
     9.4025  10.0641  11.1379  12.6078  13.5357  16.3566  17.6102  19.9879
    21.2446  21.6417  22.2582  23.3873  24.9384  25.5929

     occupation numbers 
     1.0000   1.0000   1.0000   1.0000   0.0000   0.0000   0.0000   0.0000
     0.0000   0.0000   0.0000   0.0000   0.0000   0.0000   0.0000   0.0000
     0.0000   0.0000   0.0000   0.0000   0.0000   0.0000   0.0000   0.0000
     0.0000   0.0000   0.0000   0.0000   0.0000   0.0000

          k = 0.0667 0.1771 0.0000 ( 11827 PWs)   bands (ev):

   -21.6526  -9.6425  -7.8677  -6.9980   1.1265   1.9997   2.6560   3.1836
     3.5691   4.6941   5.1688   6.1047   6.7926   6.8572   7.3821   7.7880
     9.5252  10.1909  11.3526  12.7238  13.6618  16.4470  17.7339  19.7436
    21.3656  21.5720  22.3906  23.0989  24.2966  25.4039

     occupation numbers 
     1.0000   1.0000   1.0000   1.0000   0.0000   0.0000   0.0000   0.0000
     0.0000   0.0000   0.0000   0.0000   0.0000   0.0000   0.0000   0.0000
     0.0000   0.0000   0.0000   0.0000   0.0000   0.0000   0.0000   0.0000
     0.0000   0.0000   0.0000   0.0000   0.0000   0.0000

          k = 0.0667 0.1925 0.0000 ( 11832 PWs)   bands (ev):

   -21.5522  -9.5229  -8.1519  -7.1528   1.2640   2.1379   2.7972   3.3240
     3.7092   4.8332   5.3055   6.1128   6.5199   6.9858   7.5201   8.0683
     9.6586  10.3291  11.5849  12.8491  13.7992  16.5367  17.8684  19.4562
    21.4371  21.5750  22.5238  22.7897  23.7144  24.8285

     occupation numbers 
     1.0000   1.0000   1.0000   1.0000   0.0000   0.0000   0.0000   0.0000
     0.0000   0.0000   0.0000   0.0000   0.0000   0.0000   0.0000   0.0000
     0.0000   0.0000   0.0000   0.0000   0.0000   0.0000   0.0000   0.0000
     0.0000   0.0000   0.0000   0.0000   0.0000   0.0000

          k = 0.0667 0.2078 0.0000 ( 11843 PWs)   bands (ev):

   -21.4435  -9.3939  -8.4495  -7.3083   1.4130   2.2874   2.9502   3.4760
     3.8611   4.9834   5.4524   6.1108   6.2249   7.1340   7.6695   8.3684
     9.8028  10.4787  11.8325  12.9832  13.9478  16.6197  18.0137  19.1579
    21.4102  21.6220  22.4583  22.6274  23.2620  24.1728

     occupation numbers 
     1.0000   1.0000   1.0000   1.0000   0.0000   0.0000   0.0000   0.0000
     0.0000   0.0000   0.0000   0.0000   0.0000   0.0000   0.0000   0.0000
     0.0000   0.0000   0.0000   0.0000   0.0000   0.0000   0.0000   0.0000
     0.0000   0.0000   0.0000   0.0000   0.0000   0.0000

          k = 0.0667 0.2232 0.0000 ( 11858 PWs)   bands (ev):

   -21.3267  -9.2554  -8.7587  -7.4633   1.5733   2.4482   3.1149   3.6396
     4.0245   5.1443   5.6076   5.9173   6.1022   7.2938   7.8302   8.6861
     9.9575  10.6396  12.0927  13.1254  14.1077  16.6869  18.1694  18.8754
    21.2127  21.6815  22.1114  22.6136  23.0730  23.4760

     occupation numbers 
     1.0000   1.0000   1.0000   1.0000   0.0000   0.0000   0.0000   0.0000
     0.0000   0.0000   0.0000   0.0000   0.0000   0.0000   0.0000   0.0000
     0.0000   0.0000   0.0000   0.0000   0.0000   0.0000   0.0000   0.0000
     0.0000   0.0000   0.0000   0.0000   0.0000   0.0000

          k = 0.0667 0.2386 0.0000 ( 11874 PWs)   bands (ev):

   -21.2017  -9.1077  -9.0776  -7.6167   1.7450   2.6202   3.2914   3.8146
     4.1995   5.3103   5.6043   5.7654   6.0940   7.4649   8.0024   9.0193
    10.1226  10.8119  12.3622  13.2749  14.2787  16.7239  18.3355  18.6331
    20.8275  21.5909  21.8907  22.4856  22.7738  22.9436

     occupation numbers 
     1.0000   1.0000   1.0000   1.0000   0.0000   0.0000   0.0000   0.0000
     0.0000   0.0000   0.0000   0.0000   0.0000   0.0000   0.0000   0.0000
     0.0000   0.0000   0.0000   0.0000   0.0000   0.0000   0.0000   0.0000
     0.0000   0.0000   0.0000   0.0000   0.0000   0.0000

          k = 0.0667 0.2540 0.0000 ( 11876 PWs)   bands (ev):

   -21.0685  -9.4049  -8.9507  -7.7675   1.9281   2.8029   3.4797   4.0009
     4.3862   5.2481   5.5224   5.8951   6.1175   7.6472   8.1860   9.3653
    10.2978  10.9955  12.6381  13.4302  14.4607  16.7128  18.4542  18.5113
    20.3276  21.1943  21.9292  22.0040  22.3467  22.4508

     occupation numbers 
     1.0000   1.0000   1.0000   1.0000   0.0000   0.0000   0.0000   0.0000
     0.0000   0.0000   0.0000   0.0000   0.0000   0.0000   0.0000   0.0000
     0.0000   0.0000   0.0000   0.0000   0.0000   0.0000   0.0000   0.0000
     0.0000   0.0000   0.0000   0.0000   0.0000   0.0000

          k = 0.0667 0.2694 0.0000 ( 11880 PWs)   bands (ev):

   -20.9273  -9.7388  -8.7849  -7.9150   2.1226   2.9959   3.6797   4.1973
     4.5842   4.9209   5.7103   5.9342   6.2377   7.8406   8.3810   9.7214
    10.4828  11.1905  12.9164  13.5894  14.6538  16.6398  18.3540  18.6953
    19.7827  20.7251  21.3427  21.7151  22.0138  22.0845

     occupation numbers 
     1.0000   1.0000   1.0000   1.0000   0.0000   0.0000   0.0000   0.0000
     0.0000   0.0000   0.0000   0.0000   0.0000   0.0000   0.0000   0.0000
     0.0000   0.0000   0.0000   0.0000   0.0000   0.0000   0.0000   0.0000
     0.0000   0.0000   0.0000   0.0000   0.0000   0.0000

          k = 0.0667 0.2848 0.0000 ( 11878 PWs)   bands (ev):

   -20.7781 -10.0779  -8.6104  -8.0585   2.3283   3.1977   3.8915   4.3906
     4.5959   4.7939   5.9146   5.9172   6.4237   8.0450   8.5875  10.0845
    10.6772  11.3969  13.1931  13.7494  14.8577  16.5079  18.3273  18.8761
    19.2398  20.2318  20.6797  21.1317  21.5240  21.9137

     occupation numbers 
     1.0000   1.0000   1.0000   1.0000   0.0000   0.0000   0.0000   0.0000
     0.0000   0.0000   0.0000   0.0000   0.0000   0.0000   0.0000   0.0000
     0.0000   0.0000   0.0000   0.0000   0.0000   0.0000   0.0000   0.0000
     0.0000   0.0000   0.0000   0.0000   0.0000   0.0000

          k = 0.0667 0.3002 0.0000 ( 11891 PWs)   bands (ev):

   -20.6209 -10.4211  -8.4275  -8.1973   2.5454   3.4029   4.1150   4.2209
     4.6462   5.0143   5.8791   6.1362   6.6350   8.2602   8.8054  10.4510
    10.8806  11.6146  13.4627  13.9054  15.0724  16.3367  18.3429  18.6479
    19.1219  19.7428  20.0260  20.5450  20.9161  21.5698

     occupation numbers 
     1.0000   1.0000   1.0000   1.0000   0.0000   0.0000   0.0000   0.0000
     0.0000   0.0000   0.0000   0.0000   0.0000   0.0000   0.0000   0.0000
     0.0000   0.0000   0.0000   0.0000   0.0000   0.0000   0.0000   0.0000
     0.0000   0.0000   0.0000   0.0000   0.0000   0.0000

          k = 0.0667 0.3156 0.0000 ( 11899 PWs)   bands (ev):

   -20.4558 -10.7670  -8.3309  -8.2364   2.7736   3.5682   3.9309   4.3503
     4.8743   5.2449   5.8386   6.3671   6.8621   8.4862   9.0346  10.8163
    11.0921  11.8437  13.7183  14.0495  15.2976  16.1513  18.1270  18.3354
    19.3050  19.3161  19.3916  19.9782  20.3057  21.1187

     occupation numbers 
     1.0000   1.0000   1.0000   1.0000   0.0000   0.0000   0.0000   0.0000
     0.0000   0.0000   0.0000   0.0000   0.0000   0.0000   0.0000   0.0000
     0.0000   0.0000   0.0000   0.0000   0.0000   0.0000   0.0000   0.0000
     0.0000   0.0000   0.0000   0.0000   0.0000   0.0000

          k = 0.0667 0.3310 0.0000 ( 11899 PWs)   bands (ev):

   -20.2829 -11.1148  -8.4588  -8.0375   3.0130   3.4178   3.9599   4.5973
     5.1182   5.4812   5.8013   6.6095   7.1025   8.7226   9.2752  11.1745
    11.3107  12.0842  13.9500  14.1692  15.5329  15.9755  17.6300  18.1797
    18.7519  18.9827  19.4895  19.5247  19.7224  20.6336

     occupation numbers 
     1.0000   1.0000   1.0000   1.0000   0.0000   0.0000   0.0000   0.0000
     0.0000   0.0000   0.0000   0.0000   0.0000   0.0000   0.0000   0.0000
     0.0000   0.0000   0.0000   0.0000   0.0000   0.0000   0.0000   0.0000
     0.0000   0.0000   0.0000   0.0000   0.0000   0.0000

          k = 0.0667 0.3464 0.0000 ( 11910 PWs)   bands (ev):

   -20.1023 -11.4632  -8.5807  -7.8313   3.0803   3.2641   4.1835   4.8559
     5.3745   5.6704   5.8217   6.8632   7.3552   8.9692   9.5271  11.5170
    11.5348  12.3359  14.1443  14.2453  15.7778  15.8313  17.1779  17.8300
    18.1361  18.6214  19.1011  19.2731  19.7802  20.1446

     occupation numbers 
     1.0000   1.0000   1.0000   1.0000   0.0000   0.0000   0.0000   0.0000
     0.0000   0.0000   0.0000   0.0000   0.0000   0.0000   0.0000   0.0000
     0.0000   0.0000   0.0000   0.0000   0.0000   0.0000   0.0000   0.0000
     0.0000   0.0000   0.0000   0.0000   0.0000   0.0000

          k = 0.0667 0.3618 0.0000 ( 11912 PWs)   bands (ev):

   -19.9141 -11.8116  -8.6960  -7.6182   2.7223   3.5255   4.4383   5.1260
     5.6428   5.6726   6.0411   7.1282   7.6199   9.2258   9.7901  11.7620
    11.8307  12.5984  14.2547  14.2853  15.7349  16.0312  16.7882  17.4025
    17.5374  18.1376  18.5357  19.2391  19.7307  19.9543

     occupation numbers 
     1.0000   1.0000   1.0000   1.0000   0.0000   0.0000   0.0000   0.0000
     0.0000   0.0000   0.0000   0.0000   0.0000   0.0000   0.0000   0.0000
     0.0000   0.0000   0.0000   0.0000   0.0000   0.0000   0.0000   0.0000
     0.0000   0.0000   0.0000   0.0000   0.0000   0.0000

          k = 0.0667 0.3772 0.0000 ( 11922 PWs)   bands (ev):

   -19.7183 -12.1590  -8.8046  -7.3990   2.3599   3.7981   4.7088   5.4065
     5.6358   5.9227   6.3137   7.4043   7.8963   9.4918  10.0644  11.9882
    12.0943  12.8709  14.1874  14.3586  15.6808  16.2814  16.4755  16.9669
    16.9709  17.6558  17.9984  18.9522  19.5817  19.6594

     occupation numbers 
     1.0000   1.0000   1.0000   1.0000   0.0000   0.0000   0.0000   0.0000
     0.0000   0.0000   0.0000   0.0000   0.0000   0.0000   0.0000   0.0000
     0.0000   0.0000   0.0000   0.0000   0.0000   0.0000   0.0000   0.0000
     0.0000   0.0000   0.0000   0.0000   0.0000   0.0000

          k = 0.0667 0.3926 0.0000 ( 11922 PWs)   bands (ev):

   -19.5153 -12.5047  -8.9061  -7.1744   1.9980   4.0813   4.9920   5.5845
     5.7103   6.2143   6.6027   7.6913   8.1842   9.7666  10.3496  12.2058
    12.2738  13.1522  14.0512  14.3777  15.6219  16.1285  16.4601  16.5598
    16.5937  17.2411  17.5107  18.4986  19.0901  19.7985

     occupation numbers 
     1.0000   1.0000   1.0000   1.0000   0.0000   0.0000   0.0000   0.0000
     0.0000   0.0000   0.0000   0.0000   0.0000   0.0000   0.0000   0.0000
     0.0000   0.0000   0.0000   0.0000   0.0000   0.0000   0.0000   0.0000
     0.0000   0.0000   0.0000   0.0000   0.0000   0.0000

          k = 0.0667 0.4080 0.0000 ( 11918 PWs)   bands (ev):

   -19.3050 -12.8480  -9.0003  -6.9453   1.6392   4.3747   5.2870   5.5491
     6.0115   6.5174   6.9045   7.9892   8.4835  10.0491  10.6457  12.3259
    12.3995  13.4414  13.8740  14.3876  15.4792  15.6761  16.1361  16.1755
    16.8515  16.9545  17.1133  18.0515  18.6366  19.7823

     occupation numbers 
     1.0000   1.0000   1.0000   1.0000   0.0000   0.0000   0.0000   0.0000
     0.0000   0.0000   0.0000   0.0000   0.0000   0.0000   0.0000   0.0000
     0.0000   0.0000   0.0000   0.0000   0.0000   0.0000   0.0000   0.0000
     0.0000   0.0000   0.0000   0.0000   0.0000   0.0000

          k = 0.0667 0.4234 0.0000 ( 11938 PWs)   bands (ev):

   -19.0878 -13.1881  -9.0870  -6.7132   1.2859   4.6772   5.5136   5.5931
     6.3284   6.8320   7.2185   8.2976   8.7942  10.3377  10.9524  12.2252
    12.5354  13.6986  13.7384  14.4218  15.1589  15.2071  15.8181  15.8235
    16.7866  16.7911  17.1603  17.6814  18.2486  19.3589

     occupation numbers 
     1.0000   1.0000   1.0000   1.0000   0.0000   0.0000   0.0000   0.0000
     0.0000   0.0000   0.0000   0.0000   0.0000   0.0000   0.0000   0.0000
     0.0000   0.0000   0.0000   0.0000   0.0000   0.0000   0.0000   0.0000
     0.0000   0.0000   0.0000   0.0000   0.0000   0.0000

          k = 0.0667 0.4388 0.0000 ( 11934 PWs)   bands (ev):

   -18.8639 -13.5243  -9.1659  -6.4795   0.9406   4.9846   5.4862   5.9100
     6.6575   7.1580   7.5442   8.6163   9.1161  10.6293  11.2689  11.9913
    12.5519  13.5892  14.0399  14.3934  14.6987  14.8356  15.4898  15.5036
    16.5421  16.6049  17.4465  17.4887  17.9480  18.9355

     occupation numbers 
     1.0000   1.0000   1.0000   1.0000   0.0000   0.0000   0.0000   0.0000
     0.0000   0.0000   0.0000   0.0000   0.0000   0.0000   0.0000   0.0000
     0.0000   0.0000   0.0000   0.0000   0.0000   0.0000   0.0000   0.0000
     0.0000   0.0000   0.0000   0.0000   0.0000   0.0000

          k = 0.0667 0.4542 0.0000 ( 11932 PWs)   bands (ev):

   -18.6337 -13.8560  -9.2370  -6.2464   0.6059   5.2661   5.4985   6.2375
     6.9985   7.4953   7.8816   8.9448   9.4490  10.9169  11.5739  11.6891
    12.4109  13.5739  14.0000  14.3345  14.4234  14.4888  15.2359  15.2488
    16.2968  16.3215  17.4820  17.6500  17.8090  18.5501

     occupation numbers 
     1.0000   1.0000   1.0000   1.0000   0.0000   0.0000   0.0000   0.0000
     0.0000   0.0000   0.0000   0.0000   0.0000   0.0000   0.0000   0.0000
     0.0000   0.0000   0.0000   0.0000   0.0000   0.0000   0.0000   0.0000
     0.0000   0.0000   0.0000   0.0000   0.0000   0.0000

          k = 0.0667 0.4696 0.0000 ( 11932 PWs)   bands (ev):

   -18.3977 -14.1821  -9.3000  -6.0168   0.2854   5.3605   5.7119   6.5752
     7.3512   7.8438   8.2304   9.2821   9.7928  11.1791  11.2805  11.9429
    12.1748  13.4998  13.5448  14.0541  14.1143  14.6953  15.0071  15.1215
    16.0268  16.0972  17.4711  17.4882  18.0747  18.2874

     occupation numbers 
     1.0000   1.0000   1.0000   1.0000   0.0000   0.0000   0.0000   0.0000
     0.0000   0.0000   0.0000   0.0000   0.0000   0.0000   0.0000   0.0000
     0.0000   0.0000   0.0000   0.0000   0.0000   0.0000   0.0000   0.0000
     0.0000   0.0000   0.0000   0.0000   0.0000   0.0000

          k = 0.0667 0.4850 0.0000 ( 11926 PWs)   bands (ev):

   -18.1570 -14.5016  -9.3548  -5.7943  -0.0168   5.3523   6.0419   6.9228
     7.7157   8.2033   8.5907   9.6267  10.1467  10.8762  11.3261  11.9889
    12.2894  12.9926  13.2922  13.6950  13.8704  14.8026  14.8576  15.0763
    15.8067  16.0183  17.2417  17.3201  18.2768  18.3725

     occupation numbers 
     1.0000   1.0000   1.0000   1.0000   0.0000   0.0000   0.0000   0.0000
     0.0000   0.0000   0.0000   0.0000   0.0000   0.0000   0.0000   0.0000
     0.0000   0.0000   0.0000   0.0000   0.0000   0.0000   0.0000   0.0000
     0.0000   0.0000   0.0000   0.0000   0.0000   0.0000

          k = 0.0667 0.5004 0.0000 ( 11920 PWs)   bands (ev):

   -17.9127 -14.8128  -9.4014  -5.5839  -0.2953   5.3347   6.3954   7.2798
     8.0919   8.5737   8.9622   9.9740  10.4346  10.5329  11.1822  12.0518
    12.4914  12.6471  12.8896  13.2423  13.7502  14.5582  14.6230  15.3770
    15.6993  16.0082  17.0217  17.0401  18.4389  18.6314

     occupation numbers 
     1.0000   1.0000   1.0000   1.0000   0.0000   0.0000   0.0000   0.0000
     0.0000   0.0000   0.0000   0.0000   0.0000   0.0000   0.0000   0.0000
     0.0000   0.0000   0.0000   0.0000   0.0000   0.0000   0.0000   0.0000
     0.0000   0.0000   0.0000   0.0000   0.0000   0.0000

          k = 0.0667 0.5158 0.0000 ( 11914 PWs)   bands (ev):

   -17.6675 -15.1131  -9.4396  -5.3921  -0.5434   5.3181   6.7621   7.6454
     8.4799   8.9541   9.3443  10.0250  10.3000  10.8868  10.8923  12.0013
    12.1813  12.5327  12.7779  13.0167  13.5549  14.1714  14.4837  15.6685
    15.6720  15.9544  16.7871  16.8957  18.6003  18.6137

     occupation numbers 
     1.0000   1.0000   1.0000   1.0000   0.0000   0.0000   0.0000   0.0000
     0.0000   0.0000   0.0000   0.0000   0.0000   0.0000   0.0000   0.0000
     0.0000   0.0000   0.0000   0.0000   0.0000   0.0000   0.0000   0.0000
     0.0000   0.0000   0.0000   0.0000   0.0000   0.0000

          k = 0.0667 0.5312 0.0000 ( 11911 PWs)   bands (ev):

   -17.4264 -15.3972  -9.4694  -5.2270  -0.7524   5.3043   7.1396   8.0185
     8.8794   9.3429   9.5908   9.7458  10.3491  10.8270  11.2767  11.5215
    11.9081  12.3211  12.5569  13.3202  13.3874  13.7593  14.3846  15.6144
    15.6298  16.0977  16.6625  16.9002  18.4003  18.4760

     occupation numbers 
     1.0000   1.0000   1.0000   1.0000   0.0000   0.0000   0.0000   0.0000
     0.0000   0.0000   0.0000   0.0000   0.0000   0.0000   0.0000   0.0000
     0.0000   0.0000   0.0000   0.0000   0.0000   0.0000   0.0000   0.0000
     0.0000   0.0000   0.0000   0.0000   0.0000   0.0000

          k = 0.0667 0.5466 0.0000 ( 11917 PWs)   bands (ev):

   -17.2006 -15.6537  -9.4907  -5.0984  -0.9127   5.2942   7.5266   8.3968
     9.1703   9.2923   9.7219  10.0362  10.1455  11.0523  11.1200  11.5022
    11.6708  11.8697  12.5555  13.2004  13.3303  13.7750  14.3134  15.3019
    15.5179  16.3751  16.7043  16.9907  18.1258  18.1890

     occupation numbers 
     1.0000   1.0000   1.0000   1.0000   0.0000   0.0000   0.0000   0.0000
     0.0000   0.0000   0.0000   0.0000   0.0000   0.0000   0.0000   0.0000
     0.0000   0.0000   0.0000   0.0000   0.0000   0.0000   0.0000   0.0000
     0.0000   0.0000   0.0000   0.0000   0.0000   0.0000

          k = 0.0667 0.5620 0.0000 ( 11918 PWs)   bands (ev):

   -17.0188 -15.8541  -9.5035  -5.0160  -1.0141   5.2880   7.9204   8.7549
     8.7723   9.6109   9.7141  10.1814  10.5597  10.5956  11.0148  11.4225
    11.5202  12.0771  12.3269  12.9094  13.2569  14.1586  14.2648  14.9371
    15.3955  16.5803  16.8326  17.1429  17.8378  17.9346

     occupation numbers 
     1.0000   1.0000   1.0000   1.0000   0.0000   0.0000   0.0000   0.0000
     0.0000   0.0000   0.0000   0.0000   0.0000   0.0000   0.0000   0.0000
     0.0000   0.0000   0.0000   0.0000   0.0000   0.0000   0.0000   0.0000
     0.0000   0.0000   0.0000   0.0000   0.0000   0.0000

          k = 0.0667 0.5774 0.0000 ( 11913 PWs)   bands (ev):

   -16.9422 -15.9368  -9.5078  -4.9875  -1.0489   5.2859   8.2553   8.4126
     9.0398   9.3486  10.1463  10.1509  10.5399  10.6514  10.9727  11.0008
    11.7318  12.1276  12.4638  12.5162  13.3016  14.2459  14.5001  14.6000
    15.3439  16.6513  16.9072  17.2714  17.6626  17.8224

     occupation numbers 
     1.0000   1.0000   1.0000   1.0000   0.0000   0.0000   0.0000   0.0000
     0.0000   0.0000   0.0000   0.0000   0.0000   0.0000   0.0000   0.0000
     0.0000   0.0000   0.0000   0.0000   0.0000   0.0000   0.0000   0.0000
     0.0000   0.0000   0.0000   0.0000   0.0000   0.0000

          k = 0.0800 0.1386 0.0000 ( 11807 PWs)   bands (ev):

   -21.8329  -9.8575  -7.3259  -6.6985   0.8801   1.7517   2.4030   2.9320
     3.3179   4.4446   4.9224   6.0783   6.5999   7.1342   7.2503   7.3309
     9.2851   9.9429  10.9392  12.4961  13.4152  16.2640  17.4918  20.1584
    21.0919  21.8071  22.1294  23.7074  25.5482  25.8184

     occupation numbers 
     1.0000   1.0000   1.0000   1.0000   0.0000   0.0000   0.0000   0.0000
     0.0000   0.0000   0.0000   0.0000   0.0000   0.0000   0.0000   0.0000
     0.0000   0.0000   0.0000   0.0000   0.0000   0.0000   0.0000   0.0000
     0.0000   0.0000   0.0000   0.0000   0.0000   0.0000

          k = 0.0800 0.1540 0.0000 ( 11817 PWs)   bands (ev):

   -21.7532  -9.7623  -7.5572  -6.8506   0.9890   1.8613   2.5148   3.0432
     3.4289   4.5549   5.0317   6.1360   6.7086   7.0949   7.2452   7.4405
     9.3911  10.0527  11.1324  12.5969  13.5242  16.3467  17.5989  19.9853
    21.2338  21.6357  22.2462  23.4817  25.2332  25.6328

     occupation numbers 
     1.0000   1.0000   1.0000   1.0000   0.0000   0.0000   0.0000   0.0000
     0.0000   0.0000   0.0000   0.0000   0.0000   0.0000   0.0000   0.0000
     0.0000   0.0000   0.0000   0.0000   0.0000   0.0000   0.0000   0.0000
     0.0000   0.0000   0.0000   0.0000   0.0000   0.0000

          k = 0.0800 0.1694 0.0000 ( 11821 PWs)   bands (ev):

   -21.6652  -9.6574  -7.8061  -7.0082   1.1094   1.9824   2.6383   3.1660
     3.5516   4.6768   5.1523   6.1836   6.8214   6.8493   7.3663   7.6518
     9.5080  10.1739  11.3477  12.7073  13.6446  16.4323  17.7170  19.7386
    21.3590  21.5626  22.3741  23.2258  24.6028  25.5767

     occupation numbers 
     1.0000   1.0000   1.0000   1.0000   0.0000   0.0000   0.0000   0.0000
     0.0000   0.0000   0.0000   0.0000   0.0000   0.0000   0.0000   0.0000
     0.0000   0.0000   0.0000   0.0000   0.0000   0.0000   0.0000   0.0000
     0.0000   0.0000   0.0000   0.0000   0.0000   0.0000

          k = 0.0800 0.1848 0.0000 ( 11840 PWs)   bands (ev):

   -21.5689  -9.5428  -8.0714  -7.1690   1.2412   2.1149   2.7736   3.3006
     3.6859   4.8102   5.2841   6.2182   6.5712   6.9614   7.4985   7.8858
     9.6358  10.3064  11.5833  12.8271  13.7762  16.5170  17.8460  19.4476
    21.4497  21.5639  22.5077  22.9408  23.9924  25.2130

     occupation numbers 
     1.0000   1.0000   1.0000   1.0000   0.0000   0.0000   0.0000   0.0000
     0.0000   0.0000   0.0000   0.0000   0.0000   0.0000   0.0000   0.0000
     0.0000   0.0000   0.0000   0.0000   0.0000   0.0000   0.0000   0.0000
     0.0000   0.0000   0.0000   0.0000   0.0000   0.0000

          k = 0.0800 0.2001 0.0000 ( 11847 PWs)   bands (ev):

   -21.4644  -9.4186  -8.3516  -7.3309   1.3844   2.2588   2.9207   3.4468
     3.8320   4.9549   5.4267   6.2388   6.2872   7.1041   7.6420   8.1427
     9.7742  10.4503  11.8363  12.9556  13.9192  16.5952  17.9858  19.1452
    21.4730  21.6127  22.6232  22.6339  23.4565  24.5706

     occupation numbers 
     1.0000   1.0000   1.0000   1.0000   0.0000   0.0000   0.0000   0.0000
     0.0000   0.0000   0.0000   0.0000   0.0000   0.0000   0.0000   0.0000
     0.0000   0.0000   0.0000   0.0000   0.0000   0.0000   0.0000   0.0000
     0.0000   0.0000   0.0000   0.0000   0.0000   0.0000

          k = 0.0800 0.2155 0.0000 ( 11855 PWs)   bands (ev):

   -21.3517  -9.2849  -8.6452  -7.4924   1.5391   2.4140   3.0796   3.6046
     3.9896   5.1107   5.5795   5.9892   6.2476   7.2583   7.7967   8.4214
     9.9231  10.6055  12.1040  13.0923  14.0733  16.6573  18.1361  18.8592
    21.3681  21.6857  22.2824  22.6772  23.1138  23.8593

     occupation numbers 
     1.0000   1.0000   1.0000   1.0000   0.0000   0.0000   0.0000   0.0000
     0.0000   0.0000   0.0000   0.0000   0.0000   0.0000   0.0000   0.0000
     0.0000   0.0000   0.0000   0.0000   0.0000   0.0000   0.0000   0.0000
     0.0000   0.0000   0.0000   0.0000   0.0000   0.0000

          k = 0.0800 0.2309 0.0000 ( 11870 PWs)   bands (ev):

   -21.2308  -9.1419  -8.9505  -7.6522   1.7051   2.5804   3.2502   3.7740
     4.1589   5.2756   5.6810   5.7417   6.2465   7.4236   7.9629   8.7196
    10.0824  10.7721  12.3831  13.2361  14.2387  16.6893  18.2968  18.6147
    21.0757  21.7166  21.9594  22.5575  23.0551  23.2009

     occupation numbers 
     1.0000   1.0000   1.0000   1.0000   0.0000   0.0000   0.0000   0.0000
     0.0000   0.0000   0.0000   0.0000   0.0000   0.0000   0.0000   0.0000
     0.0000   0.0000   0.0000   0.0000   0.0000   0.0000   0.0000   0.0000
     0.0000   0.0000   0.0000   0.0000   0.0000   0.0000

          k = 0.0800 0.2463 0.0000 ( 11886 PWs)   bands (ev):

   -21.1018  -9.2658  -8.9897  -7.8093   1.8825   2.7578   3.4326   3.9548
     4.3398   5.3353   5.4809   5.9047   6.2438   7.6001   8.1406   9.0350
    10.2517  10.9500  12.6702  13.3856  14.4151  16.6735  18.4357  18.4676
    20.6254  21.4013  21.9473  22.3268  22.5607  22.6989

     occupation numbers 
     1.0000   1.0000   1.0000   1.0000   0.0000   0.0000   0.0000   0.0000
     0.0000   0.0000   0.0000   0.0000   0.0000   0.0000   0.0000   0.0000
     0.0000   0.0000   0.0000   0.0000   0.0000   0.0000   0.0000   0.0000
     0.0000   0.0000   0.0000   0.0000   0.0000   0.0000

          k = 0.0800 0.2617 0.0000 ( 11886 PWs)   bands (ev):

   -20.9647  -9.5894  -8.8285  -7.9627   2.0713   2.9458   3.6268   4.1464
     4.5322   5.0218   5.6566   6.0431   6.2691   7.7877   8.3297   9.3645
    10.4309  11.1393  12.9618  13.5388  14.6026  16.5973  18.3382  18.6474
    20.0977  20.9427  21.7218  21.9964  22.1282  22.2927

     occupation numbers 
     1.0000   1.0000   1.0000   1.0000   0.0000   0.0000   0.0000   0.0000
     0.0000   0.0000   0.0000   0.0000   0.0000   0.0000   0.0000   0.0000
     0.0000   0.0000   0.0000   0.0000   0.0000   0.0000   0.0000   0.0000
     0.0000   0.0000   0.0000   0.0000   0.0000   0.0000

          k = 0.0800 0.2771 0.0000 ( 11890 PWs)   bands (ev):

   -20.8195  -9.9199  -8.6584  -8.1119   2.2714   3.1436   3.8327   4.3450
     4.6919   4.7367   5.8575   6.0908   6.3901   7.9862   8.5303   9.7050
    10.6194  11.3399  13.2535  13.6925  14.8010  16.4650  18.3188  18.8329
    19.5476  20.4495  21.0581  21.4699  21.8480  22.0856

     occupation numbers 
     1.0000   1.0000   1.0000   1.0000   0.0000   0.0000   0.0000   0.0000
     0.0000   0.0000   0.0000   0.0000   0.0000   0.0000   0.0000   0.0000
     0.0000   0.0000   0.0000   0.0000   0.0000   0.0000   0.0000   0.0000
     0.0000   0.0000   0.0000   0.0000   0.0000   0.0000

          k = 0.0800 0.2925 0.0000 ( 11900 PWs)   bands (ev):

   -20.6664 -10.2557  -8.4798  -8.2562   2.4828   3.3484   4.0504   4.3294
     4.5851   4.9516   6.0709   6.0756   6.5805   8.1956   8.7423  10.0531
    10.8167  11.5518  13.5403  13.8421  15.0102  16.2973  18.3520  18.9159
    19.1084  19.9486  20.3995  20.8692  21.2642  21.8655

     occupation numbers 
     1.0000   1.0000   1.0000   1.0000   0.0000   0.0000   0.0000   0.0000
     0.0000   0.0000   0.0000   0.0000   0.0000   0.0000   0.0000   0.0000
     0.0000   0.0000   0.0000   0.0000   0.0000   0.0000   0.0000   0.0000
     0.0000   0.0000   0.0000   0.0000   0.0000   0.0000

          k = 0.0800 0.3079 0.0000 ( 11901 PWs)   bands (ev):

   -20.5054 -10.5956  -8.3951  -8.2929   2.7055   3.5434   4.0146   4.2798
     4.8034   5.1779   6.0425   6.2961   6.7971   8.4156   8.9657  10.4048
    11.0221  11.7749  13.8155  13.9798  15.2300  16.1203  18.3899  18.4268
    19.2633  19.4770  19.7519  20.2769  20.6548  21.4215

     occupation numbers 
     1.0000   1.0000   1.0000   1.0000   0.0000   0.0000   0.0000   0.0000
     0.0000   0.0000   0.0000   0.0000   0.0000   0.0000   0.0000   0.0000
     0.0000   0.0000   0.0000   0.0000   0.0000   0.0000   0.0000   0.0000
     0.0000   0.0000   0.0000   0.0000   0.0000   0.0000

          k = 0.0800 0.3233 0.0000 ( 11901 PWs)   bands (ev):

   -20.3365 -10.9384  -8.5282  -8.0981   2.9394   3.5338   3.9033   4.5209
     5.0413   5.4143   6.0041   6.5326   7.0298   8.6460   9.2005  10.7552
    11.2344  12.0094  14.0689  14.0944  15.4601  15.9585  17.9159  18.3244
    19.1124  19.1196  19.4749  19.7154  20.0510  20.9247

     occupation numbers 
     1.0000   1.0000   1.0000   1.0000   0.0000   0.0000   0.0000   0.0000
     0.0000   0.0000   0.0000   0.0000   0.0000   0.0000   0.0000   0.0000
     0.0000   0.0000   0.0000   0.0000   0.0000   0.0000   0.0000   0.0000
     0.0000   0.0000   0.0000   0.0000   0.0000   0.0000

          k = 0.0800 0.3387 0.0000 ( 11907 PWs)   bands (ev):

   -20.1598 -11.2829  -8.6550  -7.8956   3.1829   3.2225   4.1023   4.7738
     5.2918   5.6561   5.9688   6.7805   7.2758   8.8867   9.4466  11.0981
    11.4521  12.2550  14.1671  14.2886  15.7001  15.8335  17.4435  18.0292
    18.4903  18.8710  19.3157  19.4291  19.7201  20.4131

     occupation numbers 
     1.0000   1.0000   1.0000   1.0000   0.0000   0.0000   0.0000   0.0000
     0.0000   0.0000   0.0000   0.0000   0.0000   0.0000   0.0000   0.0000
     0.0000   0.0000   0.0000   0.0000   0.0000   0.0000   0.0000   0.0000
     0.0000   0.0000   0.0000   0.0000   0.0000   0.0000

          k = 0.0800 0.3541 0.0000 ( 11908 PWs)   bands (ev):

   -19.9755 -11.6282  -8.7753  -7.6861   2.8685   3.4409   4.3495   5.0383
     5.5542   5.8450   5.9970   7.0396   7.5342   9.1372   9.7040  11.4245
    11.6726  12.5115  14.1837  14.4512  15.7598  15.9495  17.0304  17.6049
    17.8826  18.4181  18.8618  19.2791  19.9187  19.9246

     occupation numbers 
     1.0000   1.0000   1.0000   1.0000   0.0000   0.0000   0.0000   0.0000
     0.0000   0.0000   0.0000   0.0000   0.0000   0.0000   0.0000   0.0000
     0.0000   0.0000   0.0000   0.0000   0.0000   0.0000   0.0000   0.0000
     0.0000   0.0000   0.0000   0.0000   0.0000   0.0000

          k = 0.0800 0.3695 0.0000 ( 11918 PWs)   bands (ev):

   -19.7837 -11.9734  -8.8886  -7.4700   2.5099   3.7080   4.6138   5.3143
     5.8283   5.8441   6.2269   7.3098   7.8045   9.3971   9.9725  11.7210
    11.8921  12.7787  14.1360  14.5331  15.7312  16.2062  16.6947  17.1658
    17.2971  17.9021  18.3097  19.1837  19.6350  19.8622

     occupation numbers 
     1.0000   1.0000   1.0000   1.0000   0.0000   0.0000   0.0000   0.0000
     0.0000   0.0000   0.0000   0.0000   0.0000   0.0000   0.0000   0.0000
     0.0000   0.0000   0.0000   0.0000   0.0000   0.0000   0.0000   0.0000
     0.0000   0.0000   0.0000   0.0000   0.0000   0.0000

          k = 0.0800 0.3849 0.0000 ( 11916 PWs)   bands (ev):

   -19.5844 -12.3176  -8.9949  -7.2480   2.1503   3.9860   4.8911   5.6003
     5.8086   6.1140   6.5058   7.5909   8.0865   9.6656  10.2520  11.9658
    12.1035  13.0558  14.0342  14.5232  15.7035  16.3774  16.4974  16.7600
    16.7695  17.4206  17.7986  18.7496  19.3755  19.7406

     occupation numbers 
     1.0000   1.0000   1.0000   1.0000   0.0000   0.0000   0.0000   0.0000
     0.0000   0.0000   0.0000   0.0000   0.0000   0.0000   0.0000   0.0000
     0.0000   0.0000   0.0000   0.0000   0.0000   0.0000   0.0000   0.0000
     0.0000   0.0000   0.0000   0.0000   0.0000   0.0000

          k = 0.0800 0.4003 0.0000 ( 11918 PWs)   bands (ev):

   -19.3778 -12.6600  -9.0937  -7.0212   1.7927   4.2747   5.1802   5.7597
     5.9090   6.4112   6.8007   7.8828   8.3800   9.9418  10.5425  12.1259
    12.2941  13.3416  13.9005  14.4525  15.5940  15.9926  16.3912  16.4014
    16.7637  17.0490  17.3636  18.2696  18.9029  19.9164

     occupation numbers 
     1.0000   1.0000   1.0000   1.0000   0.0000   0.0000   0.0000   0.0000
     0.0000   0.0000   0.0000   0.0000   0.0000   0.0000   0.0000   0.0000
     0.0000   0.0000   0.0000   0.0000   0.0000   0.0000   0.0000   0.0000
     0.0000   0.0000   0.0000   0.0000   0.0000   0.0000

          k = 0.0800 0.4157 0.0000 ( 11930 PWs)   bands (ev):

   -19.1642 -12.9998  -9.1850  -6.7905   1.4391   4.5735   5.4804   5.7247
     6.2172   6.7198   7.1083   8.1852   8.6849  10.2239  10.8436  12.1609
    12.4394  13.6344  13.7642  14.3853  15.3532  15.4751  16.0367  16.0952
    16.8653  16.9946  17.0921  17.8283  18.4880  19.6021

     occupation numbers 
     1.0000   1.0000   1.0000   1.0000   0.0000   0.0000   0.0000   0.0000
     0.0000   0.0000   0.0000   0.0000   0.0000   0.0000   0.0000   0.0000
     0.0000   0.0000   0.0000   0.0000   0.0000   0.0000   0.0000   0.0000
     0.0000   0.0000   0.0000   0.0000   0.0000   0.0000

          k = 0.0800 0.4311 0.0000 ( 11934 PWs)   bands (ev):

   -18.9438 -13.3364  -9.2685  -6.5573   1.0921   4.8813   5.6909   5.7914
     6.5401   7.0399   7.4280   8.4978   9.0010  10.5091  11.1548  12.0490
    12.4988  13.6624  13.9302  14.3547  14.9531  15.0234  15.6611  15.7372
    16.7550  16.7884  17.3463  17.5191  18.1601  19.1557

     occupation numbers 
     1.0000   1.0000   1.0000   1.0000   0.0000   0.0000   0.0000   0.0000
     0.0000   0.0000   0.0000   0.0000   0.0000   0.0000   0.0000   0.0000
     0.0000   0.0000   0.0000   0.0000   0.0000   0.0000   0.0000   0.0000
     0.0000   0.0000   0.0000   0.0000   0.0000   0.0000

          k = 0.0800 0.4465 0.0000 ( 11942 PWs)   bands (ev):

   -18.7170 -13.6689  -9.3441  -6.3236   0.7540   5.1934   5.6657   6.1130
     6.8750   7.3713   7.7595   8.8200   9.3282  10.7914  11.4722  11.8131
    12.4356  13.6193  14.1616  14.2959  14.5358  14.6499  15.3349  15.3798
    16.5056  16.5370  17.4601  17.6385  17.9264  18.7263

     occupation numbers 
     1.0000   1.0000   1.0000   1.0000   0.0000   0.0000   0.0000   0.0000
     0.0000   0.0000   0.0000   0.0000   0.0000   0.0000   0.0000   0.0000
     0.0000   0.0000   0.0000   0.0000   0.0000   0.0000   0.0000   0.0000
     0.0000   0.0000   0.0000   0.0000   0.0000   0.0000

          k = 0.0800 0.4619 0.0000 ( 11926 PWs)   bands (ev):

   -18.4841 -13.9965  -9.4116  -6.0917   0.4279   5.4718   5.6880   6.4447
     7.2219   7.7138   8.1025   9.1512   9.6664  11.0560  11.4681  11.8224
    12.2679  13.5904  13.7891  14.2504  14.2697  14.5931  15.0928  15.1331
    16.1674  16.2667  17.5302  17.6997  17.9678  18.3620

     occupation numbers 
     1.0000   1.0000   1.0000   1.0000   0.0000   0.0000   0.0000   0.0000
     0.0000   0.0000   0.0000   0.0000   0.0000   0.0000   0.0000   0.0000
     0.0000   0.0000   0.0000   0.0000   0.0000   0.0000   0.0000   0.0000
     0.0000   0.0000   0.0000   0.0000   0.0000   0.0000

          k = 0.0800 0.4773 0.0000 ( 11928 PWs)   bands (ev):

   -18.2459 -14.3183  -9.4709  -5.8649   0.1175   5.5483   5.9262   6.7861
     7.5805   8.0674   8.4569   9.4897  10.0151  11.0958  11.2544  12.0811
    12.1598  13.2899  13.4474  13.9201  13.9678  14.8373  14.9205  15.0332
    15.8694  16.0507  17.4727  17.4821  18.2150  18.2690

     occupation numbers 
     1.0000   1.0000   1.0000   1.0000   0.0000   0.0000   0.0000   0.0000
     0.0000   0.0000   0.0000   0.0000   0.0000   0.0000   0.0000   0.0000
     0.0000   0.0000   0.0000   0.0000   0.0000   0.0000   0.0000   0.0000
     0.0000   0.0000   0.0000   0.0000   0.0000   0.0000

          k = 0.0800 0.4927 0.0000 ( 11928 PWs)   bands (ev):

   -18.0034 -14.6329  -9.5219  -5.6473  -0.1724   5.5388   6.2644   7.1369
     7.9508   8.4317   8.8227   9.8320  10.3715  10.6949  11.2528  12.0366
    12.5107  12.7880  13.1184  13.4990  13.7925  14.7002  14.7566  15.2588
    15.7020  15.9525  17.1968  17.2309  18.3446  18.5717

     occupation numbers 
     1.0000   1.0000   1.0000   1.0000   0.0000   0.0000   0.0000   0.0000
     0.0000   0.0000   0.0000   0.0000   0.0000   0.0000   0.0000   0.0000
     0.0000   0.0000   0.0000   0.0000   0.0000   0.0000   0.0000   0.0000
     0.0000   0.0000   0.0000   0.0000   0.0000   0.0000

          k = 0.0800 0.5081 0.0000 ( 11918 PWs)   bands (ev):

   -17.7586 -14.9381  -9.5646  -5.4448  -0.4358   5.5224   6.6234   7.4962
     8.3329   8.8062   9.1995  10.1653  10.2682  10.7504  11.0312  12.1549
    12.2925  12.7317  12.8688  13.0526  13.6351  14.3764  14.5673  15.5472
    15.6815  15.9306  16.8838  17.0032  18.5619  18.7895

     occupation numbers 
     1.0000   1.0000   1.0000   1.0000   0.0000   0.0000   0.0000   0.0000
     0.0000   0.0000   0.0000   0.0000   0.0000   0.0000   0.0000   0.0000
     0.0000   0.0000   0.0000   0.0000   0.0000   0.0000   0.0000   0.0000
     0.0000   0.0000   0.0000   0.0000   0.0000   0.0000

          k = 0.0800 0.5235 0.0000 ( 11916 PWs)   bands (ev):

   -17.5149 -15.2303  -9.5988  -5.2647  -0.6650   5.5075   6.9949   7.8630
     8.7266   9.1896   9.5850   9.8494  10.3923  10.8250  11.1286  11.8077
    12.1053  12.5312  12.5906  13.2430  13.4485  13.9909  14.4013  15.6551
    15.7007  16.0148  16.6599  16.8807  18.6262  18.6336

     occupation numbers 
     1.0000   1.0000   1.0000   1.0000   0.0000   0.0000   0.0000   0.0000
     0.0000   0.0000   0.0000   0.0000   0.0000   0.0000   0.0000   0.0000
     0.0000   0.0000   0.0000   0.0000   0.0000   0.0000   0.0000   0.0000
     0.0000   0.0000   0.0000   0.0000   0.0000   0.0000

          k = 0.0800 0.5389 0.0000 ( 11916 PWs)   bands (ev):

   -17.2798 -15.5020  -9.6245  -5.1159  -0.8508   5.4956   7.3765   8.2352
     9.1316   9.4214   9.5755   9.9896  10.2055  11.0039  11.3331  11.5183
    11.7381  12.1376  12.5647  13.2808  13.5536  13.6453  14.3039  15.4541
    15.6198  16.2537  16.6316  16.9022  18.3472  18.3699

     occupation numbers 
     1.0000   1.0000   1.0000   1.0000   0.0000   0.0000   0.0000   0.0000
     0.0000   0.0000   0.0000   0.0000   0.0000   0.0000   0.0000   0.0000
     0.0000   0.0000   0.0000   0.0000   0.0000   0.0000   0.0000   0.0000
     0.0000   0.0000   0.0000   0.0000   0.0000   0.0000

          k = 0.0800 0.5543 0.0000 ( 11915 PWs)   bands (ev):

   -17.0711 -15.7351  -9.6416  -5.0087  -0.9829   5.4875   7.7667   8.6073
     9.0024   9.5497   9.7791  10.0548  10.3985  10.8703  11.1995  11.4452
    11.6875  11.9193  12.4518  13.1575  13.2326  14.0037  14.2777  15.1357
    15.4509  16.4501  16.7695  17.0482  18.0363  18.0700

     occupation numbers 
     1.0000   1.0000   1.0000   1.0000   0.0000   0.0000   0.0000   0.0000
     0.0000   0.0000   0.0000   0.0000   0.0000   0.0000   0.0000   0.0000
     0.0000   0.0000   0.0000   0.0000   0.0000   0.0000   0.0000   0.0000
     0.0000   0.0000   0.0000   0.0000   0.0000   0.0000

          k = 0.0800 0.5697 0.0000 ( 11910 PWs)   bands (ev):

   -16.9327 -15.8857  -9.6502  -4.9521  -1.0518   5.4834   8.1578   8.5969
     8.9501   9.4787   9.9782  10.4184  10.4212  10.8185  10.8523  11.2496
    11.6675  12.2297  12.3238  12.7414  13.2549  14.2901  14.3806  14.7785
    15.3195  16.5440  16.9265  17.2542  17.7958  17.8128

     occupation numbers 
     1.0000   1.0000   1.0000   1.0000   0.0000   0.0000   0.0000   0.0000
     0.0000   0.0000   0.0000   0.0000   0.0000   0.0000   0.0000   0.0000
     0.0000   0.0000   0.0000   0.0000   0.0000   0.0000   0.0000   0.0000
     0.0000   0.0000   0.0000   0.0000   0.0000   0.0000

          k = 0.0933 0.1617 0.0000 ( 11833 PWs)   bands (ev):

   -21.6694  -9.6624  -7.7844  -7.0127   1.1037   1.9767   2.6324   3.1602
     3.5458   4.6710   5.1468   6.2145   6.8231   6.8547   7.3614   7.6011
     9.5023  10.1682  11.3464  12.7018  13.6388  16.4273  17.7114  19.7364
    21.3565  21.5592  22.3685  23.2712  24.7766  25.3934

     occupation numbers 
     1.0000   1.0000   1.0000   1.0000   0.0000   0.0000   0.0000   0.0000
     0.0000   0.0000   0.0000   0.0000   0.0000   0.0000   0.0000   0.0000
     0.0000   0.0000   0.0000   0.0000   0.0000   0.0000   0.0000   0.0000
     0.0000   0.0000   0.0000   0.0000   0.0000   0.0000

          k = 0.0933 0.1771 0.0000 ( 11834 PWs)   bands (ev):

   -21.5773  -9.5527  -8.0279  -7.1803   1.2298   2.1034   2.7619   3.2889
     3.6743   4.7986   5.2733   6.2839   6.5974   6.9489   7.4887   7.7801
     9.6243  10.2950  11.5831  12.8161  13.7648  16.5071  17.8348  19.4419
    21.4543  21.5578  22.4989  23.0245  24.2268  25.0117

     occupation numbers 
     1.0000   1.0000   1.0000   1.0000   0.0000   0.0000   0.0000   0.0000
     0.0000   0.0000   0.0000   0.0000   0.0000   0.0000   0.0000   0.0000
     0.0000   0.0000   0.0000   0.0000   0.0000   0.0000   0.0000   0.0000
     0.0000   0.0000   0.0000   0.0000   0.0000   0.0000

          k = 0.0933 0.1925 0.0000 ( 11855 PWs)   bands (ev):

   -21.4770  -9.4334  -8.2870  -7.3504   1.3673   2.2416   2.9031   3.4293
     3.8145   4.9377   5.4110   6.3233   6.3408   7.0860   7.6267   7.9823
     9.7569  10.4332  11.8398  12.9390  13.9020  16.5800  17.9690  19.1349
    21.5055  21.6058  22.6291  22.7420  23.6636  24.7000

     occupation numbers 
     1.0000   1.0000   1.0000   1.0000   0.0000   0.0000   0.0000   0.0000
     0.0000   0.0000   0.0000   0.0000   0.0000   0.0000   0.0000   0.0000
     0.0000   0.0000   0.0000   0.0000   0.0000   0.0000   0.0000   0.0000
     0.0000   0.0000   0.0000   0.0000   0.0000   0.0000

          k = 0.0933 0.2078 0.0000 ( 11859 PWs)   bands (ev):

   -21.3684  -9.3046  -8.5609  -7.5208   1.5162   2.3911   3.0561   3.5813
     3.9664   5.0881   5.5595   6.0382   6.3787   7.2344   7.7756   8.2097
     9.9001  10.5828  12.1133  13.0700  14.0504  16.6367  18.1139  18.8443
    21.4689  21.6833  22.4226  22.7268  23.1894  24.2394

     occupation numbers 
     1.0000   1.0000   1.0000   1.0000   0.0000   0.0000   0.0000   0.0000
     0.0000   0.0000   0.0000   0.0000   0.0000   0.0000   0.0000   0.0000
     0.0000   0.0000   0.0000   0.0000   0.0000   0.0000   0.0000   0.0000
     0.0000   0.0000   0.0000   0.0000   0.0000   0.0000

          k = 0.0933 0.2232 0.0000 ( 11867 PWs)   bands (ev):

   -21.2517  -9.1664  -8.8483  -7.6894   1.6766   2.5519   3.2208   3.7449
     4.1299   5.2491   5.7163   5.7421   6.4017   7.3939   7.9357   8.4622
    10.0535  10.7437  12.4002  13.2080  14.2101  16.6627  18.2692  18.5961
    21.2790  21.7638  22.0782  22.6248  23.0338  23.5500

     occupation numbers 
     1.0000   1.0000   1.0000   1.0000   0.0000   0.0000   0.0000   0.0000
     0.0000   0.0000   0.0000   0.0000   0.0000   0.0000   0.0000   0.0000
     0.0000   0.0000   0.0000   0.0000   0.0000   0.0000   0.0000   0.0000
     0.0000   0.0000   0.0000   0.0000   0.0000   0.0000

          k = 0.0933 0.2386 0.0000 ( 11880 PWs)   bands (ev):

   -21.1268  -9.1477  -9.0189  -7.8551   1.8483   2.7239   3.3973   3.9201
     4.3050   5.3885   5.4638   5.8861   6.4117   7.5646   8.1072   8.7378
    10.2170  10.9159  12.6970  13.3516  14.3808  16.6405  18.4154  18.4347
    20.9062  21.5983  21.9458  22.4146  22.8586  23.0572

     occupation numbers 
     1.0000   1.0000   1.0000   1.0000   0.0000   0.0000   0.0000   0.0000
     0.0000   0.0000   0.0000   0.0000   0.0000   0.0000   0.0000   0.0000
     0.0000   0.0000   0.0000   0.0000   0.0000   0.0000   0.0000   0.0000
     0.0000   0.0000   0.0000   0.0000   0.0000   0.0000

          k = 0.0933 0.2540 0.0000 ( 11884 PWs)   bands (ev):

   -20.9938  -9.4574  -8.8624  -8.0168   2.0314   2.9067   3.5856   4.1064
     4.4918   5.1037   5.6141   6.0571   6.4162   7.7463   8.2902   9.0335
    10.3902  11.0994  12.9999  13.4986  14.5627  16.5583  18.3187  18.6097
    20.4125  21.1641  22.0356  22.0844  22.3423  22.4495

     occupation numbers 
     1.0000   1.0000   1.0000   1.0000   0.0000   0.0000   0.0000   0.0000
     0.0000   0.0000   0.0000   0.0000   0.0000   0.0000   0.0000   0.0000
     0.0000   0.0000   0.0000   0.0000   0.0000   0.0000   0.0000   0.0000
     0.0000   0.0000   0.0000   0.0000   0.0000   0.0000

          k = 0.0933 0.2694 0.0000 ( 11894 PWs)   bands (ev):

   -20.8527  -9.7759  -8.6969  -8.1736   2.2259   3.0999   3.7857   4.3026
     4.6899   4.7793   5.8094   6.2080   6.4414   7.9389   8.4847   9.3459
    10.5727  11.2942  13.3047  13.6458  14.7555  16.4215  18.3034  18.7926
    19.8698  20.6809  21.4454  21.8142  22.0710  22.1480

     occupation numbers 
     1.0000   1.0000   1.0000   1.0000   0.0000   0.0000   0.0000   0.0000
     0.0000   0.0000   0.0000   0.0000   0.0000   0.0000   0.0000   0.0000
     0.0000   0.0000   0.0000   0.0000   0.0000   0.0000   0.0000   0.0000
     0.0000   0.0000   0.0000   0.0000   0.0000   0.0000

          k = 0.0933 0.2848 0.0000 ( 11906 PWs)   bands (ev):

   -20.7037 -10.1015  -8.5227  -8.3251   2.4317   3.3020   3.9974   4.4166
     4.5419   4.9000   6.0172   6.2717   6.5570   8.1423   8.6908   9.6711
    10.7639  11.5003  13.6066  13.7884  14.9592  16.2525  18.3477  18.9705
    19.3291  20.1775  20.7842  21.2122  21.6000  22.0882

     occupation numbers 
     1.0000   1.0000   1.0000   1.0000   0.0000   0.0000   0.0000   0.0000
     0.0000   0.0000   0.0000   0.0000   0.0000   0.0000   0.0000   0.0000
     0.0000   0.0000   0.0000   0.0000   0.0000   0.0000   0.0000   0.0000
     0.0000   0.0000   0.0000   0.0000   0.0000   0.0000

          k = 0.0933 0.3002 0.0000 ( 11910 PWs)   bands (ev):

   -20.5467 -10.4329  -8.4708  -8.3401   2.6487   3.5056   4.1060   4.2210
     4.7440   5.1211   6.2365   6.2637   6.7496   8.3564   8.9083  10.0052
    10.9629  11.7177  13.8986  13.9193  15.1735  16.0786  18.4161  18.7340
    19.2186  19.6815  20.1309  20.6082  21.0100  21.7097

     occupation numbers 
     1.0000   1.0000   1.0000   1.0000   0.0000   0.0000   0.0000   0.0000
     0.0000   0.0000   0.0000   0.0000   0.0000   0.0000   0.0000   0.0000
     0.0000   0.0000   0.0000   0.0000   0.0000   0.0000   0.0000   0.0000
     0.0000   0.0000   0.0000   0.0000   0.0000   0.0000

          k = 0.0933 0.3156 0.0000 ( 11914 PWs)   bands (ev):

   -20.3818 -10.7686  -8.6102  -8.1494   2.8770   3.6142   3.8782   4.4563
     4.9760   5.3533   6.2344   6.4672   6.9711   8.5808   9.1372  10.3437
    11.1688  11.9463  14.0244  14.1745  15.3983  15.9251  18.2154  18.4346
    19.2571  19.4108  19.4960  20.0169  20.4037  21.2203

     occupation numbers 
     1.0000   1.0000   1.0000   1.0000   0.0000   0.0000   0.0000   0.0000
     0.0000   0.0000   0.0000   0.0000   0.0000   0.0000   0.0000   0.0000
     0.0000   0.0000   0.0000   0.0000   0.0000   0.0000   0.0000   0.0000
     0.0000   0.0000   0.0000   0.0000   0.0000   0.0000

          k = 0.0933 0.3310 0.0000 ( 11917 PWs)   bands (ev):

   -20.2092 -11.1073  -8.7430  -7.9509   3.1163   3.3477   4.0317   4.7033
     5.2206   5.5956   6.1986   6.7092   7.2092   8.8154   9.3775  10.6814
    11.3797  12.1860  14.0918  14.4178  15.6332  15.8142  17.7241  18.2357
    18.8567  19.0325  19.4795  19.6152  19.8227  20.7040

     occupation numbers 
     1.0000   1.0000   1.0000   1.0000   0.0000   0.0000   0.0000   0.0000
     0.0000   0.0000   0.0000   0.0000   0.0000   0.0000   0.0000   0.0000
     0.0000   0.0000   0.0000   0.0000   0.0000   0.0000   0.0000   0.0000
     0.0000   0.0000   0.0000   0.0000   0.0000   0.0000

          k = 0.0933 0.3464 0.0000 ( 11909 PWs)   bands (ev):

   -20.0288 -11.4480  -8.8690  -7.7450   3.0026   3.3674   4.2712   4.9621
     5.4772   5.8439   6.1650   6.9624   7.4607   9.0597   9.6291  11.0116
    11.5931  12.4367  14.1071  14.6085  15.7602  15.8779  17.2864  17.8279
    18.2412  18.7183  19.1996  19.2777  19.8689  20.1834

     occupation numbers 
     1.0000   1.0000   1.0000   1.0000   0.0000   0.0000   0.0000   0.0000
     0.0000   0.0000   0.0000   0.0000   0.0000   0.0000   0.0000   0.0000
     0.0000   0.0000   0.0000   0.0000   0.0000   0.0000   0.0000   0.0000
     0.0000   0.0000   0.0000   0.0000   0.0000   0.0000

          k = 0.0933 0.3618 0.0000 ( 11907 PWs)   bands (ev):

   -19.8409 -11.7895  -8.9879  -7.5323   2.6489   3.6291   4.5296   5.2325
     5.7454   6.0422   6.1914   7.2266   7.7247   9.3133   9.8918  11.3248
    11.8050  12.6982  14.0680  14.7158  15.7585  16.1315  16.9267  17.3742
    17.6437  18.1946  18.6362  19.3292  19.7212  20.0325

     occupation numbers 
     1.0000   1.0000   1.0000   1.0000   0.0000   0.0000   0.0000   0.0000
     0.0000   0.0000   0.0000   0.0000   0.0000   0.0000   0.0000   0.0000
     0.0000   0.0000   0.0000   0.0000   0.0000   0.0000   0.0000   0.0000
     0.0000   0.0000   0.0000   0.0000   0.0000   0.0000

          k = 0.0933 0.3772 0.0000 ( 11916 PWs)   bands (ev):

   -19.6455 -12.1309  -9.0994  -7.3133   2.2929   3.9017   4.8010   5.5143
     6.0252   6.0451   6.4250   7.5017   8.0006   9.5754  10.1656  11.6071
    12.0086  12.9702  13.9874  14.7115  15.7714  16.3908  16.6492  16.9483
    17.0830  17.6693  18.1045  19.0252  19.6693  19.6829

     occupation numbers 
     1.0000   1.0000   1.0000   1.0000   0.0000   0.0000   0.0000   0.0000
     0.0000   0.0000   0.0000   0.0000   0.0000   0.0000   0.0000   0.0000
     0.0000   0.0000   0.0000   0.0000   0.0000   0.0000   0.0000   0.0000
     0.0000   0.0000   0.0000   0.0000   0.0000   0.0000

          k = 0.0933 0.3926 0.0000 ( 11916 PWs)   bands (ev):

   -19.4427 -12.4713  -9.2034  -7.0890   1.9377   4.1853   5.0842   5.8063
     6.0111   6.3165   6.7097   7.7876   8.2881   9.8449  10.4504  11.8365
    12.1925  13.2518  13.8870  14.6038  15.7151  16.3068  16.5974  16.6281
    16.7010  17.2058  17.6361  18.5321  19.1840  19.8669

     occupation numbers 
     1.0000   1.0000   1.0000   1.0000   0.0000   0.0000   0.0000   0.0000
     0.0000   0.0000   0.0000   0.0000   0.0000   0.0000   0.0000   0.0000
     0.0000   0.0000   0.0000   0.0000   0.0000   0.0000   0.0000   0.0000
     0.0000   0.0000   0.0000   0.0000   0.0000   0.0000

          k = 0.0933 0.4080 0.0000 ( 11918 PWs)   bands (ev):

   -19.2328 -12.8100  -9.2997  -6.8601   1.5854   4.4794   5.3785   5.9643
     6.1204   6.6192   7.0103   8.0838   8.5871  10.1201  10.7458  11.9803
    12.3376  13.5415  13.7912  14.4533  15.5063  15.8064  16.2792  16.3694
    16.9247  16.9536  17.2846  18.0475  18.7432  19.8624

     occupation numbers 
     1.0000   1.0000   1.0000   1.0000   0.0000   0.0000   0.0000   0.0000
     0.0000   0.0000   0.0000   0.0000   0.0000   0.0000   0.0000   0.0000
     0.0000   0.0000   0.0000   0.0000   0.0000   0.0000   0.0000   0.0000
     0.0000   0.0000   0.0000   0.0000   0.0000   0.0000

          k = 0.0933 0.4234 0.0000 ( 11938 PWs)   bands (ev):

   -19.0160 -13.1460  -9.3881  -6.6280   1.2381   4.7836   5.6836   5.9306
     6.4347   6.9333   7.3237   8.3902   8.8974  10.3981  11.0515  12.0007
    12.4164  13.7225  13.8347  14.3333  15.1903  15.2706  15.8859  16.0200
    16.8524  17.0309  17.2535  17.6333  18.3845  19.4056

     occupation numbers 
     1.0000   1.0000   1.0000   1.0000   0.0000   0.0000   0.0000   0.0000
     0.0000   0.0000   0.0000   0.0000   0.0000   0.0000   0.0000   0.0000
     0.0000   0.0000   0.0000   0.0000   0.0000   0.0000   0.0000   0.0000
     0.0000   0.0000   0.0000   0.0000   0.0000   0.0000

          k = 0.0933 0.4388 0.0000 ( 11928 PWs)   bands (ev):

   -18.7926 -13.4787  -9.4685  -6.3943   0.8981   5.0968   5.8982   5.9991
     6.7635   7.2587   7.6491   8.7062   9.2189  10.6735  11.3653  11.8807
    12.4045  13.6878  14.0973  14.2891  14.7557  14.8455  15.4897  15.6178
    16.7058  16.7941  17.4458  17.5465  18.1302  18.9523

     occupation numbers 
     1.0000   1.0000   1.0000   1.0000   0.0000   0.0000   0.0000   0.0000
     0.0000   0.0000   0.0000   0.0000   0.0000   0.0000   0.0000   0.0000
     0.0000   0.0000   0.0000   0.0000   0.0000   0.0000   0.0000   0.0000
     0.0000   0.0000   0.0000   0.0000   0.0000   0.0000

          k = 0.0933 0.4542 0.0000 ( 11924 PWs)   bands (ev):

   -18.5629 -13.8071  -9.5407  -6.1611   0.5682   5.4142   5.8747   6.3246
     7.1043   7.5953   7.9862   9.0309   9.5514  10.9343  11.5928  11.7341
    12.3061  13.6529  14.0232  14.3203  14.4964  14.5160  15.1792  15.2512
    16.3671  16.5023  17.5165  17.8410  17.9490  18.5287

     occupation numbers 
     1.0000   1.0000   1.0000   1.0000   0.0000   0.0000   0.0000   0.0000
     0.0000   0.0000   0.0000   0.0000   0.0000   0.0000   0.0000   0.0000
     0.0000   0.0000   0.0000   0.0000   0.0000   0.0000   0.0000   0.0000
     0.0000   0.0000   0.0000   0.0000   0.0000   0.0000

          k = 0.0933 0.4696 0.0000 ( 11924 PWs)   bands (ev):

   -18.3276 -14.1304  -9.6047  -5.9310   0.2516   5.6947   5.9018   6.6598
     7.4570   7.9428   8.3348   9.3628   9.8946  11.1495  11.2930  12.0424
    12.1660  13.5464  13.5879  14.0827  14.1573  14.7715  15.0003  15.0281
    16.0035  16.2034  17.5885  17.7278  18.1653  18.2273

     occupation numbers 
     1.0000   1.0000   1.0000   1.0000   0.0000   0.0000   0.0000   0.0000
     0.0000   0.0000   0.0000   0.0000   0.0000   0.0000   0.0000   0.0000
     0.0000   0.0000   0.0000   0.0000   0.0000   0.0000   0.0000   0.0000
     0.0000   0.0000   0.0000   0.0000   0.0000   0.0000

          k = 0.0933 0.4850 0.0000 ( 11933 PWs)   bands (ev):

   -18.0874 -14.4474  -9.6604  -5.7079  -0.0475   5.7646   6.1533   7.0042
     7.8215   8.3010   8.6948   9.6988  10.2475  10.9192  11.2392  12.0811
    12.3868  13.0915  13.3068  13.7347  13.8819  14.7637  14.8891  15.1655
    15.7377  15.9786  17.3902  17.4727  18.2557  18.4756

     occupation numbers 
     1.0000   1.0000   1.0000   1.0000   0.0000   0.0000   0.0000   0.0000
     0.0000   0.0000   0.0000   0.0000   0.0000   0.0000   0.0000   0.0000
     0.0000   0.0000   0.0000   0.0000   0.0000   0.0000   0.0000   0.0000
     0.0000   0.0000   0.0000   0.0000   0.0000   0.0000

          k = 0.0933 0.5004 0.0000 ( 11931 PWs)   bands (ev):

   -17.8439 -14.7564  -9.7076  -5.4965  -0.3238   5.7554   6.4979   7.3569
     8.1977   8.6693   9.0659  10.0302  10.4985  10.6308  11.1277  12.1335
    12.5932  12.7424  12.9611  13.3141  13.6885  14.5348  14.7123  15.4427
    15.6672  15.8876  17.0479  17.1960  18.4764  18.7819

     occupation numbers 
     1.0000   1.0000   1.0000   1.0000   0.0000   0.0000   0.0000   0.0000
     0.0000   0.0000   0.0000   0.0000   0.0000   0.0000   0.0000   0.0000
     0.0000   0.0000   0.0000   0.0000   0.0000   0.0000   0.0000   0.0000
     0.0000   0.0000   0.0000   0.0000   0.0000   0.0000

          k = 0.0933 0.5158 0.0000 ( 11931 PWs)   bands (ev):

   -17.5995 -15.0546  -9.7463  -5.3035  -0.5704   5.7406   6.8618   7.7169
     8.5855   9.0468   9.4476  10.0977  10.3153  10.9222  10.9920  12.1049
    12.1909  12.6367  12.8615  13.1110  13.5360  14.2043  14.4830  15.6077
    15.7293  15.9583  16.7372  16.9648  18.6960  18.8641

     occupation numbers 
     1.0000   1.0000   1.0000   1.0000   0.0000   0.0000   0.0000   0.0000
     0.0000   0.0000   0.0000   0.0000   0.0000   0.0000   0.0000   0.0000
     0.0000   0.0000   0.0000   0.0000   0.0000   0.0000   0.0000   0.0000
     0.0000   0.0000   0.0000   0.0000   0.0000   0.0000

          k = 0.0933 0.5312 0.0000 ( 11927 PWs)   bands (ev):

   -17.3592 -15.3369  -9.7765  -5.1370  -0.7788   5.7275   7.2376   8.0822
     8.9850   9.4296   9.6714   9.8488  10.3290  10.9293  11.3753  11.6260
    11.9632  12.4133  12.5509  13.3982  13.4745  13.8238  14.3111  15.5337
    15.7333  16.1712  16.5906  16.8653  18.5401  18.6166

     occupation numbers 
     1.0000   1.0000   1.0000   1.0000   0.0000   0.0000   0.0000   0.0000
     0.0000   0.0000   0.0000   0.0000   0.0000   0.0000   0.0000   0.0000
     0.0000   0.0000   0.0000   0.0000   0.0000   0.0000   0.0000   0.0000
     0.0000   0.0000   0.0000   0.0000   0.0000   0.0000

          k = 0.0933 0.5466 0.0000 ( 11922 PWs)   bands (ev):

   -17.1344 -15.5918  -9.7980  -5.0070  -0.9390   5.7176   7.6229   8.4486
     9.2563   9.3978   9.7798  10.0899  10.2481  11.1571  11.1760  11.5973
    11.7671  11.9667  12.5078  13.2883  13.4054  13.8613  14.2610  15.2997
    15.5693  16.3503  16.6866  16.9538  18.2018  18.3155

     occupation numbers 
     1.0000   1.0000   1.0000   1.0000   0.0000   0.0000   0.0000   0.0000
     0.0000   0.0000   0.0000   0.0000   0.0000   0.0000   0.0000   0.0000
     0.0000   0.0000   0.0000   0.0000   0.0000   0.0000   0.0000   0.0000
     0.0000   0.0000   0.0000   0.0000   0.0000   0.0000

          k = 0.0933 0.5620 0.0000 ( 11930 PWs)   bands (ev):

   -16.9535 -15.7908  -9.8110  -4.9235  -1.0406   5.7115   8.0146   8.8012
     8.8454   9.6595   9.8196  10.2789  10.6613  10.7008  11.0857  11.5213
    11.5711  12.1715  12.3561  12.9950  13.2343  14.2336  14.3087  14.9821
    15.3641  16.4386  16.8898  17.1771  17.8954  18.0079

     occupation numbers 
     1.0000   1.0000   1.0000   1.0000   0.0000   0.0000   0.0000   0.0000
     0.0000   0.0000   0.0000   0.0000   0.0000   0.0000   0.0000   0.0000
     0.0000   0.0000   0.0000   0.0000   0.0000   0.0000   0.0000   0.0000
     0.0000   0.0000   0.0000   0.0000   0.0000   0.0000

          k = 0.0933 0.5774 0.0000 ( 11923 PWs)   bands (ev):

   -16.8774 -15.8729  -9.8153  -4.8947  -1.0755   5.7095   8.3451   8.5079
     9.0221   9.4530  10.2514  10.2564  10.6102  10.7570  11.0717  11.1028
    11.7183  12.2327  12.5494  12.6126  13.2211  14.3502  14.5427  14.6877
    15.2694  16.4638  17.0104  17.3393  17.7455  17.8257

     occupation numbers 
     1.0000   1.0000   1.0000   1.0000   0.0000   0.0000   0.0000   0.0000
     0.0000   0.0000   0.0000   0.0000   0.0000   0.0000   0.0000   0.0000
     0.0000   0.0000   0.0000   0.0000   0.0000   0.0000   0.0000   0.0000
     0.0000   0.0000   0.0000   0.0000   0.0000   0.0000

          k = 0.1067 0.1848 0.0000 ( 11847 PWs)   bands (ev):

   -21.4812  -9.4384  -8.2643  -7.3582   1.3616   2.2359   2.8972   3.4235
     3.8087   4.9320   5.4057   6.3368   6.3792   7.0800   7.6221   7.9223
     9.7512  10.4276  11.8411  12.9335  13.8963  16.5749  17.9634  19.1310
    21.5154  21.6034  22.6278  22.7835  23.7713  24.5784

     occupation numbers 
     1.0000   1.0000   1.0000   1.0000   0.0000   0.0000   0.0000   0.0000
     0.0000   0.0000   0.0000   0.0000   0.0000   0.0000   0.0000   0.0000
     0.0000   0.0000   0.0000   0.0000   0.0000   0.0000   0.0000   0.0000
     0.0000   0.0000   0.0000   0.0000   0.0000   0.0000

          k = 0.1067 0.2001 0.0000 ( 11859 PWs)   bands (ev):

   -21.3768  -9.3145  -8.5153  -7.5385   1.5048   2.3797   3.0443   3.5697
     3.9547   5.0768   5.5492   6.0630   6.4603   7.2224   7.7663   8.0864
     9.8885  10.5714  12.1184  13.0588  14.0390  16.6261  18.1027  18.8356
    21.5172  21.6809  22.5020  22.7500  23.2692  24.2634

     occupation numbers 
     1.0000   1.0000   1.0000   1.0000   0.0000   0.0000   0.0000   0.0000
     0.0000   0.0000   0.0000   0.0000   0.0000   0.0000   0.0000   0.0000
     0.0000   0.0000   0.0000   0.0000   0.0000   0.0000   0.0000   0.0000
     0.0000   0.0000   0.0000   0.0000   0.0000   0.0000

          k = 0.1067 0.2155 0.0000 ( 11877 PWs)   bands (ev):

   -21.2642  -9.1811  -8.7806  -7.7184   1.6595   2.5349   3.2032   3.7275
     4.1125   5.2328   5.7032   5.7764   6.5237   7.3760   7.9209   8.2779
    10.0361  10.7266  12.4113  13.1911  14.1929  16.6460  18.2526  18.5829
    21.4137  21.7751  22.1819  22.7162  22.9490  23.9023

     occupation numbers 
     1.0000   1.0000   1.0000   1.0000   0.0000   0.0000   0.0000   0.0000
     0.0000   0.0000   0.0000   0.0000   0.0000   0.0000   0.0000   0.0000
     0.0000   0.0000   0.0000   0.0000   0.0000   0.0000   0.0000   0.0000
     0.0000   0.0000   0.0000   0.0000   0.0000   0.0000

          k = 0.1067 0.2309 0.0000 ( 11871 PWs)   bands (ev):

   -21.1434  -9.0596  -9.0382  -7.8955   1.8255   2.7013   3.3738   3.8969
     4.2818   5.3946   5.4826   5.8689   6.5673   7.5408   8.0863   8.4990
    10.1937  10.8931  12.7160  13.3287  14.3580  16.6169  18.3989  18.4127
    21.1459  21.7602  21.9370  22.3860  23.0238  23.2486

     occupation numbers 
     1.0000   1.0000   1.0000   1.0000   0.0000   0.0000   0.0000   0.0000
     0.0000   0.0000   0.0000   0.0000   0.0000   0.0000   0.0000   0.0000
     0.0000   0.0000   0.0000   0.0000   0.0000   0.0000   0.0000   0.0000
     0.0000   0.0000   0.0000   0.0000   0.0000   0.0000

          k = 0.1067 0.2463 0.0000 ( 11896 PWs)   bands (ev):

   -21.0146  -9.3507  -8.8866  -8.0684   2.0030   2.8787   3.5562   4.0778
     4.4628   5.1644   5.5828   6.0428   6.5932   7.7166   8.2629   8.7481
    10.3610  11.0709  13.0285  13.4695  14.5342  16.5272  18.3010  18.5825
    20.7155  21.3674  22.0244  22.1369  22.5664  22.7970

     occupation numbers 
     1.0000   1.0000   1.0000   1.0000   0.0000   0.0000   0.0000   0.0000
     0.0000   0.0000   0.0000   0.0000   0.0000   0.0000   0.0000   0.0000
     0.0000   0.0000   0.0000   0.0000   0.0000   0.0000   0.0000   0.0000
     0.0000   0.0000   0.0000   0.0000   0.0000   0.0000

          k = 0.1067 0.2617 0.0000 ( 11892 PWs)   bands (ev):

   -20.8776  -9.6529  -8.7258  -8.2358   2.1917   3.0669   3.7504   4.2695
     4.6553   4.8477   5.7730   6.2216   6.6082   7.9032   8.4511   9.0219
    10.5374  11.2600  13.3447  13.6101  14.7213  16.3838  18.2871  18.7613
    20.1958  20.9079  21.8139  22.0148  22.0740  22.2426

     occupation numbers 
     1.0000   1.0000   1.0000   1.0000   0.0000   0.0000   0.0000   0.0000
     0.0000   0.0000   0.0000   0.0000   0.0000   0.0000   0.0000   0.0000
     0.0000   0.0000   0.0000   0.0000   0.0000   0.0000   0.0000   0.0000
     0.0000   0.0000   0.0000   0.0000   0.0000   0.0000

          k = 0.1067 0.2771 0.0000 ( 11900 PWs)   bands (ev):

   -20.7327  -9.9645  -8.5562  -8.3971   2.3919   3.2651   3.9563   4.4535
     4.5426   4.8597   5.9750   6.3867   6.6342   8.1007   8.6509   9.3161
    10.7224  11.4603  13.6599  13.7454  14.9194  16.2103  18.3370  18.9449
    19.6488  20.4158  21.1779  21.5590  21.7597  22.1658

     occupation numbers 
     1.0000   1.0000   1.0000   1.0000   0.0000   0.0000   0.0000   0.0000
     0.0000   0.0000   0.0000   0.0000   0.0000   0.0000   0.0000   0.0000
     0.0000   0.0000   0.0000   0.0000   0.0000   0.0000   0.0000   0.0000
     0.0000   0.0000   0.0000   0.0000   0.0000   0.0000

          k = 0.1067 0.2925 0.0000 ( 11910 PWs)   bands (ev):

   -20.5798 -10.2839  -8.5517  -8.3780   2.6033   3.4697   4.1738   4.1886
     4.6959   5.0753   6.1886   6.4735   6.7391   8.3087   8.8623   9.6260
    10.9151  11.6719  13.8670  13.9688  15.1282  16.0353  18.4226  19.0153
    19.2213  19.9127  20.5214  20.9547  21.3429  21.7806

     occupation numbers 
     1.0000   1.0000   1.0000   1.0000   0.0000   0.0000   0.0000   0.0000
     0.0000   0.0000   0.0000   0.0000   0.0000   0.0000   0.0000   0.0000
     0.0000   0.0000   0.0000   0.0000   0.0000   0.0000   0.0000   0.0000
     0.0000   0.0000   0.0000   0.0000   0.0000   0.0000

          k = 0.1067 0.3079 0.0000 ( 11916 PWs)   bands (ev):

   -20.4190 -10.6095  -8.6994  -8.1915   2.8259   3.6442   3.8974   4.4034
     4.9222   5.3023   6.4134   6.4766   6.9314   8.5270   9.0853   9.9468
    11.1143  11.8947  13.9644  14.2626  15.3476  15.8854  18.4984  18.5268
    19.3741  19.4390  19.8743  20.3525  20.7627  21.4924

     occupation numbers 
     1.0000   1.0000   1.0000   1.0000   0.0000   0.0000   0.0000   0.0000
     0.0000   0.0000   0.0000   0.0000   0.0000   0.0000   0.0000   0.0000
     0.0000   0.0000   0.0000   0.0000   0.0000   0.0000   0.0000   0.0000
     0.0000   0.0000   0.0000   0.0000   0.0000   0.0000

          k = 0.1067 0.3233 0.0000 ( 11912 PWs)   bands (ev):

   -20.2503 -10.9399  -8.8399  -7.9970   3.0598   3.4589   3.9715   4.6446
     5.1610   5.5404   6.4525   6.6495   7.1570   8.7555   9.3196  10.2735
    11.3182  12.1286  14.0231  14.5296  15.5773  15.7832  18.0196  18.4265
    19.1232  19.2344  19.5822  19.7677  20.1651  20.9919

     occupation numbers 
     1.0000   1.0000   1.0000   1.0000   0.0000   0.0000   0.0000   0.0000
     0.0000   0.0000   0.0000   0.0000   0.0000   0.0000   0.0000   0.0000
     0.0000   0.0000   0.0000   0.0000   0.0000   0.0000   0.0000   0.0000
     0.0000   0.0000   0.0000   0.0000   0.0000   0.0000

          k = 0.1067 0.3387 0.0000 ( 11914 PWs)   bands (ev):

   -20.0740 -11.2737  -8.9729  -7.7950   3.1224   3.3054   4.2034   4.8975
     5.4118   5.7889   6.4199   6.8967   7.4002   8.9935   9.5653  10.6002
    11.5241  12.3735  14.0326  14.7502  15.7435  15.8169  17.5572  18.0710
    18.6125  18.9875  19.3192  19.5401  19.8271  20.4712

     occupation numbers 
     1.0000   1.0000   1.0000   1.0000   0.0000   0.0000   0.0000   0.0000
     0.0000   0.0000   0.0000   0.0000   0.0000   0.0000   0.0000   0.0000
     0.0000   0.0000   0.0000   0.0000   0.0000   0.0000   0.0000   0.0000
     0.0000   0.0000   0.0000   0.0000   0.0000   0.0000

          k = 0.1067 0.3541 0.0000 ( 11911 PWs)   bands (ev):

   -19.8900 -11.6097  -9.0984  -7.5859   2.7747   3.5613   4.4561   5.1621
     5.6741   6.0439   6.3877   7.1549   7.6572   9.2407   9.8223  10.9196
    11.7278  12.6294  13.9945  14.8924  15.7630  16.0660  17.1683  17.6093
    18.0053  18.5158  18.9763  19.3450  19.9543  20.0185

     occupation numbers 
     1.0000   1.0000   1.0000   1.0000   0.0000   0.0000   0.0000   0.0000
     0.0000   0.0000   0.0000   0.0000   0.0000   0.0000   0.0000   0.0000
     0.0000   0.0000   0.0000   0.0000   0.0000   0.0000   0.0000   0.0000
     0.0000   0.0000   0.0000   0.0000   0.0000   0.0000

          k = 0.1067 0.3695 0.0000 ( 11913 PWs)   bands (ev):

   -19.6985 -11.9468  -9.2161  -7.3702   2.4237   3.8285   4.7218   5.4384
     5.9480   6.2596   6.4047   7.4240   7.9266   9.4961  10.0903  11.2219
    11.9226  12.8959  13.9246  14.9164  15.8128  16.3240  16.8755  17.1540
    17.4236  17.9689  18.4276  19.2975  19.6461  19.9496

     occupation numbers 
     1.0000   1.0000   1.0000   1.0000   0.0000   0.0000   0.0000   0.0000
     0.0000   0.0000   0.0000   0.0000   0.0000   0.0000   0.0000   0.0000
     0.0000   0.0000   0.0000   0.0000   0.0000   0.0000   0.0000   0.0000
     0.0000   0.0000   0.0000   0.0000   0.0000   0.0000

          k = 0.1067 0.3849 0.0000 ( 11922 PWs)   bands (ev):

   -19.4996 -12.2839  -9.3260  -7.1486   2.0723   4.1067   4.9992   5.7262
     6.2334   6.2731   6.6353   7.7037   8.2080   9.7587  10.3693  11.4925
    12.0977  13.1725  13.8461  14.8072  15.8228  16.5731  16.6259  16.7691
    16.9309  17.4476  17.9284  18.8231  19.4755  19.7993

     occupation numbers 
     1.0000   1.0000   1.0000   1.0000   0.0000   0.0000   0.0000   0.0000
     0.0000   0.0000   0.0000   0.0000   0.0000   0.0000   0.0000   0.0000
     0.0000   0.0000   0.0000   0.0000   0.0000   0.0000   0.0000   0.0000
     0.0000   0.0000   0.0000   0.0000   0.0000   0.0000

          k = 0.1067 0.4003 0.0000 ( 11918 PWs)   bands (ev):

   -19.2935 -12.6201  -9.4279  -6.9220   1.7226   4.3957   5.2876   6.0242
     6.2411   6.5302   6.9253   7.9938   8.5010  10.0266  10.6589  11.7089
    12.2371  13.4584  13.7826  14.6102  15.6751  16.1474  16.4954  16.6356
    16.8761  17.0327  17.5322  18.3159  19.0128  20.0098

     occupation numbers 
     1.0000   1.0000   1.0000   1.0000   0.0000   0.0000   0.0000   0.0000
     0.0000   0.0000   0.0000   0.0000   0.0000   0.0000   0.0000   0.0000
     0.0000   0.0000   0.0000   0.0000   0.0000   0.0000   0.0000   0.0000
     0.0000   0.0000   0.0000   0.0000   0.0000   0.0000

          k = 0.1067 0.4157 0.0000 ( 11935 PWs)   bands (ev):

   -19.0804 -12.9546  -9.5217  -6.6914   1.3766   4.6952   5.5866   6.1962
     6.3440   6.8383   7.2316   8.2939   8.8055  10.2969  10.9588  11.8391
    12.3213  13.7494  13.7526  14.4043  15.3685  15.6088  16.1515  16.3168
    16.8971  17.1564  17.2800  17.8399  18.6203  19.6673

     occupation numbers 
     1.0000   1.0000   1.0000   1.0000   0.0000   0.0000   0.0000   0.0000
     0.0000   0.0000   0.0000   0.0000   0.0000   0.0000   0.0000   0.0000
     0.0000   0.0000   0.0000   0.0000   0.0000   0.0000   0.0000   0.0000
     0.0000   0.0000   0.0000   0.0000   0.0000   0.0000

          k = 0.1067 0.4311 0.0000 ( 11935 PWs)   bands (ev):

   -18.8605 -13.2864  -9.6074  -6.4583   1.0364   5.0049   5.8959   6.1642
     6.6640   7.1577   7.5507   8.6033   9.1212  10.5641  11.2674  11.8484
    12.3374  13.7506  14.0274  14.2680  15.0207  15.0718  15.7180  15.9055
    16.8698  17.0542  17.4571  17.4948  18.3380  19.2043

     occupation numbers 
     1.0000   1.0000   1.0000   1.0000   0.0000   0.0000   0.0000   0.0000
     0.0000   0.0000   0.0000   0.0000   0.0000   0.0000   0.0000   0.0000
     0.0000   0.0000   0.0000   0.0000   0.0000   0.0000   0.0000   0.0000
     0.0000   0.0000   0.0000   0.0000   0.0000   0.0000

          k = 0.1067 0.4465 0.0000 ( 11941 PWs)   bands (ev):

   -18.6342 -13.6148  -9.6847  -6.2245   0.7043   5.3235   6.1333   6.2152
     6.9987   7.4882   7.8817   8.9213   9.4479  10.8179  11.5645  11.7405
    12.2910  13.7380  14.0764  14.3976  14.5751  14.6956  15.3212  15.4806
    16.6029  16.7684  17.4805  17.7582  18.1515  18.7528

     occupation numbers 
     1.0000   1.0000   1.0000   1.0000   0.0000   0.0000   0.0000   0.0000
     0.0000   0.0000   0.0000   0.0000   0.0000   0.0000   0.0000   0.0000
     0.0000   0.0000   0.0000   0.0000   0.0000   0.0000   0.0000   0.0000
     0.0000   0.0000   0.0000   0.0000   0.0000   0.0000

          k = 0.1067 0.4619 0.0000 ( 11941 PWs)   bands (ev):

   -18.4019 -13.9388  -9.7536  -5.9922   0.3834   5.6467   6.1108   6.5441
     7.3454   7.8296   8.2244   9.2463   9.7855  11.0353  11.4474  11.9389
    12.2095  13.6450  13.8493  14.1803  14.3849  14.7057  15.0658  15.1217
    16.2080  16.4338  17.6214  17.9697  18.0670  18.3519

     occupation numbers 
     1.0000   1.0000   1.0000   1.0000   0.0000   0.0000   0.0000   0.0000
     0.0000   0.0000   0.0000   0.0000   0.0000   0.0000   0.0000   0.0000
     0.0000   0.0000   0.0000   0.0000   0.0000   0.0000   0.0000   0.0000
     0.0000   0.0000   0.0000   0.0000   0.0000   0.0000

          k = 0.1067 0.4773 0.0000 ( 11929 PWs)   bands (ev):

   -18.1644 -14.2573  -9.8141  -5.7648   0.0773   5.9350   6.1369   6.8818
     7.7039   8.1816   8.5785   9.5753  10.1333  11.1237  11.1674  12.1455
    12.2746  13.3974  13.4464  13.9164  14.0596  14.7966  14.9784  15.0861
    15.8504  16.1182  17.5865  17.7292  18.1970  18.3766

     occupation numbers 
     1.0000   1.0000   1.0000   1.0000   0.0000   0.0000   0.0000   0.0000
     0.0000   0.0000   0.0000   0.0000   0.0000   0.0000   0.0000   0.0000
     0.0000   0.0000   0.0000   0.0000   0.0000   0.0000   0.0000   0.0000
     0.0000   0.0000   0.0000   0.0000   0.0000   0.0000

          k = 0.1067 0.4927 0.0000 ( 11939 PWs)   bands (ev):

   -17.9228 -14.5689  -9.8661  -5.5463  -0.2094   6.0077   6.3922   7.2277
     8.0742   8.5437   8.9439   9.9012  10.4865  10.7554  11.1530  12.1573
    12.6223  12.9051  13.1652  13.5595  13.7766  14.6256  14.8783  15.3621
    15.6668  15.9024  17.2593  17.4358  18.3792  18.6868

     occupation numbers 
     1.0000   1.0000   1.0000   1.0000   0.0000   0.0000   0.0000   0.0000
     0.0000   0.0000   0.0000   0.0000   0.0000   0.0000   0.0000   0.0000
     0.0000   0.0000   0.0000   0.0000   0.0000   0.0000   0.0000   0.0000
     0.0000   0.0000   0.0000   0.0000   0.0000   0.0000

          k = 0.1067 0.5081 0.0000 ( 11937 PWs)   bands (ev):

   -17.6788 -14.8716  -9.9095  -5.3425  -0.4707   5.9998   6.7419   7.5806
     8.4562   8.9149   9.3202  10.1995  10.3441  10.8679  11.0170  12.2096
    12.4122  12.8427  12.9739  13.1460  13.5911  14.3762  14.6383  15.5499
    15.7150  15.8975  16.8955  17.1417  18.6423  18.9914

     occupation numbers 
     1.0000   1.0000   1.0000   1.0000   0.0000   0.0000   0.0000   0.0000
     0.0000   0.0000   0.0000   0.0000   0.0000   0.0000   0.0000   0.0000
     0.0000   0.0000   0.0000   0.0000   0.0000   0.0000   0.0000   0.0000
     0.0000   0.0000   0.0000   0.0000   0.0000   0.0000

          k = 0.1067 0.5235 0.0000 ( 11943 PWs)   bands (ev):

   -17.4361 -15.1616  -9.9443  -5.1607  -0.6988   5.9867   7.1103   7.9384
     8.8499   9.2923   9.7042   9.9388  10.3547  10.9340  11.2444  11.9290
    12.1277  12.6074  12.6923  13.3482  13.4893  14.0437  14.3825  15.5373
    15.8105  16.1103  16.6248  16.9220  18.7361  18.8623

     occupation numbers 
     1.0000   1.0000   1.0000   1.0000   0.0000   0.0000   0.0000   0.0000
     0.0000   0.0000   0.0000   0.0000   0.0000   0.0000   0.0000   0.0000
     0.0000   0.0000   0.0000   0.0000   0.0000   0.0000   0.0000   0.0000
     0.0000   0.0000   0.0000   0.0000   0.0000   0.0000

          k = 0.1067 0.5389 0.0000 ( 11933 PWs)   bands (ev):

   -17.2021 -15.4312  -9.9704  -5.0103  -0.8842   5.9755   7.4898   8.2974
     9.2547   9.5178   9.6616  10.1096  10.2155  11.1002  11.4549  11.6321
    11.8237  12.2472  12.5236  13.4025  13.6247  13.7539  14.2494  15.4011
    15.7241  16.2964  16.6127  16.8902  18.4043  18.5688

     occupation numbers 
     1.0000   1.0000   1.0000   1.0000   0.0000   0.0000   0.0000   0.0000
     0.0000   0.0000   0.0000   0.0000   0.0000   0.0000   0.0000   0.0000
     0.0000   0.0000   0.0000   0.0000   0.0000   0.0000   0.0000   0.0000
     0.0000   0.0000   0.0000   0.0000   0.0000   0.0000

          k = 0.1067 0.5543 0.0000 ( 11934 PWs)   bands (ev):

   -16.9945 -15.6625  -9.9878  -4.9015  -1.0164   5.9676   7.8777   8.6475
     9.1047   9.6728   9.8034  10.1777  10.5175  10.9927  11.2433  11.5605
    11.8004  12.0312  12.4347  13.2500  13.2865  14.0965  14.2895  15.1563
    15.4855  16.3621  16.8138  17.0820  18.0550  18.2479

     occupation numbers 
     1.0000   1.0000   1.0000   1.0000   0.0000   0.0000   0.0000   0.0000
     0.0000   0.0000   0.0000   0.0000   0.0000   0.0000   0.0000   0.0000
     0.0000   0.0000   0.0000   0.0000   0.0000   0.0000   0.0000   0.0000
     0.0000   0.0000   0.0000   0.0000   0.0000   0.0000

          k = 0.1067 0.5697 0.0000 ( 11934 PWs)   bands (ev):

   -16.8570 -15.8119  -9.9965  -4.8440  -1.0855   5.9636   8.2656   8.7041
     8.9429   9.5728  10.1011  10.5226  10.5411  10.9362  10.9512  11.3658
    11.6766  12.3218  12.4306  12.8444  13.2027  14.3949  14.4518  14.8492
    15.2863  16.3791  17.0328  17.3272  17.7816  17.9674

     occupation numbers 
     1.0000   1.0000   1.0000   1.0000   0.0000   0.0000   0.0000   0.0000
     0.0000   0.0000   0.0000   0.0000   0.0000   0.0000   0.0000   0.0000
     0.0000   0.0000   0.0000   0.0000   0.0000   0.0000   0.0000   0.0000
     0.0000   0.0000   0.0000   0.0000   0.0000   0.0000

          k = 0.1200 0.2078 0.0000 ( 11877 PWs)   bands (ev):

   -21.2684  -9.1860  -8.7566  -7.7294   1.6538   2.5292   3.1973   3.7217
     4.1067   5.2274   5.6983   5.7884   6.5716   7.3700   7.9168   8.2085
    10.0303  10.7209  12.4151  13.1854  14.1872  16.6403  18.2470  18.5781
    21.4609  21.7771  22.2216  22.8043  22.8635  23.9629

     occupation numbers 
     1.0000   1.0000   1.0000   1.0000   0.0000   0.0000   0.0000   0.0000
     0.0000   0.0000   0.0000   0.0000   0.0000   0.0000   0.0000   0.0000
     0.0000   0.0000   0.0000   0.0000   0.0000   0.0000   0.0000   0.0000
     0.0000   0.0000   0.0000   0.0000   0.0000   0.0000

          k = 0.1200 0.2232 0.0000 ( 11873 PWs)   bands (ev):

   -21.1518  -9.0483  -9.0113  -7.9197   1.8141   2.6899   3.3621   3.8853
     4.2702   5.3888   5.5011   5.8596   6.6653   7.5288   8.0777   8.3581
    10.1820  10.8817  12.7258  13.3172  14.3466  16.6046  18.3898  18.4016
    21.2965  21.8637  21.9199  22.3435  22.9597  23.6230

     occupation numbers 
     1.0000   1.0000   1.0000   1.0000   0.0000   0.0000   0.0000   0.0000
     0.0000   0.0000   0.0000   0.0000   0.0000   0.0000   0.0000   0.0000
     0.0000   0.0000   0.0000   0.0000   0.0000   0.0000   0.0000   0.0000
     0.0000   0.0000   0.0000   0.0000   0.0000   0.0000

          k = 0.1200 0.2386 0.0000 ( 11880 PWs)   bands (ev):

   -21.0270  -9.2796  -8.9011  -8.1066   1.9859   2.8619   3.5386   4.0605
     4.4454   5.2020   5.5635   6.0306   6.7364   7.6987   8.2486   8.5413
    10.3433  11.0538  13.0462  13.4519  14.5170  16.5074  18.2890  18.5662
    20.9753  21.5210  21.9735  22.0028  22.9366  23.0603

     occupation numbers 
     1.0000   1.0000   1.0000   1.0000   0.0000   0.0000   0.0000   0.0000
     0.0000   0.0000   0.0000   0.0000   0.0000   0.0000   0.0000   0.0000
     0.0000   0.0000   0.0000   0.0000   0.0000   0.0000   0.0000   0.0000
     0.0000   0.0000   0.0000   0.0000   0.0000   0.0000

          k = 0.1200 0.2540 0.0000 ( 11894 PWs)   bands (ev):

   -20.8942  -9.5606  -8.7450  -8.2880   2.1690   3.0449   3.7269   4.2470
     4.6322   4.8949   5.7484   6.2110   6.7847   7.8793   8.4302   8.7588
    10.5137  11.2371  13.3721  13.5859  14.6985  16.3564  18.2740  18.7401
    20.5118  21.1018  21.7063  22.0884  22.2805  22.5483

     occupation numbers 
     1.0000   1.0000   1.0000   1.0000   0.0000   0.0000   0.0000   0.0000
     0.0000   0.0000   0.0000   0.0000   0.0000   0.0000   0.0000   0.0000
     0.0000   0.0000   0.0000   0.0000   0.0000   0.0000   0.0000   0.0000
     0.0000   0.0000   0.0000   0.0000   0.0000   0.0000

          k = 0.1200 0.2694 0.0000 ( 11904 PWs)   bands (ev):

   -20.7534  -9.8532  -8.5800  -8.4626   2.3634   3.2384   3.9269   4.4412
     4.5835   4.8308   5.9447   6.3975   6.8154   8.0708   8.6231   9.0073
    10.6925  11.4317  13.6980  13.7149  14.8910  16.1765  18.3257  18.9213
    19.9803  20.6399  21.4688  21.6285  21.8716  22.2185

     occupation numbers 
     1.0000   1.0000   1.0000   1.0000   0.0000   0.0000   0.0000   0.0000
     0.0000   0.0000   0.0000   0.0000   0.0000   0.0000   0.0000   0.0000
     0.0000   0.0000   0.0000   0.0000   0.0000   0.0000   0.0000   0.0000
     0.0000   0.0000   0.0000   0.0000   0.0000   0.0000

          k = 0.1200 0.2848 0.0000 ( 11902 PWs)   bands (ev):

   -20.6046 -10.1560  -8.6296  -8.4064   2.5692   3.4409   4.1387   4.2546
     4.6592   5.0408   6.1524   6.5765   6.8462   8.2727   8.8279   9.2814
    10.8789  11.6376  13.8274  14.0217  15.0943  15.9975  18.4197  19.0939
    19.4461  20.1498  20.9196  21.2983  21.3078  21.8356

     occupation numbers 
     1.0000   1.0000   1.0000   1.0000   0.0000   0.0000   0.0000   0.0000
     0.0000   0.0000   0.0000   0.0000   0.0000   0.0000   0.0000   0.0000
     0.0000   0.0000   0.0000   0.0000   0.0000   0.0000   0.0000   0.0000
     0.0000   0.0000   0.0000   0.0000   0.0000   0.0000

          k = 0.1200 0.3002 0.0000 ( 11916 PWs)   bands (ev):

   -20.4479 -10.4674  -8.7885  -8.2243   2.7862   3.6391   3.9434   4.3623
     4.8800   5.2623   6.3713   6.6915   6.9378   8.4850   9.0444   9.5753
    11.0714  11.8546  13.9154  14.3327  15.3081  15.8473  18.5262  18.8447
    19.3467  19.6581  20.2700  20.6999  21.0360  21.2951

     occupation numbers 
     1.0000   1.0000   1.0000   1.0000   0.0000   0.0000   0.0000   0.0000
     0.0000   0.0000   0.0000   0.0000   0.0000   0.0000   0.0000   0.0000
     0.0000   0.0000   0.0000   0.0000   0.0000   0.0000   0.0000   0.0000
     0.0000   0.0000   0.0000   0.0000   0.0000   0.0000

          k = 0.1200 0.3156 0.0000 ( 11920 PWs)   bands (ev):

   -20.2833 -10.7859  -8.9391  -8.0340   3.0144   3.5533   3.9210   4.5976
     5.1131   5.4952   6.6015   6.7109   7.1259   8.7072   9.2726   9.8831
    11.2682  12.0827  13.9642  14.6217  15.5324  15.7493  18.3287  18.5662
    19.2433  19.5342  19.6354  20.1032  20.5208  21.0154

     occupation numbers 
     1.0000   1.0000   1.0000   1.0000   0.0000   0.0000   0.0000   0.0000
     0.0000   0.0000   0.0000   0.0000   0.0000   0.0000   0.0000   0.0000
     0.0000   0.0000   0.0000   0.0000   0.0000   0.0000   0.0000   0.0000
     0.0000   0.0000   0.0000   0.0000   0.0000   0.0000

          k = 0.1200 0.3310 0.0000 ( 11918 PWs)   bands (ev):

   -20.1110 -11.1098  -9.0813  -7.8360   3.2242   3.2562   4.1462   4.8446
     5.3580   5.7393   6.6939   6.8427   7.3548   8.9389   9.5123  10.1988
    11.4664  12.3219  13.9653  14.8716  15.7183  15.7668  17.8434  18.3219
    18.9961  19.1067  19.5347  19.7289  19.9546  20.7454

     occupation numbers 
     1.0000   1.0000   1.0000   1.0000   0.0000   0.0000   0.0000   0.0000
     0.0000   0.0000   0.0000   0.0000   0.0000   0.0000   0.0000   0.0000
     0.0000   0.0000   0.0000   0.0000   0.0000   0.0000   0.0000   0.0000
     0.0000   0.0000   0.0000   0.0000   0.0000   0.0000

          k = 0.1200 0.3464 0.0000 ( 11929 PWs)   bands (ev):

   -19.9310 -11.4377  -9.2151  -7.6306   2.8852   3.5048   4.3936   5.1034
     5.6145   5.9938   6.6653   7.0949   7.6029   9.1795   9.7634  10.5157
    11.6616  12.5720  13.9234  15.0527  15.7522  16.0109  17.4224  17.8701
    18.3807  18.8494  19.3244  19.3264  19.9772  20.2313

     occupation numbers 
     1.0000   1.0000   1.0000   1.0000   0.0000   0.0000   0.0000   0.0000
     0.0000   0.0000   0.0000   0.0000   0.0000   0.0000   0.0000   0.0000
     0.0000   0.0000   0.0000   0.0000   0.0000   0.0000   0.0000   0.0000
     0.0000   0.0000   0.0000   0.0000   0.0000   0.0000

          k = 0.1200 0.3618 0.0000 ( 11935 PWs)   bands (ev):

   -19.7434 -11.7682  -9.3405  -7.4184   2.5402   3.7665   4.6537   5.3739
     5.8825   6.2559   6.6350   7.3578   7.8651   9.4282  10.0255  10.8259
    11.8469  12.8329  13.8571  15.1197  15.8284  16.2645  17.1001  17.3923
    17.7845  18.3000  18.7659  19.4478  19.7374  20.0905

     occupation numbers 
     1.0000   1.0000   1.0000   1.0000   0.0000   0.0000   0.0000   0.0000
     0.0000   0.0000   0.0000   0.0000   0.0000   0.0000   0.0000   0.0000
     0.0000   0.0000   0.0000   0.0000   0.0000   0.0000   0.0000   0.0000
     0.0000   0.0000   0.0000   0.0000   0.0000   0.0000

          k = 0.1200 0.3772 0.0000 ( 11918 PWs)   bands (ev):

   -19.5484 -12.1001  -9.4575  -7.1999   2.1941   4.0392   4.9253   5.6561
     6.1619   6.4924   6.6392   7.6314   8.1400   9.6837  10.2986  11.1191
    12.0118  13.1042  13.7911  15.0362  15.8968  16.5274  16.8658  16.9583
    17.2377  17.7498  18.2404  19.1292  19.7253  19.7565

     occupation numbers 
     1.0000   1.0000   1.0000   1.0000   0.0000   0.0000   0.0000   0.0000
     0.0000   0.0000   0.0000   0.0000   0.0000   0.0000   0.0000   0.0000
     0.0000   0.0000   0.0000   0.0000   0.0000   0.0000   0.0000   0.0000
     0.0000   0.0000   0.0000   0.0000   0.0000   0.0000

          k = 0.1200 0.3926 0.0000 ( 11922 PWs)   bands (ev):

   -19.3461 -12.4323  -9.5660  -6.9759   1.8485   4.3228   5.2077   5.9498
     6.4528   6.5257   6.8579   7.9152   8.4268   9.9441  10.5824  11.3799
    12.1423  13.3854  13.7498  14.8261  15.8420  16.4919  16.6554  16.7990
    16.8965  17.2453  17.7968  18.6133  19.2897  19.9249

     occupation numbers 
     1.0000   1.0000   1.0000   1.0000   0.0000   0.0000   0.0000   0.0000
     0.0000   0.0000   0.0000   0.0000   0.0000   0.0000   0.0000   0.0000
     0.0000   0.0000   0.0000   0.0000   0.0000   0.0000   0.0000   0.0000
     0.0000   0.0000   0.0000   0.0000   0.0000   0.0000

          k = 0.1200 0.4080 0.0000 ( 11939 PWs)   bands (ev):

   -19.1368 -12.7638  -9.6660  -6.7473   1.5054   4.6172   5.5007   6.2541
     6.4960   6.7549   7.1526   8.2088   8.7252  10.2061  10.8763  11.5859
    12.2242  13.6747  13.7498  14.5646  15.5722  15.9604  16.4175  16.6143
    16.9440  17.0849  17.5056  18.1072  18.8657  19.9064

     occupation numbers 
     1.0000   1.0000   1.0000   1.0000   0.0000   0.0000   0.0000   0.0000
     0.0000   0.0000   0.0000   0.0000   0.0000   0.0000   0.0000   0.0000
     0.0000   0.0000   0.0000   0.0000   0.0000   0.0000   0.0000   0.0000
     0.0000   0.0000   0.0000   0.0000   0.0000   0.0000

          k = 0.1200 0.4234 0.0000 ( 11943 PWs)   bands (ev):

   -18.9205 -13.0936  -9.7575  -6.5154   1.1665   4.9221   5.8038   6.4528
     6.5798   7.0682   7.4645   8.5117   9.0350  10.4644  11.1787  11.7062
    12.2526  13.7874  13.9631  14.3310  15.2099  15.4145  15.9983  16.2169
    16.9492  17.3053  17.3765  17.6571  18.5439  19.4582

     occupation numbers 
     1.0000   1.0000   1.0000   1.0000   0.0000   0.0000   0.0000   0.0000
     0.0000   0.0000   0.0000   0.0000   0.0000   0.0000   0.0000   0.0000
     0.0000   0.0000   0.0000   0.0000   0.0000   0.0000   0.0000   0.0000
     0.0000   0.0000   0.0000   0.0000   0.0000   0.0000

          k = 0.1200 0.4388 0.0000 ( 11941 PWs)   bands (ev):

   -18.6977 -13.4209  -9.8405  -6.2816   0.8341   5.2371   6.1168   6.4230
     6.9051   7.3926   7.7891   8.8228   9.3560  10.7090  11.4776  11.7182
    12.2386  13.8211  14.0842  14.3318  14.8690  14.8824  15.5457  15.7695
    16.8413  17.0464  17.4628  17.6729  18.3467  19.0009

     occupation numbers 
     1.0000   1.0000   1.0000   1.0000   0.0000   0.0000   0.0000   0.0000
     0.0000   0.0000   0.0000   0.0000   0.0000   0.0000   0.0000   0.0000
     0.0000   0.0000   0.0000   0.0000   0.0000   0.0000   0.0000   0.0000
     0.0000   0.0000   0.0000   0.0000   0.0000   0.0000

          k = 0.1200 0.4542 0.0000 ( 11943 PWs)   bands (ev):

   -18.4688 -13.7446  -9.9148  -6.0481   0.5107   5.5611   6.3935   6.4390
     7.2456   7.7278   8.1258   9.1406   9.6878  10.9214  11.5291  11.8525
    12.2061  13.7660  13.9594  14.3784  14.5934  14.6302  15.1775  15.3389
    16.4604  16.7054  17.5932  17.9754  18.1959  18.5594

     occupation numbers 
     1.0000   1.0000   1.0000   1.0000   0.0000   0.0000   0.0000   0.0000
     0.0000   0.0000   0.0000   0.0000   0.0000   0.0000   0.0000   0.0000
     0.0000   0.0000   0.0000   0.0000   0.0000   0.0000   0.0000   0.0000
     0.0000   0.0000   0.0000   0.0000   0.0000   0.0000

          k = 0.1200 0.4696 0.0000 ( 11945 PWs)   bands (ev):

   -18.2342 -14.0637  -9.9805  -5.8175   0.1997   5.8904   6.3717   6.7700
     7.5982   8.0736   8.4740   9.4619  10.0300  11.0689  11.2888  12.1747
    12.1879  13.5795  13.6776  14.0320  14.2958  14.8648  15.0277  15.0496
    16.0479  16.3428  17.7227  17.9862  18.2223  18.2820

     occupation numbers 
     1.0000   1.0000   1.0000   1.0000   0.0000   0.0000   0.0000   0.0000
     0.0000   0.0000   0.0000   0.0000   0.0000   0.0000   0.0000   0.0000
     0.0000   0.0000   0.0000   0.0000   0.0000   0.0000   0.0000   0.0000
     0.0000   0.0000   0.0000   0.0000   0.0000   0.0000

          k = 0.1200 0.4850 0.0000 ( 11941 PWs)   bands (ev):

   -17.9949 -14.3770 -10.0376  -5.5934  -0.0951   6.1909   6.3921   7.1088
     7.9625   8.4293   8.8336   9.7804  10.3812  10.9642  11.1145  12.2093
    12.5159  13.2181  13.3264  13.7572  13.9495  14.6851  15.0095  15.2872
    15.7338  16.0254  17.4965  17.6990  18.2850  18.5857

     occupation numbers 
     1.0000   1.0000   1.0000   1.0000   0.0000   0.0000   0.0000   0.0000
     0.0000   0.0000   0.0000   0.0000   0.0000   0.0000   0.0000   0.0000
     0.0000   0.0000   0.0000   0.0000   0.0000   0.0000   0.0000   0.0000
     0.0000   0.0000   0.0000   0.0000   0.0000   0.0000

          k = 0.1200 0.5004 0.0000 ( 11941 PWs)   bands (ev):

   -17.7523 -14.6827 -10.0859  -5.3808  -0.3682   6.2751   6.6423   7.4542
     8.3387   8.7940   9.2042  10.0782  10.5738  10.7630  11.0596  12.2478
    12.7265  12.8682  13.0520  13.3960  13.6695  14.4864  14.8381  15.5237
    15.6881  15.8682  17.1115  17.3766  18.5443  18.8784

     occupation numbers 
     1.0000   1.0000   1.0000   1.0000   0.0000   0.0000   0.0000   0.0000
     0.0000   0.0000   0.0000   0.0000   0.0000   0.0000   0.0000   0.0000
     0.0000   0.0000   0.0000   0.0000   0.0000   0.0000   0.0000   0.0000
     0.0000   0.0000   0.0000   0.0000   0.0000   0.0000

          k = 0.1200 0.5158 0.0000 ( 11945 PWs)   bands (ev):

   -17.5089 -14.9781 -10.1255  -5.1860  -0.6129   6.2692   6.9962   7.8040
     8.7264   9.1652   9.5851  10.1898  10.2933  10.9886  11.1252  12.2156
    12.2423  12.7759  12.9652  13.2360  13.5397  14.2274  14.5379  15.5212
    15.8248  16.0419  16.7568  17.0787  18.8173  19.0526

     occupation numbers 
     1.0000   1.0000   1.0000   1.0000   0.0000   0.0000   0.0000   0.0000
     0.0000   0.0000   0.0000   0.0000   0.0000   0.0000   0.0000   0.0000
     0.0000   0.0000   0.0000   0.0000   0.0000   0.0000   0.0000   0.0000
     0.0000   0.0000   0.0000   0.0000   0.0000   0.0000

          k = 0.1200 0.5312 0.0000 ( 11947 PWs)   bands (ev):

   -17.2698 -15.2579 -10.1563  -5.0175  -0.8205   6.2580   7.3684   8.1546
     9.1258   9.5341   9.7757   9.9860  10.2913  11.0666  11.5061  11.7649
    12.0205  12.5327  12.5772  13.5093  13.5849  13.9013  14.2943  15.4328
    15.8714  16.2718  16.5853  16.9025  18.6243  18.8213

     occupation numbers 
     1.0000   1.0000   1.0000   1.0000   0.0000   0.0000   0.0000   0.0000
     0.0000   0.0000   0.0000   0.0000   0.0000   0.0000   0.0000   0.0000
     0.0000   0.0000   0.0000   0.0000   0.0000   0.0000   0.0000   0.0000
     0.0000   0.0000   0.0000   0.0000   0.0000   0.0000

          k = 0.1200 0.5466 0.0000 ( 11942 PWs)   bands (ev):

   -17.0463 -15.5105 -10.1783  -4.8855  -0.9807   6.2488   7.7510   8.4978
     9.3690   9.5385   9.8248  10.1791  10.3846  11.2464  11.2967  11.7250
    11.8943  12.0945  12.4694  13.4125  13.4973  13.9741  14.2575  15.2746
    15.6629  16.3396  16.7268  16.9960  18.2552  18.5009

     occupation numbers 
     1.0000   1.0000   1.0000   1.0000   0.0000   0.0000   0.0000   0.0000
     0.0000   0.0000   0.0000   0.0000   0.0000   0.0000   0.0000   0.0000
     0.0000   0.0000   0.0000   0.0000   0.0000   0.0000   0.0000   0.0000
     0.0000   0.0000   0.0000   0.0000   0.0000   0.0000

          k = 0.1200 0.5620 0.0000 ( 11938 PWs)   bands (ev):

   -16.8666 -15.7078 -10.1915  -4.8005  -1.0826   6.2429   8.1396   8.8082
     8.9644   9.7252   9.9602  10.4092  10.7963  10.8410  11.1667  11.6404
    11.6519  12.2959  12.4020  13.1051  13.2517  14.3255  14.3924  15.0294
    15.3928  16.3192  16.9855  17.2542  17.9156  18.1829

     occupation numbers 
     1.0000   1.0000   1.0000   1.0000   0.0000   0.0000   0.0000   0.0000
     0.0000   0.0000   0.0000   0.0000   0.0000   0.0000   0.0000   0.0000
     0.0000   0.0000   0.0000   0.0000   0.0000   0.0000   0.0000   0.0000
     0.0000   0.0000   0.0000   0.0000   0.0000   0.0000

          k = 0.1200 0.5774 0.0000 ( 11947 PWs)   bands (ev):

   -16.7911 -15.7891 -10.1959  -4.7711  -1.1177   6.2410   8.4638   8.6343
     8.9706   9.5923  10.3915  10.3970  10.6976  10.8978  11.2028  11.2385
    11.7016  12.3728  12.6599  12.7400  13.1755  14.4892  14.5850  14.8021
    15.2570  16.3097  17.1480  17.4217  17.7311  18.0030

     occupation numbers 
     1.0000   1.0000   1.0000   1.0000   0.0000   0.0000   0.0000   0.0000
     0.0000   0.0000   0.0000   0.0000   0.0000   0.0000   0.0000   0.0000
     0.0000   0.0000   0.0000   0.0000   0.0000   0.0000   0.0000   0.0000
     0.0000   0.0000   0.0000   0.0000   0.0000   0.0000

          k = 0.1333 0.2309 0.0000 ( 11879 PWs)   bands (ev):

   -21.0312  -9.2545  -8.9060  -8.1209   1.9802   2.8563   3.5327   4.0548
     4.4396   5.2148   5.5569   6.0262   6.7935   7.6927   8.2454   8.4618
    10.3375  11.0481  13.0522  13.4460  14.5113  16.5006  18.2847  18.5608
    21.0961  21.5816  21.8782  21.9902  22.9923  23.3018

     occupation numbers 
     1.0000   1.0000   1.0000   1.0000   0.0000   0.0000   0.0000   0.0000
     0.0000   0.0000   0.0000   0.0000   0.0000   0.0000   0.0000   0.0000
     0.0000   0.0000   0.0000   0.0000   0.0000   0.0000   0.0000   0.0000
     0.0000   0.0000   0.0000   0.0000   0.0000   0.0000

          k = 0.1333 0.2463 0.0000 ( 11908 PWs)   bands (ev):

   -20.9025  -9.5102  -8.7547  -8.3185   2.1576   3.0338   3.7151   4.2358
     4.6207   4.9190   5.7360   6.2034   6.8992   7.8674   8.4227   8.6003
    10.5019  11.2257  13.3860  13.5737  14.6871  16.3420  18.2668  18.7294
    20.7660  21.2202  21.4756  22.0698  22.6853  22.8296

     occupation numbers 
     1.0000   1.0000   1.0000   1.0000   0.0000   0.0000   0.0000   0.0000
     0.0000   0.0000   0.0000   0.0000   0.0000   0.0000   0.0000   0.0000
     0.0000   0.0000   0.0000   0.0000   0.0000   0.0000   0.0000   0.0000
     0.0000   0.0000   0.0000   0.0000   0.0000   0.0000

          k = 0.1333 0.2617 0.0000 ( 11896 PWs)   bands (ev):

   -20.7658  -9.7787  -8.5944  -8.5099   2.3464   3.2223   3.9093   4.4276
     4.6150   4.8135   5.9264   6.3903   6.9779   8.0528   8.6087   8.7798
    10.6745  11.4146  13.6940  13.7235  14.8739  16.1547  18.3176  18.9063
    20.2989  20.8116  21.1841  22.0074  22.0171  22.3870

     occupation numbers 
     1.0000   1.0000   1.0000   1.0000   0.0000   0.0000   0.0000   0.0000
     0.0000   0.0000   0.0000   0.0000   0.0000   0.0000   0.0000   0.0000
     0.0000   0.0000   0.0000   0.0000   0.0000   0.0000   0.0000   0.0000
     0.0000   0.0000   0.0000   0.0000   0.0000   0.0000

          k = 0.1333 0.2771 0.0000 ( 11914 PWs)   bands (ev):

   -20.6211 -10.0594  -8.6932  -8.4253   2.5465   3.4210   4.1152   4.3011
     4.6341   5.0178   6.1281   6.5844   7.0317   8.2486   8.8049   8.9985
    10.8545  11.6147  13.8004  14.0576  15.0716  15.9699  18.4144  19.0862
    19.7702  20.3603  20.9533  21.3498  21.5916  22.0852

     occupation numbers 
     1.0000   1.0000   1.0000   1.0000   0.0000   0.0000   0.0000   0.0000
     0.0000   0.0000   0.0000   0.0000   0.0000   0.0000   0.0000   0.0000
     0.0000   0.0000   0.0000   0.0000   0.0000   0.0000   0.0000   0.0000
     0.0000   0.0000   0.0000   0.0000   0.0000   0.0000

          k = 0.1333 0.2925 0.0000 ( 11909 PWs)   bands (ev):

   -20.4685 -10.3514  -8.8674  -8.2477   2.7578   3.6252   3.9881   4.3329
     4.8496   5.2336   6.3411   6.7757   7.0740   8.4547   9.0135   9.2498
    11.0404  11.8260  13.8791  14.3837  15.2799  15.8165  18.5351  19.1348
    19.3663  19.8824  20.6587  20.7800  21.0333  21.5734

     occupation numbers 
     1.0000   1.0000   1.0000   1.0000   0.0000   0.0000   0.0000   0.0000
     0.0000   0.0000   0.0000   0.0000   0.0000   0.0000   0.0000   0.0000
     0.0000   0.0000   0.0000   0.0000   0.0000   0.0000   0.0000   0.0000
     0.0000   0.0000   0.0000   0.0000   0.0000   0.0000

          k = 0.1333 0.3079 0.0000 ( 11929 PWs)   bands (ev):

   -20.3080 -10.6530  -9.0319  -8.0618   2.9804   3.6299   3.8794   4.5623
     5.0770   5.4610   6.5653   6.9204   7.1545   8.6707   9.2347   9.5261
    11.2302  12.0483  13.9178  14.6924  15.4987  15.7190  18.6403  18.6487
    19.4196  19.5133  20.0301  20.4473  20.5606  20.9680

     occupation numbers 
     1.0000   1.0000   1.0000   1.0000   0.0000   0.0000   0.0000   0.0000
     0.0000   0.0000   0.0000   0.0000   0.0000   0.0000   0.0000   0.0000
     0.0000   0.0000   0.0000   0.0000   0.0000   0.0000   0.0000   0.0000
     0.0000   0.0000   0.0000   0.0000   0.0000   0.0000

          k = 0.1333 0.3233 0.0000 ( 11923 PWs)   bands (ev):

   -20.1397 -10.9626  -9.1866  -7.8680   3.2137   3.3120   4.1000   4.8035
     5.3161   5.6998   6.8005   6.9631   7.3338   8.8961   9.4681   9.8201
    11.4207  12.2818  13.9092  14.9693  15.6921  15.7277  18.1447  18.5555
    19.1492  19.3900  19.7110  19.8597  20.2643  20.4841

     occupation numbers 
     1.0000   1.0000   1.0000   1.0000   0.0000   0.0000   0.0000   0.0000
     0.0000   0.0000   0.0000   0.0000   0.0000   0.0000   0.0000   0.0000
     0.0000   0.0000   0.0000   0.0000   0.0000   0.0000   0.0000   0.0000
     0.0000   0.0000   0.0000   0.0000   0.0000   0.0000

          k = 0.1333 0.3387 0.0000 ( 11925 PWs)   bands (ev):

   -19.9638 -11.2787  -9.3316  -7.6665   2.9777   3.4596   4.3424   5.0564
     5.5667   5.9497   6.9557   7.0466   7.5647   9.1302   9.7131  10.1248
    11.6073  12.5262  13.8607  15.1890  15.7342  15.9665  17.6917  18.1475
    18.7689  19.1354  19.3544  19.6627  19.9517  20.2854

     occupation numbers 
     1.0000   1.0000   1.0000   1.0000   0.0000   0.0000   0.0000   0.0000
     0.0000   0.0000   0.0000   0.0000   0.0000   0.0000   0.0000   0.0000
     0.0000   0.0000   0.0000   0.0000   0.0000   0.0000   0.0000   0.0000
     0.0000   0.0000   0.0000   0.0000   0.0000   0.0000

          k = 0.1333 0.3541 0.0000 ( 11933 PWs)   bands (ev):

   -19.7802 -11.5995  -9.4669  -7.4580   2.6402   3.7156   4.5970   5.3211
     5.8287   6.2103   6.9322   7.3034   7.8172   9.3721   9.9694  10.4326
    11.7828  12.7814  13.7931  15.3073  15.8267  16.2151  17.3294  17.6601
    18.1619  18.6502  19.1145  19.4270  19.9822  19.9829

     occupation numbers 
     1.0000   1.0000   1.0000   1.0000   0.0000   0.0000   0.0000   0.0000
     0.0000   0.0000   0.0000   0.0000   0.0000   0.0000   0.0000   0.0000
     0.0000   0.0000   0.0000   0.0000   0.0000   0.0000   0.0000   0.0000
     0.0000   0.0000   0.0000   0.0000   0.0000   0.0000

          k = 0.1333 0.3695 0.0000 ( 11939 PWs)   bands (ev):

   -19.5891 -11.9235  -9.5929  -7.2428   2.3007   3.9828   4.8628   5.5975
     6.1022   6.4794   6.9044   7.5707   8.0846   9.6204  10.2366  10.7349
    11.9368  13.0472  13.7330  15.2712  15.9346  16.4734  17.0856  17.1882
    17.5837  18.0863  18.5699  19.4349  19.6443  19.8193

     occupation numbers 
     1.0000   1.0000   1.0000   1.0000   0.0000   0.0000   0.0000   0.0000
     0.0000   0.0000   0.0000   0.0000   0.0000   0.0000   0.0000   0.0000
     0.0000   0.0000   0.0000   0.0000   0.0000   0.0000   0.0000   0.0000
     0.0000   0.0000   0.0000   0.0000   0.0000   0.0000

          k = 0.1333 0.3849 0.0000 ( 11925 PWs)   bands (ev):

   -19.3908 -12.2495  -9.7095  -7.0217   1.9608   4.2610   5.1393   5.8856
     6.3871   6.7356   6.8975   7.8482   8.3647   9.8730  10.5143  11.0206
    12.0564  13.3232  13.7054  15.0762  15.9760  16.7406  16.8081  16.8250
    17.1408  17.5416  18.0823  18.9243  19.5096  19.8198

     occupation numbers 
     1.0000   1.0000   1.0000   1.0000   0.0000   0.0000   0.0000   0.0000
     0.0000   0.0000   0.0000   0.0000   0.0000   0.0000   0.0000   0.0000
     0.0000   0.0000   0.0000   0.0000   0.0000   0.0000   0.0000   0.0000
     0.0000   0.0000   0.0000   0.0000   0.0000   0.0000

          k = 0.1333 0.4003 0.0000 ( 11932 PWs)   bands (ev):

   -19.1852 -12.5762  -9.8170  -6.7955   1.6221   4.5500   5.4261   6.1852
     6.6832   6.7998   7.0929   8.1354   8.6569  10.1264  10.8016  11.2743
    12.1316  13.6084  13.7268  14.7890  15.7925  16.3225  16.6185  16.8977
    17.0195  17.0815  17.7311  18.4056  19.0986  19.7157

     occupation numbers 
     1.0000   1.0000   1.0000   1.0000   0.0000   0.0000   0.0000   0.0000
     0.0000   0.0000   0.0000   0.0000   0.0000   0.0000   0.0000   0.0000
     0.0000   0.0000   0.0000   0.0000   0.0000   0.0000   0.0000   0.0000
     0.0000   0.0000   0.0000   0.0000   0.0000   0.0000

          k = 0.1333 0.4157 0.0000 ( 11931 PWs)   bands (ev):

   -18.9727 -12.9024  -9.9153  -6.5652   1.2862   4.8497   5.7229   6.4957
     6.7735   6.9904   7.3916   8.4315   8.9606  10.3751  11.0961  11.4747
    12.1632  13.7953  13.8992  14.4893  15.4314  15.7729  16.3023  16.5389
    16.9720  17.3041  17.5361  17.9096  18.7359  19.5634

     occupation numbers 
     1.0000   1.0000   1.0000   1.0000   0.0000   0.0000   0.0000   0.0000
     0.0000   0.0000   0.0000   0.0000   0.0000   0.0000   0.0000   0.0000
     0.0000   0.0000   0.0000   0.0000   0.0000   0.0000   0.0000   0.0000
     0.0000   0.0000   0.0000   0.0000   0.0000   0.0000

          k = 0.1333 0.4311 0.0000 ( 11945 PWs)   bands (ev):

   -18.7535 -13.2271 -10.0047  -6.3322   0.9552   5.1599   6.0294   6.7310
     6.8284   7.3087   7.7089   8.7356   9.2756  10.6093  11.3835  11.6040
    12.1669  13.8779  14.1283  14.2988  15.0557  15.2285  15.8322  16.0889
    17.0184  17.3207  17.5278  17.5959  18.5045  19.2364

     occupation numbers 
     1.0000   1.0000   1.0000   1.0000   0.0000   0.0000   0.0000   0.0000
     0.0000   0.0000   0.0000   0.0000   0.0000   0.0000   0.0000   0.0000
     0.0000   0.0000   0.0000   0.0000   0.0000   0.0000   0.0000   0.0000
     0.0000   0.0000   0.0000   0.0000   0.0000   0.0000

          k = 0.1333 0.4465 0.0000 ( 11953 PWs)   bands (ev):

   -18.5280 -13.5493 -10.0851  -6.0982   0.6313   5.4801   6.3450   6.7044
     7.1580   7.6377   8.0391   9.0458   9.6016  10.8128  11.5120  11.7808
    12.1681  13.8912  13.9958  14.5390  14.7069  14.7605  15.3830  15.6266
    16.7377  16.9972  17.5475  17.8917  18.3765  18.7942

     occupation numbers 
     1.0000   1.0000   1.0000   1.0000   0.0000   0.0000   0.0000   0.0000
     0.0000   0.0000   0.0000   0.0000   0.0000   0.0000   0.0000   0.0000
     0.0000   0.0000   0.0000   0.0000   0.0000   0.0000   0.0000   0.0000
     0.0000   0.0000   0.0000   0.0000   0.0000   0.0000

          k = 0.1333 0.4619 0.0000 ( 11927 PWs)   bands (ev):

   -18.2965 -13.8679 -10.1566  -5.8655   0.3174   5.8095   6.6690   6.6763
     7.5043   7.9771   8.3812   9.3590   9.9382  10.9623  11.3875  12.0885
    12.1932  13.7383  13.8308  14.2180  14.5341  14.8496  15.0919  15.2052
    16.3049  16.6167  17.7436  18.1788  18.2334  18.3742

     occupation numbers 
     1.0000   1.0000   1.0000   1.0000   0.0000   0.0000   0.0000   0.0000
     0.0000   0.0000   0.0000   0.0000   0.0000   0.0000   0.0000   0.0000
     0.0000   0.0000   0.0000   0.0000   0.0000   0.0000   0.0000   0.0000
     0.0000   0.0000   0.0000   0.0000   0.0000   0.0000

          k = 0.1333 0.4773 0.0000 ( 11951 PWs)   bands (ev):

   -18.0600 -14.1817 -10.2191  -5.6372   0.0169   6.1448   6.6550   7.0004
     7.8627   8.3263   8.7349   9.6689  10.2845  11.0380  11.1378  12.2528
    12.4215  13.4791  13.5130  13.8894  14.1950  14.8030  15.0736  15.2115
    15.9029  16.2418  17.7324  17.9682  18.2087  18.4774

     occupation numbers 
     1.0000   1.0000   1.0000   1.0000   0.0000   0.0000   0.0000   0.0000
     0.0000   0.0000   0.0000   0.0000   0.0000   0.0000   0.0000   0.0000
     0.0000   0.0000   0.0000   0.0000   0.0000   0.0000   0.0000   0.0000
     0.0000   0.0000   0.0000   0.0000   0.0000   0.0000

          k = 0.1333 0.4927 0.0000 ( 11955 PWs)   bands (ev):

   -17.8193 -14.4893 -10.2727  -5.4175  -0.2654   6.4595   6.6674   7.3379
     8.2329   8.6842   9.0997   9.9607  10.6297  10.8237  11.0446  12.3129
    12.7636  13.0513  13.2224  13.6076  13.8311  14.5616  15.0347  15.4954
    15.6943  15.9453  17.3616  17.6430  18.4320  18.7158

     occupation numbers 
     1.0000   1.0000   1.0000   1.0000   0.0000   0.0000   0.0000   0.0000
     0.0000   0.0000   0.0000   0.0000   0.0000   0.0000   0.0000   0.0000
     0.0000   0.0000   0.0000   0.0000   0.0000   0.0000   0.0000   0.0000
     0.0000   0.0000   0.0000   0.0000   0.0000   0.0000

          k = 0.1333 0.5081 0.0000 ( 11947 PWs)   bands (ev):

   -17.5765 -14.7884 -10.3174  -5.2119  -0.5238   6.5641   6.9034   7.6793
     8.6148   9.0487   9.4753  10.1947  10.4331  11.0184  11.0283  12.2948
    12.5642  12.9868  13.1003  13.2588  13.5942  14.3539  14.7557  15.5512
    15.7970  15.9720  16.9643  17.3052  18.7169  18.8147

     occupation numbers 
     1.0000   1.0000   1.0000   1.0000   0.0000   0.0000   0.0000   0.0000
     0.0000   0.0000   0.0000   0.0000   0.0000   0.0000   0.0000   0.0000
     0.0000   0.0000   0.0000   0.0000   0.0000   0.0000   0.0000   0.0000
     0.0000   0.0000   0.0000   0.0000   0.0000   0.0000

          k = 0.1333 0.5235 0.0000 ( 11947 PWs)   bands (ev):

   -17.3350 -15.0751 -10.3532  -5.0279  -0.7503   6.5610   7.2602   8.0207
     9.0083   9.4129   9.8564  10.0493  10.2887  11.0807  11.3926  12.0841
    12.1576  12.7290  12.8156  13.4799  13.5656  14.0922  14.4327  15.4389
    15.9550  16.2314  16.6538  17.0233  18.8217  18.8372

     occupation numbers 
     1.0000   1.0000   1.0000   1.0000   0.0000   0.0000   0.0000   0.0000
     0.0000   0.0000   0.0000   0.0000   0.0000   0.0000   0.0000   0.0000
     0.0000   0.0000   0.0000   0.0000   0.0000   0.0000   0.0000   0.0000
     0.0000   0.0000   0.0000   0.0000   0.0000   0.0000

          k = 0.1333 0.5389 0.0000 ( 11935 PWs)   bands (ev):

   -17.1023 -15.3420 -10.3800  -4.8750  -0.9354   6.5518   7.6355   8.3547
     9.4128   9.6384   9.7427  10.2389  10.2637  11.2266  11.6111  11.7774
    11.9264  12.3846  12.5240  13.5591  13.7018  13.8917  14.2586  15.3272
    15.8643  16.3700  16.6536  16.9528  18.4657  18.7478

     occupation numbers 
     1.0000   1.0000   1.0000   1.0000   0.0000   0.0000   0.0000   0.0000
     0.0000   0.0000   0.0000   0.0000   0.0000   0.0000   0.0000   0.0000
     0.0000   0.0000   0.0000   0.0000   0.0000   0.0000   0.0000   0.0000
     0.0000   0.0000   0.0000   0.0000   0.0000   0.0000

          k = 0.1333 0.5543 0.0000 ( 11952 PWs)   bands (ev):

   -16.8962 -15.5710 -10.3979  -4.7640  -1.0679   6.5446   8.0199   8.6635
     9.2340   9.8309   9.8321  10.3358  10.6701  11.1500  11.2930  11.7122
    11.9431  12.1739  12.4401  13.3610  13.3869  14.2091  14.3551  15.1621
    15.5734  16.3140  16.9027  17.1663  18.1013  18.4260

     occupation numbers 
     1.0000   1.0000   1.0000   1.0000   0.0000   0.0000   0.0000   0.0000
     0.0000   0.0000   0.0000   0.0000   0.0000   0.0000   0.0000   0.0000
     0.0000   0.0000   0.0000   0.0000   0.0000   0.0000   0.0000   0.0000
     0.0000   0.0000   0.0000   0.0000   0.0000   0.0000

          k = 0.1333 0.5697 0.0000 ( 11950 PWs)   bands (ev):

   -16.7598 -15.7189 -10.4068  -4.7053  -1.1374   6.5408   8.4030   8.8408
     8.8896   9.7025  10.2591  10.6480  10.6988  11.0739  11.0868  11.5140
    11.6947  12.4493  12.5648  12.9733  13.2064  14.5235  14.5359  14.9364
    15.3199  16.2604  17.1717  17.4158  17.7934  18.1508

     occupation numbers 
     1.0000   1.0000   1.0000   1.0000   0.0000   0.0000   0.0000   0.0000
     0.0000   0.0000   0.0000   0.0000   0.0000   0.0000   0.0000   0.0000
     0.0000   0.0000   0.0000   0.0000   0.0000   0.0000   0.0000   0.0000
     0.0000   0.0000   0.0000   0.0000   0.0000   0.0000

          k = 0.1467 0.2540 0.0000 ( 11937 PWs)   bands (ev):

   -20.7700  -9.7522  -8.5992  -8.5273   2.3407   3.2169   3.9034   4.4226
     4.6260   4.8078   5.9203   6.3869   7.0443   8.0467   8.6079   8.6887
    10.6685  11.4089  13.6878  13.7313  14.8682  16.1472  18.3146  18.9012
    20.4863  20.8788  20.9970  22.0122  22.4168  22.4642

     occupation numbers 
     1.0000   1.0000   1.0000   1.0000   0.0000   0.0000   0.0000   0.0000
     0.0000   0.0000   0.0000   0.0000   0.0000   0.0000   0.0000   0.0000
     0.0000   0.0000   0.0000   0.0000   0.0000   0.0000   0.0000   0.0000
     0.0000   0.0000   0.0000   0.0000   0.0000   0.0000

          k = 0.1467 0.2694 0.0000 ( 11921 PWs)   bands (ev):

   -20.6294 -10.0065  -8.7298  -8.4348   2.5351   3.4109   4.1034   4.3250
     4.6212   5.0062   6.1160   6.5803   7.1620   8.2366   8.7941   8.8271
    10.8423  11.6032  13.7867  14.0757  15.0602  15.9554  18.4108  19.0788
    20.0704  20.4930  20.6438  21.7162  21.7697  22.2017

     occupation numbers 
     1.0000   1.0000   1.0000   1.0000   0.0000   0.0000   0.0000   0.0000
     0.0000   0.0000   0.0000   0.0000   0.0000   0.0000   0.0000   0.0000
     0.0000   0.0000   0.0000   0.0000   0.0000   0.0000   0.0000   0.0000
     0.0000   0.0000   0.0000   0.0000   0.0000   0.0000

          k = 0.1467 0.2848 0.0000 ( 11921 PWs)   bands (ev):

   -20.4809 -10.2734  -8.9234  -8.2618   2.7408   3.6144   4.0182   4.3152
     4.8312   5.2164   6.3230   6.7816   7.2485   8.4365   8.9702   9.0314
    11.0217  11.8088  13.8569  14.4146  15.2629  15.7967  18.5367  19.2386
    19.5802  20.0642  20.3968  21.1056  21.2753  21.7764

     occupation numbers 
     1.0000   1.0000   1.0000   1.0000   0.0000   0.0000   0.0000   0.0000
     0.0000   0.0000   0.0000   0.0000   0.0000   0.0000   0.0000   0.0000
     0.0000   0.0000   0.0000   0.0000   0.0000   0.0000   0.0000   0.0000
     0.0000   0.0000   0.0000   0.0000   0.0000   0.0000

          k = 0.1467 0.3002 0.0000 ( 11923 PWs)   bands (ev):

   -20.3245 -10.5521  -9.1065  -8.0803   2.9577   3.6878   3.8460   4.5388
     5.0529   5.4381   6.5411   6.9837   7.3119   8.6463   9.1740   9.2617
    11.2046  12.0254  13.8857  14.7402  15.4762  15.6966  18.6709  18.9688
    19.5034  19.6101  20.1896  20.4550  20.7561  21.3389

     occupation numbers 
     1.0000   1.0000   1.0000   1.0000   0.0000   0.0000   0.0000   0.0000
     0.0000   0.0000   0.0000   0.0000   0.0000   0.0000   0.0000   0.0000
     0.0000   0.0000   0.0000   0.0000   0.0000   0.0000   0.0000   0.0000
     0.0000   0.0000   0.0000   0.0000   0.0000   0.0000

          k = 0.1467 0.3156 0.0000 ( 11941 PWs)   bands (ev):

   -20.1603 -10.8418  -9.2783  -7.8908   3.1857   3.3753   4.0654   4.7741
     5.2860   5.6713   6.7702   7.1551   7.3894   8.8653   9.4030   9.5129
    11.3876  12.2531  13.8671  15.0407  15.6702  15.6997  18.4578  18.7287
    19.2209  19.6644  19.8089  20.0298  20.1934  20.7294

     occupation numbers 
     1.0000   1.0000   1.0000   1.0000   0.0000   0.0000   0.0000   0.0000
     0.0000   0.0000   0.0000   0.0000   0.0000   0.0000   0.0000   0.0000
     0.0000   0.0000   0.0000   0.0000   0.0000   0.0000   0.0000   0.0000
     0.0000   0.0000   0.0000   0.0000   0.0000   0.0000

          k = 0.1467 0.3310 0.0000 ( 11935 PWs)   bands (ev):

   -19.9884 -11.1407  -9.4386  -7.6935   3.0501   3.4256   4.3031   5.0212
     5.5307   5.9159   7.0102   7.2286   7.5557   9.0929   9.6479   9.7847
    11.5658  12.4918  13.8103  15.2957  15.7159  15.9332  17.9767  18.4279
    19.1677  19.1832  19.6192  19.7185  19.9940  20.1478

     occupation numbers 
     1.0000   1.0000   1.0000   1.0000   0.0000   0.0000   0.0000   0.0000
     0.0000   0.0000   0.0000   0.0000   0.0000   0.0000   0.0000   0.0000
     0.0000   0.0000   0.0000   0.0000   0.0000   0.0000   0.0000   0.0000
     0.0000   0.0000   0.0000   0.0000   0.0000   0.0000

          k = 0.1467 0.3464 0.0000 ( 11939 PWs)   bands (ev):

   -19.8088 -11.4473  -9.5875  -7.4888   2.7213   3.6761   4.5522   5.2800
     5.7868   6.1718   7.2346   7.2609   7.7867   9.3279   9.9032  10.0726
    11.7315  12.7413  13.7383  15.4669  15.8170  16.1764  17.5698  17.9464
    18.5532  19.0095  19.3652  19.4244  19.7175  20.1698

     occupation numbers 
     1.0000   1.0000   1.0000   1.0000   0.0000   0.0000   0.0000   0.0000
     0.0000   0.0000   0.0000   0.0000   0.0000   0.0000   0.0000   0.0000
     0.0000   0.0000   0.0000   0.0000   0.0000   0.0000   0.0000   0.0000
     0.0000   0.0000   0.0000   0.0000   0.0000   0.0000

          k = 0.1467 0.3618 0.0000 ( 11935 PWs)   bands (ev):

   -19.6218 -11.7597  -9.7254  -7.2772   2.3898   3.9377   4.8121   5.5506
     6.0543   6.4384   7.2179   7.5219   8.0432   9.5690  10.1675  10.3688
    11.8743  13.0015  13.6793  15.4944  15.9473  16.4292  17.2850  17.4536
    17.9571  18.4420  18.9048  19.5128  19.5342  19.7273

     occupation numbers 
     1.0000   1.0000   1.0000   1.0000   0.0000   0.0000   0.0000   0.0000
     0.0000   0.0000   0.0000   0.0000   0.0000   0.0000   0.0000   0.0000
     0.0000   0.0000   0.0000   0.0000   0.0000   0.0000   0.0000   0.0000
     0.0000   0.0000   0.0000   0.0000   0.0000   0.0000

          k = 0.1467 0.3772 0.0000 ( 11957 PWs)   bands (ev):

   -19.4273 -12.0762  -9.8526  -7.0593   2.0570   4.2103   5.0825   5.8328
     6.3332   6.7143   7.1934   7.7930   8.3154   9.8138  10.4399  10.6635
    11.9823  13.2721  13.6590  15.3407  16.0575  16.6917  17.0086  17.0963
    17.4222  17.8796  18.3869  19.2249  19.3366  19.6944

     occupation numbers 
     1.0000   1.0000   1.0000   1.0000   0.0000   0.0000   0.0000   0.0000
     0.0000   0.0000   0.0000   0.0000   0.0000   0.0000   0.0000   0.0000
     0.0000   0.0000   0.0000   0.0000   0.0000   0.0000   0.0000   0.0000
     0.0000   0.0000   0.0000   0.0000   0.0000   0.0000

          k = 0.1467 0.3926 0.0000 ( 11939 PWs)   bands (ev):

   -19.2256 -12.3953  -9.9695  -6.8358   1.7242   4.4938   5.3631   6.1268
     6.6232   6.9862   7.1795   8.0736   8.6007  10.0585  10.7189  10.9459
    12.0483  13.5524  13.6939  15.0540  16.0025  16.6901  16.7409  16.9631
    17.1471  17.3486  17.9617  18.7116  19.1234  19.6018

     occupation numbers 
     1.0000   1.0000   1.0000   1.0000   0.0000   0.0000   0.0000   0.0000
     0.0000   0.0000   0.0000   0.0000   0.0000   0.0000   0.0000   0.0000
     0.0000   0.0000   0.0000   0.0000   0.0000   0.0000   0.0000   0.0000
     0.0000   0.0000   0.0000   0.0000   0.0000   0.0000

          k = 0.1467 0.4080 0.0000 ( 11935 PWs)   bands (ev):

   -19.0169 -12.7157 -10.0764  -6.6077   1.3931   4.7881   5.6535   6.4323
     6.9244   7.0925   7.3408   8.3630   8.8981  10.2972  10.9983  11.2050
    12.0776  13.7830  13.8409  14.7178  15.6817  16.1438  16.5903  16.8580
    17.0116  17.2421  17.7269  18.2018  18.8284  19.3356

     occupation numbers 
     1.0000   1.0000   1.0000   1.0000   0.0000   0.0000   0.0000   0.0000
     0.0000   0.0000   0.0000   0.0000   0.0000   0.0000   0.0000   0.0000
     0.0000   0.0000   0.0000   0.0000   0.0000   0.0000   0.0000   0.0000
     0.0000   0.0000   0.0000   0.0000   0.0000   0.0000

          k = 0.1467 0.4234 0.0000 ( 11940 PWs)   bands (ev):

   -18.8014 -13.0360 -10.1735  -6.3760   1.0653   5.0930   5.9534   6.7489
     7.0706   7.2364   7.6423   8.6599   9.2070  10.5201  11.2506  11.4440
    12.0897  13.9023  14.1235  14.4070  15.2806  15.5924  16.1530  16.4253
    17.0790  17.5255  17.5672  17.7280  18.5526  19.1701

     occupation numbers 
     1.0000   1.0000   1.0000   1.0000   0.0000   0.0000   0.0000   0.0000
     0.0000   0.0000   0.0000   0.0000   0.0000   0.0000   0.0000   0.0000
     0.0000   0.0000   0.0000   0.0000   0.0000   0.0000   0.0000   0.0000
     0.0000   0.0000   0.0000   0.0000   0.0000   0.0000

          k = 0.1467 0.4388 0.0000 ( 11945 PWs)   bands (ev):

   -18.5794 -13.3551 -10.2610  -6.1423   0.7427   5.4084   6.2622   7.0262
     7.0915   7.5592   7.9648   8.9624   9.5270  10.7125  11.3969  11.7094
    12.1116  13.9894  14.0854  14.4767  14.9285  15.0527  15.6670  15.9506
    17.0107  17.2920  17.5187  17.8135  18.4048  18.9932

     occupation numbers 
     1.0000   1.0000   1.0000   1.0000   0.0000   0.0000   0.0000   0.0000
     0.0000   0.0000   0.0000   0.0000   0.0000   0.0000   0.0000   0.0000
     0.0000   0.0000   0.0000   0.0000   0.0000   0.0000   0.0000   0.0000
     0.0000   0.0000   0.0000   0.0000   0.0000   0.0000

          k = 0.1467 0.4542 0.0000 ( 11943 PWs)   bands (ev):

   -18.3513 -13.6717 -10.3390  -5.9084   0.4280   5.7337   6.5791   7.0056
     7.4227   7.8921   8.3004   9.2671   9.8578  10.8572  11.3924  12.0148
    12.1685  13.8886  13.9156  14.5275  14.7179  14.7857  15.2474  15.4857
    16.5965  16.9172  17.6976  18.0914  18.3284  18.5777

     occupation numbers 
     1.0000   1.0000   1.0000   1.0000   0.0000   0.0000   0.0000   0.0000
     0.0000   0.0000   0.0000   0.0000   0.0000   0.0000   0.0000   0.0000
     0.0000   0.0000   0.0000   0.0000   0.0000   0.0000   0.0000   0.0000
     0.0000   0.0000   0.0000   0.0000   0.0000   0.0000

          k = 0.1467 0.4696 0.0000 ( 11953 PWs)   bands (ev):

   -18.1178 -13.9848 -10.4078  -5.6771   0.1242   6.0682   6.9029   6.9789
     7.7747   8.2348   8.6480   9.5676  10.1986  10.9454  11.2484  12.2673
    12.3400  13.6610  13.7020  14.0663  14.4695  14.9919  15.1044  15.1667
    16.1524  16.5152  17.8888  18.1903  18.2091  18.3212

     occupation numbers 
     1.0000   1.0000   1.0000   1.0000   0.0000   0.0000   0.0000   0.0000
     0.0000   0.0000   0.0000   0.0000   0.0000   0.0000   0.0000   0.0000
     0.0000   0.0000   0.0000   0.0000   0.0000   0.0000   0.0000   0.0000
     0.0000   0.0000   0.0000   0.0000   0.0000   0.0000

          k = 0.1467 0.4850 0.0000 ( 11961 PWs)   bands (ev):

   -17.8796 -14.2928 -10.4672  -5.4519  -0.1648   6.4092   6.9581   7.2323
     8.1389   8.5859   9.0069   9.8504  10.5463  10.9895  10.9986  12.3742
    12.6757  13.3579  13.3777  13.7554  14.0779  14.6846  15.1648  15.4386
    15.7959  16.1421  17.6283  17.9175  18.3066  18.3761

     occupation numbers 
     1.0000   1.0000   1.0000   1.0000   0.0000   0.0000   0.0000   0.0000
     0.0000   0.0000   0.0000   0.0000   0.0000   0.0000   0.0000   0.0000
     0.0000   0.0000   0.0000   0.0000   0.0000   0.0000   0.0000   0.0000
     0.0000   0.0000   0.0000   0.0000   0.0000   0.0000

          k = 0.1467 0.5004 0.0000 ( 11953 PWs)   bands (ev):

   -17.6382 -14.5940 -10.5174  -5.2375  -0.4339   6.7376   6.9630   7.5647
     8.5149   8.9431   9.3768  10.0867  10.6519  10.9292  11.0262  12.3980
    12.8864  13.0232  13.1661  13.4718  13.7245  14.4422  15.0008  15.6312
    15.7650  15.9458  17.2137  17.5707  18.3524  18.5672

     occupation numbers 
     1.0000   1.0000   1.0000   1.0000   0.0000   0.0000   0.0000   0.0000
     0.0000   0.0000   0.0000   0.0000   0.0000   0.0000   0.0000   0.0000
     0.0000   0.0000   0.0000   0.0000   0.0000   0.0000   0.0000   0.0000
     0.0000   0.0000   0.0000   0.0000   0.0000   0.0000

          k = 0.1467 0.5158 0.0000 ( 11941 PWs)   bands (ev):

   -17.3961 -14.8854 -10.5585  -5.0404  -0.6761   6.8715   7.1753   7.8961
     8.9025   9.3007   9.7564  10.2284  10.2962  11.1051  11.2909  12.2765
    12.4123  12.9504  13.0781  13.3911  13.5938  14.2325  14.6517  15.4866
    15.9588  16.1684  16.8285  17.2327  18.3230  18.7829

     occupation numbers 
     1.0000   1.0000   1.0000   1.0000   0.0000   0.0000   0.0000   0.0000
     0.0000   0.0000   0.0000   0.0000   0.0000   0.0000   0.0000   0.0000
     0.0000   0.0000   0.0000   0.0000   0.0000   0.0000   0.0000   0.0000
     0.0000   0.0000   0.0000   0.0000   0.0000   0.0000

          k = 0.1467 0.5312 0.0000 ( 11943 PWs)   bands (ev):

   -17.1584 -15.1617 -10.5904  -4.8691  -0.8828   6.8722   7.5334   8.2195
     9.3017   9.6373   9.9003  10.1574  10.2613  11.2389  11.6683  11.9379
    12.0858  12.6667  12.6748  13.6573  13.7080  13.9885  14.3503  15.3492
    16.0440  16.3960  16.6312  17.0055  18.2971  18.6215

     occupation numbers 
     1.0000   1.0000   1.0000   1.0000   0.0000   0.0000   0.0000   0.0000
     0.0000   0.0000   0.0000   0.0000   0.0000   0.0000   0.0000   0.0000
     0.0000   0.0000   0.0000   0.0000   0.0000   0.0000   0.0000   0.0000
     0.0000   0.0000   0.0000   0.0000   0.0000   0.0000

          k = 0.1467 0.5466 0.0000 ( 11948 PWs)   bands (ev):

   -16.9364 -15.4115 -10.6132  -4.7343  -1.0431   6.8651   7.9109   8.5202
     9.5063   9.7143   9.8487  10.3187  10.5547  11.3380  11.4708  11.8865
    12.0507  12.2514  12.4807  13.5743  13.5965  14.1113  14.3190  15.2321
    15.7979  16.3787  16.8115  17.0920  18.2768  18.2847

     occupation numbers 
     1.0000   1.0000   1.0000   1.0000   0.0000   0.0000   0.0000   0.0000
     0.0000   0.0000   0.0000   0.0000   0.0000   0.0000   0.0000   0.0000
     0.0000   0.0000   0.0000   0.0000   0.0000   0.0000   0.0000   0.0000
     0.0000   0.0000   0.0000   0.0000   0.0000   0.0000

          k = 0.1467 0.5620 0.0000 ( 11956 PWs)   bands (ev):

   -16.7581 -15.6065 -10.6268  -4.6471  -1.1456   6.8599   8.2948   8.7630
     9.1110   9.8192  10.1358  10.5727  10.9643  11.0161  11.2530  11.7457
    11.8129  12.4484  12.4874  13.2351  13.3328  14.4240  14.5210  15.0755
    15.4815  16.2618  17.1113  17.3501  17.9409  18.2612

     occupation numbers 
     1.0000   1.0000   1.0000   1.0000   0.0000   0.0000   0.0000   0.0000
     0.0000   0.0000   0.0000   0.0000   0.0000   0.0000   0.0000   0.0000
     0.0000   0.0000   0.0000   0.0000   0.0000   0.0000   0.0000   0.0000
     0.0000   0.0000   0.0000   0.0000   0.0000   0.0000

          k = 0.1467 0.5774 0.0000 ( 11941 PWs)   bands (ev):

   -16.6832 -15.6870 -10.6314  -4.6168  -1.1810   6.8581   8.6102   8.7912
     8.8671   9.7662  10.5665  10.5727  10.8006  11.0739  11.3649  11.4074
    11.7100  12.5479  12.7913  12.8973  13.1977  14.6153  14.6630  14.9404
    15.3098  16.2155  17.3198  17.5031  17.7209  18.2020

     occupation numbers 
     1.0000   1.0000   1.0000   1.0000   0.0000   0.0000   0.0000   0.0000
     0.0000   0.0000   0.0000   0.0000   0.0000   0.0000   0.0000   0.0000
     0.0000   0.0000   0.0000   0.0000   0.0000   0.0000   0.0000   0.0000
     0.0000   0.0000   0.0000   0.0000   0.0000   0.0000

          k = 0.1600 0.2771 0.0000 ( 11921 PWs)   bands (ev):

   -20.4850 -10.2455  -8.9440  -8.2665   2.7351   3.6105   4.0286   4.3094
     4.8251   5.2106   6.3169   6.7803   7.3242   8.4305   8.8960   9.0041
    11.0155  11.8031  13.8494  14.4250  15.2573  15.7898  18.5367  19.2463
    19.7874  20.1379  20.1684  21.3351  21.5231  21.5482

     occupation numbers 
     1.0000   1.0000   1.0000   1.0000   0.0000   0.0000   0.0000   0.0000
     0.0000   0.0000   0.0000   0.0000   0.0000   0.0000   0.0000   0.0000
     0.0000   0.0000   0.0000   0.0000   0.0000   0.0000   0.0000   0.0000
     0.0000   0.0000   0.0000   0.0000   0.0000   0.0000

          k = 0.1600 0.2925 0.0000 ( 11923 PWs)   bands (ev):

   -20.3328 -10.4966  -9.1491  -8.0896   2.9464   3.7232   3.8231   4.5270
     5.0407   5.4266   6.5289   6.9885   7.4539   8.6341   9.0192   9.2174
    11.1917  12.0140  13.8693  14.7643  15.4649  15.6848  18.6810  19.2292
    19.5428  19.7416  19.8610  20.8760  20.9158  21.3128

     occupation numbers 
     1.0000   1.0000   1.0000   1.0000   0.0000   0.0000   0.0000   0.0000
     0.0000   0.0000   0.0000   0.0000   0.0000   0.0000   0.0000   0.0000
     0.0000   0.0000   0.0000   0.0000   0.0000   0.0000   0.0000   0.0000
     0.0000   0.0000   0.0000   0.0000   0.0000   0.0000

          k = 0.1600 0.3079 0.0000 ( 11929 PWs)   bands (ev):

   -20.1726 -10.7602  -9.3427  -7.9045   3.1688   3.4150   4.0437   4.7565
     5.2680   5.6541   6.7520   7.2000   7.5506   8.8468   9.1920   9.4432
    11.3675  12.2360  13.8410  15.0842  15.6559  15.6829  18.7679  18.8137
    19.3267  19.5748  19.7539  20.2286  20.4541  20.9655

     occupation numbers 
     1.0000   1.0000   1.0000   1.0000   0.0000   0.0000   0.0000   0.0000
     0.0000   0.0000   0.0000   0.0000   0.0000   0.0000   0.0000   0.0000
     0.0000   0.0000   0.0000   0.0000   0.0000   0.0000   0.0000   0.0000
     0.0000   0.0000   0.0000   0.0000   0.0000   0.0000

          k = 0.1600 0.3233 0.0000 ( 11935 PWs)   bands (ev):

   -20.0048 -11.0356  -9.5236  -7.7115   3.0998   3.4030   4.2762   4.9977
     5.5067   5.8931   6.9859   7.3929   7.6389   9.0678   9.4096   9.6812
    11.5376  12.4689  13.7752  15.3688  15.7016  15.9109  18.2717  18.6909
    19.1412  19.4055  19.6012  19.9199  19.9337  20.5165

     occupation numbers 
     1.0000   1.0000   1.0000   1.0000   0.0000   0.0000   0.0000   0.0000
     0.0000   0.0000   0.0000   0.0000   0.0000   0.0000   0.0000   0.0000
     0.0000   0.0000   0.0000   0.0000   0.0000   0.0000   0.0000   0.0000
     0.0000   0.0000   0.0000   0.0000   0.0000   0.0000

          k = 0.1600 0.3387 0.0000 ( 11939 PWs)   bands (ev):

   -19.8293 -11.3217  -9.6912  -7.5109   2.7811   3.6478   4.5196   5.2506
     5.7568   6.1436   7.2304   7.5021   7.7924   9.2962   9.6609   9.9315
    11.6940  12.7127  13.6967  15.5883  15.8060  16.1486  17.8236  18.2348
    18.9518  19.2548  19.2674  19.3759  19.9064  20.1445

     occupation numbers 
     1.0000   1.0000   1.0000   1.0000   0.0000   0.0000   0.0000   0.0000
     0.0000   0.0000   0.0000   0.0000   0.0000   0.0000   0.0000   0.0000
     0.0000   0.0000   0.0000   0.0000   0.0000   0.0000   0.0000   0.0000
     0.0000   0.0000   0.0000   0.0000   0.0000   0.0000

          k = 0.1600 0.3541 0.0000 ( 11951 PWs)   bands (ev):

   -19.6462 -11.6168  -9.8457  -7.3031   2.4590   3.9038   4.7735   5.5153
     6.0183   6.4054   7.4852   7.5269   8.0211   9.5301   9.9333  10.1940
    11.8260  12.9672  13.6354  15.6871  15.9475  16.3957  17.4787  17.7376
    18.3482  18.8042  19.0441  19.3858  19.4055  19.9244

     occupation numbers 
     1.0000   1.0000   1.0000   1.0000   0.0000   0.0000   0.0000   0.0000
     0.0000   0.0000   0.0000   0.0000   0.0000   0.0000   0.0000   0.0000
     0.0000   0.0000   0.0000   0.0000   0.0000   0.0000   0.0000   0.0000
     0.0000   0.0000   0.0000   0.0000   0.0000   0.0000

          k = 0.1600 0.3695 0.0000 ( 11953 PWs)   bands (ev):

   -19.4558 -11.9191  -9.9874  -7.0887   2.1347   4.1708   5.0377   5.7917
     6.2911   6.6780   7.5192   7.7499   8.2808   9.7670  10.2153  10.4681
    11.9222  13.2322  13.6176  15.6010  16.0956  16.6521  17.2568  17.2787
    17.7680  18.2360  18.6660  19.0615  19.3687  19.6652

     occupation numbers 
     1.0000   1.0000   1.0000   1.0000   0.0000   0.0000   0.0000   0.0000
     0.0000   0.0000   0.0000   0.0000   0.0000   0.0000   0.0000   0.0000
     0.0000   0.0000   0.0000   0.0000   0.0000   0.0000   0.0000   0.0000
     0.0000   0.0000   0.0000   0.0000   0.0000   0.0000

          k = 0.1600 0.3849 0.0000 ( 11949 PWs)   bands (ev):

   -19.2580 -12.2267 -10.1169  -6.8682   1.8096   4.4487   5.3120   6.0799
     6.5751   6.9603   7.4993   8.0239   8.5576  10.0030  10.4966  10.7520
    11.9778  13.5073  13.6597  15.3410  16.1629  16.8785  16.9170  17.0425
    17.3483  17.6811  18.1977  18.8821  18.9744  19.5852

     occupation numbers 
     1.0000   1.0000   1.0000   1.0000   0.0000   0.0000   0.0000   0.0000
     0.0000   0.0000   0.0000   0.0000   0.0000   0.0000   0.0000   0.0000
     0.0000   0.0000   0.0000   0.0000   0.0000   0.0000   0.0000   0.0000
     0.0000   0.0000   0.0000   0.0000   0.0000   0.0000

          k = 0.1600 0.4003 0.0000 ( 11937 PWs)   bands (ev):

   -19.0532 -12.5379 -10.2349  -6.6426   1.4847   4.7375   5.5960   6.3797
     6.8701   7.2442   7.4825   8.3064   8.8479  10.2316  10.7660  11.0426
    12.0016  13.7610  13.7915  14.9923  15.9452  16.5248  16.7675  17.1435
    17.1826  17.1892  17.8569  18.4915  18.6951  19.4362

     occupation numbers 
     1.0000   1.0000   1.0000   1.0000   0.0000   0.0000   0.0000   0.0000
     0.0000   0.0000   0.0000   0.0000   0.0000   0.0000   0.0000   0.0000
     0.0000   0.0000   0.0000   0.0000   0.0000   0.0000   0.0000   0.0000
     0.0000   0.0000   0.0000   0.0000   0.0000   0.0000

          k = 0.1600 0.4157 0.0000 ( 11943 PWs)   bands (ev):

   -18.8414 -12.8511 -10.3418  -6.4128   1.1618   5.0371   5.8892   6.6912
     7.1760   7.3997   7.6027   8.5961   9.1503  10.4429  11.0073  11.3381
    12.0161  13.9032  14.0807  14.6301  15.5426  15.9699  16.4883  16.7673
    17.0801  17.4635  17.7123  17.9995  18.4424  19.1809

     occupation numbers 
     1.0000   1.0000   1.0000   1.0000   0.0000   0.0000   0.0000   0.0000
     0.0000   0.0000   0.0000   0.0000   0.0000   0.0000   0.0000   0.0000
     0.0000   0.0000   0.0000   0.0000   0.0000   0.0000   0.0000   0.0000
     0.0000   0.0000   0.0000   0.0000   0.0000   0.0000

          k = 0.1600 0.4311 0.0000 ( 11946 PWs)   bands (ev):

   -18.6231 -13.1648 -10.4381  -6.1800   0.8426   5.3471   6.1911   7.0138
     7.3847   7.4924   7.9047   8.8907   9.4642  10.6231  11.1943  11.6397
    12.0499  14.0450  14.2375  14.4367  15.1403  15.4214  15.9942  16.2956
    17.1983  17.5449  17.5819  17.7321  18.2072  19.0276

     occupation numbers 
     1.0000   1.0000   1.0000   1.0000   0.0000   0.0000   0.0000   0.0000
     0.0000   0.0000   0.0000   0.0000   0.0000   0.0000   0.0000   0.0000
     0.0000   0.0000   0.0000   0.0000   0.0000   0.0000   0.0000   0.0000
     0.0000   0.0000   0.0000   0.0000   0.0000   0.0000

          k = 0.1600 0.4465 0.0000 ( 11949 PWs)   bands (ev):

   -18.3985 -13.4776 -10.5241  -5.9459   0.5291   5.6674   6.5006   7.3279
     7.3768   7.8190   8.2321   9.1866   9.7889  10.7593  11.2917  11.9502
    12.1274  13.9875  14.0789  14.7141  14.8582  14.8900  15.5124  15.8119
    16.9052  17.2240  17.6288  17.9198  18.1644  18.7155

     occupation numbers 
     1.0000   1.0000   1.0000   1.0000   0.0000   0.0000   0.0000   0.0000
     0.0000   0.0000   0.0000   0.0000   0.0000   0.0000   0.0000   0.0000
     0.0000   0.0000   0.0000   0.0000   0.0000   0.0000   0.0000   0.0000
     0.0000   0.0000   0.0000   0.0000   0.0000   0.0000

          k = 0.1600 0.4619 0.0000 ( 11945 PWs)   bands (ev):

   -18.1681 -13.7882 -10.6000  -5.7127   0.2241   5.9976   6.8168   7.3236
     7.6991   8.1549   8.5731   9.4771  10.1240  10.8505  11.2682  12.2550
    12.2709  13.7804  13.8757  14.3724  14.7175  15.0237  15.1773  15.3563
    16.4464  16.8202  17.8680  17.9231  18.3352  18.3401

     occupation numbers 
     1.0000   1.0000   1.0000   1.0000   0.0000   0.0000   0.0000   0.0000
     0.0000   0.0000   0.0000   0.0000   0.0000   0.0000   0.0000   0.0000
     0.0000   0.0000   0.0000   0.0000   0.0000   0.0000   0.0000   0.0000
     0.0000   0.0000   0.0000   0.0000   0.0000   0.0000

          k = 0.1600 0.4773 0.0000 ( 11947 PWs)   bands (ev):

   -17.9327 -14.0951 -10.6661  -5.4834  -0.0690   6.3370   7.1376   7.2983
     8.0568   8.4990   8.9259   9.7494  10.4675  10.9157  11.1188  12.4071
    12.6001  13.5643  13.5773  13.9263  14.3721  14.9007  15.2097  15.3749
    16.0136  16.4108  17.8795  17.8928  18.1566  18.2432

     occupation numbers 
     1.0000   1.0000   1.0000   1.0000   0.0000   0.0000   0.0000   0.0000
     0.0000   0.0000   0.0000   0.0000   0.0000   0.0000   0.0000   0.0000
     0.0000   0.0000   0.0000   0.0000   0.0000   0.0000   0.0000   0.0000
     0.0000   0.0000   0.0000   0.0000   0.0000   0.0000

          k = 0.1600 0.4927 0.0000 ( 11947 PWs)   bands (ev):

   -17.6933 -14.3968 -10.7226  -5.2619  -0.3459   6.6833   7.2782   7.4606
     8.4268   8.8488   9.2900   9.9805  10.7772  10.9095  10.9896  12.5032
    12.9310  13.2164  13.3100  13.6329  13.9585  14.5678  15.2258  15.6569
    15.7764  16.0637  17.4781  17.7927  17.9385  18.3784

     occupation numbers 
     1.0000   1.0000   1.0000   1.0000   0.0000   0.0000   0.0000   0.0000
     0.0000   0.0000   0.0000   0.0000   0.0000   0.0000   0.0000   0.0000
     0.0000   0.0000   0.0000   0.0000   0.0000   0.0000   0.0000   0.0000
     0.0000   0.0000   0.0000   0.0000   0.0000   0.0000

          k = 0.1600 0.5081 0.0000 ( 11947 PWs)   bands (ev):

   -17.4519 -14.6908 -10.7695  -5.0540  -0.6006   7.0230   7.2773   7.7815
     8.8086   9.1988   9.6644  10.1420  10.5267  11.1070  11.2022  12.4215
    12.7451  13.1649  13.2275  13.3935  13.6651  14.3321  14.9170  15.6128
    15.9223  16.1053  17.0633  17.4894  17.8330  18.5294

     occupation numbers 
     1.0000   1.0000   1.0000   1.0000   0.0000   0.0000   0.0000   0.0000
     0.0000   0.0000   0.0000   0.0000   0.0000   0.0000   0.0000   0.0000
     0.0000   0.0000   0.0000   0.0000   0.0000   0.0000   0.0000   0.0000
     0.0000   0.0000   0.0000   0.0000   0.0000   0.0000

          k = 0.1600 0.5235 0.0000 ( 11945 PWs)   bands (ev):

   -17.2119 -14.9733 -10.8069  -4.8670  -0.8254   7.1939   7.4578   8.0930
     9.2019   9.5329  10.0385  10.1784  10.2323  11.2652  11.5726  12.2233
    12.2721  12.8974  12.9505  13.6330  13.6891  14.1310  14.5490  15.4043
    16.1327  16.3720  16.7198  17.1738  17.7946  18.5236

     occupation numbers 
     1.0000   1.0000   1.0000   1.0000   0.0000   0.0000   0.0000   0.0000
     0.0000   0.0000   0.0000   0.0000   0.0000   0.0000   0.0000   0.0000
     0.0000   0.0000   0.0000   0.0000   0.0000   0.0000   0.0000   0.0000
     0.0000   0.0000   0.0000   0.0000   0.0000   0.0000

          k = 0.1600 0.5389 0.0000 ( 11946 PWs)   bands (ev):

   -16.9808 -15.2365 -10.8349  -4.7108  -1.0101   7.1997   7.8152   8.3822
     9.6057   9.7801   9.7945  10.3211  10.4515  11.3865  11.8010  11.9530
    12.0511  12.5456  12.5993  13.7505  13.7726  14.0569  14.3359  15.2668
    16.0384  16.4788  16.7290  17.0685  17.7702  18.3523

     occupation numbers 
     1.0000   1.0000   1.0000   1.0000   0.0000   0.0000   0.0000   0.0000
     0.0000   0.0000   0.0000   0.0000   0.0000   0.0000   0.0000   0.0000
     0.0000   0.0000   0.0000   0.0000   0.0000   0.0000   0.0000   0.0000
     0.0000   0.0000   0.0000   0.0000   0.0000   0.0000

          k = 0.1600 0.5543 0.0000 ( 11954 PWs)   bands (ev):

   -16.7762 -15.4626 -10.8536  -4.5967  -1.1433   7.1949   8.1931   8.6241
     9.3884   9.8852  10.0244  10.5290  10.8558  11.3418  11.3652  11.9004
    12.1129  12.3461  12.5022  13.4815  13.5371  14.3348  14.4765  15.1599
    15.7074  16.3373  17.0146  17.2655  17.7613  18.0735

     occupation numbers 
     1.0000   1.0000   1.0000   1.0000   0.0000   0.0000   0.0000   0.0000
     0.0000   0.0000   0.0000   0.0000   0.0000   0.0000   0.0000   0.0000
     0.0000   0.0000   0.0000   0.0000   0.0000   0.0000   0.0000   0.0000
     0.0000   0.0000   0.0000   0.0000   0.0000   0.0000

          k = 0.1600 0.5697 0.0000 ( 11954 PWs)   bands (ev):

   -16.6409 -15.6087 -10.8629  -4.5361  -1.2136   7.1917   8.5690   8.7725
     9.0060   9.8713  10.4521  10.7959  10.8913  11.2221  11.2695  11.6931
    11.7568  12.6163  12.7226  13.1245  13.2840  14.5787  14.7132  15.0445
    15.4124  16.2150  17.3299  17.4712  17.7647  17.7804

     occupation numbers 
     1.0000   1.0000   1.0000   1.0000   0.0000   0.0000   0.0000   0.0000
     0.0000   0.0000   0.0000   0.0000   0.0000   0.0000   0.0000   0.0000
     0.0000   0.0000   0.0000   0.0000   0.0000   0.0000   0.0000   0.0000
     0.0000   0.0000   0.0000   0.0000   0.0000   0.0000

          k = 0.1733 0.3002 0.0000 ( 11929 PWs)   bands (ev):

   -20.1768 -10.7310  -9.3663  -7.9091   3.1631   3.4285   4.0362   4.7506
     5.2619   5.6484   6.7459   7.2039   7.6337   8.8406   9.0893   9.4340
    11.3608  12.2302  13.8322  15.0988  15.6509  15.6773  18.8357  18.9608
    19.3816  19.4085  19.7087  20.5289  20.6496  20.6688

     occupation numbers 
     1.0000   1.0000   1.0000   1.0000   0.0000   0.0000   0.0000   0.0000
     0.0000   0.0000   0.0000   0.0000   0.0000   0.0000   0.0000   0.0000
     0.0000   0.0000   0.0000   0.0000   0.0000   0.0000   0.0000   0.0000
     0.0000   0.0000   0.0000   0.0000   0.0000   0.0000

          k = 0.1733 0.3156 0.0000 ( 11933 PWs)   bands (ev):

   -20.0130 -10.9774  -9.5719  -7.7205   3.1252   3.3917   4.2626   4.9859
     5.4946   5.8817   6.9737   7.4237   7.7772   9.0553   9.2110   9.6634
    11.5234  12.4574  13.7572  15.4059  15.6938  15.8998  18.5381  18.9081
    19.0578  19.1247  19.8951  20.0207  20.1291  20.4543

     occupation numbers 
     1.0000   1.0000   1.0000   1.0000   0.0000   0.0000   0.0000   0.0000
     0.0000   0.0000   0.0000   0.0000   0.0000   0.0000   0.0000   0.0000
     0.0000   0.0000   0.0000   0.0000   0.0000   0.0000   0.0000   0.0000
     0.0000   0.0000   0.0000   0.0000   0.0000   0.0000

          k = 0.1733 0.3310 0.0000 ( 11943 PWs)   bands (ev):

   -19.8416 -11.2364  -9.7637  -7.5241   2.8178   3.6308   4.4998   5.2330
     5.7387   6.1266   7.2120   7.6328   7.8942   9.2770   9.3890   9.9047
    11.6711  12.6955  13.6709  15.6640  15.7980  16.1319  18.0766  18.4944
    18.9244  19.1558  19.3880  19.6856  20.0805  20.2087

     occupation numbers 
     1.0000   1.0000   1.0000   1.0000   0.0000   0.0000   0.0000   0.0000
     0.0000   0.0000   0.0000   0.0000   0.0000   0.0000   0.0000   0.0000
     0.0000   0.0000   0.0000   0.0000   0.0000   0.0000   0.0000   0.0000
     0.0000   0.0000   0.0000   0.0000   0.0000   0.0000

          k = 0.1733 0.3464 0.0000 ( 11949 PWs)   bands (ev):

   -19.6626 -11.5073  -9.9406  -7.3203   2.5064   3.8812   4.7475   5.4918
     5.9942   6.3829   7.4606   7.7775   8.0440   9.5039   9.6148  10.1574
    11.7930  12.9444  13.6045  15.8303  15.9438  16.3730  17.6716  18.0139
    18.6987  18.8305  19.1016  19.3033  19.7148  19.9663

     occupation numbers 
     1.0000   1.0000   1.0000   1.0000   0.0000   0.0000   0.0000   0.0000
     0.0000   0.0000   0.0000   0.0000   0.0000   0.0000   0.0000   0.0000
     0.0000   0.0000   0.0000   0.0000   0.0000   0.0000   0.0000   0.0000
     0.0000   0.0000   0.0000   0.0000   0.0000   0.0000

          k = 0.1733 0.3618 0.0000 ( 11951 PWs)   bands (ev):

   -19.4761 -11.7887 -10.1024  -7.1097   2.1920   4.1425   5.0054   5.7624
     6.2610   6.6504   7.7189   7.8281   8.2683   9.7332   9.8732  10.4216
    11.8779  13.2037  13.5855  15.8328  16.1098  16.6228  17.3973  17.5266
    18.1482  18.5859  18.6127  19.1818  19.2122  19.8494

     occupation numbers 
     1.0000   1.0000   1.0000   1.0000   0.0000   0.0000   0.0000   0.0000
     0.0000   0.0000   0.0000   0.0000   0.0000   0.0000   0.0000   0.0000
     0.0000   0.0000   0.0000   0.0000   0.0000   0.0000   0.0000   0.0000
     0.0000   0.0000   0.0000   0.0000   0.0000   0.0000

          k = 0.1733 0.3772 0.0000 ( 11957 PWs)   bands (ev):

   -19.2823 -12.0790 -10.2496  -6.8926   1.8758   4.4149   5.2733   6.0447
     6.5389   6.9290   7.8327   7.9864   8.5302   9.9606  10.1483  10.6967
    11.9227  13.4733  13.6301  15.6318  16.2526  16.8799  17.0792  17.2575
    17.5904  18.0326  18.3464  18.7887  19.0061  19.6069

     occupation numbers 
     1.0000   1.0000   1.0000   1.0000   0.0000   0.0000   0.0000   0.0000
     0.0000   0.0000   0.0000   0.0000   0.0000   0.0000   0.0000   0.0000
     0.0000   0.0000   0.0000   0.0000   0.0000   0.0000   0.0000   0.0000
     0.0000   0.0000   0.0000   0.0000   0.0000   0.0000

          k = 0.1733 0.3926 0.0000 ( 11951 PWs)   bands (ev):

   -19.0814 -12.3761 -10.3828  -6.6699   1.5589   4.6981   5.5507   6.3387
     6.8278   7.2176   7.8189   8.2620   8.8111  10.1794  10.4254  10.9824
    11.9390  13.7375  13.7525  15.2943  16.1945  16.8443  16.9075  17.1399
    17.3106  17.4905  17.9428  18.5990  18.6793  19.2977

     occupation numbers 
     1.0000   1.0000   1.0000   1.0000   0.0000   0.0000   0.0000   0.0000
     0.0000   0.0000   0.0000   0.0000   0.0000   0.0000   0.0000   0.0000
     0.0000   0.0000   0.0000   0.0000   0.0000   0.0000   0.0000   0.0000
     0.0000   0.0000   0.0000   0.0000   0.0000   0.0000

          k = 0.1733 0.4080 0.0000 ( 11945 PWs)   bands (ev):

   -18.8735 -12.6781 -10.5030  -6.4424   1.2425   4.9921   5.8372   6.6444
     7.1275   7.5110   7.8022   8.5444   9.1061  10.3790  10.6891  11.2777
    11.9520  13.8922  14.0395  14.9092  15.8293  16.3589  16.7971  17.0786
    17.1018  17.3958  17.6626  18.2533  18.4261  19.0546

     occupation numbers 
     1.0000   1.0000   1.0000   1.0000   0.0000   0.0000   0.0000   0.0000
     0.0000   0.0000   0.0000   0.0000   0.0000   0.0000   0.0000   0.0000
     0.0000   0.0000   0.0000   0.0000   0.0000   0.0000   0.0000   0.0000
     0.0000   0.0000   0.0000   0.0000   0.0000   0.0000

          k = 0.1733 0.4234 0.0000 ( 11949 PWs)   bands (ev):

   -18.6589 -12.9830 -10.6107  -6.2111   0.9283   5.2967   6.1320   6.9617
     7.4376   7.7165   7.8805   8.8312   9.4133  10.5466  10.9211  11.5817
    11.9916  14.0659  14.3160  14.5476  15.3993  15.8047  16.3446  16.6500
    17.2237  17.4853  17.7169  17.7911  18.1540  18.8528

     occupation numbers 
     1.0000   1.0000   1.0000   1.0000   0.0000   0.0000   0.0000   0.0000
     0.0000   0.0000   0.0000   0.0000   0.0000   0.0000   0.0000   0.0000
     0.0000   0.0000   0.0000   0.0000   0.0000   0.0000   0.0000   0.0000
     0.0000   0.0000   0.0000   0.0000   0.0000   0.0000

          k = 0.1733 0.4388 0.0000 ( 11941 PWs)   bands (ev):

   -18.4379 -13.2891 -10.7068  -5.9775   0.6181   5.6117   6.4342   7.2904
     7.7126   7.7576   8.1787   9.1182   9.7318  10.6726  11.0962  11.8935
    12.0815  14.1601  14.1927  14.6646  15.0316  15.2611  15.8384  16.1624
    17.2106  17.3998  17.5505  17.7026  18.0691  18.6532

     occupation numbers 
     1.0000   1.0000   1.0000   1.0000   0.0000   0.0000   0.0000   0.0000
     0.0000   0.0000   0.0000   0.0000   0.0000   0.0000   0.0000   0.0000
     0.0000   0.0000   0.0000   0.0000   0.0000   0.0000   0.0000   0.0000
     0.0000   0.0000   0.0000   0.0000   0.0000   0.0000

          k = 0.1733 0.4542 0.0000 ( 11935 PWs)   bands (ev):

   -18.2109 -13.5950 -10.7916  -5.7434   0.3142   5.9369   6.7424   7.6232
     7.6940   8.0868   8.5109   9.3984  10.0608  10.7615  11.1824  12.2123
    12.2274  13.8858  14.1018  14.7282  14.8730  14.9739  15.3811  15.6786
    16.7624  17.1240  17.5166  17.7576  18.3017  18.4152

     occupation numbers 
     1.0000   1.0000   1.0000   1.0000   0.0000   0.0000   0.0000   0.0000
     0.0000   0.0000   0.0000   0.0000   0.0000   0.0000   0.0000   0.0000
     0.0000   0.0000   0.0000   0.0000   0.0000   0.0000   0.0000   0.0000
     0.0000   0.0000   0.0000   0.0000   0.0000   0.0000

          k = 0.1733 0.4696 0.0000 ( 11945 PWs)   bands (ev):

   -17.9785 -13.8988 -10.8658  -5.5113   0.0194   6.2717   7.0546   7.6554
     7.9872   8.4238   8.8570   9.6591  10.3988  10.8373  11.1518  12.4104
    12.5373  13.6762  13.7945  14.2269  14.6784  15.1660  15.2284  15.3384
    16.2986  16.7160  17.4355  17.9614  18.1231  18.4456

     occupation numbers 
     1.0000   1.0000   1.0000   1.0000   0.0000   0.0000   0.0000   0.0000
     0.0000   0.0000   0.0000   0.0000   0.0000   0.0000   0.0000   0.0000
     0.0000   0.0000   0.0000   0.0000   0.0000   0.0000   0.0000   0.0000
     0.0000   0.0000   0.0000   0.0000   0.0000   0.0000

          k = 0.1733 0.4850 0.0000 ( 11947 PWs)   bands (ev):

   -17.7417 -14.1991 -10.9295  -5.2846  -0.2625   6.6156   7.3678   7.6316
     8.3506   8.7660   9.2149   9.8813  10.7356  10.9349  11.0089  12.5757
    12.8643  13.4609  13.4792  13.7993  14.2579  14.7840  15.3538  15.6167
    15.9070  16.3121  17.3779  17.7074  18.1714  18.1775

     occupation numbers 
     1.0000   1.0000   1.0000   1.0000   0.0000   0.0000   0.0000   0.0000
     0.0000   0.0000   0.0000   0.0000   0.0000   0.0000   0.0000   0.0000
     0.0000   0.0000   0.0000   0.0000   0.0000   0.0000   0.0000   0.0000
     0.0000   0.0000   0.0000   0.0000   0.0000   0.0000

          k = 0.1733 0.5004 0.0000 ( 11947 PWs)   bands (ev):

   -17.5018 -14.4937 -10.9831  -5.0679  -0.5265   6.9665   7.6123   7.6776
     8.7264   9.1079   9.5836  10.0488  10.7193  11.0830  11.1290  12.5855
    13.0557  13.2072  13.3122  13.5338  13.8547  14.4593  15.1990  15.7794
    15.8834  16.0874  17.3057  17.3288  17.8018  18.2415

     occupation numbers 
     1.0000   1.0000   1.0000   1.0000   0.0000   0.0000   0.0000   0.0000
     0.0000   0.0000   0.0000   0.0000   0.0000   0.0000   0.0000   0.0000
     0.0000   0.0000   0.0000   0.0000   0.0000   0.0000   0.0000   0.0000
     0.0000   0.0000   0.0000   0.0000   0.0000   0.0000

          k = 0.1733 0.5158 0.0000 ( 11955 PWs)   bands (ev):

   -17.2613 -14.7795 -11.0267  -4.8677  -0.7658   7.3151   7.6077   7.9763
     9.1138   9.4356   9.9610  10.1719  10.4084  11.2758  11.4888  12.3896
    12.6118  13.1602  13.1824  13.5758  13.7075  14.2376  14.8158  15.5382
    16.1230  16.3182  16.9113  17.2770  17.4488  18.2282

     occupation numbers 
     1.0000   1.0000   1.0000   1.0000   0.0000   0.0000   0.0000   0.0000
     0.0000   0.0000   0.0000   0.0000   0.0000   0.0000   0.0000   0.0000
     0.0000   0.0000   0.0000   0.0000   0.0000   0.0000   0.0000   0.0000
     0.0000   0.0000   0.0000   0.0000   0.0000   0.0000

          k = 0.1733 0.5312 0.0000 ( 11955 PWs)   bands (ev):

   -17.0253 -15.0512 -11.0606  -4.6927  -0.9715   7.5272   7.7513   8.2520
     9.5127   9.7136  10.0399  10.3023  10.3626  11.4464  11.8608  12.1440
    12.1837  12.8234  12.8302  13.8199  13.8430  14.0982  14.4714  15.3257
    16.2508  16.5333  16.6846  17.1294  17.3050  18.1615

     occupation numbers 
     1.0000   1.0000   1.0000   1.0000   0.0000   0.0000   0.0000   0.0000
     0.0000   0.0000   0.0000   0.0000   0.0000   0.0000   0.0000   0.0000
     0.0000   0.0000   0.0000   0.0000   0.0000   0.0000   0.0000   0.0000
     0.0000   0.0000   0.0000   0.0000   0.0000   0.0000

          k = 0.1733 0.5466 0.0000 ( 11962 PWs)   bands (ev):

   -16.8050 -15.2972 -11.0846  -4.5539  -1.1324   7.5404   8.1045   8.4850
     9.6648   9.8856   9.9252  10.5085  10.7581  11.4647  11.6788  12.0832
    12.2334  12.4344  12.5656  13.6891  13.7733  14.2709  14.4406  15.2040
    15.9663  16.4736  16.9005  17.1303  17.3390  18.0361

     occupation numbers 
     1.0000   1.0000   1.0000   1.0000   0.0000   0.0000   0.0000   0.0000
     0.0000   0.0000   0.0000   0.0000   0.0000   0.0000   0.0000   0.0000
     0.0000   0.0000   0.0000   0.0000   0.0000   0.0000   0.0000   0.0000
     0.0000   0.0000   0.0000   0.0000   0.0000   0.0000

          k = 0.1733 0.5620 0.0000 ( 11958 PWs)   bands (ev):

   -16.6281 -15.4896 -11.0991  -4.4636  -1.2359   7.5379   8.4797   8.6467
     9.2833   9.9569  10.3465  10.7700  11.1643  11.2258  11.3590  11.9036
    12.0020  12.6260  12.6275  13.3774  13.4771  14.5149  14.6917  15.1330
    15.6160  16.2867  17.1722  17.2205  17.5184  17.8271

     occupation numbers 
     1.0000   1.0000   1.0000   1.0000   0.0000   0.0000   0.0000   0.0000
     0.0000   0.0000   0.0000   0.0000   0.0000   0.0000   0.0000   0.0000
     0.0000   0.0000   0.0000   0.0000   0.0000   0.0000   0.0000   0.0000
     0.0000   0.0000   0.0000   0.0000   0.0000   0.0000

          k = 0.1733 0.5774 0.0000 ( 11951 PWs)   bands (ev):

   -16.5538 -15.5690 -11.1039  -4.4322  -1.2719   7.5366   8.7054   8.7827
     8.9780   9.9749  10.7761  10.7834  10.9252  11.2851  11.5561  11.6089
    11.7777  12.7580  12.9367  13.0827  13.2937  14.6282  14.8714  15.0975
    15.4123  16.2032  17.1773  17.5258  17.5583  17.6419

     occupation numbers 
     1.0000   1.0000   1.0000   1.0000   0.0000   0.0000   0.0000   0.0000
     0.0000   0.0000   0.0000   0.0000   0.0000   0.0000   0.0000   0.0000
     0.0000   0.0000   0.0000   0.0000   0.0000   0.0000   0.0000   0.0000
     0.0000   0.0000   0.0000   0.0000   0.0000   0.0000

          k = 0.1867 0.3233 0.0000 ( 11941 PWs)   bands (ev):

   -19.8457 -11.2057  -9.7901  -7.5285   2.8302   3.6252   4.4931   5.2271
     5.7327   6.1209   7.2059   7.6519   7.9765   9.2706   9.2728   9.8973
    11.6635  12.6898  13.6621  15.6897  15.7952  16.1263  18.2244  18.6266
    18.7569  19.0758  19.8003  19.8273  19.8283  20.0953

     occupation numbers 
     1.0000   1.0000   1.0000   1.0000   0.0000   0.0000   0.0000   0.0000
     0.0000   0.0000   0.0000   0.0000   0.0000   0.0000   0.0000   0.0000
     0.0000   0.0000   0.0000   0.0000   0.0000   0.0000   0.0000   0.0000
     0.0000   0.0000   0.0000   0.0000   0.0000   0.0000

          k = 0.1867 0.3387 0.0000 ( 11943 PWs)   bands (ev):

   -19.6707 -11.4464  -9.9943  -7.3290   2.5304   3.8698   4.7343   5.4801
     5.9822   6.3715   7.4482   7.8733   8.1417   9.3946   9.4907  10.1431
    11.7762  12.9329  13.5886  15.9065  15.9413  16.3615  17.8303  18.2198
    18.5344  19.0313  19.1938  19.5565  19.6270  19.8703

     occupation numbers 
     1.0000   1.0000   1.0000   1.0000   0.0000   0.0000   0.0000   0.0000
     0.0000   0.0000   0.0000   0.0000   0.0000   0.0000   0.0000   0.0000
     0.0000   0.0000   0.0000   0.0000   0.0000   0.0000   0.0000   0.0000
     0.0000   0.0000   0.0000   0.0000   0.0000   0.0000

          k = 0.1867 0.3541 0.0000 ( 11951 PWs)   bands (ev):

   -19.4883 -11.6998 -10.1825  -7.1223   2.2271   4.1256   4.9858   5.7448
     6.2429   6.6336   7.7002   8.0485   8.3071   9.5793   9.7128  10.4003
    11.8507  13.1866  13.5653  16.0012  16.1139  16.6040  17.4724  17.7699
    18.3678  18.6093  18.7851  19.1696  19.4410  19.5500

     occupation numbers 
     1.0000   1.0000   1.0000   1.0000   0.0000   0.0000   0.0000   0.0000
     0.0000   0.0000   0.0000   0.0000   0.0000   0.0000   0.0000   0.0000
     0.0000   0.0000   0.0000   0.0000   0.0000   0.0000   0.0000   0.0000
     0.0000   0.0000   0.0000   0.0000   0.0000   0.0000

          k = 0.1867 0.3695 0.0000 ( 11955 PWs)   bands (ev):

   -19.2985 -11.9652 -10.3539  -6.9089   1.9211   4.3923   5.2472   6.0212
     6.5147   6.9070   7.9612   8.1321   8.5282   9.8130   9.9320  10.6687
    11.8849  13.4505  13.6087  15.8984  16.2913  16.8497  17.2514  17.3110
    17.9443  18.3160  18.3480  18.8554  19.0141  19.2963

     occupation numbers 
     1.0000   1.0000   1.0000   1.0000   0.0000   0.0000   0.0000   0.0000
     0.0000   0.0000   0.0000   0.0000   0.0000   0.0000   0.0000   0.0000
     0.0000   0.0000   0.0000   0.0000   0.0000   0.0000   0.0000   0.0000
     0.0000   0.0000   0.0000   0.0000   0.0000   0.0000

          k = 0.1867 0.3849 0.0000 ( 11947 PWs)   bands (ev):

   -19.1016 -12.2412 -10.5085  -6.6895   1.6134   4.6700   5.5180   6.3094
     6.7975   7.1914   8.1542   8.2301   8.7913  10.0747  10.1413  10.9480
    11.8926  13.7177  13.7244  15.6061  16.3832  16.9417  17.0526  17.1822
    17.3961  17.8266  18.0781  18.6018  18.6633  19.1417

     occupation numbers 
     1.0000   1.0000   1.0000   1.0000   0.0000   0.0000   0.0000   0.0000
     0.0000   0.0000   0.0000   0.0000   0.0000   0.0000   0.0000   0.0000
     0.0000   0.0000   0.0000   0.0000   0.0000   0.0000   0.0000   0.0000
     0.0000   0.0000   0.0000   0.0000   0.0000   0.0000

          k = 0.1867 0.4003 0.0000 ( 11955 PWs)   bands (ev):

   -18.8976 -12.5258 -10.6471  -6.4647   1.3052   4.9584   5.7977   6.6092
     7.0910   7.4860   8.1488   8.5053   9.0758  10.3297  10.3443  11.2378
    11.9014  13.8781  14.0070  15.2205  16.1250  16.7524  16.9197  17.0957
    17.3051  17.3915  17.6776  18.3305  18.5201  18.9910

     occupation numbers 
     1.0000   1.0000   1.0000   1.0000   0.0000   0.0000   0.0000   0.0000
     0.0000   0.0000   0.0000   0.0000   0.0000   0.0000   0.0000   0.0000
     0.0000   0.0000   0.0000   0.0000   0.0000   0.0000   0.0000   0.0000
     0.0000   0.0000   0.0000   0.0000   0.0000   0.0000

          k = 0.1867 0.4157 0.0000 ( 11941 PWs)   bands (ev):

   -18.6868 -12.8168 -10.7707  -6.2355   0.9978   5.2574   6.0854   6.9208
     7.3948   7.7874   8.1345   8.7842   9.3750  10.4850  10.6029  11.5376
    11.9423  14.0682  14.2943  14.8179  15.6905  16.2002  16.7060  16.9414
    17.1747  17.2269  17.6959  17.9824  18.3455  18.6800

     occupation numbers 
     1.0000   1.0000   1.0000   1.0000   0.0000   0.0000   0.0000   0.0000
     0.0000   0.0000   0.0000   0.0000   0.0000   0.0000   0.0000   0.0000
     0.0000   0.0000   0.0000   0.0000   0.0000   0.0000   0.0000   0.0000
     0.0000   0.0000   0.0000   0.0000   0.0000   0.0000

          k = 0.1867 0.4311 0.0000 ( 11941 PWs)   bands (ev):

   -18.4695 -13.1121 -10.8804  -6.0031   0.6928   5.5670   6.3801   7.2440
     7.7083   8.0363   8.1776   9.0624   9.6865  10.5998  10.8299  11.8464
    12.0385  14.2504  14.3894  14.6332  15.2674  15.6498  16.1932  16.5222
    17.0830  17.3770  17.5597  17.8760  18.0847  18.4703

     occupation numbers 
     1.0000   1.0000   1.0000   1.0000   0.0000   0.0000   0.0000   0.0000
     0.0000   0.0000   0.0000   0.0000   0.0000   0.0000   0.0000   0.0000
     0.0000   0.0000   0.0000   0.0000   0.0000   0.0000   0.0000   0.0000
     0.0000   0.0000   0.0000   0.0000   0.0000   0.0000

          k = 0.1867 0.4465 0.0000 ( 11949 PWs)   bands (ev):

   -18.2460 -13.4097 -10.9770  -5.7690   0.3920   5.8867   6.6803   7.5786
     8.0308   8.0509   8.4644   9.3322  10.0090  10.6836  10.9994  12.1631
    12.1947  14.0627  14.3007  14.9200  14.9907  15.1135  15.6917  16.0323
    17.0033  17.0802  17.5409  17.5923  18.2574  18.3327

     occupation numbers 
     1.0000   1.0000   1.0000   1.0000   0.0000   0.0000   0.0000   0.0000
     0.0000   0.0000   0.0000   0.0000   0.0000   0.0000   0.0000   0.0000
     0.0000   0.0000   0.0000   0.0000   0.0000   0.0000   0.0000   0.0000
     0.0000   0.0000   0.0000   0.0000   0.0000   0.0000

          k = 0.1867 0.4619 0.0000 ( 11953 PWs)   bands (ev):

   -18.0170 -13.7076 -11.0614  -5.5353   0.0979   6.2164   6.9837   7.9211
     8.0310   8.3606   8.8009   9.5810  10.3409  10.7637  11.0802  12.3957
    12.4855  13.7876  14.0551  14.5868  14.9337  15.2263  15.3112  15.5578
    16.6085  16.9060  17.1279  17.7126  18.2535  18.4768

     occupation numbers 
     1.0000   1.0000   1.0000   1.0000   0.0000   0.0000   0.0000   0.0000
     0.0000   0.0000   0.0000   0.0000   0.0000   0.0000   0.0000   0.0000
     0.0000   0.0000   0.0000   0.0000   0.0000   0.0000   0.0000   0.0000
     0.0000   0.0000   0.0000   0.0000   0.0000   0.0000

          k = 0.1867 0.4773 0.0000 ( 11949 PWs)   bands (ev):

   -17.7829 -14.0040 -11.1342  -5.3048  -0.1863   6.5556   7.2870   7.9976
     8.2871   8.6950   9.1519   9.7927  10.6760  10.8754  11.0510  12.6062
    12.8096  13.5802  13.7038  14.0930  14.5876  15.0732  15.3803  15.5668
    16.1578  16.6050  16.9303  17.6677  18.1712  18.4481

     occupation numbers 
     1.0000   1.0000   1.0000   1.0000   0.0000   0.0000   0.0000   0.0000
     0.0000   0.0000   0.0000   0.0000   0.0000   0.0000   0.0000   0.0000
     0.0000   0.0000   0.0000   0.0000   0.0000   0.0000   0.0000   0.0000
     0.0000   0.0000   0.0000   0.0000   0.0000   0.0000

          k = 0.1867 0.4927 0.0000 ( 11941 PWs)   bands (ev):

   -17.5451 -14.2969 -11.1958  -5.0813  -0.4565   6.9036   7.5853   7.9752
     8.6561   9.0283   9.5145   9.9591  10.8426  11.0438  11.0793  12.7281
    13.1127  13.3692  13.4417  13.6891  14.1443  14.6731  15.4515  15.8427
    15.8870  16.2346  16.8652  17.4431  18.0385  18.1064

     occupation numbers 
     1.0000   1.0000   1.0000   1.0000   0.0000   0.0000   0.0000   0.0000
     0.0000   0.0000   0.0000   0.0000   0.0000   0.0000   0.0000   0.0000
     0.0000   0.0000   0.0000   0.0000   0.0000   0.0000   0.0000   0.0000
     0.0000   0.0000   0.0000   0.0000   0.0000   0.0000

          k = 0.1867 0.5081 0.0000 ( 11961 PWs)   bands (ev):

   -17.3054 -14.5835 -11.2467  -4.8703  -0.7069   7.2585   7.8706   7.9569
     9.0376   9.3481   9.8872  10.0995  10.6116  11.2633  11.4181  12.5939
    12.9426  13.3251  13.3775  13.5676  13.8017  14.3634  15.1163  15.7466
    16.0703  16.2611  16.8217  17.1041  17.7227  17.9339

     occupation numbers 
     1.0000   1.0000   1.0000   1.0000   0.0000   0.0000   0.0000   0.0000
     0.0000   0.0000   0.0000   0.0000   0.0000   0.0000   0.0000   0.0000
     0.0000   0.0000   0.0000   0.0000   0.0000   0.0000   0.0000   0.0000
     0.0000   0.0000   0.0000   0.0000   0.0000   0.0000

          k = 0.1867 0.5235 0.0000 ( 11955 PWs)   bands (ev):

   -17.0672 -14.8598 -11.2871  -4.6793  -0.9297   7.6133   7.9502   8.1315
     9.4306   9.6290  10.2341  10.2606  10.3339  11.4868  11.7833  12.3434
    12.4901  13.0793  13.1088  13.7997  13.8601  14.1818  14.7176  15.4590
    16.3338  16.5005  16.7512  16.7959  17.3854  17.8588

     occupation numbers 
     1.0000   1.0000   1.0000   1.0000   0.0000   0.0000   0.0000   0.0000
     0.0000   0.0000   0.0000   0.0000   0.0000   0.0000   0.0000   0.0000
     0.0000   0.0000   0.0000   0.0000   0.0000   0.0000   0.0000   0.0000
     0.0000   0.0000   0.0000   0.0000   0.0000   0.0000

          k = 0.1867 0.5389 0.0000 ( 11960 PWs)   bands (ev):

   -16.8379 -15.1181 -11.3173  -4.5184  -1.1147   7.8663   8.0562   8.3516
     9.8324   9.8429   9.9388  10.4858  10.6727  11.5831  12.0229  12.1575
    12.2105  12.7221  12.7518  13.8282  13.9768  14.2464  14.4693  15.2622
    16.2360  16.5875  16.7511  16.7656  17.2656  17.7981

     occupation numbers 
     1.0000   1.0000   1.0000   1.0000   0.0000   0.0000   0.0000   0.0000
     0.0000   0.0000   0.0000   0.0000   0.0000   0.0000   0.0000   0.0000
     0.0000   0.0000   0.0000   0.0000   0.0000   0.0000   0.0000   0.0000
     0.0000   0.0000   0.0000   0.0000   0.0000   0.0000

          k = 0.1867 0.5543 0.0000 ( 11958 PWs)   bands (ev):

   -16.6349 -15.3405 -11.3373  -4.4000  -1.2492   7.8904   8.3994   8.5120
     9.5649   9.9919  10.2527  10.7573  11.0739  11.4811  11.5676  12.1250
    12.3043  12.5463  12.6321  13.5988  13.7328  14.4674  14.6447  15.1810
    15.8699  16.4287  16.7034  17.0475  17.4372  17.7370

     occupation numbers 
     1.0000   1.0000   1.0000   1.0000   0.0000   0.0000   0.0000   0.0000
     0.0000   0.0000   0.0000   0.0000   0.0000   0.0000   0.0000   0.0000
     0.0000   0.0000   0.0000   0.0000   0.0000   0.0000   0.0000   0.0000
     0.0000   0.0000   0.0000   0.0000   0.0000   0.0000

          k = 0.1867 0.5697 0.0000 ( 11945 PWs)   bands (ev):

   -16.5007 -15.4846 -11.3473  -4.3366  -1.3207   7.8904   8.5964   8.7625
     9.1984  10.0799  10.6799  10.9689  11.1183  11.4041  11.4828  11.8885
    11.9008  12.8232  12.8973  13.2935  13.4293  14.6118  14.9246  15.1773
    15.5419  16.2571  16.6924  17.2849  17.6260  17.6618

     occupation numbers 
     1.0000   1.0000   1.0000   1.0000   0.0000   0.0000   0.0000   0.0000
     0.0000   0.0000   0.0000   0.0000   0.0000   0.0000   0.0000   0.0000
     0.0000   0.0000   0.0000   0.0000   0.0000   0.0000   0.0000   0.0000
     0.0000   0.0000   0.0000   0.0000   0.0000   0.0000

          k = 0.2000 0.3464 0.0000 ( 11953 PWs)   bands (ev):

   -19.4924 -11.6677 -10.2116  -7.1265   2.2389   4.1199   4.9793   5.7389
     6.2369   6.6280   7.6940   8.1071   8.3667   9.4490   9.7059  10.3936
    11.8416  13.1809  13.5584  16.0644  16.1148  16.5973  17.5002  17.8836
    18.3087  18.7464  18.9953  19.0315  19.4170  19.5284

     occupation numbers 
     1.0000   1.0000   1.0000   1.0000   0.0000   0.0000   0.0000   0.0000
     0.0000   0.0000   0.0000   0.0000   0.0000   0.0000   0.0000   0.0000
     0.0000   0.0000   0.0000   0.0000   0.0000   0.0000   0.0000   0.0000
     0.0000   0.0000   0.0000   0.0000   0.0000   0.0000

          k = 0.2000 0.3618 0.0000 ( 11939 PWs)   bands (ev):

   -19.3067 -11.9017 -10.4127  -6.9171   1.9441   4.3810   5.2341   6.0095
     6.5026   6.8958   7.9486   8.3078   8.5730   9.5725   9.9176  10.6556
    11.8656  13.4392  13.5975  16.0803  16.3048  16.8261  17.1807  17.4906
    18.1793  18.4308  18.4433  18.8453  18.9472  19.3658

     occupation numbers 
     1.0000   1.0000   1.0000   1.0000   0.0000   0.0000   0.0000   0.0000
     0.0000   0.0000   0.0000   0.0000   0.0000   0.0000   0.0000   0.0000
     0.0000   0.0000   0.0000   0.0000   0.0000   0.0000   0.0000   0.0000
     0.0000   0.0000   0.0000   0.0000   0.0000   0.0000

          k = 0.2000 0.3772 0.0000 ( 11951 PWs)   bands (ev):

   -19.1137 -12.1487 -10.5957  -6.7012   1.6469   4.6530   5.4983   6.2918
     6.7793   7.1749   8.2109   8.4308   8.8005   9.7657  10.1181  10.9286
    11.8641  13.7048  13.7075  15.8936  16.4784  16.8774  17.0821  17.1531
    17.7625  18.0694  18.1988  18.5171  18.6704  18.9054

     occupation numbers 
     1.0000   1.0000   1.0000   1.0000   0.0000   0.0000   0.0000   0.0000
     0.0000   0.0000   0.0000   0.0000   0.0000   0.0000   0.0000   0.0000
     0.0000   0.0000   0.0000   0.0000   0.0000   0.0000   0.0000   0.0000
     0.0000   0.0000   0.0000   0.0000   0.0000   0.0000

          k = 0.2000 0.3926 0.0000 ( 11951 PWs)   bands (ev):

   -18.9136 -12.4079 -10.7601  -6.4796   1.3482   4.9358   5.7711   6.5858
     7.0666   7.4651   8.4784   8.4791   9.0642  10.0063  10.2963  11.2124
    11.8665  13.8662  13.9850  15.5445  16.4075  16.7740  16.9014  17.1885
    17.3927  17.6084  17.9406  18.2131  18.4776  18.6916

     occupation numbers 
     1.0000   1.0000   1.0000   1.0000   0.0000   0.0000   0.0000   0.0000
     0.0000   0.0000   0.0000   0.0000   0.0000   0.0000   0.0000   0.0000
     0.0000   0.0000   0.0000   0.0000   0.0000   0.0000   0.0000   0.0000
     0.0000   0.0000   0.0000   0.0000   0.0000   0.0000

          k = 0.2000 0.4080 0.0000 ( 11953 PWs)   bands (ev):

   -18.7067 -12.6776 -10.9062  -6.2530   1.0490   5.2293   6.0518   6.8915
     7.3641   7.7656   8.4852   8.7503   9.3513  10.2659  10.4398  11.5066
    11.9052  14.0634  14.2701  15.1334  15.9958  16.5889  16.7252  17.0272
    17.1212  17.4484  17.6793  17.9761  18.3497  18.5826

     occupation numbers 
     1.0000   1.0000   1.0000   1.0000   0.0000   0.0000   0.0000   0.0000
     0.0000   0.0000   0.0000   0.0000   0.0000   0.0000   0.0000   0.0000
     0.0000   0.0000   0.0000   0.0000   0.0000   0.0000   0.0000   0.0000
     0.0000   0.0000   0.0000   0.0000   0.0000   0.0000

          k = 0.2000 0.4234 0.0000 ( 11949 PWs)   bands (ev):

   -18.4932 -12.9557 -11.0351  -6.0224   0.7509   5.5333   6.3390   7.2089
     7.6712   8.0739   8.4752   9.0198   9.6540  10.5195  10.5436  11.8106
    12.0032  14.2726  14.5408  14.7398  15.5473  16.0508  16.5607  16.6164
    16.9653  17.2418  17.7260  17.9145  18.2242  18.3558

     occupation numbers 
     1.0000   1.0000   1.0000   1.0000   0.0000   0.0000   0.0000   0.0000
     0.0000   0.0000   0.0000   0.0000   0.0000   0.0000   0.0000   0.0000
     0.0000   0.0000   0.0000   0.0000   0.0000   0.0000   0.0000   0.0000
     0.0000   0.0000   0.0000   0.0000   0.0000   0.0000

          k = 0.2000 0.4388 0.0000 ( 11955 PWs)   bands (ev):

   -18.2734 -13.2397 -11.1481  -5.7892   0.4552   5.8476   6.6312   7.5380
     7.9869   8.3539   8.4955   9.2795   9.9688  10.6202  10.7436  12.1234
    12.1641  14.3052  14.4304  14.8852  15.1660  15.5058  16.0437  16.3800
    16.6137  17.2635  17.4864  17.8664  18.1321  18.1954

     occupation numbers 
     1.0000   1.0000   1.0000   1.0000   0.0000   0.0000   0.0000   0.0000
     0.0000   0.0000   0.0000   0.0000   0.0000   0.0000   0.0000   0.0000
     0.0000   0.0000   0.0000   0.0000   0.0000   0.0000   0.0000   0.0000
     0.0000   0.0000   0.0000   0.0000   0.0000   0.0000

          k = 0.2000 0.4542 0.0000 ( 11957 PWs)   bands (ev):

   -18.0478 -13.5273 -11.2463  -5.5549   0.1641   6.1719   6.9258   7.8785
     8.3096   8.3960   8.7616   9.5165  10.2935  10.7004  10.9108  12.3743
    12.4433  13.9668  14.3223  14.9694  15.0534  15.1908  15.5598  15.9080
    16.5139  16.8915  17.4341  17.4570  18.0441  18.2215

     occupation numbers 
     1.0000   1.0000   1.0000   1.0000   0.0000   0.0000   0.0000   0.0000
     0.0000   0.0000   0.0000   0.0000   0.0000   0.0000   0.0000   0.0000
     0.0000   0.0000   0.0000   0.0000   0.0000   0.0000   0.0000   0.0000
     0.0000   0.0000   0.0000   0.0000   0.0000   0.0000

          k = 0.2000 0.4696 0.0000 ( 11947 PWs)   bands (ev):

   -17.8169 -13.8163 -11.3310  -5.3220  -0.1199   6.5059   7.2191   8.2282
     8.3772   8.6362   9.1019   9.7169  10.6219  10.8198  10.9945  12.6089
    12.7663  13.6963  13.9738  14.4554  14.9221  15.3818  15.3844  15.5435
    16.4419  16.4450  16.9840  17.3919  17.9581  18.3278

     occupation numbers 
     1.0000   1.0000   1.0000   1.0000   0.0000   0.0000   0.0000   0.0000
     0.0000   0.0000   0.0000   0.0000   0.0000   0.0000   0.0000   0.0000
     0.0000   0.0000   0.0000   0.0000   0.0000   0.0000   0.0000   0.0000
     0.0000   0.0000   0.0000   0.0000   0.0000   0.0000

          k = 0.2000 0.4850 0.0000 ( 11948 PWs)   bands (ev):

   -17.5817 -14.1042 -11.4029  -5.0935  -0.3933   6.8490   7.5057   8.3463
     8.5988   8.9608   9.4575   9.8790  10.8667  11.0003  11.0553  12.8132
    13.0775  13.5021  13.6309  13.9713  14.4803  14.9644  15.5688  15.8128
    16.0280  16.3606  16.5761  17.2833  17.8829  18.1105

     occupation numbers 
     1.0000   1.0000   1.0000   1.0000   0.0000   0.0000   0.0000   0.0000
     0.0000   0.0000   0.0000   0.0000   0.0000   0.0000   0.0000   0.0000
     0.0000   0.0000   0.0000   0.0000   0.0000   0.0000   0.0000   0.0000
     0.0000   0.0000   0.0000   0.0000   0.0000   0.0000

          k = 0.2000 0.5004 0.0000 ( 11953 PWs)   bands (ev):

   -17.3435 -14.3887 -11.4628  -4.8740  -0.6513   7.2004   7.7773   8.3254
     8.9733   9.2717   9.8243  10.0278  10.7569  11.2361  11.3617  12.8098
    13.1881  13.4261  13.4957  13.6272  14.0451  14.5724  15.4286  15.9678
    16.0021  16.1990  16.4235  17.1177  17.8191  17.8245

     occupation numbers 
     1.0000   1.0000   1.0000   1.0000   0.0000   0.0000   0.0000   0.0000
     0.0000   0.0000   0.0000   0.0000   0.0000   0.0000   0.0000   0.0000
     0.0000   0.0000   0.0000   0.0000   0.0000   0.0000   0.0000   0.0000
     0.0000   0.0000   0.0000   0.0000   0.0000   0.0000

          k = 0.2000 0.5158 0.0000 ( 11955 PWs)   bands (ev):

   -17.1049 -14.6662 -11.5111  -4.6697  -0.8874   7.5585   8.0227   8.3080
     9.3603   9.5499  10.1966  10.2080  10.5154  11.4952  11.7180  12.5570
    12.8307  13.2648  13.4052  13.7892  13.8737  14.2907  15.0178  15.6731
    16.2489  16.2744  16.5441  16.8593  17.6264  17.6581

     occupation numbers 
     1.0000   1.0000   1.0000   1.0000   0.0000   0.0000   0.0000   0.0000
     0.0000   0.0000   0.0000   0.0000   0.0000   0.0000   0.0000   0.0000
     0.0000   0.0000   0.0000   0.0000   0.0000   0.0000   0.0000   0.0000
     0.0000   0.0000   0.0000   0.0000   0.0000   0.0000

          k = 0.2000 0.5312 0.0000 ( 11951 PWs)   bands (ev):

   -16.8709 -14.9312 -11.5484  -4.4896  -1.0925   7.9173   8.2278   8.3004
     9.7586   9.7830  10.1863  10.4515  10.6015  11.6889  12.0813  12.3311
    12.3811  12.9827  13.0352  13.9058  14.0646  14.2552  14.6408  15.3891
    16.2372  16.4886  16.5907  16.7109  17.3838  17.5382

     occupation numbers 
     1.0000   1.0000   1.0000   1.0000   0.0000   0.0000   0.0000   0.0000
     0.0000   0.0000   0.0000   0.0000   0.0000   0.0000   0.0000   0.0000
     0.0000   0.0000   0.0000   0.0000   0.0000   0.0000   0.0000   0.0000
     0.0000   0.0000   0.0000   0.0000   0.0000   0.0000

          k = 0.2000 0.5466 0.0000 ( 11958 PWs)   bands (ev):

   -16.6524 -15.1721 -11.5748  -4.3453  -1.2548   8.2052   8.3726   8.3801
     9.8399   9.9819  10.1712  10.7421  10.9941  11.6368  11.9197  12.3155
    12.4360  12.6393  12.7221  13.7646  14.0080  14.4513  14.6068  15.2301
    16.1338  16.2187  16.6206  16.8155  17.4026  17.5479

     occupation numbers 
     1.0000   1.0000   1.0000   1.0000   0.0000   0.0000   0.0000   0.0000
     0.0000   0.0000   0.0000   0.0000   0.0000   0.0000   0.0000   0.0000
     0.0000   0.0000   0.0000   0.0000   0.0000   0.0000   0.0000   0.0000
     0.0000   0.0000   0.0000   0.0000   0.0000   0.0000

          k = 0.2000 0.5620 0.0000 ( 11944 PWs)   bands (ev):

   -16.4768 -15.3613 -11.5906  -4.2505  -1.3605   8.2457   8.4716   8.6966
     9.4792  10.1458  10.5920  11.0016  11.3951  11.4699  11.5074  12.1145
    12.2145  12.8211  12.8241  13.5216  13.6735  14.5949  14.8963  15.2244
    15.7643  16.2074  16.3950  16.9656  17.5734  17.6582

     occupation numbers 
     1.0000   1.0000   1.0000   1.0000   0.0000   0.0000   0.0000   0.0000
     0.0000   0.0000   0.0000   0.0000   0.0000   0.0000   0.0000   0.0000
     0.0000   0.0000   0.0000   0.0000   0.0000   0.0000   0.0000   0.0000
     0.0000   0.0000   0.0000   0.0000   0.0000   0.0000

          k = 0.2000 0.5774 0.0000 ( 11949 PWs)   bands (ev):

   -16.4030 -15.4397 -11.5959  -4.2173  -1.3973   8.2476   8.5020   8.9783
     9.1955  10.2183  11.0200  11.0290  11.0832  11.5315  11.7730  11.8421
    11.9182  13.0030  13.0856  13.2930  13.4520  14.6362  15.1143  15.2625
    15.5287  16.2075  16.2809  17.0102  17.6376  17.7154

     occupation numbers 
     1.0000   1.0000   1.0000   1.0000   0.0000   0.0000   0.0000   0.0000
     0.0000   0.0000   0.0000   0.0000   0.0000   0.0000   0.0000   0.0000
     0.0000   0.0000   0.0000   0.0000   0.0000   0.0000   0.0000   0.0000
     0.0000   0.0000   0.0000   0.0000   0.0000   0.0000

          k = 0.2133 0.3695 0.0000 ( 11931 PWs)   bands (ev):

   -19.1177 -12.1152 -10.6274  -6.7052   1.6581   4.6474   5.4917   6.2859
     6.7732   7.1694   8.2044   8.5396   8.8303   9.6190  10.1103  10.9223
    11.8545  13.7003  13.7019  16.0403  16.5035  16.7527  17.1406  17.1602
    18.0665  18.0892  18.2219  18.3823  18.6516  18.9376

     occupation numbers 
     1.0000   1.0000   1.0000   1.0000   0.0000   0.0000   0.0000   0.0000
     0.0000   0.0000   0.0000   0.0000   0.0000   0.0000   0.0000   0.0000
     0.0000   0.0000   0.0000   0.0000   0.0000   0.0000   0.0000   0.0000
     0.0000   0.0000   0.0000   0.0000   0.0000   0.0000

          k = 0.2133 0.3849 0.0000 ( 11955 PWs)   bands (ev):

   -18.9217 -12.3418 -10.8238  -6.4871   1.3700   4.9246   5.7578   6.5740
     7.0543   7.4542   8.4659   8.7103   9.0822   9.7457  10.2793  11.1999
    11.8487  13.8597  13.9739  15.8287  16.4910  16.6357  16.8351  17.3759
    17.6094  17.7699  18.0187  18.2321  18.2353  18.6807

     occupation numbers 
     1.0000   1.0000   1.0000   1.0000   0.0000   0.0000   0.0000   0.0000
     0.0000   0.0000   0.0000   0.0000   0.0000   0.0000   0.0000   0.0000
     0.0000   0.0000   0.0000   0.0000   0.0000   0.0000   0.0000   0.0000
     0.0000   0.0000   0.0000   0.0000   0.0000   0.0000

          k = 0.2133 0.4003 0.0000 ( 11959 PWs)   bands (ev):

   -18.7187 -12.5816 -11.0001  -6.2636   1.0804   5.2124   6.0314   6.8739
     7.3456   7.7500   8.7298   8.7972   9.3489   9.9495  10.4121  11.4882
    11.8823  14.0584  14.2545  15.4611  16.2881  16.3363  16.9239  17.0365
    17.3981  17.6233  17.8284  17.8966  17.9416  18.4826

     occupation numbers 
     1.0000   1.0000   1.0000   1.0000   0.0000   0.0000   0.0000   0.0000
     0.0000   0.0000   0.0000   0.0000   0.0000   0.0000   0.0000   0.0000
     0.0000   0.0000   0.0000   0.0000   0.0000   0.0000   0.0000   0.0000
     0.0000   0.0000   0.0000   0.0000   0.0000   0.0000

          k = 0.2133 0.4157 0.0000 ( 11967 PWs)   bands (ev):

   -18.5091 -12.8339 -11.1560  -6.0354   0.7907   5.5108   6.3114   7.1855
     7.6463   8.0563   8.8228   8.9911   9.6366  10.1947  10.5049  11.7866
    11.9784  14.2789  14.5392  15.0422  15.8390  16.2285  16.4758  16.8889
    17.0720  17.3342  17.7455  17.7831  17.9084  18.2658

     occupation numbers 
     1.0000   1.0000   1.0000   1.0000   0.0000   0.0000   0.0000   0.0000
     0.0000   0.0000   0.0000   0.0000   0.0000   0.0000   0.0000   0.0000
     0.0000   0.0000   0.0000   0.0000   0.0000   0.0000   0.0000   0.0000
     0.0000   0.0000   0.0000   0.0000   0.0000   0.0000

          k = 0.2133 0.4311 0.0000 ( 11967 PWs)   bands (ev):

   -18.2930 -13.0966 -11.2924  -5.8037   0.5019   5.8195   6.5956   7.5087
     7.9554   8.3708   8.8198   9.2411   9.9404  10.4442  10.5735  12.0945
    12.1400  14.4909  14.5907  14.8658  15.4076  15.9101  16.1511  16.4004
    16.8218  17.0442  17.6719  17.6930  18.0217  18.1063

     occupation numbers 
     1.0000   1.0000   1.0000   1.0000   0.0000   0.0000   0.0000   0.0000
     0.0000   0.0000   0.0000   0.0000   0.0000   0.0000   0.0000   0.0000
     0.0000   0.0000   0.0000   0.0000   0.0000   0.0000   0.0000   0.0000
     0.0000   0.0000   0.0000   0.0000   0.0000   0.0000

          k = 0.2133 0.4465 0.0000 ( 11953 PWs)   bands (ev):

   -18.0710 -13.3672 -11.4105  -5.5699   0.2158   6.1383   6.8815   7.8436
     8.2711   8.6699   8.8294   9.4669  10.2550  10.6508  10.6693  12.3537
    12.4105  14.2126  14.5559  15.1369  15.1528  15.3738  15.8962  16.0575
    16.3215  16.9108  17.4551  17.5677  17.7960  17.9779

     occupation numbers 
     1.0000   1.0000   1.0000   1.0000   0.0000   0.0000   0.0000   0.0000
     0.0000   0.0000   0.0000   0.0000   0.0000   0.0000   0.0000   0.0000
     0.0000   0.0000   0.0000   0.0000   0.0000   0.0000   0.0000   0.0000
     0.0000   0.0000   0.0000   0.0000   0.0000   0.0000

          k = 0.2133 0.4619 0.0000 ( 11947 PWs)   bands (ev):

   -17.8435 -13.6432 -11.5118  -5.3358  -0.0655   6.4669   7.1650   8.1899
     8.5900   8.7437   9.0703   9.6560  10.5705  10.7732  10.8467  12.5994
    12.7319  13.8765  14.2693  14.8439  15.1764  15.4506  15.4644  15.7847
    16.0330  16.6429  17.1903  17.3363  17.4789  17.9700

     occupation numbers 
     1.0000   1.0000   1.0000   1.0000   0.0000   0.0000   0.0000   0.0000
     0.0000   0.0000   0.0000   0.0000   0.0000   0.0000   0.0000   0.0000
     0.0000   0.0000   0.0000   0.0000   0.0000   0.0000   0.0000   0.0000
     0.0000   0.0000   0.0000   0.0000   0.0000   0.0000

          k = 0.2133 0.4773 0.0000 ( 11949 PWs)   bands (ev):

   -17.6111 -13.9218 -11.5977  -5.1039  -0.3393   6.8048   7.4400   8.5460
     8.7267   8.9059   9.4137   9.8117  10.8126  10.9599  11.0171  12.8464
    13.0489  13.6175  13.8873  14.3354  14.8376  15.3007  15.5573  15.7502
    15.9777  16.2581  16.8854  17.0255  17.3963  17.8985

     occupation numbers 
     1.0000   1.0000   1.0000   1.0000   0.0000   0.0000   0.0000   0.0000
     0.0000   0.0000   0.0000   0.0000   0.0000   0.0000   0.0000   0.0000
     0.0000   0.0000   0.0000   0.0000   0.0000   0.0000   0.0000   0.0000
     0.0000   0.0000   0.0000   0.0000   0.0000   0.0000

          k = 0.2133 0.4927 0.0000 ( 11949 PWs)   bands (ev):

   -17.3752 -14.2001 -11.6695  -4.8780  -0.6016   7.1513   7.6980   8.6971
     8.9221   9.2076   9.7733   9.9637  10.8172  11.2044  11.3188  12.9875
    13.2697  13.5098  13.6154  13.8644  14.3743  14.8629  15.7117  15.8490
    15.9365  16.0764  16.4907  16.9106  17.3265  17.7725

     occupation numbers 
     1.0000   1.0000   1.0000   1.0000   0.0000   0.0000   0.0000   0.0000
     0.0000   0.0000   0.0000   0.0000   0.0000   0.0000   0.0000   0.0000
     0.0000   0.0000   0.0000   0.0000   0.0000   0.0000   0.0000   0.0000
     0.0000   0.0000   0.0000   0.0000   0.0000   0.0000

          k = 0.2133 0.5081 0.0000 ( 11952 PWs)   bands (ev):

   -17.1374 -14.4751 -11.7281  -4.6632  -0.8472   7.5055   7.9276   8.6774
     9.3019   9.4803  10.1421  10.1551  10.6697  11.4824  11.6659  12.8093
    13.1123  13.4352  13.6231  13.7838  13.9903  14.4859  15.3393  15.8139
    15.9437  16.1377  16.4913  16.8052  17.2685  17.5616

     occupation numbers 
     1.0000   1.0000   1.0000   1.0000   0.0000   0.0000   0.0000   0.0000
     0.0000   0.0000   0.0000   0.0000   0.0000   0.0000   0.0000   0.0000
     0.0000   0.0000   0.0000   0.0000   0.0000   0.0000   0.0000   0.0000
     0.0000   0.0000   0.0000   0.0000   0.0000   0.0000

          k = 0.2133 0.5235 0.0000 ( 11955 PWs)   bands (ev):

   -16.9013 -14.7421 -11.7741  -4.4668  -1.0684   7.8656   8.1167   8.6609
     9.6944   9.7214  10.3898  10.4106  10.5560  11.7447  12.0231  12.5181
    12.7297  13.1853  13.3593  13.9773  14.0704  14.2913  14.9191  15.5956
    15.7910  16.3449  16.6779  16.7082  17.2224  17.3653

     occupation numbers 
     1.0000   1.0000   1.0000   1.0000   0.0000   0.0000   0.0000   0.0000
     0.0000   0.0000   0.0000   0.0000   0.0000   0.0000   0.0000   0.0000
     0.0000   0.0000   0.0000   0.0000   0.0000   0.0000   0.0000   0.0000
     0.0000   0.0000   0.0000   0.0000   0.0000   0.0000

          k = 0.2133 0.5389 0.0000 ( 11954 PWs)   bands (ev):

   -16.6740 -14.9932 -11.8083  -4.2995  -1.2545   8.2261   8.2568   8.6530
     9.9477  10.0778  10.1219  10.7159  10.9269  11.8173  12.2721  12.3890
    12.4130  12.9005  12.9660  13.8814  14.2377  14.4543  14.6356  15.3376
    15.7626  16.2879  16.6284  16.7703  17.1854  17.3465

     occupation numbers 
     1.0000   1.0000   1.0000   1.0000   0.0000   0.0000   0.0000   0.0000
     0.0000   0.0000   0.0000   0.0000   0.0000   0.0000   0.0000   0.0000
     0.0000   0.0000   0.0000   0.0000   0.0000   0.0000   0.0000   0.0000
     0.0000   0.0000   0.0000   0.0000   0.0000   0.0000

          k = 0.2133 0.5543 0.0000 ( 11944 PWs)   bands (ev):

   -16.4726 -15.2108 -11.8308  -4.1748  -1.3918   8.3461   8.5380   8.6998
     9.7597  10.1652  10.5160  11.0207  11.3232  11.6506  11.8266  12.3854
    12.5067  12.7729  12.8220  13.7021  13.9671  14.6098  14.8415  15.2518
    15.7480  15.9809  16.5813  16.6579  17.1601  17.4850

     occupation numbers 
     1.0000   1.0000   1.0000   1.0000   0.0000   0.0000   0.0000   0.0000
     0.0000   0.0000   0.0000   0.0000   0.0000   0.0000   0.0000   0.0000
     0.0000   0.0000   0.0000   0.0000   0.0000   0.0000   0.0000   0.0000
     0.0000   0.0000   0.0000   0.0000   0.0000   0.0000

          k = 0.2133 0.5697 0.0000 ( 11931 PWs)   bands (ev):

   -16.3391 -15.3525 -11.8420  -4.1073  -1.4656   8.3888   8.6007   8.9842
     9.4186  10.3273  10.9424  11.1737  11.3793  11.6280  11.7244  12.0882
    12.1335  13.0683  13.0767  13.4756  13.6274  14.6466  15.1616  15.3148
    15.6475  15.7476  16.3838  16.6666  17.1483  17.6078

     occupation numbers 
     1.0000   1.0000   1.0000   1.0000   0.0000   0.0000   0.0000   0.0000
     0.0000   0.0000   0.0000   0.0000   0.0000   0.0000   0.0000   0.0000
     0.0000   0.0000   0.0000   0.0000   0.0000   0.0000   0.0000   0.0000
     0.0000   0.0000   0.0000   0.0000   0.0000   0.0000

          k = 0.2267 0.3926 0.0000 ( 11951 PWs)   bands (ev):

   -18.7227 -12.5468 -11.0343  -6.2671   1.0910   5.2068   6.0246   6.8680
     7.3394   7.7446   8.7230   8.9448   9.3662   9.7822  10.4028  11.4821
    11.8746  14.0564  14.2492  15.6768  16.1087  16.4602  16.8044  17.4517
    17.4758  17.5338  17.6325  17.9191  18.1129  18.2852

     occupation numbers 
     1.0000   1.0000   1.0000   1.0000   0.0000   0.0000   0.0000   0.0000
     0.0000   0.0000   0.0000   0.0000   0.0000   0.0000   0.0000   0.0000
     0.0000   0.0000   0.0000   0.0000   0.0000   0.0000   0.0000   0.0000
     0.0000   0.0000   0.0000   0.0000   0.0000   0.0000

          k = 0.2267 0.4080 0.0000 ( 11959 PWs)   bands (ev):

   -18.5170 -12.7653 -11.2243  -6.0419   0.8109   5.4996   6.2974   7.1738
     7.6339   8.0460   8.9767   9.0952   9.6450   9.9162  10.4854  11.7746
    11.9657  14.2800  14.5313  15.3573  15.8791  16.0777  16.7861  16.8974
    17.3206  17.3347  17.6366  17.7207  17.8933  18.0600

     occupation numbers 
     1.0000   1.0000   1.0000   1.0000   0.0000   0.0000   0.0000   0.0000
     0.0000   0.0000   0.0000   0.0000   0.0000   0.0000   0.0000   0.0000
     0.0000   0.0000   0.0000   0.0000   0.0000   0.0000   0.0000   0.0000
     0.0000   0.0000   0.0000   0.0000   0.0000   0.0000

          k = 0.2267 0.4234 0.0000 ( 11971 PWs)   bands (ev):

   -18.3048 -12.9974 -11.3924  -5.8125   0.5306   5.8027   6.5741   7.4912
     7.9364   8.3578   9.1547   9.2178   9.9248  10.1407  10.5450  12.0769
    12.1247  14.5137  14.7976  14.9643  15.6579  15.7561  16.3382  16.6045
    16.9540  17.1989  17.2382  17.6302  17.9146  18.0361

     occupation numbers 
     1.0000   1.0000   1.0000   1.0000   0.0000   0.0000   0.0000   0.0000
     0.0000   0.0000   0.0000   0.0000   0.0000   0.0000   0.0000   0.0000
     0.0000   0.0000   0.0000   0.0000   0.0000   0.0000   0.0000   0.0000
     0.0000   0.0000   0.0000   0.0000   0.0000   0.0000

          k = 0.2267 0.4388 0.0000 ( 11963 PWs)   bands (ev):

   -18.0865 -13.2420 -11.5387  -5.5800   0.2514   6.1159   6.8516   7.8203
     8.2452   8.6781   9.1630   9.4331  10.2117  10.4004  10.6171  12.3381
    12.3881  14.5078  14.7016  15.1279  15.2792  15.6608  15.7957  16.2172
    16.7030  16.7076  17.1065  17.5777  17.7490  17.9685

     occupation numbers 
     1.0000   1.0000   1.0000   1.0000   0.0000   0.0000   0.0000   0.0000
     0.0000   0.0000   0.0000   0.0000   0.0000   0.0000   0.0000   0.0000
     0.0000   0.0000   0.0000   0.0000   0.0000   0.0000   0.0000   0.0000
     0.0000   0.0000   0.0000   0.0000   0.0000   0.0000

          k = 0.2267 0.4542 0.0000 ( 11957 PWs)   bands (ev):

   -17.8625 -13.4969 -11.6641  -5.3458  -0.0251   6.4390   7.1255   8.1609
     8.5566   8.9887   9.1696   9.6115  10.4841  10.6682  10.7384  12.5878
    12.7063  14.1236  14.5688  15.2232  15.2474  15.4029  15.6123  15.7436
    16.1978  16.5364  17.0075  17.2927  17.6002  17.7078

     occupation numbers 
     1.0000   1.0000   1.0000   1.0000   0.0000   0.0000   0.0000   0.0000
     0.0000   0.0000   0.0000   0.0000   0.0000   0.0000   0.0000   0.0000
     0.0000   0.0000   0.0000   0.0000   0.0000   0.0000   0.0000   0.0000
     0.0000   0.0000   0.0000   0.0000   0.0000   0.0000

          k = 0.2267 0.4696 0.0000 ( 11959 PWs)   bands (ev):

   -17.6334 -13.7591 -11.7702  -5.1122  -0.2967   6.7714   7.3894   8.5130
     8.8641   9.0889   9.3896   9.7597  10.6870  10.9269  10.9604  12.8534
    13.0259  13.7951  14.1841  14.7286  15.1991  15.4767  15.4966  15.6397
    15.8298  16.3396  16.9201  16.9490  17.2487  17.5001

     occupation numbers 
     1.0000   1.0000   1.0000   1.0000   0.0000   0.0000   0.0000   0.0000
     0.0000   0.0000   0.0000   0.0000   0.0000   0.0000   0.0000   0.0000
     0.0000   0.0000   0.0000   0.0000   0.0000   0.0000   0.0000   0.0000
     0.0000   0.0000   0.0000   0.0000   0.0000   0.0000

          k = 0.2267 0.4850 0.0000 ( 11951 PWs)   bands (ev):

   -17.4001 -14.0256 -11.8587  -4.8818  -0.5603   7.1127   7.6341   8.8751
     9.0736   9.1567   9.7355   9.9112  10.7772  11.1749  11.2845  13.0858
    13.3052  13.5781  13.8190  14.2271  14.7352  15.1995  15.4410  15.7265
    16.0406  16.0593  16.7263  16.7994  16.8506  17.4085

     occupation numbers 
     1.0000   1.0000   1.0000   1.0000   0.0000   0.0000   0.0000   0.0000
     0.0000   0.0000   0.0000   0.0000   0.0000   0.0000   0.0000   0.0000
     0.0000   0.0000   0.0000   0.0000   0.0000   0.0000   0.0000   0.0000
     0.0000   0.0000   0.0000   0.0000   0.0000   0.0000

          k = 0.2267 0.5004 0.0000 ( 11945 PWs)   bands (ev):

   -17.1641 -14.2928 -11.9312  -4.6589  -0.8116   7.4619   7.8483   9.0444
     9.2569   9.4227  10.0976  10.1081  10.7433  11.4615  11.6266  13.0687
    13.2632  13.6851  13.7113  13.8108  14.2781  14.7712  15.3883  15.6479
    15.9387  16.1888  16.5202  16.6591  16.7836  17.3118

     occupation numbers 
     1.0000   1.0000   1.0000   1.0000   0.0000   0.0000   0.0000   0.0000
     0.0000   0.0000   0.0000   0.0000   0.0000   0.0000   0.0000   0.0000
     0.0000   0.0000   0.0000   0.0000   0.0000   0.0000   0.0000   0.0000
     0.0000   0.0000   0.0000   0.0000   0.0000   0.0000

          k = 0.2267 0.5158 0.0000 ( 11950 PWs)   bands (ev):

   -16.9277 -14.5568 -11.9890  -4.4494  -1.0446   7.8179   8.0213   9.0255
     9.6420   9.6656  10.3703  10.4480  10.6136  11.7573  11.9772  12.7712
    13.0307  13.3658  13.6851  14.0284  14.0748  14.4267  15.2256  15.3450
    15.8798  16.0525  16.6695  16.7226  16.7455  17.1819

     occupation numbers 
     1.0000   1.0000   1.0000   1.0000   0.0000   0.0000   0.0000   0.0000
     0.0000   0.0000   0.0000   0.0000   0.0000   0.0000   0.0000   0.0000
     0.0000   0.0000   0.0000   0.0000   0.0000   0.0000   0.0000   0.0000
     0.0000   0.0000   0.0000   0.0000   0.0000   0.0000

          k = 0.2267 0.5312 0.0000 ( 11940 PWs)   bands (ev):

   -16.6959 -14.8113 -12.0331  -4.2623  -1.2502   8.1475   8.1785   9.0095
     9.9060  10.0390  10.3280  10.6836  10.8736  11.9662  12.3256  12.5274
    12.6427  13.1149  13.2909  14.0101  14.3146  14.4514  14.8268  15.3056
    15.5541  16.0567  16.6806  16.7690  16.8456  17.0654

     occupation numbers 
     1.0000   1.0000   1.0000   1.0000   0.0000   0.0000   0.0000   0.0000
     0.0000   0.0000   0.0000   0.0000   0.0000   0.0000   0.0000   0.0000
     0.0000   0.0000   0.0000   0.0000   0.0000   0.0000   0.0000   0.0000
     0.0000   0.0000   0.0000   0.0000   0.0000   0.0000

          k = 0.2267 0.5466 0.0000 ( 11940 PWs)   bands (ev):

   -16.4792 -15.0448 -12.0640  -4.1100  -1.4157   8.2293   8.5381   9.0011
    10.0253  10.1541  10.4522  11.0152  11.2618  11.8555  12.1906  12.5831
    12.6452  12.8619  12.9364  13.8346  14.2748  14.6455  14.7837  15.2364
    15.3958  15.9699  16.5832  16.6525  16.7748  17.1239

     occupation numbers 
     1.0000   1.0000   1.0000   1.0000   0.0000   0.0000   0.0000   0.0000
     0.0000   0.0000   0.0000   0.0000   0.0000   0.0000   0.0000   0.0000
     0.0000   0.0000   0.0000   0.0000   0.0000   0.0000   0.0000   0.0000
     0.0000   0.0000   0.0000   0.0000   0.0000   0.0000

          k = 0.2267 0.5620 0.0000 ( 11931 PWs)   bands (ev):

   -16.3045 -15.2299 -12.0824  -4.0085  -1.5252   8.2738   8.8613   9.0269
     9.6981  10.3843  10.8722  11.2676  11.6541  11.7078  11.7477  12.3715
    12.4414  13.0345  13.0599  13.6608  13.9089  14.6893  15.1023  15.2024
    15.4376  15.7659  16.4256  16.5546  16.6415  17.1634

     occupation numbers 
     1.0000   1.0000   1.0000   1.0000   0.0000   0.0000   0.0000   0.0000
     0.0000   0.0000   0.0000   0.0000   0.0000   0.0000   0.0000   0.0000
     0.0000   0.0000   0.0000   0.0000   0.0000   0.0000   0.0000   0.0000
     0.0000   0.0000   0.0000   0.0000   0.0000   0.0000

          k = 0.2267 0.5774 0.0000 ( 11931 PWs)   bands (ev):

   -16.2307 -15.3071 -12.0885  -3.9725  -1.5639   8.2878   8.9455   9.1935
     9.4530  10.4962  11.2831  11.2974  11.3093  11.8131  12.0094  12.1051
    12.1234  13.2258  13.2830  13.5224  13.6544  14.6719  15.2054  15.3918
    15.4999  15.5126  16.3785  16.4416  16.6337  17.1714

     occupation numbers 
     1.0000   1.0000   1.0000   1.0000   0.0000   0.0000   0.0000   0.0000
     0.0000   0.0000   0.0000   0.0000   0.0000   0.0000   0.0000   0.0000
     0.0000   0.0000   0.0000   0.0000   0.0000   0.0000   0.0000   0.0000
     0.0000   0.0000   0.0000   0.0000   0.0000   0.0000

          k = 0.2400 0.4157 0.0000 ( 11961 PWs)   bands (ev):

   -18.3087 -12.9613 -11.4289  -5.8154   0.5403   5.7971   6.5668   7.4853
     7.9301   8.3529   9.2099   9.3368   9.9363   9.9522  10.5354  12.0711
    12.1195  14.5193  14.8108  15.1855  15.4948  15.7875  16.5336  16.7625
    16.7780  17.2201  17.3257  17.5908  17.6851  17.9326

     occupation numbers 
     1.0000   1.0000   1.0000   1.0000   0.0000   0.0000   0.0000   0.0000
     0.0000   0.0000   0.0000   0.0000   0.0000   0.0000   0.0000   0.0000
     0.0000   0.0000   0.0000   0.0000   0.0000   0.0000   0.0000   0.0000
     0.0000   0.0000   0.0000   0.0000   0.0000   0.0000

          k = 0.2400 0.4311 0.0000 ( 11967 PWs)   bands (ev):

   -18.0942 -13.1713 -11.6111  -5.5851   0.2695   6.1047   6.8365   7.8086
     8.2322   8.6700   9.4160   9.4668  10.0605  10.2674  10.5999  12.3298
    12.3768  14.7567  14.8241  15.0862  15.3293  15.4342  16.2157  16.2883
    16.6543  16.7903  17.1135  17.2120  17.5444  17.9750

     occupation numbers 
     1.0000   1.0000   1.0000   1.0000   0.0000   0.0000   0.0000   0.0000
     0.0000   0.0000   0.0000   0.0000   0.0000   0.0000   0.0000   0.0000
     0.0000   0.0000   0.0000   0.0000   0.0000   0.0000   0.0000   0.0000
     0.0000   0.0000   0.0000   0.0000   0.0000   0.0000

          k = 0.2400 0.4465 0.0000 ( 11957 PWs)   bands (ev):

   -17.8739 -13.3951 -11.7696  -5.3520  -0.0002   6.4222   7.1015   8.1434
     8.5365   8.9954   9.4981   9.5843  10.2660  10.5905  10.7169  12.5791
    12.6904  14.4202  14.8393  15.1533  15.1930  15.4488  15.6759  15.9941
    16.4226  16.5465  16.6008  17.0930  17.4498  17.7103

     occupation numbers 
     1.0000   1.0000   1.0000   1.0000   0.0000   0.0000   0.0000   0.0000
     0.0000   0.0000   0.0000   0.0000   0.0000   0.0000   0.0000   0.0000
     0.0000   0.0000   0.0000   0.0000   0.0000   0.0000   0.0000   0.0000
     0.0000   0.0000   0.0000   0.0000   0.0000   0.0000

          k = 0.2400 0.4619 0.0000 ( 11947 PWs)   bands (ev):

   -17.6483 -13.6314 -11.9047  -5.1178  -0.2672   6.7491   7.3550   8.4899
     8.8360   9.3124   9.5069   9.7243  10.4772  10.9038  10.9201  12.8516
    13.0087  14.0411  14.4941  15.0831  15.1473  15.3532  15.5754  15.7240
    16.1003  16.2229  16.4581  16.9400  17.3361  17.3637

     occupation numbers 
     1.0000   1.0000   1.0000   1.0000   0.0000   0.0000   0.0000   0.0000
     0.0000   0.0000   0.0000   0.0000   0.0000   0.0000   0.0000   0.0000
     0.0000   0.0000   0.0000   0.0000   0.0000   0.0000   0.0000   0.0000
     0.0000   0.0000   0.0000   0.0000   0.0000   0.0000

          k = 0.2400 0.4773 0.0000 ( 11957 PWs)   bands (ev):

   -17.4181 -13.8773 -12.0177  -4.8849  -0.5292   7.0849   7.5872   8.8477
     9.1198   9.4253   9.7180   9.8725  10.6400  11.1517  11.2559  13.1233
    13.3162  13.7302  14.0905  14.6242  15.0267  15.1036  15.5395  15.5802
    16.0402  16.1197  16.3773  16.6972  17.0937  17.1627

     occupation numbers 
     1.0000   1.0000   1.0000   1.0000   0.0000   0.0000   0.0000   0.0000
     0.0000   0.0000   0.0000   0.0000   0.0000   0.0000   0.0000   0.0000
     0.0000   0.0000   0.0000   0.0000   0.0000   0.0000   0.0000   0.0000
     0.0000   0.0000   0.0000   0.0000   0.0000   0.0000

          k = 0.2400 0.4927 0.0000 ( 11941 PWs)   bands (ev):

   -17.1844 -14.1295 -12.1105  -4.6562  -0.7828   7.4289   7.7869   9.2152
     9.3785   9.4107  10.0654  10.0708  10.7158  11.4410  11.5979  13.2811
    13.3876  13.7220  13.8110  14.1316  14.6299  14.9608  15.1320  15.6007
    16.0064  16.2654  16.3193  16.5203  16.7513  16.9807

     occupation numbers 
     1.0000   1.0000   1.0000   1.0000   0.0000   0.0000   0.0000   0.0000
     0.0000   0.0000   0.0000   0.0000   0.0000   0.0000   0.0000   0.0000
     0.0000   0.0000   0.0000   0.0000   0.0000   0.0000   0.0000   0.0000
     0.0000   0.0000   0.0000   0.0000   0.0000   0.0000

          k = 0.2400 0.5081 0.0000 ( 11945 PWs)   bands (ev):

   -16.9490 -14.3838 -12.1849  -4.4367  -1.0234   7.7799   7.9441   9.3809
     9.6029   9.6197  10.3355  10.4203  10.6880  11.7507  11.9442  13.0603
    13.2078  13.6545  13.8948  14.0275  14.2073  14.6866  14.9400  15.4345
    15.8452  16.1795  16.2449  16.5866  16.6774  16.9302

     occupation numbers 
     1.0000   1.0000   1.0000   1.0000   0.0000   0.0000   0.0000   0.0000
     0.0000   0.0000   0.0000   0.0000   0.0000   0.0000   0.0000   0.0000
     0.0000   0.0000   0.0000   0.0000   0.0000   0.0000   0.0000   0.0000
     0.0000   0.0000   0.0000   0.0000   0.0000   0.0000

          k = 0.2400 0.5235 0.0000 ( 11947 PWs)   bands (ev):

   -16.7153 -14.6350 -12.2426  -4.2333  -1.2438   8.0557   8.1364   9.3617
     9.8663   9.9930  10.4956  10.6519  10.8373  12.0382  12.2890  12.7370
    12.9588  13.2993  13.6446  14.1863  14.2966  14.4596  14.9039  15.0833
    15.7616  15.8193  16.1988  16.6683  16.8318  16.9366

     occupation numbers 
     1.0000   1.0000   1.0000   1.0000   0.0000   0.0000   0.0000   0.0000
     0.0000   0.0000   0.0000   0.0000   0.0000   0.0000   0.0000   0.0000
     0.0000   0.0000   0.0000   0.0000   0.0000   0.0000   0.0000   0.0000
     0.0000   0.0000   0.0000   0.0000   0.0000   0.0000

          k = 0.2400 0.5389 0.0000 ( 11941 PWs)   bands (ev):

   -16.4902 -14.8745 -12.2848  -4.0568  -1.4330   8.1270   8.4953   9.3452
    10.1303  10.2576  10.4035  10.9953  11.2132  12.0875  12.5315  12.6498
    12.6561  13.0670  13.2263  13.9754  14.5322  14.6367  14.7610  14.8914
    15.5193  15.7082  16.1642  16.6237  16.8655  16.8722

     occupation numbers 
     1.0000   1.0000   1.0000   1.0000   0.0000   0.0000   0.0000   0.0000
     0.0000   0.0000   0.0000   0.0000   0.0000   0.0000   0.0000   0.0000
     0.0000   0.0000   0.0000   0.0000   0.0000   0.0000   0.0000   0.0000
     0.0000   0.0000   0.0000   0.0000   0.0000   0.0000

          k = 0.2400 0.5543 0.0000 ( 11926 PWs)   bands (ev):

   -16.2900 -15.0849 -12.3125  -3.9225  -1.5759   8.1672   8.8500   9.3331
     9.9710  10.3994  10.8141  11.3192  11.6016  11.8702  12.1164  12.6811
    12.7026  13.0234  13.0572  13.8007  14.2262  14.7322  14.8619  14.9868
    15.4312  15.6552  16.1416  16.4298  16.7454  16.7764

     occupation numbers 
     1.0000   1.0000   1.0000   1.0000   0.0000   0.0000   0.0000   0.0000
     0.0000   0.0000   0.0000   0.0000   0.0000   0.0000   0.0000   0.0000
     0.0000   0.0000   0.0000   0.0000   0.0000   0.0000   0.0000   0.0000
     0.0000   0.0000   0.0000   0.0000   0.0000   0.0000

          k = 0.2400 0.5697 0.0000 ( 11927 PWs)   bands (ev):

   -16.1563 -15.2239 -12.3262  -3.8486  -1.6541   8.1850   9.1716   9.3210
     9.6822  10.6122  11.2391  11.4149  11.6732  11.8950  11.9891  12.3426
    12.3842  13.2459  13.3472  13.6691  13.8575  14.7211  14.8044  15.2631
    15.5260  15.5739  16.1311  16.2338  16.5776  16.7492

     occupation numbers 
     1.0000   1.0000   1.0000   1.0000   0.0000   0.0000   0.0000   0.0000
     0.0000   0.0000   0.0000   0.0000   0.0000   0.0000   0.0000   0.0000
     0.0000   0.0000   0.0000   0.0000   0.0000   0.0000   0.0000   0.0000
     0.0000   0.0000   0.0000   0.0000   0.0000   0.0000

          k = 0.2533 0.4388 0.0000 ( 11959 PWs)   bands (ev):

   -17.8777 -13.3580 -11.8080  -5.3540   0.0082   6.4166   7.0935   8.1376
     8.5297   8.9921   9.5752   9.7169  10.0771  10.5758  10.7097  12.5760
    12.6850  14.6754  14.8776  14.9885  15.1439  15.4361  16.0208  16.0991
    16.1117  16.5551  16.8293  16.9847  17.0492  17.9788

     occupation numbers 
     1.0000   1.0000   1.0000   1.0000   0.0000   0.0000   0.0000   0.0000
     0.0000   0.0000   0.0000   0.0000   0.0000   0.0000   0.0000   0.0000
     0.0000   0.0000   0.0000   0.0000   0.0000   0.0000   0.0000   0.0000
     0.0000   0.0000   0.0000   0.0000   0.0000   0.0000

          k = 0.2533 0.4542 0.0000 ( 11961 PWs)   bands (ev):

   -17.6557 -13.5589 -11.9806  -5.1207  -0.2522   6.7379   7.3376   8.4782
     8.8218   9.3218   9.7065   9.8150  10.2186  10.8920  10.9017  12.8491
    12.9995  14.3307  14.7291  14.7715  15.1881  15.5628  15.7200  15.8099
    16.0076  16.2046  16.5015  16.6413  16.9290  17.5867

     occupation numbers 
     1.0000   1.0000   1.0000   1.0000   0.0000   0.0000   0.0000   0.0000
     0.0000   0.0000   0.0000   0.0000   0.0000   0.0000   0.0000   0.0000
     0.0000   0.0000   0.0000   0.0000   0.0000   0.0000   0.0000   0.0000
     0.0000   0.0000   0.0000   0.0000   0.0000   0.0000

          k = 0.2533 0.4696 0.0000 ( 11957 PWs)   bands (ev):

   -17.4289 -13.7738 -12.1278  -4.8868  -0.5099   7.0682   7.5586   8.8304
     9.0974   9.6401   9.8324   9.8490  10.4229  11.1371  11.2366  13.1348
    13.3137  13.9662  14.3722  14.6491  15.0430  15.2458  15.5230  15.9078
    15.9297  16.0660  16.0828  16.5094  16.8488  17.1785

     occupation numbers 
     1.0000   1.0000   1.0000   1.0000   0.0000   0.0000   0.0000   0.0000
     0.0000   0.0000   0.0000   0.0000   0.0000   0.0000   0.0000   0.0000
     0.0000   0.0000   0.0000   0.0000   0.0000   0.0000   0.0000   0.0000
     0.0000   0.0000   0.0000   0.0000   0.0000   0.0000

          k = 0.2533 0.4850 0.0000 ( 11955 PWs)   bands (ev):

   -17.1980 -14.0007 -12.2500  -4.6547  -0.7626   7.4067   7.7448   9.1938
     9.3485   9.7445  10.0451  10.0515  10.5876  11.4254  11.5778  13.3921
    13.5337  13.7460  13.9996  14.5240  14.5973  14.9617  15.3520  15.4985
    15.8410  16.1505  16.2828  16.3389  16.7808  16.8730

     occupation numbers 
     1.0000   1.0000   1.0000   1.0000   0.0000   0.0000   0.0000   0.0000
     0.0000   0.0000   0.0000   0.0000   0.0000   0.0000   0.0000   0.0000
     0.0000   0.0000   0.0000   0.0000   0.0000   0.0000   0.0000   0.0000
     0.0000   0.0000   0.0000   0.0000   0.0000   0.0000

          k = 0.2533 0.5004 0.0000 ( 11949 PWs)   bands (ev):

   -16.9646 -14.2361 -12.3490  -4.4280  -1.0068   7.7524   7.8872   9.5660
     9.5859   9.7278  10.3091  10.3922  10.6740  11.7397  11.9223  13.3490
    13.3553  13.9294  13.9691  14.0646  14.5186  14.5403  15.0472  15.2666
    15.7775  16.0265  16.2548  16.4147  16.6716  16.8244

     occupation numbers 
     1.0000   1.0000   1.0000   1.0000   0.0000   0.0000   0.0000   0.0000
     0.0000   0.0000   0.0000   0.0000   0.0000   0.0000   0.0000   0.0000
     0.0000   0.0000   0.0000   0.0000   0.0000   0.0000   0.0000   0.0000
     0.0000   0.0000   0.0000   0.0000   0.0000   0.0000

          k = 0.2533 0.5158 0.0000 ( 11955 PWs)   bands (ev):

   -16.7310 -14.4753 -12.4267  -4.2120  -1.2371   7.9843   8.1039   9.6955
     9.8336   9.9594  10.5774  10.6253  10.8202  12.0579  12.2644  13.0173
    13.1551  13.5831  13.9992  14.2552  14.2614  14.4811  14.6893  15.1395
    15.7043  15.7254  16.1322  16.2592  16.6194  16.9075

     occupation numbers 
     1.0000   1.0000   1.0000   1.0000   0.0000   0.0000   0.0000   0.0000
     0.0000   0.0000   0.0000   0.0000   0.0000   0.0000   0.0000   0.0000
     0.0000   0.0000   0.0000   0.0000   0.0000   0.0000   0.0000   0.0000
     0.0000   0.0000   0.0000   0.0000   0.0000   0.0000

          k = 0.2533 0.5312 0.0000 ( 11956 PWs)   bands (ev):

   -16.5016 -14.7113 -12.4850  -4.0153  -1.4450   8.0434   8.4588   9.6740
    10.1048  10.3480  10.4565  10.9723  11.1784  12.2779  12.5837  12.7594
    12.9074  13.2480  13.5799  14.1870  14.3995  14.5322  14.7380  14.8941
    15.5033  15.6842  15.7756  16.2289  16.5935  16.9970

     occupation numbers 
     1.0000   1.0000   1.0000   1.0000   0.0000   0.0000   0.0000   0.0000
     0.0000   0.0000   0.0000   0.0000   0.0000   0.0000   0.0000   0.0000
     0.0000   0.0000   0.0000   0.0000   0.0000   0.0000   0.0000   0.0000
     0.0000   0.0000   0.0000   0.0000   0.0000   0.0000

          k = 0.2533 0.5466 0.0000 ( 11931 PWs)   bands (ev):

   -16.2866 -14.9324 -12.5255  -3.8512  -1.6171   8.0757   8.8129   9.6527
    10.2177  10.3933  10.7682  11.3257  11.5593  12.1141  12.4822  12.8414
    12.8828  13.1013  13.1905  13.9394  14.4000  14.5372  14.8066  14.8879
    15.4672  15.5344  15.6595  16.1834  16.5718  16.8334

     occupation numbers 
     1.0000   1.0000   1.0000   1.0000   0.0000   0.0000   0.0000   0.0000
     0.0000   0.0000   0.0000   0.0000   0.0000   0.0000   0.0000   0.0000
     0.0000   0.0000   0.0000   0.0000   0.0000   0.0000   0.0000   0.0000
     0.0000   0.0000   0.0000   0.0000   0.0000   0.0000

          k = 0.2533 0.5620 0.0000 ( 11924 PWs)   bands (ev):

   -16.1118 -15.1113 -12.5494  -3.7387  -1.7344   8.0909   9.1564   9.6176
     9.9599  10.6672  11.1868  11.5669  11.9360  11.9557  12.0579  12.6660
    12.6674  13.2500  13.3306  13.8001  14.1506  14.3966  14.8416  14.9786
    15.5409  15.5747  15.6510  16.1011  16.5642  16.5745

     occupation numbers 
     1.0000   1.0000   1.0000   1.0000   0.0000   0.0000   0.0000   0.0000
     0.0000   0.0000   0.0000   0.0000   0.0000   0.0000   0.0000   0.0000
     0.0000   0.0000   0.0000   0.0000   0.0000   0.0000   0.0000   0.0000
     0.0000   0.0000   0.0000   0.0000   0.0000   0.0000

          k = 0.2533 0.5774 0.0000 ( 11923 PWs)   bands (ev):

   -16.0371 -15.1875 -12.5573  -3.6981  -1.7766   8.0952   9.4224   9.5045
     9.8216  10.8087  11.5243  11.6069  11.6240  12.1298  12.2536  12.3787
    12.3948  13.3541  13.5977  13.7523  13.8623  14.3974  14.7730  15.0262
    15.5840  15.6661  15.7036  16.0026  16.4752  16.5738

     occupation numbers 
     1.0000   1.0000   1.0000   1.0000   0.0000   0.0000   0.0000   0.0000
     0.0000   0.0000   0.0000   0.0000   0.0000   0.0000   0.0000   0.0000
     0.0000   0.0000   0.0000   0.0000   0.0000   0.0000   0.0000   0.0000
     0.0000   0.0000   0.0000   0.0000   0.0000   0.0000

          k = 0.2667 0.4619 0.0000 ( 11961 PWs)   bands (ev):

   -17.4325 -13.7359 -12.1679  -4.8875  -0.5033   7.0626   7.5489   8.8246
     9.0899   9.6542   9.8410  10.0797  10.1974  11.1321  11.2299  13.1372
    13.3116  14.1902  14.3811  14.5308  15.1098  15.4693  15.4762  15.7927
    15.9243  15.9869  16.3656  16.3875  16.4581  17.3572

     occupation numbers 
     1.0000   1.0000   1.0000   1.0000   0.0000   0.0000   0.0000   0.0000
     0.0000   0.0000   0.0000   0.0000   0.0000   0.0000   0.0000   0.0000
     0.0000   0.0000   0.0000   0.0000   0.0000   0.0000   0.0000   0.0000
     0.0000   0.0000   0.0000   0.0000   0.0000   0.0000

          k = 0.2667 0.4773 0.0000 ( 11957 PWs)   bands (ev):

   -17.2049 -13.9274 -12.3287  -4.6541  -0.7522   7.3956   7.7235   9.1824
     9.3334   9.9646  10.0321  10.1336  10.3784  11.4172  11.5671  13.4278
    13.6064  13.8970  14.1991  14.2566  14.9557  14.9678  15.3917  15.4868
    15.8687  15.8929  16.2306  16.3407  16.4020  17.0144

     occupation numbers 
     1.0000   1.0000   1.0000   1.0000   0.0000   0.0000   0.0000   0.0000
     0.0000   0.0000   0.0000   0.0000   0.0000   0.0000   0.0000   0.0000
     0.0000   0.0000   0.0000   0.0000   0.0000   0.0000   0.0000   0.0000
     0.0000   0.0000   0.0000   0.0000   0.0000   0.0000

          k = 0.2667 0.4927 0.0000 ( 11953 PWs)   bands (ev):

   -16.9741 -14.1326 -12.4623  -4.4230  -0.9962   7.7359   7.8524   9.5512
     9.5652  10.0315  10.2927  10.3646  10.5724  11.7311  11.9094  13.5377
    13.6068  13.9375  13.9441  14.2179  14.4575  14.7561  15.1372  15.3215
    15.4258  15.8400  16.2396  16.3352  16.5331  16.7845

     occupation numbers 
     1.0000   1.0000   1.0000   1.0000   0.0000   0.0000   0.0000   0.0000
     0.0000   0.0000   0.0000   0.0000   0.0000   0.0000   0.0000   0.0000
     0.0000   0.0000   0.0000   0.0000   0.0000   0.0000   0.0000   0.0000
     0.0000   0.0000   0.0000   0.0000   0.0000   0.0000

          k = 0.2667 0.5081 0.0000 ( 11947 PWs)   bands (ev):

   -16.7418 -14.3486 -12.5694  -4.1981  -1.2318   7.9354   8.0821   9.8107
     9.9247  10.0108  10.5660  10.6064  10.8090  12.0595  12.2507  13.3016
    13.3237  13.9597  14.0652  14.1221  14.3581  14.3863  14.9721  14.9842
    15.2649  15.7493  16.0698  16.1955  16.4490  16.9052

     occupation numbers 
     1.0000   1.0000   1.0000   1.0000   0.0000   0.0000   0.0000   0.0000
     0.0000   0.0000   0.0000   0.0000   0.0000   0.0000   0.0000   0.0000
     0.0000   0.0000   0.0000   0.0000   0.0000   0.0000   0.0000   0.0000
     0.0000   0.0000   0.0000   0.0000   0.0000   0.0000

          k = 0.2667 0.5235 0.0000 ( 11941 PWs)   bands (ev):

   -16.5111 -14.5700 -12.6517  -3.9857  -1.4526   7.9817   8.4321   9.9703
    10.0836  10.3238  10.5592  10.9530  11.1574  12.3664  12.5751  12.9747
    13.1174  13.5200  13.9475  14.0553  14.3730  14.4474  14.7466  14.9126
    15.2192  15.5314  15.8798  16.0877  16.1568  16.9872

     occupation numbers 
     1.0000   1.0000   1.0000   1.0000   0.0000   0.0000   0.0000   0.0000
     0.0000   0.0000   0.0000   0.0000   0.0000   0.0000   0.0000   0.0000
     0.0000   0.0000   0.0000   0.0000   0.0000   0.0000   0.0000   0.0000
     0.0000   0.0000   0.0000   0.0000   0.0000   0.0000

          k = 0.2667 0.5389 0.0000 ( 11948 PWs)   bands (ev):

   -16.2882 -14.7884 -12.7113  -3.7961  -1.6485   8.0036   8.7824   9.9404
    10.3806  10.4164  10.7357  11.3158  11.5301  12.3879  12.7598  12.9251
    12.9485  13.2340  13.5125  14.0233  14.1672  14.4942  14.8663  14.9226
    15.1867  15.3493  15.7588  15.8158  16.1292  17.0066

     occupation numbers 
     1.0000   1.0000   1.0000   1.0000   0.0000   0.0000   0.0000   0.0000
     0.0000   0.0000   0.0000   0.0000   0.0000   0.0000   0.0000   0.0000
     0.0000   0.0000   0.0000   0.0000   0.0000   0.0000   0.0000   0.0000
     0.0000   0.0000   0.0000   0.0000   0.0000   0.0000

          k = 0.2667 0.5543 0.0000 ( 11925 PWs)   bands (ev):

   -16.0885 -14.9863 -12.7499  -3.6466  -1.8022   8.0122   9.1264   9.8928
    10.2236  10.6841  11.1467  11.6526  11.9047  12.1272  12.4295  12.8764
    13.0107  13.2871  13.3099  13.8906  14.0673  14.3634  14.7641  14.9806
    15.1607  15.4582  15.6154  15.8004  16.1192  16.7370

     occupation numbers 
     1.0000   1.0000   1.0000   1.0000   0.0000   0.0000   0.0000   0.0000
     0.0000   0.0000   0.0000   0.0000   0.0000   0.0000   0.0000   0.0000
     0.0000   0.0000   0.0000   0.0000   0.0000   0.0000   0.0000   0.0000
     0.0000   0.0000   0.0000   0.0000   0.0000   0.0000

          k = 0.2667 0.5697 0.0000 ( 11928 PWs)   bands (ev):

   -15.9526 -15.1215 -12.7689  -3.5612  -1.8896   8.0147   9.4446   9.7581
    10.0836  10.9332  11.5691  11.6894  11.9969  12.2002  12.2667  12.6373
    12.6413  13.4048  13.6419  13.8116  14.0446  14.0784  14.7283  14.8783
    15.1441  15.6109  15.6588  15.8494  16.1264  16.4725

     occupation numbers 
     1.0000   1.0000   1.0000   1.0000   0.0000   0.0000   0.0000   0.0000
     0.0000   0.0000   0.0000   0.0000   0.0000   0.0000   0.0000   0.0000
     0.0000   0.0000   0.0000   0.0000   0.0000   0.0000   0.0000   0.0000
     0.0000   0.0000   0.0000   0.0000   0.0000   0.0000

          k = 0.2800 0.4850 0.0000 ( 11971 PWs)   bands (ev):

   -16.9773 -14.0947 -12.5036  -4.4213  -0.9926   7.7304   7.8406   9.5456
     9.5582  10.2559  10.2864  10.2874  10.4841  11.7279  11.9050  13.7135
    13.7529  13.7924  13.9493  14.0980  14.7346  14.8751  14.8859  15.3280
    15.5391  15.8191  15.8380  16.4863  16.5338  16.7684

     occupation numbers 
     1.0000   1.0000   1.0000   1.0000   0.0000   0.0000   0.0000   0.0000
     0.0000   0.0000   0.0000   0.0000   0.0000   0.0000   0.0000   0.0000
     0.0000   0.0000   0.0000   0.0000   0.0000   0.0000   0.0000   0.0000
     0.0000   0.0000   0.0000   0.0000   0.0000   0.0000

          k = 0.2800 0.5004 0.0000 ( 11951 PWs)   bands (ev):

   -16.7474 -14.2763 -12.6497  -4.1912  -1.2288   7.9106   8.0711   9.7990
     9.9194  10.2526  10.4743  10.5966  10.7958  12.0578  12.2447  13.4865
    13.6048  13.7771  13.9793  14.3034  14.4056  14.5734  14.8177  14.9846
    15.3630  15.4133  15.7722  16.3649  16.6436  16.6982

     occupation numbers 
     1.0000   1.0000   1.0000   1.0000   0.0000   0.0000   0.0000   0.0000
     0.0000   0.0000   0.0000   0.0000   0.0000   0.0000   0.0000   0.0000
     0.0000   0.0000   0.0000   0.0000   0.0000   0.0000   0.0000   0.0000
     0.0000   0.0000   0.0000   0.0000   0.0000   0.0000

          k = 0.2800 0.5158 0.0000 ( 11939 PWs)   bands (ev):

   -16.5172 -14.4704 -12.7663  -3.9679  -1.4568   7.9438   8.4159  10.0699
    10.2087  10.3081  10.5765  10.9404  11.1472  12.3920  12.5734  13.2417
    13.2585  13.7418  13.9043  14.0978  14.3540  14.5792  14.7665  14.8442
    14.9537  15.3332  15.7268  15.9890  16.4187  16.7678

     occupation numbers 
     1.0000   1.0000   1.0000   1.0000   0.0000   0.0000   0.0000   0.0000
     0.0000   0.0000   0.0000   0.0000   0.0000   0.0000   0.0000   0.0000
     0.0000   0.0000   0.0000   0.0000   0.0000   0.0000   0.0000   0.0000
     0.0000   0.0000   0.0000   0.0000   0.0000   0.0000

          k = 0.2800 0.5312 0.0000 ( 11940 PWs)   bands (ev):

   -16.2910 -14.6717 -12.8543  -3.7586  -1.6696   7.9540   8.7615  10.1720
    10.3691  10.5428  10.7189  11.3045  11.5135  12.6221  12.8337  12.9822
    13.1220  13.4645  13.7291  13.8432  14.2403  14.4471  14.7140  14.9483
    14.9804  15.2164  15.6921  15.6950  16.0617  16.7572

     occupation numbers 
     1.0000   1.0000   1.0000   1.0000   0.0000   0.0000   0.0000   0.0000
     0.0000   0.0000   0.0000   0.0000   0.0000   0.0000   0.0000   0.0000
     0.0000   0.0000   0.0000   0.0000   0.0000   0.0000   0.0000   0.0000
     0.0000   0.0000   0.0000   0.0000   0.0000   0.0000

          k = 0.2800 0.5466 0.0000 ( 11938 PWs)   bands (ev):

   -16.0774 -14.8695 -12.9153  -3.5763  -1.8543   7.9533   9.1024  10.1152
    10.4459  10.6853  11.1188  11.6719  11.8824  12.3949  12.7555  13.0452
    13.1952  13.3212  13.4408  13.7124  14.1460  14.1996  14.6889  14.9415
    15.0837  15.1583  15.6491  15.6580  15.8177  16.6896

     occupation numbers 
     1.0000   1.0000   1.0000   1.0000   0.0000   0.0000   0.0000   0.0000
     0.0000   0.0000   0.0000   0.0000   0.0000   0.0000   0.0000   0.0000
     0.0000   0.0000   0.0000   0.0000   0.0000   0.0000   0.0000   0.0000
     0.0000   0.0000   0.0000   0.0000   0.0000   0.0000

          k = 0.2800 0.5620 0.0000 ( 11930 PWs)   bands (ev):

   -15.9004 -15.0380 -12.9510  -3.4443  -1.9877   7.9498   9.4270   9.9931
    10.3372  10.9891  11.5349  11.8949  12.2285  12.2364  12.3958  12.8682
    12.9901  13.4461  13.5713  13.6542  14.0410  14.1164  14.6623  14.6739
    15.0379  15.2073  15.5694  15.8210  15.8631  16.5313

     occupation numbers 
     1.0000   1.0000   1.0000   1.0000   0.0000   0.0000   0.0000   0.0000
     0.0000   0.0000   0.0000   0.0000   0.0000   0.0000   0.0000   0.0000
     0.0000   0.0000   0.0000   0.0000   0.0000   0.0000   0.0000   0.0000
     0.0000   0.0000   0.0000   0.0000   0.0000   0.0000

          k = 0.2800 0.5774 0.0000 ( 11935 PWs)   bands (ev):

   -15.8222 -15.1134 -12.9628  -3.3945  -2.0381   7.9482   9.6560   9.8294
    10.3002  11.1555  11.7946  11.9441  11.9721  12.4817  12.4877  12.6608
    12.6985  13.4945  13.5984  13.8508  13.9473  14.0700  14.5398  14.6701
    14.9598  15.2149  15.5539  15.8548  16.0496  16.3663

     occupation numbers 
     1.0000   1.0000   1.0000   1.0000   0.0000   0.0000   0.0000   0.0000
     0.0000   0.0000   0.0000   0.0000   0.0000   0.0000   0.0000   0.0000
     0.0000   0.0000   0.0000   0.0000   0.0000   0.0000   0.0000   0.0000
     0.0000   0.0000   0.0000   0.0000   0.0000   0.0000

          k = 0.2933 0.5081 0.0000 ( 11941 PWs)   bands (ev):

   -16.5194 -14.4337 -12.8078  -3.9620  -1.4581   7.9310   8.4105  10.0652
    10.2955  10.3306  10.5498  10.9360  11.1441  12.3970  12.5739  13.3793
    13.4003  13.5561  13.9590  14.3163  14.3183  14.5924  14.6113  14.7664
    15.1441  15.2873  15.3460  16.2130  16.5193  16.6410

     occupation numbers 
     1.0000   1.0000   1.0000   1.0000   0.0000   0.0000   0.0000   0.0000
     0.0000   0.0000   0.0000   0.0000   0.0000   0.0000   0.0000   0.0000
     0.0000   0.0000   0.0000   0.0000   0.0000   0.0000   0.0000   0.0000
     0.0000   0.0000   0.0000   0.0000   0.0000   0.0000

          k = 0.2933 0.5235 0.0000 ( 11938 PWs)   bands (ev):

   -16.2928 -14.6047 -12.9341  -3.7395  -1.6803   7.9288   8.7509  10.3114
    10.3626  10.5894  10.7171  11.2979  11.5070  12.7255  12.8649  13.1082
    13.2039  13.5001  13.8549  13.8599  14.2747  14.3636  14.7373  14.7376
    14.9843  15.1497  15.3027  15.8867  16.3940  16.4298

     occupation numbers 
     1.0000   1.0000   1.0000   1.0000   0.0000   0.0000   0.0000   0.0000
     0.0000   0.0000   0.0000   0.0000   0.0000   0.0000   0.0000   0.0000
     0.0000   0.0000   0.0000   0.0000   0.0000   0.0000   0.0000   0.0000
     0.0000   0.0000   0.0000   0.0000   0.0000   0.0000

          k = 0.2933 0.5389 0.0000 ( 11941 PWs)   bands (ev):

   -16.0729 -14.7844 -13.0276  -3.5320  -1.8874   7.9169   9.0874  10.2625
    10.5972  10.6825  11.1032  11.6724  11.8714  12.6848  12.9343  13.1415
    13.1967  13.3762  13.5853  13.6843  14.0649  14.2415  14.4275  14.7528
    15.0540  15.2303  15.3243  15.6460  16.0658  16.3796

     occupation numbers 
     1.0000   1.0000   1.0000   1.0000   0.0000   0.0000   0.0000   0.0000
     0.0000   0.0000   0.0000   0.0000   0.0000   0.0000   0.0000   0.0000
     0.0000   0.0000   0.0000   0.0000   0.0000   0.0000   0.0000   0.0000
     0.0000   0.0000   0.0000   0.0000   0.0000   0.0000

          k = 0.2933 0.5543 0.0000 ( 11932 PWs)   bands (ev):

   -15.8722 -14.9594 -13.0889  -3.3565  -2.0626   7.9046   9.4110  10.1710
    10.5365  11.0090  11.5126  12.0210  12.2206  12.3836  12.7329  13.0522
    13.2979  13.3351  13.4414  13.6548  13.9885  14.1538  14.2339  14.6987
    15.0228  15.0909  15.3058  15.8062  15.8722  16.3366

     occupation numbers 
     1.0000   1.0000   1.0000   1.0000   0.0000   0.0000   0.0000   0.0000
     0.0000   0.0000   0.0000   0.0000   0.0000   0.0000   0.0000   0.0000
     0.0000   0.0000   0.0000   0.0000   0.0000   0.0000   0.0000   0.0000
     0.0000   0.0000   0.0000   0.0000   0.0000   0.0000

          k = 0.2933 0.5697 0.0000 ( 11923 PWs)   bands (ev):

   -15.7293 -15.0898 -13.1192  -3.2471  -2.1717   7.8971   9.6966  10.0116
    10.4879  11.2878  11.9295  11.9774  12.3371  12.5286  12.5398  12.8769
    12.9409  13.3400  13.6056  13.6114  14.0900  14.1201  14.2412  14.5249
    14.8769  15.0888  15.1950  15.8486  16.0612  16.2706

     occupation numbers 
     1.0000   1.0000   1.0000   1.0000   0.0000   0.0000   0.0000   0.0000
     0.0000   0.0000   0.0000   0.0000   0.0000   0.0000   0.0000   0.0000
     0.0000   0.0000   0.0000   0.0000   0.0000   0.0000   0.0000   0.0000
     0.0000   0.0000   0.0000   0.0000   0.0000   0.0000

          k = 0.3067 0.5312 0.0000 ( 11953 PWs)   bands (ev):

   -16.0717 -14.7527 -13.0680  -3.5168  -1.8988   7.9046   9.0823  10.3145
    10.6511  10.6811  11.0984  11.6713  11.8686  12.8840  13.0388  13.0530
    13.0788  13.4828  13.6911  13.8023  13.8394  14.2396  14.4554  14.7418
    14.7981  15.2359  15.3475  15.6913  16.1964  16.3871

     occupation numbers 
     1.0000   1.0000   1.0000   1.0000   0.0000   0.0000   0.0000   0.0000
     0.0000   0.0000   0.0000   0.0000   0.0000   0.0000   0.0000   0.0000
     0.0000   0.0000   0.0000   0.0000   0.0000   0.0000   0.0000   0.0000
     0.0000   0.0000   0.0000   0.0000   0.0000   0.0000

          k = 0.3067 0.5466 0.0000 ( 11926 PWs)   bands (ev):

   -15.8602 -14.9111 -13.1648  -3.3084  -2.1041   7.8814   9.4022  10.2681
    10.6483  11.0148  11.5019  12.0502  12.2161  12.5949  12.9229  13.1207
    13.2219  13.3475  13.6534  13.6692  13.8236  13.9614  14.3720  14.4223
    14.7643  15.3174  15.3243  15.6307  16.0833  16.1598

     occupation numbers 
     1.0000   1.0000   1.0000   1.0000   0.0000   0.0000   0.0000   0.0000
     0.0000   0.0000   0.0000   0.0000   0.0000   0.0000   0.0000   0.0000
     0.0000   0.0000   0.0000   0.0000   0.0000   0.0000   0.0000   0.0000
     0.0000   0.0000   0.0000   0.0000   0.0000   0.0000

          k = 0.3067 0.5620 0.0000 ( 11917 PWs)   bands (ev):

   -15.6762 -15.0631 -13.2230  -3.1371  -2.2734   7.8652   9.6945  10.1694
    10.6083  11.3413  11.9132  12.2160  12.5003  12.5039  12.7252  13.0047
    13.1700  13.1939  13.4886  13.7130  13.8115  14.0502  14.2456  14.3444
    14.7804  14.9828  15.2929  15.7537  15.8966  16.2939

     occupation numbers 
     1.0000   1.0000   1.0000   1.0000   0.0000   0.0000   0.0000   0.0000
     0.0000   0.0000   0.0000   0.0000   0.0000   0.0000   0.0000   0.0000
     0.0000   0.0000   0.0000   0.0000   0.0000   0.0000   0.0000   0.0000
     0.0000   0.0000   0.0000   0.0000   0.0000   0.0000

          k = 0.3067 0.5774 0.0000 ( 11931 PWs)   bands (ev):

   -15.5862 -15.1424 -13.2424  -3.0621  -2.3476   7.8595   9.8811  10.0534
    10.5866  11.5367  12.0419  12.2944  12.3473  12.7033  12.8586  12.8686
    12.8905  13.2263  13.4195  13.6950  13.7491  14.2127  14.2557  14.3316
    14.7875  14.8031  15.2294  15.7837  15.8487  16.4297

     occupation numbers 
     1.0000   1.0000   1.0000   0.9999   0.0001   0.0000   0.0000   0.0000
     0.0000   0.0000   0.0000   0.0000   0.0000   0.0000   0.0000   0.0000
     0.0000   0.0000   0.0000   0.0000   0.0000   0.0000   0.0000   0.0000
     0.0000   0.0000   0.0000   0.0000   0.0000   0.0000

          k = 0.3200 0.5543 0.0000 ( 11925 PWs)   bands (ev):

   -15.6593 -15.0513 -13.2598  -3.0940  -2.3136   7.8543   9.6923  10.2293
    10.6489  11.3545  11.9078  12.4011  12.4267  12.5133  12.8405  13.0720
    13.1157  13.3373  13.3615  13.7476  13.8149  13.8748  14.2466  14.3598
    14.5274  15.2037  15.3718  15.5063  15.9632  16.2965

     occupation numbers 
     1.0000   1.0000   1.0000   1.0000   0.0000   0.0000   0.0000   0.0000
     0.0000   0.0000   0.0000   0.0000   0.0000   0.0000   0.0000   0.0000
     0.0000   0.0000   0.0000   0.0000   0.0000   0.0000   0.0000   0.0000
     0.0000   0.0000   0.0000   0.0000   0.0000   0.0000

          k = 0.3200 0.5697 0.0000 ( 11929 PWs)   bands (ev):

   -15.4937 -15.1855 -13.3083  -2.9186  -2.4865   7.8399   9.9286  10.1449
    10.6215  11.6661  12.1473  12.3078  12.6379  12.7452  12.7574  12.9166
    13.0687  13.2030  13.3894  13.4421  13.8498  13.8533  14.2040  14.4616
    14.5781  14.9215  15.3891  15.4596  15.7822  16.3096

     occupation numbers 
     1.0000   1.0000   1.0000   0.9878   0.0126   0.0000   0.0000   0.0000
     0.0000   0.0000   0.0000   0.0000   0.0000   0.0000   0.0000   0.0000
     0.0000   0.0000   0.0000   0.0000   0.0000   0.0000   0.0000   0.0000
     0.0000   0.0000   0.0000   0.0000   0.0000   0.0000

          k = 0.3333 0.5774 0.0000 ( 11919 PWs)   bands (ev):

   -15.3292 -15.3292 -13.3376  -2.7017  -2.7016   7.8312  10.0792  10.0792
    10.6120  11.9519  11.9519  12.6066  12.6066  12.7658  12.7679  12.9585
    12.9585  13.2906  13.2906  13.3939  13.6593  13.9858  13.9858  14.5751
    14.7504  14.7504  15.3120  15.5681  15.5681  16.2698

     occupation numbers 
     1.0000   1.0000   1.0000   0.4988   0.4987   0.0000   0.0000   0.0000
     0.0000   0.0000   0.0000   0.0000   0.0000   0.0000   0.0000   0.0000
     0.0000   0.0000   0.0000   0.0000   0.0000   0.0000   0.0000   0.0000
     0.0000   0.0000   0.0000   0.0000   0.0000   0.0000

     the Fermi energy is    -2.7020 ev
     (compare with:    -2.7018 eV, computed in scf)

     Writing all to output data dir /home/ubuntu/projects/Graphene-Band-Structure-Quantum-Espresso/outputs/field_0/vdw-df2-c09/top/data/top.save/ :
     XML data file, pseudopotentials, collected wavefunctions

     init_run     :      9.57s CPU      9.90s WALL (       1 calls)
     electrons    :    427.39s CPU    429.69s WALL (       1 calls)

     Called by init_run:
     wfcinit      :      0.00s CPU      0.00s WALL (       1 calls)
     wfcinit:atom :      0.04s CPU      0.09s WALL (      32 calls)
     wfcinit:wfcr :      6.99s CPU      7.24s WALL (      32 calls)
     potinit      :      8.87s CPU      9.13s WALL (       1 calls)
     hinit0       :      0.58s CPU      0.60s WALL (       1 calls)

     Called by electrons:
     c_bands      :    427.38s CPU    429.49s WALL (       1 calls)
     v_of_rho     :      8.81s CPU      9.07s WALL (       1 calls)
     v_h          :      0.01s CPU      0.01s WALL (       1 calls)
     v_xc         :      8.81s CPU      9.06s WALL (       1 calls)
     vdW_kernel   :      7.81s CPU      7.83s WALL (       1 calls)

     Called by c_bands:
     init_us_2    :      0.08s CPU      0.08s WALL (      32 calls)
     cegterg      :    207.61s CPU    209.03s WALL (      73 calls)

     Called by sum_band:

     Called by *egterg:
     cdiaghg      :      1.87s CPU      1.87s WALL (    1196 calls)
     cegterg:over :     42.59s CPU     42.62s WALL (    1164 calls)
     cegterg:upda :     26.06s CPU     26.20s WALL (    1164 calls)
     cegterg:last :     53.24s CPU     53.27s WALL (     633 calls)
     h_psi        :     83.56s CPU     84.62s WALL (    1269 calls)
     g_psi        :      0.94s CPU      0.94s WALL (    1164 calls)

     Called by h_psi:
     h_psi:calbec :      7.42s CPU      7.44s WALL (    1269 calls)
     vloc_psi     :     67.94s CPU     68.41s WALL (    1269 calls)
     add_vuspsi   :      7.75s CPU      7.77s WALL (    1269 calls)

     General routines
     calbec       :      7.42s CPU      7.43s WALL (    1269 calls)
     fft          :      0.70s CPU      0.70s WALL (      61 calls)
     fftw         :     58.70s CPU     58.89s WALL (   39452 calls)

     Parallel routines

     PWSCF        :   7m17.49s CPU   7m20.61s WALL


   This run was terminated on:   8:25:28   4Oct2026            

=------------------------------------------------------------------------------=
   JOB DONE.
=------------------------------------------------------------------------------=
Note: The following floating-point exceptions are signalling: IEEE_UNDERFLOW_FLAG IEEE_DENORMAL
Note: The following floating-point exceptions are signalling: IEEE_UNDERFLOW_FLAG IEEE_DENORMAL
Note: The following floating-point exceptions are signalling: IEEE_UNDERFLOW_FLAG IEEE_DENORMAL
Note: The following floating-point exceptions are signalling: IEEE_UNDERFLOW_FLAG IEEE_DENORMAL
Note: The following floating-point exceptions are signalling: IEEE_UNDERFLOW_FLAG IEEE_DENORMAL
Note: The following floating-point exceptions are signalling: IEEE_UNDERFLOW_FLAG IEEE_DENORMAL
Note: The following floating-point exceptions are signalling: IEEE_UNDERFLOW_FLAG IEEE_DENORMAL
Note: The following floating-point exceptions are signalling: IEEE_UNDERFLOW_FLAG IEEE_DENORMAL
Note: The following floating-point exceptions are signalling: IEEE_UNDERFLOW_FLAG IEEE_DENORMAL
Note: The following floating-point exceptions are signalling: IEEE_UNDERFLOW_FLAG IEEE_DENORMAL
Note: The following floating-point exceptions are signalling: IEEE_UNDERFLOW_FLAG IEEE_DENORMAL
Note: The following floating-point exceptions are signalling: IEEE_UNDERFLOW_FLAG IEEE_DENORMAL
Note: The following floating-point exceptions are signalling: IEEE_UNDERFLOW_FLAG IEEE_DENORMAL
Note: The following floating-point exceptions are signalling: IEEE_UNDERFLOW_FLAG IEEE_DENORMAL
Note: The following floating-point exceptions are signalling: IEEE_UNDERFLOW_FLAG IEEE_DENORMAL
Note: The following floating-point exceptions are signalling: IEEE_UNDERFLOW_FLAG IEEE_DENORMAL
