
     Program PWSCF v.7.6 starts on  3Oct2026 at 18:34:52 

     This program is part of the open-source Quantum ESPRESSO suite
     for quantum simulation of materials; please cite
         "P. Giannozzi et al., J. Phys.:Condens. Matter 21 395502 (2009);
         "P. Giannozzi et al., J. Phys.:Condens. Matter 29 465901 (2017);
         "P. Giannozzi et al., J. Chem. Phys. 152 154105 (2020);
          URL http://www.quantum-espresso.org", 
     in publications or presentations arising from this work. More details at
     http://www.quantum-espresso.org/quote

     Parallel version (MPI), running on    16 processors

     MPI processes distributed on     1 nodes
     30822 MiB available memory on the printing compute node when the environment starts

     Waiting for input...
     Reading input from standard input
Warning: card &CELL ignored
Warning: card &FCP ignored
Warning: card &RISM ignored

     Current dimensions of program PWSCF are:
     Max number of different atomic species (ntypx) = 10
     Max number of k-points (npk) =  40000
     Max angular momentum in pseudopotentials (lmaxx) =  4

     IMPORTANT: XC functional enforced from input :
     Exchange-correlation= VDW-DF2-C09
                           (   1   4  16   0   2   0   0)
     Any further DFT definition will be discarded
     Please, verify this is what you really want

     Message from routine setup:
     using ibrav=0 with symmetry is DISCOURAGED, use correct ibrav instead

     K-points division:     npool     =      16
     Subspace diagonalization in iterative solution of the eigenvalue problem:
     a serial algorithm will be used


     G-vector sticks info
     --------------------
     sticks:   dense  smooth     PW     G-vecs:    dense   smooth      PW
     Sum         535     535    163                94953    94953   15739

     Using Slab Decomposition



     bravais-lattice index     =            0
     lattice parameter (alat)  =       4.6487  a.u.
     unit-cell volume          =     825.8174 (a.u.)^3
     number of atoms/cell      =            2
     number of atomic types    =            1
     number of electrons       =         8.00
     number of Kohn-Sham states=           10
     kinetic-energy cutoff     =      90.0000  Ry
     charge density cutoff     =     360.0000  Ry
     scf convergence threshold =      1.0E-08
     mixing beta               =       0.7000
     number of iterations used =            8  plain     mixing
     Exchange-correlation= VDW-DF2-C09
                           (   1   4  16   0   2   0   0)

     celldm(1)=   4.648726  celldm(2)=   0.000000  celldm(3)=   0.000000
     celldm(4)=   0.000000  celldm(5)=   0.000000  celldm(6)=   0.000000

     crystal axes: (cart. coord. in units of alat)
               a(1) = (   1.000000   0.000000   0.000000 )  
               a(2) = (  -0.500000   0.866025   0.000000 )  
               a(3) = (   0.000000   0.000000   9.491870 )  

     reciprocal axes: (cart. coord. in units 2 pi/alat)
               b(1) = (  1.000000  0.577351 -0.000000 )  
               b(2) = (  0.000000  1.154701  0.000000 )  
               b(3) = (  0.000000 -0.000000  0.105353 )  


     PseudoPot. # 1 for C  read from file:
     /home/ubuntu/projects/Graphene-Band-Structure-Quantum-Espresso/pseudo/C.upf
     MD5 check sum: 34a24e64c0a39f27c6c36b90a16ac686
     Pseudo is Norm-conserving + core correction, Zval =  4.0
     Generated using ONCVPSP code by D. R. Hamann
     Using radial grid of 1248 points,  4 beta functions with: 
                l(1) =   0
                l(2) =   0
                l(3) =   1
                l(4) =   1

     atomic species   valence    mass     pseudopotential
     C                 4.00    12.01100     C ( 1.00)

      6 Sym. Ops. (no inversion) found


                                    s                        frac. trans.

      isym =  1     identity                                     

 cryst.   s( 1) = (     1          0          0      )
                  (     0          1          0      )
                  (     0          0          1      )

 cart.    s( 1) = (  1.0000000  0.0000000  0.0000000 )
                  (  0.0000000  1.0000000  0.0000000 )
                  (  0.0000000  0.0000000  1.0000000 )


      isym =  2     120 deg rotation - cryst. axis [0,0,1]       

 cryst.   s( 2) = (     0          1          0      )
                  (    -1         -1          0      )
                  (     0          0          1      )

 cart.    s( 2) = ( -0.5000000 -0.8660258  0.0000000 )
                  (  0.8660250 -0.5000000  0.0000000 )
                  (  0.0000000  0.0000000  1.0000000 )


      isym =  3     120 deg rotation - cryst. axis [0,0,-1]      

 cryst.   s( 3) = (    -1         -1          0      )
                  (     1          0          0      )
                  (     0          0          1      )

 cart.    s( 3) = ( -0.5000000  0.8660258  0.0000000 )
                  ( -0.8660250 -0.5000000  0.0000000 )
                  (  0.0000000  0.0000000  1.0000000 )


      isym =  4     inv. 180 deg rotation - cart. axis [1,0,0]   

 cryst.   s( 4) = (    -1          0          0      )
                  (     1          1          0      )
                  (     0          0          1      )

 cart.    s( 4) = ( -1.0000000  0.0000000  0.0000000 )
                  (  0.0000000  1.0000000  0.0000000 )
                  (  0.0000000  0.0000000  1.0000000 )


      isym =  5     inv. 180 deg rotation - cryst. axis [0,1,0]  

 cryst.   s( 5) = (     1          1          0      )
                  (     0         -1          0      )
                  (     0          0          1      )

 cart.    s( 5) = (  0.5000000  0.8660258  0.0000000 )
                  (  0.8660250 -0.5000000  0.0000000 )
                  (  0.0000000  0.0000000  1.0000000 )


      isym =  6     inv. 180 deg rotation - cryst. axis [1,1,0]  

 cryst.   s( 6) = (     0         -1          0      )
                  (    -1          0          0      )
                  (     0          0          1      )

 cart.    s( 6) = (  0.5000000 -0.8660258  0.0000000 )
                  ( -0.8660250 -0.5000000  0.0000000 )
                  (  0.0000000  0.0000000  1.0000000 )


   Cartesian axes

     site n.     atom                  positions (alat units)
         1        C      tau(   1) = (   0.5000000   0.2886752   5.4590294  )
         2        C      tau(   2) = (   0.0000000   0.5773503   5.4596845  )

   Crystallographic axes

     site n.     atom                  positions (cryst. coord.)
         1        C      tau(   1) = (  0.6666668  0.3333335  0.5751269  )
         2        C      tau(   2) = (  0.3333335  0.6666670  0.5751959  )

     number of k points=    27  Gaussian smearing, width (Ry)=  0.0100
                       cart. coord. in units 2pi/alat
        k(    1) = (   0.0000000   0.0000000   0.0000000), wk =   0.0088889
        k(    2) = (   0.0000000   0.0769801   0.0000000), wk =   0.0533333
        k(    3) = (   0.0000000   0.1539601   0.0000000), wk =   0.0533333
        k(    4) = (   0.0000000   0.2309402   0.0000000), wk =   0.0533333
        k(    5) = (   0.0000000   0.3079203   0.0000000), wk =   0.0533333
        k(    6) = (   0.0000000   0.3849004   0.0000000), wk =   0.0533333
        k(    7) = (   0.0000000   0.4618804   0.0000000), wk =   0.0533333
        k(    8) = (   0.0000000   0.5388605   0.0000000), wk =   0.0533333
        k(    9) = (   0.0666667   0.1154701   0.0000000), wk =   0.0533333
        k(   10) = (   0.0666667   0.1924502   0.0000000), wk =   0.1066667
        k(   11) = (   0.0666667   0.2694303   0.0000000), wk =   0.1066667
        k(   12) = (   0.0666667   0.3464103   0.0000000), wk =   0.1066667
        k(   13) = (   0.0666667   0.4233904   0.0000000), wk =   0.1066667
        k(   14) = (   0.0666667   0.5003705   0.0000000), wk =   0.1066667
        k(   15) = (   0.0666667   0.5773505   0.0000000), wk =   0.0533333
        k(   16) = (   0.1333333   0.2309402   0.0000000), wk =   0.0533333
        k(   17) = (   0.1333333   0.3079203   0.0000000), wk =   0.1066667
        k(   18) = (   0.1333333   0.3849004   0.0000000), wk =   0.1066667
        k(   19) = (   0.1333333   0.4618804   0.0000000), wk =   0.1066667
        k(   20) = (   0.1333333   0.5388605   0.0000000), wk =   0.1066667
        k(   21) = (   0.2000000   0.3464103   0.0000000), wk =   0.0533333
        k(   22) = (   0.2000000   0.4233904   0.0000000), wk =   0.1066667
        k(   23) = (   0.2000000   0.5003705   0.0000000), wk =   0.1066667
        k(   24) = (   0.2000000   0.5773505   0.0000000), wk =   0.0533333
        k(   25) = (   0.2666667   0.4618804   0.0000000), wk =   0.0533333
        k(   26) = (   0.2666667   0.5388605   0.0000000), wk =   0.1066667
        k(   27) = (   0.3333333   0.5773505   0.0000000), wk =   0.0177778

                       cryst. coord.
        k(    1) = (   0.0000000   0.0000000   0.0000000), wk =   0.0088889
        k(    2) = (   0.0000000   0.0666667   0.0000000), wk =   0.0533333
        k(    3) = (   0.0000000   0.1333333   0.0000000), wk =   0.0533333
        k(    4) = (   0.0000000   0.2000000   0.0000000), wk =   0.0533333
        k(    5) = (   0.0000000   0.2666667   0.0000000), wk =   0.0533333
        k(    6) = (   0.0000000   0.3333333   0.0000000), wk =   0.0533333
        k(    7) = (   0.0000000   0.4000000   0.0000000), wk =   0.0533333
        k(    8) = (   0.0000000   0.4666667   0.0000000), wk =   0.0533333
        k(    9) = (   0.0666667   0.0666667   0.0000000), wk =   0.0533333
        k(   10) = (   0.0666667   0.1333333   0.0000000), wk =   0.1066667
        k(   11) = (   0.0666667   0.2000000   0.0000000), wk =   0.1066667
        k(   12) = (   0.0666667   0.2666667   0.0000000), wk =   0.1066667
        k(   13) = (   0.0666667   0.3333333   0.0000000), wk =   0.1066667
        k(   14) = (   0.0666667   0.4000000   0.0000000), wk =   0.1066667
        k(   15) = (   0.0666667   0.4666667   0.0000000), wk =   0.0533333
        k(   16) = (   0.1333333   0.1333333   0.0000000), wk =   0.0533333
        k(   17) = (   0.1333333   0.2000000   0.0000000), wk =   0.1066667
        k(   18) = (   0.1333333   0.2666667   0.0000000), wk =   0.1066667
        k(   19) = (   0.1333333   0.3333333   0.0000000), wk =   0.1066667
        k(   20) = (   0.1333333   0.4000000   0.0000000), wk =   0.1066667
        k(   21) = (   0.2000000   0.2000000   0.0000000), wk =   0.0533333
        k(   22) = (   0.2000000   0.2666667   0.0000000), wk =   0.1066667
        k(   23) = (   0.2000000   0.3333333   0.0000000), wk =   0.1066667
        k(   24) = (   0.2000000   0.4000000   0.0000000), wk =   0.0533333
        k(   25) = (   0.2666667   0.2666667   0.0000000), wk =   0.0533333
        k(   26) = (   0.2666667   0.3333333   0.0000000), wk =   0.1066667
        k(   27) = (   0.3333333   0.3333333   0.0000000), wk =   0.0177778

     Dense  grid:    94953 G-vectors     FFT dimensions: (  30,  30, 270)

     Dynamical RAM for                 wfc:       1.82 MB

     Dynamical RAM for     wfc (w. buffer):       5.45 MB

     Dynamical RAM for           str. fact:       1.45 MB

     Dynamical RAM for           local pot:       0.00 MB

     Dynamical RAM for          nlocal pot:       2.91 MB

     Dynamical RAM for                qrad:       0.44 MB

     Dynamical RAM for          rho,v,vnew:       9.91 MB

     Dynamical RAM for               rhoin:       3.30 MB

     Dynamical RAM for            rho*nmix:      23.18 MB

     Dynamical RAM for           G-vectors:       6.16 MB

     Dynamical RAM for          h,s,v(r/c):       0.02 MB

     Dynamical RAM for          <psi|beta>:       0.00 MB

     Dynamical RAM for                 psi:       3.63 MB

     Dynamical RAM for                hpsi:       3.63 MB

     Dynamical RAM for      wfcinit/wfcrot:       3.64 MB

     Estimated static dynamical RAM per process >      41.78 MB

     Estimated max dynamical RAM per process >      72.25 MB

     Estimated total dynamical RAM >     808.24 MB

     Initial potential from superposition of free atoms

     starting charge       7.9999, renormalised to       8.0000

     negative rho (up, down):  7.684E-06 0.000E+00


     %%%%%%%%%%%%%%%%%%%%%%%%%%%%%%%%%%%%%%%%%%%%%%%%%%%%%%%%%%%%%%%%%%%%%%%%
     %                                                                      %
     % You are using vdW-DF, which was implemented by the Thonhauser group. %
     % Please cite the following two papers that made this development      %
     % possible and the two reviews that describe the various versions:     %
     %                                                                      %
     %   T. Thonhauser et al., PRL 115, 136402 (2015).                      %
     %   T. Thonhauser et al., PRB 76,  125112 (2007).                      %
     %   K. Berland et al., Rep. Prog. Phys. 78, 066501 (2015).             %
     %   D.C. Langreth et al., J. Phys.: Condens. Matter 21, 084203 (2009). %
     %                                                                      %
     % If you are calculating stress with vdW-DF, please also cite:         %
     %                                                                      %
     %   R. Sabatini et al., J. Phys.: Condens. Matter 24, 424209 (2012).   %
     %                                                                      %
     %   And for spin-polarized stress cases also:                          %
     %   C.M. Frostenson et al., Electr. Struct. 4, 014001 (2022).          %
     %                                                                      %
     %%%%%%%%%%%%%%%%%%%%%%%%%%%%%%%%%%%%%%%%%%%%%%%%%%%%%%%%%%%%%%%%%%%%%%%%

     %%%%%%%%%%%%%%%%%%%%%%%%%%%%%%%%%%%%%%%%%%%%%%%%%%%%%%%%%%%%%%%%%%%%%%%%
     %                                                                      %
     %  vdW-DF NEWS:                                                        %
     %                                                                      %
     %  * vdW-DF3-mc is now available. DOI: 10.1103/hp9d-4kpf               %
     %    use with input_dft = 'vdW-DF3-mc'                                 %
     %  * vdW-DF3 is now available. DOI: 10.1021/acs.jctc.0c00471           %
     %    use with input_dft = 'vdW-DF3-opt1' or 'vdW-DF3-opt2'             %
     %                                                                      %
     %  * Unscreened and range-separated hybrid vdW-DF-cx functionals       %
     %    DOI: 10.1063/1.4986522 and 10.1088/1361-648X/ac2ad2               %
     %    use with input_dft = 'vdW-DF-cx0' and 'vdW-DF-ahcx'               %
     %  * Unscreened and range-separated hybrid vdW-DF2-b86r functionals    %
     %    DOI: 10.1063/1.4986522 and DOI: 10.1103/PhysRevX.12.041003        %
     %    use with input_dft = 'vdW-DF2-br0' and 'vdW-DF2-ahbr'             %
     %                                                                      %
     %%%%%%%%%%%%%%%%%%%%%%%%%%%%%%%%%%%%%%%%%%%%%%%%%%%%%%%%%%%%%%%%%%%%%%%%


     Carrying out vdW-DF run using the following parameters:
     Nqs    =  20  Npoints =  1024  r_max =  100.000
     q_mesh =  0.00001000  0.04494208  0.09755937  0.15916263
               0.23128650  0.31572767  0.41458969  0.53033537
               0.66584808  0.82450364  1.01025438  1.22772762
               1.48234092  1.78043706  2.12944203  2.53805004
               3.01644009  3.57652955  4.23227104  5.00000000


     -----------------------------------------------
     Non-local corr. energy    =       0.09375959 Ry
     -----------------------------------------------

     Starting wfcs are    8 randomized atomic wfcs +    2 random wfcs

     total cpu time spent up to now is       11.2 secs

     Self-consistent Calculation

     iteration #  1     ecut=    90.00 Ry     beta= 0.70
     Davidson diagonalization with overlap

---- Real-time Memory Report at c_bands before calling an iterative solver
           231 MiB given to the printing process from OS
             0 MiB allocation reported by mallinfo(arena+hblkhd)
         27876 MiB available memory on the node where the printing process lives
------------------
     ethr =  1.00E-02,  avg # of iterations =  9.1

     negative rho (up, down):  9.217E-07 0.000E+00


     -----------------------------------------------
     Non-local corr. energy    =       0.10416773 Ry
     -----------------------------------------------


     total cpu time spent up to now is       13.7 secs

     total energy              =     -24.04662521 Ry
     estimated scf accuracy    <       0.19922697 Ry

     iteration #  2     ecut=    90.00 Ry     beta= 0.70
     Davidson diagonalization with overlap

---- Real-time Memory Report at c_bands before calling an iterative solver
           265 MiB given to the printing process from OS
             0 MiB allocation reported by mallinfo(arena+hblkhd)
         27483 MiB available memory on the node where the printing process lives
------------------
     ethr =  2.49E-03,  avg # of iterations =  3.4

     negative rho (up, down):  3.280E-08 0.000E+00


     -----------------------------------------------
     Non-local corr. energy    =       0.10374828 Ry
     -----------------------------------------------


     total cpu time spent up to now is       15.2 secs

     total energy              =     -24.07841851 Ry
     estimated scf accuracy    <       0.00253532 Ry

     iteration #  3     ecut=    90.00 Ry     beta= 0.70
     Davidson diagonalization with overlap

---- Real-time Memory Report at c_bands before calling an iterative solver
           267 MiB given to the printing process from OS
             0 MiB allocation reported by mallinfo(arena+hblkhd)
         27456 MiB available memory on the node where the printing process lives
------------------
     ethr =  3.17E-05,  avg # of iterations = 13.1


     -----------------------------------------------
     Non-local corr. energy    =       0.10380771 Ry
     -----------------------------------------------


     total cpu time spent up to now is       17.1 secs

     total energy              =     -24.07883914 Ry
     estimated scf accuracy    <       0.00017611 Ry

     iteration #  4     ecut=    90.00 Ry     beta= 0.70
     Davidson diagonalization with overlap

---- Real-time Memory Report at c_bands before calling an iterative solver
           270 MiB given to the printing process from OS
             0 MiB allocation reported by mallinfo(arena+hblkhd)
         27404 MiB available memory on the node where the printing process lives
------------------
     ethr =  2.20E-06,  avg # of iterations =  5.7


     -----------------------------------------------
     Non-local corr. energy    =       0.10385069 Ry
     -----------------------------------------------


     total cpu time spent up to now is       19.5 secs

     total energy              =     -24.07884803 Ry
     estimated scf accuracy    <       0.00000140 Ry

     iteration #  5     ecut=    90.00 Ry     beta= 0.70
     Davidson diagonalization with overlap

---- Real-time Memory Report at c_bands before calling an iterative solver
           273 MiB given to the printing process from OS
             0 MiB allocation reported by mallinfo(arena+hblkhd)
         27492 MiB available memory on the node where the printing process lives
------------------
     ethr =  1.74E-08,  avg # of iterations =  3.0


     -----------------------------------------------
     Non-local corr. energy    =       0.10385146 Ry
     -----------------------------------------------


     total cpu time spent up to now is       21.3 secs

     total energy              =     -24.07884894 Ry
     estimated scf accuracy    <       0.00000006 Ry

     iteration #  6     ecut=    90.00 Ry     beta= 0.70
     Davidson diagonalization with overlap

---- Real-time Memory Report at c_bands before calling an iterative solver
           276 MiB given to the printing process from OS
             0 MiB allocation reported by mallinfo(arena+hblkhd)
         27525 MiB available memory on the node where the printing process lives
------------------
     ethr =  7.82E-10,  avg # of iterations =  2.4


     -----------------------------------------------
     Non-local corr. energy    =       0.10385231 Ry
     -----------------------------------------------


     total cpu time spent up to now is       23.4 secs

     total energy              =     -24.07884897 Ry
     estimated scf accuracy    <       0.00000001 Ry

     iteration #  7     ecut=    90.00 Ry     beta= 0.70
     Davidson diagonalization with overlap

---- Real-time Memory Report at c_bands before calling an iterative solver
           279 MiB given to the printing process from OS
             0 MiB allocation reported by mallinfo(arena+hblkhd)
         27449 MiB available memory on the node where the printing process lives
------------------
     ethr =  1.43E-10,  avg # of iterations =  2.0


     -----------------------------------------------
     Non-local corr. energy    =       0.10385277 Ry
     -----------------------------------------------


     total cpu time spent up to now is       24.8 secs

     End of self-consistent calculation

          k = 0.0000 0.0000 0.0000 ( 11659 PWs)   bands (ev):

   -22.2872 -10.4025  -5.7481  -5.7481   0.2611   1.1276   1.7675   2.2995
     2.6871   3.8167

     occupation numbers 
     1.0000   1.0000   1.0000   1.0000   0.0000   0.0000   0.0000   0.0000
     0.0000   0.0000

          k = 0.0000 0.0770 0.0000 ( 11791 PWs)   bands (ev):

   -22.1819 -10.2758  -6.1735  -5.9724   0.4043   1.2722   1.9146   2.4460
     2.8331   3.9622

     occupation numbers 
     1.0000   1.0000   1.0000   1.0000   0.0000   0.0000   0.0000   0.0000
     0.0000   0.0000

          k = 0.0000 0.1540 0.0000 ( 11788 PWs)   bands (ev):

   -21.8666  -9.8978  -7.3045  -6.5412   0.8341   1.7055   2.3559   2.8851
     3.2711   4.3981

     occupation numbers 
     1.0000   1.0000   1.0000   1.0000   0.0000   0.0000   0.0000   0.0000
     0.0000   0.0000

          k = 0.0000 0.2309 0.0000 ( 11848 PWs)   bands (ev):

   -21.3435  -9.2755  -8.8572  -7.2527   1.5500   2.4246   3.0913   3.6159
     4.0005   5.1189

     occupation numbers 
     1.0000   1.0000   1.0000   1.0000   0.0000   0.0000   0.0000   0.0000
     0.0000   0.0000

          k = 0.0000 0.3079 0.0000 ( 11876 PWs)   bands (ev):

   -20.6167 -10.5958  -8.4242  -7.9454   2.5501   3.3948   4.1207   4.1673
     4.6570   5.0121

     occupation numbers 
     1.0000   1.0000   1.0000   1.0000   0.0000   0.0000   0.0000   0.0000
     0.0000   0.0000

          k = 0.0000 0.3849 0.0000 ( 11914 PWs)   bands (ev):

   -19.6937 -12.3677  -8.5217  -7.3770   2.2382   3.8289   4.7535   5.1490
     5.4479   5.9608

     occupation numbers 
     1.0000   1.0000   1.0000   1.0000   0.0000   0.0000   0.0000   0.0000
     0.0000   0.0000

          k = 0.0000 0.4619 0.0000 ( 11910 PWs)   bands (ev):

   -18.5901 -14.0738  -8.9284  -6.2208   0.4758   4.9177   5.4266   6.3142
     7.0631   7.5646

     occupation numbers 
     1.0000   1.0000   1.0000   1.0000   0.0000   0.0000   0.0000   0.0000
     0.0000   0.0000

          k = 0.0000 0.5389 0.0000 ( 11924 PWs)   bands (ev):

   -17.3801 -15.5948  -9.1377  -5.2524  -0.8165   4.8316   7.2306   8.1378
     8.9736   9.2945

     occupation numbers 
     1.0000   1.0000   1.0000   1.0000   0.0000   0.0000   0.0000   0.0000
     0.0000   0.0000

          k = 0.0667 0.1155 0.0000 ( 11813 PWs)   bands (ev):

   -21.9716 -10.0234  -6.8999  -6.4214   0.6909   1.5612   2.2088   2.7388
     3.1251   4.2530

     occupation numbers 
     1.0000   1.0000   1.0000   1.0000   0.0000   0.0000   0.0000   0.0000
     0.0000   0.0000

          k = 0.0667 0.1925 0.0000 ( 11832 PWs)   bands (ev):

   -21.5524  -9.5230  -8.1521  -7.1529   1.2640   2.1379   2.7972   3.3240
     3.7093   4.8332

     occupation numbers 
     1.0000   1.0000   1.0000   1.0000   0.0000   0.0000   0.0000   0.0000
     0.0000   0.0000

          k = 0.0667 0.2694 0.0000 ( 11880 PWs)   bands (ev):

   -20.9275  -9.7390  -8.7850  -7.9152   2.1225   2.9959   3.6797   4.1974
     4.5842   4.9208

     occupation numbers 
     1.0000   1.0000   1.0000   1.0000   0.0000   0.0000   0.0000   0.0000
     0.0000   0.0000

          k = 0.0667 0.3464 0.0000 ( 11910 PWs)   bands (ev):

   -20.1025 -11.4634  -8.5808  -7.8314   3.0802   3.2641   4.1835   4.8559
     5.3746   5.6718

     occupation numbers 
     1.0000   1.0000   1.0000   1.0000   0.0000   0.0000   0.0000   0.0000
     0.0000   0.0000

          k = 0.0667 0.4234 0.0000 ( 11938 PWs)   bands (ev):

   -19.0879 -13.1883  -9.0872  -6.7133   1.2858   4.6771   5.5134   5.5930
     6.3285   6.8320

     occupation numbers 
     1.0000   1.0000   1.0000   1.0000   0.0000   0.0000   0.0000   0.0000
     0.0000   0.0000

          k = 0.0667 0.5004 0.0000 ( 11920 PWs)   bands (ev):

   -17.9129 -14.8130  -9.4016  -5.5840  -0.2955   5.3346   6.3954   7.2797
     8.0920   8.5737

     occupation numbers 
     1.0000   1.0000   1.0000   1.0000   0.0000   0.0000   0.0000   0.0000
     0.0000   0.0000

          k = 0.0667 0.5774 0.0000 ( 11913 PWs)   bands (ev):

   -16.9424 -15.9370  -9.5080  -4.9876  -1.0490   5.2858   8.2553   8.4126
     9.0398   9.3486

     occupation numbers 
     1.0000   1.0000   1.0000   1.0000   0.0000   0.0000   0.0000   0.0000
     0.0000   0.0000

          k = 0.1333 0.2309 0.0000 ( 11879 PWs)   bands (ev):

   -21.0314  -9.2547  -8.9061  -8.1210   1.9802   2.8563   3.5327   4.0548
     4.4396   5.2147

     occupation numbers 
     1.0000   1.0000   1.0000   1.0000   0.0000   0.0000   0.0000   0.0000
     0.0000   0.0000

          k = 0.1333 0.3079 0.0000 ( 11929 PWs)   bands (ev):

   -20.3082 -10.6531  -9.0321  -8.0619   2.9804   3.6298   3.8794   4.5624
     5.0771   5.4610

     occupation numbers 
     1.0000   1.0000   1.0000   1.0000   0.0000   0.0000   0.0000   0.0000
     0.0000   0.0000

          k = 0.1333 0.3849 0.0000 ( 11925 PWs)   bands (ev):

   -19.3909 -12.2497  -9.7097  -7.0218   1.9607   4.2610   5.1392   5.8856
     6.3871   6.7359

     occupation numbers 
     1.0000   1.0000   1.0000   1.0000   0.0000   0.0000   0.0000   0.0000
     0.0000   0.0000

          k = 0.1333 0.4619 0.0000 ( 11927 PWs)   bands (ev):

   -18.2967 -13.8681 -10.1568  -5.8656   0.3173   5.8094   6.6689   6.6762
     7.5044   7.9771

     occupation numbers 
     1.0000   1.0000   1.0000   1.0000   0.0000   0.0000   0.0000   0.0000
     0.0000   0.0000

          k = 0.1333 0.5389 0.0000 ( 11935 PWs)   bands (ev):

   -17.1025 -15.3422 -10.3802  -4.8751  -0.9355   6.5517   7.6355   8.3547
     9.4130   9.6385

     occupation numbers 
     1.0000   1.0000   1.0000   1.0000   0.0000   0.0000   0.0000   0.0000
     0.0000   0.0000

          k = 0.2000 0.3464 0.0000 ( 11953 PWs)   bands (ev):

   -19.4925 -11.6679 -10.2118  -7.1266   2.2388   4.1199   4.9793   5.7390
     6.2369   6.6280

     occupation numbers 
     1.0000   1.0000   1.0000   1.0000   0.0000   0.0000   0.0000   0.0000
     0.0000   0.0000

          k = 0.2000 0.4234 0.0000 ( 11949 PWs)   bands (ev):

   -18.4934 -12.9558 -11.0353  -6.0226   0.7507   5.5333   6.3390   7.2090
     7.6712   8.0742

     occupation numbers 
     1.0000   1.0000   1.0000   1.0000   0.0000   0.0000   0.0000   0.0000
     0.0000   0.0000

          k = 0.2000 0.5004 0.0000 ( 11953 PWs)   bands (ev):

   -17.3437 -14.3888 -11.4630  -4.8741  -0.6514   7.2004   7.7773   8.3252
     8.9733   9.2717

     occupation numbers 
     1.0000   1.0000   1.0000   1.0000   0.0000   0.0000   0.0000   0.0000
     0.0000   0.0000

          k = 0.2000 0.5774 0.0000 ( 11949 PWs)   bands (ev):

   -16.4032 -15.4398 -11.5960  -4.2174  -1.3975   8.2475   8.5019   8.9783
     9.1955  10.2184

     occupation numbers 
     1.0000   1.0000   1.0000   1.0000   0.0000   0.0000   0.0000   0.0000
     0.0000   0.0000

          k = 0.2667 0.4619 0.0000 ( 11961 PWs)   bands (ev):

   -17.4327 -13.7361 -12.1680  -4.8876  -0.5035   7.0626   7.5489   8.8246
     9.0900   9.6544

     occupation numbers 
     1.0000   1.0000   1.0000   1.0000   0.0000   0.0000   0.0000   0.0000
     0.0000   0.0000

          k = 0.2667 0.5389 0.0000 ( 11948 PWs)   bands (ev):

   -16.2884 -14.7885 -12.7115  -3.7963  -1.6486   8.0035   8.7823   9.9403
    10.3813  10.4165

     occupation numbers 
     1.0000   1.0000   1.0000   1.0000   0.0000   0.0000   0.0000   0.0000
     0.0000   0.0000

          k = 0.3333 0.5774 0.0000 ( 11919 PWs)   bands (ev):

   -15.3293 -15.3293 -13.3378  -2.7018  -2.7018   7.8311  10.0791  10.0792
    10.6119  11.9520

     occupation numbers 
     1.0000   1.0000   1.0000   0.5001   0.4999   0.0000   0.0000   0.0000
     0.0000   0.0000

     the Fermi energy is    -2.7018 ev

!    total energy              =     -24.07884897 Ry
     estimated scf accuracy    <          4.2E-10 Ry
     smearing contrib. (-TS)   =      -0.00010030 Ry
     internal energy E=F+TS    =     -24.07874867 Ry

     The total energy is F=E-TS. E is the sum of the following terms:
     one-electron contribution =    -270.20106330 Ry
     hartree contribution      =     136.29311129 Ry
     xc contribution           =      -8.56533525 Ry
     ewald contribution        =     118.39453860 Ry

     convergence has been achieved in   7 iterations


     -----------------------------------------------
     Non-local corr. energy    =       0.10385277 Ry
     -----------------------------------------------


     Forces acting on atoms (cartesian axes, Ry/au):

     atom    1 type  1   force =     0.00000000    0.00000000    0.00103471
     atom    2 type  1   force =     0.00000000   -0.00000000   -0.00103471
     The non-local contrib.  to forces
     atom    1 type  1   force =     0.00000000    0.00000000    0.00201055
     atom    2 type  1   force =    -0.00000000    0.00000000   -0.00201529
     The ionic contribution  to forces
     atom    1 type  1   force =    -0.00000053    0.00000661   -0.02097242
     atom    2 type  1   force =     0.00000053   -0.00000661    0.02097242
     The local contribution  to forces
     atom    1 type  1   force =    -0.00000042   -0.00000385    0.02001927
     atom    2 type  1   force =     0.00000000   -0.00000228   -0.01999444
     The core correction contribution to forces
     atom    1 type  1   force =     0.00000003    0.00000014   -0.00001253
     atom    2 type  1   force =    -0.00000000    0.00000031    0.00001282
     The Hubbard contrib.    to forces
     atom    1 type  1   force =     0.00000000    0.00000000    0.00000000
     atom    2 type  1   force =     0.00000000    0.00000000    0.00000000
     The SCF correction term to forces
     atom    1 type  1   force =     0.00000000   -0.00000000   -0.00001420
     atom    2 type  1   force =    -0.00000000    0.00000000   -0.00001427

     Total force =     0.001463     Total SCF correction =     0.000020

     Writing all to output data dir /home/ubuntu/projects/Graphene-Band-Structure-Quantum-Espresso/outputs/field_0/vdw-df2-c09/top/data/top.save/ :
     XML data file, charge density, pseudopotentials, collected wavefunctions

     init_run     :     10.43s CPU     10.66s WALL (       1 calls)
     electrons    :     12.91s CPU     14.19s WALL (       1 calls)
     forces       :      0.73s CPU      0.92s WALL (       1 calls)

     Called by init_run:
     wfcinit      :      0.18s CPU      0.19s WALL (       1 calls)
     wfcinit:atom :      0.00s CPU      0.00s WALL (       2 calls)
     wfcinit:wfcr :      0.18s CPU      0.18s WALL (       2 calls)
     potinit      :      9.56s CPU      9.75s WALL (       1 calls)
     hinit0       :      0.62s CPU      0.64s WALL (       1 calls)

     Called by electrons:
     c_bands      :      4.65s CPU      4.69s WALL (       7 calls)
     sum_band     :      0.53s CPU      0.57s WALL (       7 calls)
     v_of_rho     :     15.40s CPU     16.74s WALL (       8 calls)
     v_h          :      0.04s CPU      0.05s WALL (       8 calls)
     v_xc         :     15.99s CPU     17.50s WALL (       9 calls)
     mix_rho      :      0.09s CPU      0.11s WALL (       7 calls)
     vdW_kernel   :      8.82s CPU      8.83s WALL (       1 calls)

     Called by c_bands:
     init_us_2    :      0.08s CPU      0.08s WALL (      32 calls)
     cegterg      :      3.64s CPU      3.67s WALL (      14 calls)

     Called by sum_band:
     sum_band:wei :      0.01s CPU      0.01s WALL (       7 calls)
     sum_band:loo :      0.35s CPU      0.37s WALL (       7 calls)
     sum_band:buf :      0.01s CPU      0.01s WALL (      14 calls)
     sum_band:ini :      0.03s CPU      0.04s WALL (      14 calls)

     Called by *egterg:
     cdiaghg      :      0.02s CPU      0.02s WALL (      98 calls)
     cegterg:over :      0.33s CPU      0.33s WALL (      84 calls)
     cegterg:upda :      0.23s CPU      0.23s WALL (      84 calls)
     cegterg:last :      0.37s CPU      0.37s WALL (      38 calls)
     h_psi        :      2.72s CPU      2.75s WALL (     100 calls)
     g_psi        :      0.02s CPU      0.02s WALL (      84 calls)

     Called by h_psi:
     h_psi:calbec :      0.22s CPU      0.22s WALL (     100 calls)
     vloc_psi     :      2.25s CPU      2.27s WALL (     100 calls)
     add_vuspsi   :      0.23s CPU      0.23s WALL (     100 calls)

     General routines
     calbec       :      0.25s CPU      0.25s WALL (     108 calls)
     fft          :      2.32s CPU      2.33s WALL (     540 calls)
     ffts         :      0.03s CPU      0.03s WALL (       7 calls)
     fftw         :      2.22s CPU      2.22s WALL (    1074 calls)

     Parallel routines

     PWSCF        :     25.16s CPU     26.91s WALL


   This run was terminated on:  18:35:19   3Oct2026            

=------------------------------------------------------------------------------=
   JOB DONE.
=------------------------------------------------------------------------------=
Note: The following floating-point exceptions are signalling: IEEE_UNDERFLOW_FLAG IEEE_DENORMAL
Note: The following floating-point exceptions are signalling: IEEE_UNDERFLOW_FLAG IEEE_DENORMAL
Note: The following floating-point exceptions are signalling: IEEE_UNDERFLOW_FLAG IEEE_DENORMAL
Note: The following floating-point exceptions are signalling: IEEE_UNDERFLOW_FLAG IEEE_DENORMAL
Note: The following floating-point exceptions are signalling: IEEE_UNDERFLOW_FLAG IEEE_DENORMAL
Note: The following floating-point exceptions are signalling: IEEE_UNDERFLOW_FLAG IEEE_DENORMAL
Note: The following floating-point exceptions are signalling: IEEE_UNDERFLOW_FLAG IEEE_DENORMAL
Note: The following floating-point exceptions are signalling: IEEE_UNDERFLOW_FLAG IEEE_DENORMAL
Note: The following floating-point exceptions are signalling: IEEE_UNDERFLOW_FLAG IEEE_DENORMAL
Note: The following floating-point exceptions are signalling: IEEE_UNDERFLOW_FLAG IEEE_DENORMAL
Note: The following floating-point exceptions are signalling: IEEE_UNDERFLOW_FLAG IEEE_DENORMAL
Note: The following floating-point exceptions are signalling: IEEE_UNDERFLOW_FLAG IEEE_DENORMAL
Note: The following floating-point exceptions are signalling: IEEE_UNDERFLOW_FLAG IEEE_DENORMAL
Note: The following floating-point exceptions are signalling: IEEE_UNDERFLOW_FLAG IEEE_DENORMAL
Note: The following floating-point exceptions are signalling: IEEE_UNDERFLOW_FLAG IEEE_DENORMAL
Note: The following floating-point exceptions are signalling: IEEE_UNDERFLOW_FLAG IEEE_DENORMAL
