
     Program PWSCF v.7.6 starts on  5Oct2026 at 10:46:23 

     This program is part of the open-source Quantum ESPRESSO suite
     for quantum simulation of materials; please cite
         "P. Giannozzi et al., J. Phys.:Condens. Matter 21 395502 (2009);
         "P. Giannozzi et al., J. Phys.:Condens. Matter 29 465901 (2017);
         "P. Giannozzi et al., J. Chem. Phys. 152 154105 (2020);
          URL http://www.quantum-espresso.org", 
     in publications or presentations arising from this work. More details at
     http://www.quantum-espresso.org/quote

     Parallel version (MPI), running on    16 processors

     MPI processes distributed on     1 nodes
     30814 MiB available memory on the printing compute node when the environment starts

     Waiting for input...
     Reading input from standard input
Warning: card &CELL ignored
Warning: card &FCP ignored
Warning: card &RISM ignored

     Current dimensions of program PWSCF are:
     Max number of different atomic species (ntypx) = 10
     Max number of k-points (npk) =  40000
     Max angular momentum in pseudopotentials (lmaxx) =  4
     Presently no symmetry can be used with electric field


     IMPORTANT: XC functional enforced from input :
     Exchange-correlation= VDW-DF2-C09
                           (   1   4  16   0   2   0   0)
     Any further DFT definition will be discarded
     Please, verify this is what you really want


     K-points division:     npool     =      16
     Subspace diagonalization in iterative solution of the eigenvalue problem:
     a serial algorithm will be used


     G-vector sticks info
     --------------------
     sticks:   dense  smooth     PW     G-vecs:    dense   smooth      PW
     Sum         535     535    163                94953    94953   17173

     Using Slab Decomposition



     bravais-lattice index     =            0
     lattice parameter (alat)  =       4.6487  a.u.
     unit-cell volume          =     825.8174 (a.u.)^3
     number of atoms/cell      =            2
     number of atomic types    =            1
     number of electrons       =         8.00
     number of Kohn-Sham states=           10
     kinetic-energy cutoff     =      90.0000  Ry
     charge density cutoff     =     360.0000  Ry
     scf convergence threshold =      1.0E-08
     mixing beta               =       0.7000
     number of iterations used =            8  plain     mixing
     Exchange-correlation= VDW-DF2-C09
                           (   1   4  16   0   2   0   0)

     celldm(1)=   4.648726  celldm(2)=   0.000000  celldm(3)=   0.000000
     celldm(4)=   0.000000  celldm(5)=   0.000000  celldm(6)=   0.000000

     crystal axes: (cart. coord. in units of alat)
               a(1) = (   1.000000   0.000000   0.000000 )  
               a(2) = (  -0.500000   0.866025   0.000000 )  
               a(3) = (   0.000000   0.000000   9.491870 )  

     reciprocal axes: (cart. coord. in units 2 pi/alat)
               b(1) = (  1.000000  0.577351 -0.000000 )  
               b(2) = (  0.000000  1.154701  0.000000 )  
               b(3) = (  0.000000 -0.000000  0.105353 )  


     PseudoPot. # 1 for C  read from file:
     /home/ubuntu/projects/Graphene-Band-Structure-Quantum-Espresso/pseudo/C.upf
     MD5 check sum: 34a24e64c0a39f27c6c36b90a16ac686
     Pseudo is Norm-conserving + core correction, Zval =  4.0
     Generated using ONCVPSP code by D. R. Hamann
     Using radial grid of 1248 points,  4 beta functions with: 
                l(1) =   0
                l(2) =   0
                l(3) =   1
                l(4) =   1

     atomic species   valence    mass     pseudopotential
     C                 4.00    12.01100     C ( 1.00)

     No symmetry found


                                    s                        frac. trans.

      isym =  1     identity                                     

 cryst.   s( 1) = (     1          0          0      )
                  (     0          1          0      )
                  (     0          0          1      )

 cart.    s( 1) = (  1.0000000  0.0000000  0.0000000 )
                  (  0.0000000  1.0000000  0.0000000 )
                  (  0.0000000  0.0000000  1.0000000 )


   Cartesian axes

     site n.     atom                  positions (alat units)
         1        C      tau(   1) = (   0.4999730   0.2887162   5.4608223  )
         2        C      tau(   2) = (   0.0000369   0.5773162   5.4613593  )

   Crystallographic axes

     site n.     atom                  positions (cryst. coord.)
         1        C      tau(   1) = (  0.6666635  0.3333809  0.5753158  )
         2        C      tau(   2) = (  0.3333507  0.6666276  0.5753723  )

     number of k points=   113  Gaussian smearing, width (Ry)=  0.0100
                       cart. coord. in units 2pi/alat
        k(    1) = (   0.0000000   0.0000000   0.0000000), wk =   0.0088889
        k(    2) = (   0.0000000   0.0769801   0.0000000), wk =   0.0177778
        k(    3) = (   0.0000000   0.1539601   0.0000000), wk =   0.0177778
        k(    4) = (   0.0000000   0.2309402   0.0000000), wk =   0.0177778
        k(    5) = (   0.0000000   0.3079203   0.0000000), wk =   0.0177778
        k(    6) = (   0.0000000   0.3849004   0.0000000), wk =   0.0177778
        k(    7) = (   0.0000000   0.4618804   0.0000000), wk =   0.0177778
        k(    8) = (   0.0000000   0.5388605   0.0000000), wk =   0.0177778
        k(    9) = (   0.0666667   0.0384900   0.0000000), wk =   0.0177778
        k(   10) = (   0.0666667   0.1154701   0.0000000), wk =   0.0177778
        k(   11) = (   0.0666667   0.1924502   0.0000000), wk =   0.0177778
        k(   12) = (   0.0666667   0.2694303   0.0000000), wk =   0.0177778
        k(   13) = (   0.0666667   0.3464103   0.0000000), wk =   0.0177778
        k(   14) = (   0.0666667   0.4233904   0.0000000), wk =   0.0177778
        k(   15) = (   0.0666667   0.5003705   0.0000000), wk =   0.0177778
        k(   16) = (   0.0666667   0.5773505   0.0000000), wk =   0.0177778
        k(   17) = (   0.0666667  -0.5003705   0.0000000), wk =   0.0177778
        k(   18) = (   0.0666667  -0.4233904   0.0000000), wk =   0.0177778
        k(   19) = (   0.0666667  -0.3464103   0.0000000), wk =   0.0177778
        k(   20) = (   0.0666667  -0.2694303   0.0000000), wk =   0.0177778
        k(   21) = (   0.0666667  -0.1924502   0.0000000), wk =   0.0177778
        k(   22) = (   0.0666667  -0.1154701   0.0000000), wk =   0.0177778
        k(   23) = (   0.0666667  -0.0384900   0.0000000), wk =   0.0177778
        k(   24) = (   0.1333333   0.0769801   0.0000000), wk =   0.0177778
        k(   25) = (   0.1333333   0.1539601   0.0000000), wk =   0.0177778
        k(   26) = (   0.1333333   0.2309402   0.0000000), wk =   0.0177778
        k(   27) = (   0.1333333   0.3079203   0.0000000), wk =   0.0177778
        k(   28) = (   0.1333333   0.3849004   0.0000000), wk =   0.0177778
        k(   29) = (   0.1333333   0.4618804   0.0000000), wk =   0.0177778
        k(   30) = (   0.1333333   0.5388605   0.0000000), wk =   0.0177778
        k(   31) = (   0.1333333   0.6158406   0.0000000), wk =   0.0177778
        k(   32) = (   0.1333333  -0.4618804   0.0000000), wk =   0.0177778
        k(   33) = (   0.1333333  -0.3849004   0.0000000), wk =   0.0177778
        k(   34) = (   0.1333333  -0.3079203   0.0000000), wk =   0.0177778
        k(   35) = (   0.1333333  -0.2309402   0.0000000), wk =   0.0177778
        k(   36) = (   0.1333333  -0.1539601   0.0000000), wk =   0.0177778
        k(   37) = (   0.1333333  -0.0769801   0.0000000), wk =   0.0177778
        k(   38) = (   0.1333333   0.0000000   0.0000000), wk =   0.0177778
        k(   39) = (   0.2000000   0.1154701   0.0000000), wk =   0.0177778
        k(   40) = (   0.2000000   0.1924502   0.0000000), wk =   0.0177778
        k(   41) = (   0.2000000   0.2694303   0.0000000), wk =   0.0177778
        k(   42) = (   0.2000000   0.3464103   0.0000000), wk =   0.0177778
        k(   43) = (   0.2000000   0.4233904   0.0000000), wk =   0.0177778
        k(   44) = (   0.2000000   0.5003705   0.0000000), wk =   0.0177778
        k(   45) = (   0.2000000   0.5773505   0.0000000), wk =   0.0177778
        k(   46) = (   0.2000000   0.6543306   0.0000000), wk =   0.0177778
        k(   47) = (   0.2000000  -0.4233904   0.0000000), wk =   0.0177778
        k(   48) = (   0.2000000  -0.3464103   0.0000000), wk =   0.0177778
        k(   49) = (   0.2000000  -0.2694303   0.0000000), wk =   0.0177778
        k(   50) = (   0.2000000  -0.1924502   0.0000000), wk =   0.0177778
        k(   51) = (   0.2000000  -0.1154701   0.0000000), wk =   0.0177778
        k(   52) = (   0.2000000  -0.0384900   0.0000000), wk =   0.0177778
        k(   53) = (   0.2000000   0.0384900   0.0000000), wk =   0.0177778
        k(   54) = (   0.2666667   0.1539601   0.0000000), wk =   0.0177778
        k(   55) = (   0.2666667   0.2309402   0.0000000), wk =   0.0177778
        k(   56) = (   0.2666667   0.3079203   0.0000000), wk =   0.0177778
        k(   57) = (   0.2666667   0.3849004   0.0000000), wk =   0.0177778
        k(   58) = (   0.2666667   0.4618804   0.0000000), wk =   0.0177778
        k(   59) = (   0.2666667   0.5388605   0.0000000), wk =   0.0177778
        k(   60) = (   0.2666667   0.6158406   0.0000000), wk =   0.0177778
        k(   61) = (   0.2666667   0.6928206   0.0000000), wk =   0.0177778
        k(   62) = (   0.2666667  -0.3849004   0.0000000), wk =   0.0177778
        k(   63) = (   0.2666667  -0.3079203   0.0000000), wk =   0.0177778
        k(   64) = (   0.2666667  -0.2309402   0.0000000), wk =   0.0177778
        k(   65) = (   0.2666667  -0.1539601   0.0000000), wk =   0.0177778
        k(   66) = (   0.2666667  -0.0769801   0.0000000), wk =   0.0177778
        k(   67) = (   0.2666667   0.0000000   0.0000000), wk =   0.0177778
        k(   68) = (   0.2666667   0.0769801   0.0000000), wk =   0.0177778
        k(   69) = (   0.3333333   0.1924502   0.0000000), wk =   0.0177778
        k(   70) = (   0.3333333   0.2694303   0.0000000), wk =   0.0177778
        k(   71) = (   0.3333333   0.3464103   0.0000000), wk =   0.0177778
        k(   72) = (   0.3333333   0.4233904   0.0000000), wk =   0.0177778
        k(   73) = (   0.3333333   0.5003705   0.0000000), wk =   0.0177778
        k(   74) = (   0.3333333   0.5773505   0.0000000), wk =   0.0177778
        k(   75) = (   0.3333333   0.6543306   0.0000000), wk =   0.0177778
        k(   76) = (   0.3333333   0.7313107   0.0000000), wk =   0.0177778
        k(   77) = (   0.3333333  -0.3464103   0.0000000), wk =   0.0177778
        k(   78) = (   0.3333333  -0.2694303   0.0000000), wk =   0.0177778
        k(   79) = (   0.3333333  -0.1924502   0.0000000), wk =   0.0177778
        k(   80) = (   0.3333333  -0.1154701   0.0000000), wk =   0.0177778
        k(   81) = (   0.3333333  -0.0384900   0.0000000), wk =   0.0177778
        k(   82) = (   0.3333333   0.0384900   0.0000000), wk =   0.0177778
        k(   83) = (   0.3333333   0.1154701   0.0000000), wk =   0.0177778
        k(   84) = (   0.4000000   0.2309402   0.0000000), wk =   0.0177778
        k(   85) = (   0.4000000   0.3079203   0.0000000), wk =   0.0177778
        k(   86) = (   0.4000000   0.3849004   0.0000000), wk =   0.0177778
        k(   87) = (   0.4000000   0.4618804   0.0000000), wk =   0.0177778
        k(   88) = (   0.4000000   0.5388605   0.0000000), wk =   0.0177778
        k(   89) = (   0.4000000   0.6158406   0.0000000), wk =   0.0177778
        k(   90) = (   0.4000000   0.6928206   0.0000000), wk =   0.0177778
        k(   91) = (   0.4000000   0.7698007   0.0000000), wk =   0.0177778
        k(   92) = (   0.4000000  -0.3079203   0.0000000), wk =   0.0177778
        k(   93) = (   0.4000000  -0.2309402   0.0000000), wk =   0.0177778
        k(   94) = (   0.4000000  -0.1539601   0.0000000), wk =   0.0177778
        k(   95) = (   0.4000000  -0.0769801   0.0000000), wk =   0.0177778
        k(   96) = (   0.4000000   0.0000000   0.0000000), wk =   0.0177778
        k(   97) = (   0.4000000   0.0769801   0.0000000), wk =   0.0177778
        k(   98) = (   0.4000000   0.1539601   0.0000000), wk =   0.0177778
        k(   99) = (   0.4666667   0.2694303   0.0000000), wk =   0.0177778
        k(  100) = (   0.4666667   0.3464103   0.0000000), wk =   0.0177778
        k(  101) = (   0.4666667   0.4233904   0.0000000), wk =   0.0177778
        k(  102) = (   0.4666667   0.5003705   0.0000000), wk =   0.0177778
        k(  103) = (   0.4666667   0.5773505   0.0000000), wk =   0.0177778
        k(  104) = (   0.4666667   0.6543306   0.0000000), wk =   0.0177778
        k(  105) = (   0.4666667   0.7313107   0.0000000), wk =   0.0177778
        k(  106) = (   0.4666667   0.8082908   0.0000000), wk =   0.0177778
        k(  107) = (   0.4666667  -0.2694303   0.0000000), wk =   0.0177778
        k(  108) = (   0.4666667  -0.1924502   0.0000000), wk =   0.0177778
        k(  109) = (   0.4666667  -0.1154701   0.0000000), wk =   0.0177778
        k(  110) = (   0.4666667  -0.0384900   0.0000000), wk =   0.0177778
        k(  111) = (   0.4666667   0.0384900   0.0000000), wk =   0.0177778
        k(  112) = (   0.4666667   0.1154701   0.0000000), wk =   0.0177778
        k(  113) = (   0.4666667   0.1924502   0.0000000), wk =   0.0177778

                       cryst. coord.
        k(    1) = (   0.0000000   0.0000000   0.0000000), wk =   0.0088889
        k(    2) = (   0.0000000   0.0666667   0.0000000), wk =   0.0177778
        k(    3) = (   0.0000000   0.1333333   0.0000000), wk =   0.0177778
        k(    4) = (   0.0000000   0.2000000   0.0000000), wk =   0.0177778
        k(    5) = (   0.0000000   0.2666667   0.0000000), wk =   0.0177778
        k(    6) = (   0.0000000   0.3333333   0.0000000), wk =   0.0177778
        k(    7) = (   0.0000000   0.4000000   0.0000000), wk =   0.0177778
        k(    8) = (   0.0000000   0.4666667   0.0000000), wk =   0.0177778
        k(    9) = (   0.0666667   0.0000000   0.0000000), wk =   0.0177778
        k(   10) = (   0.0666667   0.0666667   0.0000000), wk =   0.0177778
        k(   11) = (   0.0666667   0.1333333   0.0000000), wk =   0.0177778
        k(   12) = (   0.0666667   0.2000000   0.0000000), wk =   0.0177778
        k(   13) = (   0.0666667   0.2666667   0.0000000), wk =   0.0177778
        k(   14) = (   0.0666667   0.3333333   0.0000000), wk =   0.0177778
        k(   15) = (   0.0666667   0.4000000   0.0000000), wk =   0.0177778
        k(   16) = (   0.0666667   0.4666667   0.0000000), wk =   0.0177778
        k(   17) = (   0.0666667  -0.4666667   0.0000000), wk =   0.0177778
        k(   18) = (   0.0666667  -0.4000000   0.0000000), wk =   0.0177778
        k(   19) = (   0.0666667  -0.3333333   0.0000000), wk =   0.0177778
        k(   20) = (   0.0666667  -0.2666667   0.0000000), wk =   0.0177778
        k(   21) = (   0.0666667  -0.2000000   0.0000000), wk =   0.0177778
        k(   22) = (   0.0666667  -0.1333333   0.0000000), wk =   0.0177778
        k(   23) = (   0.0666667  -0.0666667   0.0000000), wk =   0.0177778
        k(   24) = (   0.1333333   0.0000000   0.0000000), wk =   0.0177778
        k(   25) = (   0.1333333   0.0666667   0.0000000), wk =   0.0177778
        k(   26) = (   0.1333333   0.1333333   0.0000000), wk =   0.0177778
        k(   27) = (   0.1333333   0.2000000   0.0000000), wk =   0.0177778
        k(   28) = (   0.1333333   0.2666667   0.0000000), wk =   0.0177778
        k(   29) = (   0.1333333   0.3333333   0.0000000), wk =   0.0177778
        k(   30) = (   0.1333333   0.4000000   0.0000000), wk =   0.0177778
        k(   31) = (   0.1333333   0.4666667   0.0000000), wk =   0.0177778
        k(   32) = (   0.1333333  -0.4666667   0.0000000), wk =   0.0177778
        k(   33) = (   0.1333333  -0.4000000   0.0000000), wk =   0.0177778
        k(   34) = (   0.1333333  -0.3333333   0.0000000), wk =   0.0177778
        k(   35) = (   0.1333333  -0.2666667   0.0000000), wk =   0.0177778
        k(   36) = (   0.1333333  -0.2000000   0.0000000), wk =   0.0177778
        k(   37) = (   0.1333333  -0.1333333   0.0000000), wk =   0.0177778
        k(   38) = (   0.1333333  -0.0666667   0.0000000), wk =   0.0177778
        k(   39) = (   0.2000000   0.0000000   0.0000000), wk =   0.0177778
        k(   40) = (   0.2000000   0.0666667   0.0000000), wk =   0.0177778
        k(   41) = (   0.2000000   0.1333333   0.0000000), wk =   0.0177778
        k(   42) = (   0.2000000   0.2000000   0.0000000), wk =   0.0177778
        k(   43) = (   0.2000000   0.2666667   0.0000000), wk =   0.0177778
        k(   44) = (   0.2000000   0.3333333   0.0000000), wk =   0.0177778
        k(   45) = (   0.2000000   0.4000000   0.0000000), wk =   0.0177778
        k(   46) = (   0.2000000   0.4666667   0.0000000), wk =   0.0177778
        k(   47) = (   0.2000000  -0.4666667   0.0000000), wk =   0.0177778
        k(   48) = (   0.2000000  -0.4000000   0.0000000), wk =   0.0177778
        k(   49) = (   0.2000000  -0.3333333   0.0000000), wk =   0.0177778
        k(   50) = (   0.2000000  -0.2666667   0.0000000), wk =   0.0177778
        k(   51) = (   0.2000000  -0.2000000   0.0000000), wk =   0.0177778
        k(   52) = (   0.2000000  -0.1333333   0.0000000), wk =   0.0177778
        k(   53) = (   0.2000000  -0.0666667   0.0000000), wk =   0.0177778
        k(   54) = (   0.2666667   0.0000000   0.0000000), wk =   0.0177778
        k(   55) = (   0.2666667   0.0666667   0.0000000), wk =   0.0177778
        k(   56) = (   0.2666667   0.1333333   0.0000000), wk =   0.0177778
        k(   57) = (   0.2666667   0.2000000   0.0000000), wk =   0.0177778
        k(   58) = (   0.2666667   0.2666667   0.0000000), wk =   0.0177778
        k(   59) = (   0.2666667   0.3333333   0.0000000), wk =   0.0177778
        k(   60) = (   0.2666667   0.4000000   0.0000000), wk =   0.0177778
        k(   61) = (   0.2666667   0.4666667   0.0000000), wk =   0.0177778
        k(   62) = (   0.2666667  -0.4666667   0.0000000), wk =   0.0177778
        k(   63) = (   0.2666667  -0.4000000   0.0000000), wk =   0.0177778
        k(   64) = (   0.2666667  -0.3333333   0.0000000), wk =   0.0177778
        k(   65) = (   0.2666667  -0.2666667   0.0000000), wk =   0.0177778
        k(   66) = (   0.2666667  -0.2000000   0.0000000), wk =   0.0177778
        k(   67) = (   0.2666667  -0.1333333   0.0000000), wk =   0.0177778
        k(   68) = (   0.2666667  -0.0666667   0.0000000), wk =   0.0177778
        k(   69) = (   0.3333333   0.0000000   0.0000000), wk =   0.0177778
        k(   70) = (   0.3333333   0.0666667   0.0000000), wk =   0.0177778
        k(   71) = (   0.3333333   0.1333333   0.0000000), wk =   0.0177778
        k(   72) = (   0.3333333   0.2000000   0.0000000), wk =   0.0177778
        k(   73) = (   0.3333333   0.2666667   0.0000000), wk =   0.0177778
        k(   74) = (   0.3333333   0.3333333   0.0000000), wk =   0.0177778
        k(   75) = (   0.3333333   0.4000000   0.0000000), wk =   0.0177778
        k(   76) = (   0.3333333   0.4666667   0.0000000), wk =   0.0177778
        k(   77) = (   0.3333333  -0.4666667   0.0000000), wk =   0.0177778
        k(   78) = (   0.3333333  -0.4000000   0.0000000), wk =   0.0177778
        k(   79) = (   0.3333333  -0.3333333   0.0000000), wk =   0.0177778
        k(   80) = (   0.3333333  -0.2666667   0.0000000), wk =   0.0177778
        k(   81) = (   0.3333333  -0.2000000   0.0000000), wk =   0.0177778
        k(   82) = (   0.3333333  -0.1333333   0.0000000), wk =   0.0177778
        k(   83) = (   0.3333333  -0.0666667   0.0000000), wk =   0.0177778
        k(   84) = (   0.4000000   0.0000000   0.0000000), wk =   0.0177778
        k(   85) = (   0.4000000   0.0666667   0.0000000), wk =   0.0177778
        k(   86) = (   0.4000000   0.1333333   0.0000000), wk =   0.0177778
        k(   87) = (   0.4000000   0.2000000   0.0000000), wk =   0.0177778
        k(   88) = (   0.4000000   0.2666667   0.0000000), wk =   0.0177778
        k(   89) = (   0.4000000   0.3333333   0.0000000), wk =   0.0177778
        k(   90) = (   0.4000000   0.4000000   0.0000000), wk =   0.0177778
        k(   91) = (   0.4000000   0.4666667   0.0000000), wk =   0.0177778
        k(   92) = (   0.4000000  -0.4666667   0.0000000), wk =   0.0177778
        k(   93) = (   0.4000000  -0.4000000   0.0000000), wk =   0.0177778
        k(   94) = (   0.4000000  -0.3333333   0.0000000), wk =   0.0177778
        k(   95) = (   0.4000000  -0.2666667   0.0000000), wk =   0.0177778
        k(   96) = (   0.4000000  -0.2000000   0.0000000), wk =   0.0177778
        k(   97) = (   0.4000000  -0.1333333   0.0000000), wk =   0.0177778
        k(   98) = (   0.4000000  -0.0666667   0.0000000), wk =   0.0177778
        k(   99) = (   0.4666667   0.0000000   0.0000000), wk =   0.0177778
        k(  100) = (   0.4666667   0.0666667   0.0000000), wk =   0.0177778
        k(  101) = (   0.4666667   0.1333333   0.0000000), wk =   0.0177778
        k(  102) = (   0.4666667   0.2000000   0.0000000), wk =   0.0177778
        k(  103) = (   0.4666667   0.2666667   0.0000000), wk =   0.0177778
        k(  104) = (   0.4666667   0.3333333   0.0000000), wk =   0.0177778
        k(  105) = (   0.4666667   0.4000000   0.0000000), wk =   0.0177778
        k(  106) = (   0.4666667   0.4666667   0.0000000), wk =   0.0177778
        k(  107) = (   0.4666667  -0.4666667   0.0000000), wk =   0.0177778
        k(  108) = (   0.4666667  -0.4000000   0.0000000), wk =   0.0177778
        k(  109) = (   0.4666667  -0.3333333   0.0000000), wk =   0.0177778
        k(  110) = (   0.4666667  -0.2666667   0.0000000), wk =   0.0177778
        k(  111) = (   0.4666667  -0.2000000   0.0000000), wk =   0.0177778
        k(  112) = (   0.4666667  -0.1333333   0.0000000), wk =   0.0177778
        k(  113) = (   0.4666667  -0.0666667   0.0000000), wk =   0.0177778

     Dense  grid:    94953 G-vectors     FFT dimensions: (  30,  30, 270)

     Dynamical RAM for                 wfc:       1.82 MB

     Dynamical RAM for     wfc (w. buffer):      16.35 MB

     Dynamical RAM for           str. fact:       1.45 MB

     Dynamical RAM for           local pot:       0.00 MB

     Dynamical RAM for          nlocal pot:       2.91 MB

     Dynamical RAM for                qrad:       0.44 MB

     Dynamical RAM for          rho,v,vnew:       9.91 MB

     Dynamical RAM for               rhoin:       3.30 MB

     Dynamical RAM for            rho*nmix:      23.18 MB

     Dynamical RAM for           G-vectors:       6.16 MB

     Dynamical RAM for          h,s,v(r/c):       0.02 MB

     Dynamical RAM for          <psi|beta>:       0.00 MB

     Dynamical RAM for                 psi:       3.63 MB

     Dynamical RAM for                hpsi:       3.63 MB

     Dynamical RAM for      wfcinit/wfcrot:       3.64 MB

     Estimated static dynamical RAM per process >      52.68 MB

     Estimated max dynamical RAM per process >      83.15 MB

     Estimated total dynamical RAM >     982.66 MB

     Adding external electric field
        E field amplitude [Ha a.u.]:  5.0000E-03
        Potential amp.        0.3971 Ry
        Total length         39.7126 bohr


     Initial potential from superposition of free atoms

     starting charge       7.9999, renormalised to       8.0000

     negative rho (up, down):  7.689E-06 0.000E+00


     %%%%%%%%%%%%%%%%%%%%%%%%%%%%%%%%%%%%%%%%%%%%%%%%%%%%%%%%%%%%%%%%%%%%%%%%
     %                                                                      %
     % You are using vdW-DF, which was implemented by the Thonhauser group. %
     % Please cite the following two papers that made this development      %
     % possible and the two reviews that describe the various versions:     %
     %                                                                      %
     %   T. Thonhauser et al., PRL 115, 136402 (2015).                      %
     %   T. Thonhauser et al., PRB 76,  125112 (2007).                      %
     %   K. Berland et al., Rep. Prog. Phys. 78, 066501 (2015).             %
     %   D.C. Langreth et al., J. Phys.: Condens. Matter 21, 084203 (2009). %
     %                                                                      %
     % If you are calculating stress with vdW-DF, please also cite:         %
     %                                                                      %
     %   R. Sabatini et al., J. Phys.: Condens. Matter 24, 424209 (2012).   %
     %                                                                      %
     %   And for spin-polarized stress cases also:                          %
     %   C.M. Frostenson et al., Electr. Struct. 4, 014001 (2022).          %
     %                                                                      %
     %%%%%%%%%%%%%%%%%%%%%%%%%%%%%%%%%%%%%%%%%%%%%%%%%%%%%%%%%%%%%%%%%%%%%%%%

     %%%%%%%%%%%%%%%%%%%%%%%%%%%%%%%%%%%%%%%%%%%%%%%%%%%%%%%%%%%%%%%%%%%%%%%%
     %                                                                      %
     %  vdW-DF NEWS:                                                        %
     %                                                                      %
     %  * vdW-DF3-mc is now available. DOI: 10.1103/hp9d-4kpf               %
     %    use with input_dft = 'vdW-DF3-mc'                                 %
     %  * vdW-DF3 is now available. DOI: 10.1021/acs.jctc.0c00471           %
     %    use with input_dft = 'vdW-DF3-opt1' or 'vdW-DF3-opt2'             %
     %                                                                      %
     %  * Unscreened and range-separated hybrid vdW-DF-cx functionals       %
     %    DOI: 10.1063/1.4986522 and 10.1088/1361-648X/ac2ad2               %
     %    use with input_dft = 'vdW-DF-cx0' and 'vdW-DF-ahcx'               %
     %  * Unscreened and range-separated hybrid vdW-DF2-b86r functionals    %
     %    DOI: 10.1063/1.4986522 and DOI: 10.1103/PhysRevX.12.041003        %
     %    use with input_dft = 'vdW-DF2-br0' and 'vdW-DF2-ahbr'             %
     %                                                                      %
     %%%%%%%%%%%%%%%%%%%%%%%%%%%%%%%%%%%%%%%%%%%%%%%%%%%%%%%%%%%%%%%%%%%%%%%%


     Carrying out vdW-DF run using the following parameters:
     Nqs    =  20  Npoints =  1024  r_max =  100.000
     q_mesh =  0.00001000  0.04494208  0.09755937  0.15916263
               0.23128650  0.31572767  0.41458969  0.53033537
               0.66584808  0.82450364  1.01025438  1.22772762
               1.48234092  1.78043706  2.12944203  2.53805004
               3.01644009  3.57652955  4.23227104  5.00000000


     -----------------------------------------------
     Non-local corr. energy    =       0.09375960 Ry
     -----------------------------------------------

     Starting wfcs are    8 randomized atomic wfcs +    2 random wfcs

     total cpu time spent up to now is       12.4 secs

     Self-consistent Calculation

     iteration #  1     ecut=    90.00 Ry     beta= 0.70
     Davidson diagonalization with overlap

---- Real-time Memory Report at c_bands before calling an iterative solver
           225 MiB given to the printing process from OS
             0 MiB allocation reported by mallinfo(arena+hblkhd)
         27551 MiB available memory on the node where the printing process lives
------------------
     ethr =  1.00E-02,  avg # of iterations = 14.0

     negative rho (up, down):  8.352E-07 0.000E+00


     -----------------------------------------------
     Non-local corr. energy    =       0.10417243 Ry
     -----------------------------------------------


     total cpu time spent up to now is       18.3 secs

     total energy              =     -24.04646469 Ry
     estimated scf accuracy    <       0.19988561 Ry

     iteration #  2     ecut=    90.00 Ry     beta= 0.70
     Davidson diagonalization with overlap

---- Real-time Memory Report at c_bands before calling an iterative solver
           269 MiB given to the printing process from OS
             0 MiB allocation reported by mallinfo(arena+hblkhd)
         27328 MiB available memory on the node where the printing process lives
------------------
     ethr =  2.50E-03,  avg # of iterations =  2.8

     negative rho (up, down):  1.787E-08 0.000E+00


     -----------------------------------------------
     Non-local corr. energy    =       0.10375736 Ry
     -----------------------------------------------


     total cpu time spent up to now is       22.0 secs

     total energy              =     -24.07842421 Ry
     estimated scf accuracy    <       0.00289167 Ry

     iteration #  3     ecut=    90.00 Ry     beta= 0.70
     Davidson diagonalization with overlap

---- Real-time Memory Report at c_bands before calling an iterative solver
           272 MiB given to the printing process from OS
             0 MiB allocation reported by mallinfo(arena+hblkhd)
         27368 MiB available memory on the node where the printing process lives
------------------
     ethr =  3.61E-05,  avg # of iterations =  9.9


     -----------------------------------------------
     Non-local corr. energy    =       0.10378276 Ry
     -----------------------------------------------


     total cpu time spent up to now is       27.6 secs

     total energy              =     -24.07883362 Ry
     estimated scf accuracy    <       0.00052665 Ry

     iteration #  4     ecut=    90.00 Ry     beta= 0.70
     Davidson diagonalization with overlap

---- Real-time Memory Report at c_bands before calling an iterative solver
           275 MiB given to the printing process from OS
             0 MiB allocation reported by mallinfo(arena+hblkhd)
         27342 MiB available memory on the node where the printing process lives
------------------
     ethr =  6.58E-06,  avg # of iterations =  5.3


     -----------------------------------------------
     Non-local corr. energy    =       0.10382340 Ry
     -----------------------------------------------


     total cpu time spent up to now is       31.9 secs

     total energy              =     -24.07895506 Ry
     estimated scf accuracy    <       0.00029192 Ry

     iteration #  5     ecut=    90.00 Ry     beta= 0.70
     Davidson diagonalization with overlap

---- Real-time Memory Report at c_bands before calling an iterative solver
           278 MiB given to the printing process from OS
             0 MiB allocation reported by mallinfo(arena+hblkhd)
         27345 MiB available memory on the node where the printing process lives
------------------
     ethr =  3.65E-06,  avg # of iterations =  2.7


     -----------------------------------------------
     Non-local corr. energy    =       0.10384898 Ry
     -----------------------------------------------


     total cpu time spent up to now is       35.9 secs

     total energy              =     -24.07901159 Ry
     estimated scf accuracy    <       0.00000048 Ry

     iteration #  6     ecut=    90.00 Ry     beta= 0.70
     Davidson diagonalization with overlap

---- Real-time Memory Report at c_bands before calling an iterative solver
           281 MiB given to the printing process from OS
             0 MiB allocation reported by mallinfo(arena+hblkhd)
         27350 MiB available memory on the node where the printing process lives
------------------
     ethr =  5.94E-09,  avg # of iterations =  3.5


     -----------------------------------------------
     Non-local corr. energy    =       0.10384989 Ry
     -----------------------------------------------


     total cpu time spent up to now is       39.7 secs

     total energy              =     -24.07901196 Ry
     estimated scf accuracy    <       0.00000003 Ry

     iteration #  7     ecut=    90.00 Ry     beta= 0.70
     Davidson diagonalization with overlap

---- Real-time Memory Report at c_bands before calling an iterative solver
           284 MiB given to the printing process from OS
             0 MiB allocation reported by mallinfo(arena+hblkhd)
         27424 MiB available memory on the node where the printing process lives
------------------
     ethr =  3.67E-10,  avg # of iterations =  2.5


     -----------------------------------------------
     Non-local corr. energy    =       0.10385036 Ry
     -----------------------------------------------


     total cpu time spent up to now is       42.8 secs

     End of self-consistent calculation

          k = 0.0000 0.0000 0.0000 ( 11659 PWs)   bands (ev):

   -21.5370  -9.6524  -5.0016  -4.9943  -0.0051   0.7152   1.2464   2.0379
     2.6022   3.9531

     occupation numbers 
     1.0000   1.0000   1.0000   1.0000   0.0000   0.0000   0.0000   0.0000
     0.0000   0.0000

          k = 0.0000 0.0770 0.0000 ( 11791 PWs)   bands (ev):

   -21.4317  -9.5257  -5.4208  -5.2249   0.1421   0.8599   1.3928   2.1820
     2.7481   4.0986

     occupation numbers 
     1.0000   1.0000   1.0000   1.0000   0.0000   0.0000   0.0000   0.0000
     0.0000   0.0000

          k = 0.0000 0.1540 0.0000 ( 11788 PWs)   bands (ev):

   -21.1164  -9.1477  -6.5523  -5.7933   0.5840   1.2939   1.8319   2.6140
     3.1856   4.5352

     occupation numbers 
     1.0000   1.0000   1.0000   1.0000   0.0000   0.0000   0.0000   0.0000
     0.0000   0.0000

          k = 0.0000 0.2309 0.0000 ( 11848 PWs)   bands (ev):

   -20.5932  -8.5255  -8.1054  -6.5045   1.3204   2.0165   2.5637   3.3320
     3.9132   5.2598

     occupation numbers 
     1.0000   1.0000   1.0000   1.0000   0.0000   0.0000   0.0000   0.0000
     0.0000   0.0000

          k = 0.0000 0.3079 0.0000 ( 11876 PWs)   bands (ev):

   -19.8665  -9.8444  -7.6742  -7.1968   2.3514   3.0246   3.5880   4.3055
     4.8211   5.0402

     occupation numbers 
     1.0000   1.0000   1.0000   1.0000   0.0000   0.0000   0.0000   0.0000
     0.0000   0.0000

          k = 0.0000 0.3849 0.0000 ( 11914 PWs)   bands (ev):

   -18.9435 -11.6165  -7.7730  -6.6271   2.9876   3.6770   4.3288   4.9035
     5.6257   5.9223

     occupation numbers 
     1.0000   1.0000   1.0000   1.0000   0.0000   0.0000   0.0000   0.0000
     0.0000   0.0000

          k = 0.0000 0.4619 0.0000 ( 11910 PWs)   bands (ev):

   -17.8398 -13.3227  -8.1796  -5.4712   1.2271   5.2971   5.6591   5.9361
     6.5185   7.2133

     occupation numbers 
     1.0000   1.0000   1.0000   1.0000   0.0000   0.0000   0.0000   0.0000
     0.0000   0.0000

          k = 0.0000 0.5389 0.0000 ( 11924 PWs)   bands (ev):

   -16.6302 -14.8435  -8.3888  -4.5034  -0.0646   5.5813   7.2117   7.7575
     8.4149   9.0322

     occupation numbers 
     1.0000   1.0000   1.0000   1.0000   0.0000   0.0000   0.0000   0.0000
     0.0000   0.0000

          k = 0.0667 0.0385 0.0000 ( 11791 PWs)   bands (ev):

   -21.4317  -9.5257  -5.4228  -5.2228   0.1421   0.8599   1.3928   2.1820
     2.7482   4.0985

     occupation numbers 
     1.0000   1.0000   1.0000   1.0000   0.0000   0.0000   0.0000   0.0000
     0.0000   0.0000

          k = 0.0667 0.1155 0.0000 ( 11813 PWs)   bands (ev):

   -21.2214  -9.2734  -6.1467  -5.6744   0.4367   1.1492   1.6855   2.4701
     3.0398   4.3898

     occupation numbers 
     1.0000   1.0000   1.0000   1.0000   0.0000   0.0000   0.0000   0.0000
     0.0000   0.0000

          k = 0.0667 0.1925 0.0000 ( 11832 PWs)   bands (ev):

   -20.8021  -8.7730  -7.3993  -6.4056   1.0259   1.7277   2.2710   3.0456
     3.6227   4.9713

     occupation numbers 
     1.0000   1.0000   1.0000   1.0000   0.0000   0.0000   0.0000   0.0000
     0.0000   0.0000

          k = 0.0667 0.2694 0.0000 ( 11880 PWs)   bands (ev):

   -20.1772  -8.9869  -8.0350  -7.1672   1.9096   2.5939   3.1492   3.9036
     4.4926   5.6551

     occupation numbers 
     1.0000   1.0000   1.0000   1.0000   0.0000   0.0000   0.0000   0.0000
     0.0000   0.0000

          k = 0.0667 0.3464 0.0000 ( 11910 PWs)   bands (ev):

   -19.3522 -10.7119  -7.8324  -7.0815   3.0878   3.7067   3.8821   4.3198
     5.0712   5.6686

     occupation numbers 
     1.0000   1.0000   1.0000   1.0000   0.0000   0.0000   0.0000   0.0000
     0.0000   0.0000

          k = 0.0667 0.4234 0.0000 ( 11938 PWs)   bands (ev):

   -18.3377 -12.4371  -8.3384  -5.9636   2.0370   4.5607   5.1839   5.7788
     6.2409   6.5132

     occupation numbers 
     1.0000   1.0000   1.0000   1.0000   0.0000   0.0000   0.0000   0.0000
     0.0000   0.0000

          k = 0.0667 0.5004 0.0000 ( 11920 PWs)   bands (ev):

   -17.1627 -14.0619  -8.6527  -4.8348   0.4563   6.0838   6.3280   6.9090
     7.5395   8.1819

     occupation numbers 
     1.0000   1.0000   1.0000   1.0000   0.0000   0.0000   0.0000   0.0000
     0.0000   0.0000

          k = 0.0667 0.5774 0.0000 ( 11913 PWs)   bands (ev):

   -16.1929 -15.1853  -8.7590  -4.2387  -0.2969   6.0354   8.3897   8.3900
     8.8243   8.9148

     occupation numbers 
     1.0000   1.0000   1.0000   1.0000   0.0000   0.0000   0.0000   0.0000
     0.0000   0.0000

          k = 0.0667-0.5004 0.0000 ( 11920 PWs)   bands (ev):

   -17.1627 -14.0619  -8.6526  -4.8346   0.4561   6.0840   6.3280   6.9090
     7.5395   8.1820

     occupation numbers 
     1.0000   1.0000   1.0000   1.0000   0.0000   0.0000   0.0000   0.0000
     0.0000   0.0000

          k = 0.0667-0.4234 0.0000 ( 11938 PWs)   bands (ev):

   -18.3377 -12.4372  -8.3383  -5.9635   2.0366   4.5607   5.1839   5.7788
     6.2413   6.5132

     occupation numbers 
     1.0000   1.0000   1.0000   1.0000   0.0000   0.0000   0.0000   0.0000
     0.0000   0.0000

          k = 0.0667-0.3464 0.0000 ( 11910 PWs)   bands (ev):

   -19.3522 -10.7123  -7.8319  -7.0814   3.0878   3.7066   3.8818   4.3198
     5.0712   5.6686

     occupation numbers 
     1.0000   1.0000   1.0000   1.0000   0.0000   0.0000   0.0000   0.0000
     0.0000   0.0000

          k = 0.0667-0.2694 0.0000 ( 11880 PWs)   bands (ev):

   -20.1772  -8.9877  -8.0350  -7.1663   1.9096   2.5939   3.1492   3.9037
     4.4927   5.6546

     occupation numbers 
     1.0000   1.0000   1.0000   1.0000   0.0000   0.0000   0.0000   0.0000
     0.0000   0.0000

          k = 0.0667-0.1925 0.0000 ( 11832 PWs)   bands (ev):

   -20.8022  -8.7729  -7.4012  -6.4036   1.0259   1.7277   2.2710   3.0456
     3.6227   4.9713

     occupation numbers 
     1.0000   1.0000   1.0000   1.0000   0.0000   0.0000   0.0000   0.0000
     0.0000   0.0000

          k = 0.0667-0.1155 0.0000 ( 11813 PWs)   bands (ev):

   -21.2214  -9.2733  -6.1503  -5.6706   0.4367   1.1493   1.6855   2.4701
     3.0398   4.3897

     occupation numbers 
     1.0000   1.0000   1.0000   1.0000   0.0000   0.0000   0.0000   0.0000
     0.0000   0.0000

          k = 0.0667-0.0385 0.0000 ( 11791 PWs)   bands (ev):

   -21.4317  -9.5257  -5.4265  -5.2190   0.1421   0.8599   1.3928   2.1820
     2.7483   4.0987

     occupation numbers 
     1.0000   1.0000   1.0000   1.0000   0.0000   0.0000   0.0000   0.0000
     0.0000   0.0000

          k = 0.1333 0.0770 0.0000 ( 11788 PWs)   bands (ev):

   -21.1164  -9.1477  -6.5539  -5.7916   0.5840   1.2939   1.8319   2.6140
     3.1855   4.5352

     occupation numbers 
     1.0000   1.0000   1.0000   1.0000   0.0000   0.0000   0.0000   0.0000
     0.0000   0.0000

          k = 0.1333 0.1540 0.0000 ( 11832 PWs)   bands (ev):

   -20.8021  -8.7730  -7.4002  -6.4047   1.0258   1.7277   2.2710   3.0456
     3.6227   4.9714

     occupation numbers 
     1.0000   1.0000   1.0000   1.0000   0.0000   0.0000   0.0000   0.0000
     0.0000   0.0000

          k = 0.1333 0.2309 0.0000 ( 11879 PWs)   bands (ev):

   -20.2811  -8.5021  -8.1561  -7.3735   1.7623   2.4502   3.0030   3.7635
     4.3503   5.6974

     occupation numbers 
     1.0000   1.0000   1.0000   1.0000   0.0000   0.0000   0.0000   0.0000
     0.0000   0.0000

          k = 0.1333 0.3079 0.0000 ( 11929 PWs)   bands (ev):

   -19.5579  -9.9010  -8.2842  -7.3120   2.7933   3.4585   4.0275   4.3945
     4.7728   5.3688

     occupation numbers 
     1.0000   1.0000   1.0000   1.0000   0.0000   0.0000   0.0000   0.0000
     0.0000   0.0000

          k = 0.1333 0.3849 0.0000 ( 11925 PWs)   bands (ev):

   -18.6406 -11.4981  -8.9612  -6.2720   2.7119   4.1188   4.7538   5.3440
     6.0441   6.6709

     occupation numbers 
     1.0000   1.0000   1.0000   1.0000   0.0000   0.0000   0.0000   0.0000
     0.0000   0.0000

          k = 0.1333 0.4619 0.0000 ( 11927 PWs)   bands (ev):

   -17.5465 -13.1168  -9.4079  -5.1162   1.0690   5.7389   6.3206   6.9491
     7.4017   7.6046

     occupation numbers 
     1.0000   1.0000   1.0000   1.0000   0.0000   0.0000   0.0000   0.0000
     0.0000   0.0000

          k = 0.1333 0.5389 0.0000 ( 11935 PWs)   bands (ev):

   -16.3526 -14.5908  -9.6312  -4.1261  -0.1834   7.3010   7.6534   8.1560
     8.8494   9.2715

     occupation numbers 
     1.0000   1.0000   1.0000   1.0000   0.0000   0.0000   0.0000   0.0000
     0.0000   0.0000

          k = 0.1333 0.6158 0.0000 ( 11935 PWs)   bands (ev):

   -16.3526 -14.5909  -9.6311  -4.1259  -0.1837   7.3012   7.6534   8.1560
     8.8495   9.2716

     occupation numbers 
     1.0000   1.0000   1.0000   1.0000   0.0000   0.0000   0.0000   0.0000
     0.0000   0.0000

          k = 0.1333-0.4619 0.0000 ( 11927 PWs)   bands (ev):

   -17.5465 -13.1171  -9.4076  -5.1159   1.0683   5.7389   6.3207   6.9492
     7.4022   7.6045

     occupation numbers 
     1.0000   1.0000   1.0000   1.0000   0.0000   0.0000   0.0000   0.0000
     0.0000   0.0000

          k = 0.1333-0.3849 0.0000 ( 11925 PWs)   bands (ev):

   -18.6407 -11.4988  -8.9604  -6.2718   2.7110   4.1188   4.7538   5.3440
     6.0441   6.6710

     occupation numbers 
     1.0000   1.0000   1.0000   1.0000   0.0000   0.0000   0.0000   0.0000
     0.0000   0.0000

          k = 0.1333-0.3079 0.0000 ( 11929 PWs)   bands (ev):

   -19.5580  -9.9025  -8.2825  -7.3118   2.7933   3.4585   4.0275   4.3935
     4.7728   5.3688

     occupation numbers 
     1.0000   1.0000   1.0000   1.0000   0.0000   0.0000   0.0000   0.0000
     0.0000   0.0000

          k = 0.1333-0.2309 0.0000 ( 11879 PWs)   bands (ev):

   -20.2812  -8.5049  -8.1560  -7.3704   1.7623   2.4502   3.0030   3.7635
     4.3502   5.6974

     occupation numbers 
     1.0000   1.0000   1.0000   1.0000   0.0000   0.0000   0.0000   0.0000
     0.0000   0.0000

          k = 0.1333-0.1540 0.0000 ( 11832 PWs)   bands (ev):

   -20.8022  -8.7729  -7.4036  -6.4010   1.0258   1.7277   2.2710   3.0456
     3.6227   4.9714

     occupation numbers 
     1.0000   1.0000   1.0000   1.0000   0.0000   0.0000   0.0000   0.0000
     0.0000   0.0000

          k = 0.1333-0.0770 0.0000 ( 11788 PWs)   bands (ev):

   -21.1164  -9.1477  -6.5570  -5.7882   0.5840   1.2939   1.8319   2.6140
     3.1856   4.5352

     occupation numbers 
     1.0000   1.0000   1.0000   1.0000   0.0000   0.0000   0.0000   0.0000
     0.0000   0.0000

          k = 0.1333 0.0000 0.0000 ( 11813 PWs)   bands (ev):

   -21.2214  -9.2733  -6.1522  -5.6687   0.4367   1.1493   1.6855   2.4701
     3.0398   4.3899

     occupation numbers 
     1.0000   1.0000   1.0000   1.0000   0.0000   0.0000   0.0000   0.0000
     0.0000   0.0000

          k = 0.2000 0.1155 0.0000 ( 11848 PWs)   bands (ev):

   -20.5933  -8.5254  -8.1067  -6.5030   1.3204   2.0165   2.5637   3.3320
     3.9132   5.2601

     occupation numbers 
     1.0000   1.0000   1.0000   1.0000   0.0000   0.0000   0.0000   0.0000
     0.0000   0.0000

          k = 0.2000 0.1925 0.0000 ( 11880 PWs)   bands (ev):

   -20.1772  -8.9878  -8.0350  -7.1661   1.9096   2.5939   3.1492   3.9037
     4.4926   5.6548

     occupation numbers 
     1.0000   1.0000   1.0000   1.0000   0.0000   0.0000   0.0000   0.0000
     0.0000   0.0000

          k = 0.2000 0.2694 0.0000 ( 11929 PWs)   bands (ev):

   -19.5579  -9.9015  -8.2836  -7.3120   2.7932   3.4585   4.0275   4.3944
     4.7727   5.3688

     occupation numbers 
     1.0000   1.0000   1.0000   1.0000   0.0000   0.0000   0.0000   0.0000
     0.0000   0.0000

          k = 0.2000 0.3464 0.0000 ( 11953 PWs)   bands (ev):

   -18.7423 -10.9159  -9.4637  -6.3768   2.9903   3.9715   4.6076   5.1980
     5.8914   6.5196

     occupation numbers 
     1.0000   1.0000   1.0000   1.0000   0.0000   0.0000   0.0000   0.0000
     0.0000   0.0000

          k = 0.2000 0.4234 0.0000 ( 11949 PWs)   bands (ev):

   -17.7431 -12.2041 -10.2868  -5.2729   1.5024   5.4443   6.0316   6.6596
     7.2610   7.9434

     occupation numbers 
     1.0000   1.0000   1.0000   1.0000   0.0000   0.0000   0.0000   0.0000
     0.0000   0.0000

          k = 0.2000 0.5004 0.0000 ( 11953 PWs)   bands (ev):

   -16.5935 -13.6375 -10.7141  -4.1249   0.1006   7.2115   7.7048   8.4069
     8.7083   9.0835

     occupation numbers 
     1.0000   1.0000   1.0000   1.0000   0.0000   0.0000   0.0000   0.0000
     0.0000   0.0000

          k = 0.2000 0.5774 0.0000 ( 11949 PWs)   bands (ev):

   -15.6537 -14.6880 -10.8469  -3.4684  -0.6454   8.9966   9.1521   9.2730
     9.2780   9.5870

     occupation numbers 
     1.0000   1.0000   1.0000   1.0000   0.0000   0.0000   0.0000   0.0000
     0.0000   0.0000

          k = 0.2000 0.6543 0.0000 ( 11953 PWs)   bands (ev):

   -16.5935 -13.6379 -10.7136  -4.1244   0.0996   7.2115   7.7049   8.4067
     8.7087   9.0838

     occupation numbers 
     1.0000   1.0000   1.0000   1.0000   0.0000   0.0000   0.0000   0.0000
     0.0000   0.0000

          k = 0.2000-0.4234 0.0000 ( 11949 PWs)   bands (ev):

   -17.7432 -12.2052 -10.2855  -5.2724   1.5011   5.4443   6.0316   6.6596
     7.2612   7.9434

     occupation numbers 
     1.0000   1.0000   1.0000   1.0000   0.0000   0.0000   0.0000   0.0000
     0.0000   0.0000

          k = 0.2000-0.3464 0.0000 ( 11953 PWs)   bands (ev):

   -18.7424 -10.9181  -9.4612  -6.3764   2.9888   3.9715   4.6076   5.1980
     5.8914   6.5196

     occupation numbers 
     1.0000   1.0000   1.0000   1.0000   0.0000   0.0000   0.0000   0.0000
     0.0000   0.0000

          k = 0.2000-0.2694 0.0000 ( 11929 PWs)   bands (ev):

   -19.5580  -9.9041  -8.2806  -7.3117   2.7932   3.4585   4.0275   4.3931
     4.7726   5.3688

     occupation numbers 
     1.0000   1.0000   1.0000   1.0000   0.0000   0.0000   0.0000   0.0000
     0.0000   0.0000

          k = 0.2000-0.1925 0.0000 ( 11880 PWs)   bands (ev):

   -20.1773  -8.9903  -8.0348  -7.1632   1.9096   2.5939   3.1492   3.9037
     4.4928   5.6548

     occupation numbers 
     1.0000   1.0000   1.0000   1.0000   0.0000   0.0000   0.0000   0.0000
     0.0000   0.0000

          k = 0.2000-0.1155 0.0000 ( 11848 PWs)   bands (ev):

   -20.5933  -8.5253  -8.1091  -6.5002   1.3204   2.0165   2.5637   3.3321
     3.9132   5.2600

     occupation numbers 
     1.0000   1.0000   1.0000   1.0000   0.0000   0.0000   0.0000   0.0000
     0.0000   0.0000

          k = 0.2000-0.0385 0.0000 ( 11832 PWs)   bands (ev):

   -20.8022  -8.7728  -7.4045  -6.4000   1.0258   1.7277   2.2710   3.0456
     3.6227   4.9714

     occupation numbers 
     1.0000   1.0000   1.0000   1.0000   0.0000   0.0000   0.0000   0.0000
     0.0000   0.0000

          k = 0.2000 0.0385 0.0000 ( 11832 PWs)   bands (ev):

   -20.8022  -8.7729  -7.4029  -6.4017   1.0258   1.7277   2.2710   3.0456
     3.6226   4.9714

     occupation numbers 
     1.0000   1.0000   1.0000   1.0000   0.0000   0.0000   0.0000   0.0000
     0.0000   0.0000

          k = 0.2667 0.1540 0.0000 ( 11876 PWs)   bands (ev):

   -19.8665  -9.8453  -7.6741  -7.1956   2.3514   3.0246   3.5880   4.3056
     4.8209   5.0399

     occupation numbers 
     1.0000   1.0000   1.0000   1.0000   0.0000   0.0000   0.0000   0.0000
     0.0000   0.0000

          k = 0.2667 0.2309 0.0000 ( 11910 PWs)   bands (ev):

   -19.3522 -10.7127  -7.8313  -7.0814   3.0878   3.7067   3.8817   4.3198
     5.0711   5.6686

     occupation numbers 
     1.0000   1.0000   1.0000   1.0000   0.0000   0.0000   0.0000   0.0000
     0.0000   0.0000

          k = 0.2667 0.3079 0.0000 ( 11925 PWs)   bands (ev):

   -18.6407 -11.4988  -8.9604  -6.2719   2.7115   4.1188   4.7538   5.3440
     6.0440   6.6706

     occupation numbers 
     1.0000   1.0000   1.0000   1.0000   0.0000   0.0000   0.0000   0.0000
     0.0000   0.0000

          k = 0.2667 0.3849 0.0000 ( 11949 PWs)   bands (ev):

   -17.7431 -12.2046 -10.2863  -5.2728   1.5021   5.4443   6.0316   6.6596
     7.2610   7.9432

     occupation numbers 
     1.0000   1.0000   1.0000   1.0000   0.0000   0.0000   0.0000   0.0000
     0.0000   0.0000

          k = 0.2667 0.4619 0.0000 ( 11961 PWs)   bands (ev):

   -16.6824 -12.9845 -11.4194  -4.1382   0.2482   7.0642   7.5523   8.2616
     8.4982   9.4165

     occupation numbers 
     1.0000   1.0000   1.0000   1.0000   0.0000   0.0000   0.0000   0.0000
     0.0000   0.0000

          k = 0.2667 0.5389 0.0000 ( 11948 PWs)   bands (ev):

   -15.5385 -14.0369 -11.9625  -3.0473  -0.8966   8.7018   8.9804   9.4713
    10.1535  10.6827

     occupation numbers 
     1.0000   1.0000   1.0000   1.0000   0.0000   0.0000   0.0000   0.0000
     0.0000   0.0000

          k = 0.2667 0.6158 0.0000 ( 11948 PWs)   bands (ev):

   -15.5384 -14.0376 -11.9619  -3.0465  -0.8976   8.7022   8.9804   9.4714
    10.1534  10.6815

     occupation numbers 
     1.0000   1.0000   1.0000   1.0000   0.0000   0.0000   0.0000   0.0000
     0.0000   0.0000

          k = 0.2667 0.6928 0.0000 ( 11961 PWs)   bands (ev):

   -16.6825 -12.9862 -11.4175  -4.1373   0.2465   7.0642   7.5524   8.2616
     8.4987   9.4168

     occupation numbers 
     1.0000   1.0000   1.0000   1.0000   0.0000   0.0000   0.0000   0.0000
     0.0000   0.0000

          k = 0.2667-0.3849 0.0000 ( 11949 PWs)   bands (ev):

   -17.7432 -12.2066 -10.2840  -5.2721   1.5003   5.4443   6.0316   6.6596
     7.2612   7.9435

     occupation numbers 
     1.0000   1.0000   1.0000   1.0000   0.0000   0.0000   0.0000   0.0000
     0.0000   0.0000

          k = 0.2667-0.3079 0.0000 ( 11925 PWs)   bands (ev):

   -18.6408 -11.5006  -8.9581  -6.2713   2.7098   4.1188   4.7538   5.3440
     6.0441   6.6709

     occupation numbers 
     1.0000   1.0000   1.0000   1.0000   0.0000   0.0000   0.0000   0.0000
     0.0000   0.0000

          k = 0.2667-0.2309 0.0000 ( 11910 PWs)   bands (ev):

   -19.3523 -10.7145  -7.8289  -7.0810   3.0878   3.7065   3.8805   4.3198
     5.0711   5.6685

     occupation numbers 
     1.0000   1.0000   1.0000   1.0000   0.0000   0.0000   0.0000   0.0000
     0.0000   0.0000

          k = 0.2667-0.1540 0.0000 ( 11876 PWs)   bands (ev):

   -19.8666  -9.8472  -7.6738  -7.1932   2.3514   3.0246   3.5880   4.3057
     4.8205   5.0390

     occupation numbers 
     1.0000   1.0000   1.0000   1.0000   0.0000   0.0000   0.0000   0.0000
     0.0000   0.0000

          k = 0.2667-0.0770 0.0000 ( 11880 PWs)   bands (ev):

   -20.1773  -8.9908  -8.0347  -7.1627   1.9096   2.5939   3.1492   3.9037
     4.4926   5.6545

     occupation numbers 
     1.0000   1.0000   1.0000   1.0000   0.0000   0.0000   0.0000   0.0000
     0.0000   0.0000

          k = 0.2667 0.0000 0.0000 ( 11879 PWs)   bands (ev):

   -20.2812  -8.5064  -8.1559  -7.3688   1.7623   2.4502   3.0030   3.7635
     4.3503   5.9636

     occupation numbers 
     1.0000   1.0000   1.0000   1.0000   0.0000   0.0000   0.0000   0.0000
     0.0000   0.0000

          k = 0.2667 0.0770 0.0000 ( 11880 PWs)   bands (ev):

   -20.1773  -8.9890  -8.0349  -7.1648   1.9096   2.5939   3.1492   3.9037
     4.4927   5.6549

     occupation numbers 
     1.0000   1.0000   1.0000   1.0000   0.0000   0.0000   0.0000   0.0000
     0.0000   0.0000

          k = 0.3333 0.1925 0.0000 ( 11914 PWs)   bands (ev):

   -18.9435 -11.6173  -7.7719  -6.6269   2.9869   3.6770   4.3288   4.9036
     5.6257   5.9229

     occupation numbers 
     1.0000   1.0000   1.0000   1.0000   0.0000   0.0000   0.0000   0.0000
     0.0000   0.0000

          k = 0.3333 0.2694 0.0000 ( 11938 PWs)   bands (ev):

   -18.3377 -12.4377  -8.3375  -5.9633   2.0362   4.5607   5.1839   5.7789
     6.2413   6.5133

     occupation numbers 
     1.0000   1.0000   1.0000   1.0000   0.0000   0.0000   0.0000   0.0000
     0.0000   0.0000

          k = 0.3333 0.3464 0.0000 ( 11927 PWs)   bands (ev):

   -17.5465 -13.1175  -9.4071  -5.1158   1.0682   5.7389   6.3206   6.9491
     7.4020   7.6048

     occupation numbers 
     1.0000   1.0000   1.0000   1.0000   0.0000   0.0000   0.0000   0.0000
     0.0000   0.0000

          k = 0.3333 0.4234 0.0000 ( 11953 PWs)   bands (ev):

   -16.5935 -13.6381 -10.7134  -4.1244   0.0998   7.2115   7.7048   8.4067
     8.7083   9.0840

     occupation numbers 
     1.0000   1.0000   1.0000   1.0000   0.0000   0.0000   0.0000   0.0000
     0.0000   0.0000

          k = 0.3333 0.5004 0.0000 ( 11948 PWs)   bands (ev):

   -15.5384 -14.0375 -11.9619  -3.0468  -0.8972   8.7019   8.9804   9.4713
    10.1536  10.6830

     occupation numbers 
     1.0000   1.0000   1.0000   1.0000   0.0000   0.0000   0.0000   0.0000
     0.0000   0.0000

          k = 0.3333 0.5774 0.0000 ( 11919 PWs)   bands (ev):

   -14.5803 -14.5779 -12.5875  -1.9531  -1.9499   8.5700  10.7773  10.7794
    11.0412  11.0438

     occupation numbers 
     1.0000   1.0000   1.0000   0.5067   0.4933   0.0000   0.0000   0.0000
     0.0000   0.0000

          k = 0.3333 0.6543 0.0000 ( 11948 PWs)   bands (ev):

   -15.5379 -14.0395 -11.9603  -3.0451  -0.8996   8.7026   8.9804   9.4714
    10.1533  10.6827

     occupation numbers 
     1.0000   1.0000   1.0000   1.0000   0.0000   0.0000   0.0000   0.0000
     0.0000   0.0000

          k = 0.3333 0.7313 0.0000 ( 11953 PWs)   bands (ev):

   -16.5934 -13.6398 -10.7116  -4.1231   0.0974   7.2115   7.7049   8.4069
     8.7088   9.0852

     occupation numbers 
     1.0000   1.0000   1.0000   1.0000   0.0000   0.0000   0.0000   0.0000
     0.0000   0.0000

          k = 0.3333-0.3464 0.0000 ( 11927 PWs)   bands (ev):

   -17.5465 -13.1190  -9.4052  -5.1148   1.0660   5.7389   6.3207   6.9491
     7.4033   7.6048

     occupation numbers 
     1.0000   1.0000   1.0000   1.0000   0.0000   0.0000   0.0000   0.0000
     0.0000   0.0000

          k = 0.3333-0.2694 0.0000 ( 11938 PWs)   bands (ev):

   -18.3378 -12.4392  -8.3354  -5.9626   2.0343   4.5607   5.1839   5.7788
     6.2425   6.5133

     occupation numbers 
     1.0000   1.0000   1.0000   1.0000   0.0000   0.0000   0.0000   0.0000
     0.0000   0.0000

          k = 0.3333-0.1925 0.0000 ( 11914 PWs)   bands (ev):

   -18.9436 -11.6187  -7.7698  -6.6264   2.9854   3.6770   4.3287   4.9035
     5.6258   5.9238

     occupation numbers 
     1.0000   1.0000   1.0000   1.0000   0.0000   0.0000   0.0000   0.0000
     0.0000   0.0000

          k = 0.3333-0.1155 0.0000 ( 11910 PWs)   bands (ev):

   -19.3523 -10.7147  -7.8287  -7.0809   3.0878   3.7064   3.8803   4.3198
     5.0711   5.6685

     occupation numbers 
     1.0000   1.0000   1.0000   1.0000   0.0000   0.0000   0.0000   0.0000
     0.0000   0.0000

          k = 0.3333-0.0385 0.0000 ( 11929 PWs)   bands (ev):

   -19.5580  -9.9049  -8.2798  -7.3116   2.7932   3.4585   4.0275   4.3926
     4.7727   5.3688

     occupation numbers 
     1.0000   1.0000   1.0000   1.0000   0.0000   0.0000   0.0000   0.0000
     0.0000   0.0000

          k = 0.3333 0.0385 0.0000 ( 11929 PWs)   bands (ev):

   -19.5580  -9.9038  -8.2810  -7.3116   2.7932   3.4585   4.0275   4.3928
     4.7728   5.3689

     occupation numbers 
     1.0000   1.0000   1.0000   1.0000   0.0000   0.0000   0.0000   0.0000
     0.0000   0.0000

          k = 0.3333 0.1155 0.0000 ( 11910 PWs)   bands (ev):

   -19.3523 -10.7132  -7.8307  -7.0812   3.0878   3.7065   3.8811   4.3198
     5.0712   5.6687

     occupation numbers 
     1.0000   1.0000   1.0000   1.0000   0.0000   0.0000   0.0000   0.0000
     0.0000   0.0000

          k = 0.4000 0.2309 0.0000 ( 11910 PWs)   bands (ev):

   -17.8398 -13.3234  -8.1786  -5.4708   1.2260   5.2970   5.6596   5.9361
     6.5185   7.2132

     occupation numbers 
     1.0000   1.0000   1.0000   1.0000   0.0000   0.0000   0.0000   0.0000
     0.0000   0.0000

          k = 0.4000 0.3079 0.0000 ( 11920 PWs)   bands (ev):

   -17.1627 -14.0626  -8.6517  -4.8341   0.4551   6.0842   6.3280   6.9090
     7.5394   8.1819

     occupation numbers 
     1.0000   1.0000   1.0000   1.0000   0.0000   0.0000   0.0000   0.0000
     0.0000   0.0000

          k = 0.4000 0.3849 0.0000 ( 11935 PWs)   bands (ev):

   -16.3524 -14.5916  -9.6303  -4.1253  -0.1847   7.3014   7.6534   8.1561
     8.8494   9.2714

     occupation numbers 
     1.0000   1.0000   1.0000   1.0000   0.0000   0.0000   0.0000   0.0000
     0.0000   0.0000

          k = 0.4000 0.4619 0.0000 ( 11949 PWs)   bands (ev):

   -15.6532 -14.6892 -10.8461  -3.4675  -0.6469   8.9970   9.1524   9.2729
     9.2779   9.5872

     occupation numbers 
     1.0000   1.0000   1.0000   1.0000   0.0000   0.0000   0.0000   0.0000
     0.0000   0.0000

          k = 0.4000 0.5389 0.0000 ( 11948 PWs)   bands (ev):

   -15.5381 -14.0386 -11.9610  -3.0457  -0.8988   8.7025   8.9804   9.4715
    10.1533  10.6813

     occupation numbers 
     1.0000   1.0000   1.0000   1.0000   0.0000   0.0000   0.0000   0.0000
     0.0000   0.0000

          k = 0.4000 0.6158 0.0000 ( 11948 PWs)   bands (ev):

   -15.5378 -14.0399 -11.9600  -3.0447  -0.9001   8.7028   8.9804   9.4715
    10.1534  10.6820

     occupation numbers 
     1.0000   1.0000   1.0000   1.0000   0.0000   0.0000   0.0000   0.0000
     0.0000   0.0000

          k = 0.4000 0.6928 0.0000 ( 11949 PWs)   bands (ev):

   -15.6520 -14.6916 -10.8446  -3.4656  -0.6496   8.9979   9.1529   9.2730
     9.2779   9.5876

     occupation numbers 
     1.0000   1.0000   1.0000   1.0000   0.0000   0.0000   0.0000   0.0000
     0.0000   0.0000

          k = 0.4000 0.7698 0.0000 ( 11935 PWs)   bands (ev):

   -16.3520 -14.5933  -9.6286  -4.1235  -0.1876   7.3024   7.6534   8.1560
     8.8494   9.2717

     occupation numbers 
     1.0000   1.0000   1.0000   1.0000   0.0000   0.0000   0.0000   0.0000
     0.0000   0.0000

          k = 0.4000-0.3079 0.0000 ( 11920 PWs)   bands (ev):

   -17.1626 -14.0639  -8.6499  -4.8328   0.4526   6.0852   6.3280   6.9090
     7.5394   8.1819

     occupation numbers 
     1.0000   1.0000   1.0000   1.0000   0.0000   0.0000   0.0000   0.0000
     0.0000   0.0000

          k = 0.4000-0.2309 0.0000 ( 11910 PWs)   bands (ev):

   -17.8399 -13.3247  -8.1766  -5.4698   1.2240   5.2970   5.6604   5.9362
     6.5185   7.2132

     occupation numbers 
     1.0000   1.0000   1.0000   1.0000   0.0000   0.0000   0.0000   0.0000
     0.0000   0.0000

          k = 0.4000-0.1540 0.0000 ( 11938 PWs)   bands (ev):

   -18.3378 -12.4393  -8.3353  -5.9625   2.0341   4.5607   5.1840   5.7789
     6.2427   6.5132

     occupation numbers 
     1.0000   1.0000   1.0000   1.0000   0.0000   0.0000   0.0000   0.0000
     0.0000   0.0000

          k = 0.4000-0.0770 0.0000 ( 11925 PWs)   bands (ev):

   -18.6408 -11.5010  -8.9577  -6.2712   2.7093   4.1188   4.7538   5.3440
     6.0441   6.6709

     occupation numbers 
     1.0000   1.0000   1.0000   1.0000   0.0000   0.0000   0.0000   0.0000
     0.0000   0.0000

          k = 0.4000 0.0000 0.0000 ( 11953 PWs)   bands (ev):

   -18.7424 -10.9192  -9.4600  -6.3762   2.9881   3.9715   4.6077   5.1981
     5.8915   6.5195

     occupation numbers 
     1.0000   1.0000   1.0000   1.0000   0.0000   0.0000   0.0000   0.0000
     0.0000   0.0000

          k = 0.4000 0.0770 0.0000 ( 11925 PWs)   bands (ev):

   -18.6408 -11.4997  -8.9592  -6.2715   2.7101   4.1188   4.7538   5.3440
     6.0441   6.6710

     occupation numbers 
     1.0000   1.0000   1.0000   1.0000   0.0000   0.0000   0.0000   0.0000
     0.0000   0.0000

          k = 0.4000 0.1540 0.0000 ( 11938 PWs)   bands (ev):

   -18.3377 -12.4379  -8.3372  -5.9631   2.0356   4.5606   5.1840   5.7789
     6.2419   6.5133

     occupation numbers 
     1.0000   1.0000   1.0000   1.0000   0.0000   0.0000   0.0000   0.0000
     0.0000   0.0000

          k = 0.4667 0.2694 0.0000 ( 11924 PWs)   bands (ev):

   -16.6300 -14.8443  -8.3878  -4.5025  -0.0661   5.5817   7.2117   7.7575
     8.4148   9.0323

     occupation numbers 
     1.0000   1.0000   1.0000   1.0000   0.0000   0.0000   0.0000   0.0000
     0.0000   0.0000

          k = 0.4667 0.3464 0.0000 ( 11913 PWs)   bands (ev):

   -16.1924 -15.1864  -8.7581  -4.2377  -0.2985   6.0359   8.3897   8.3900
     8.8244   8.9145

     occupation numbers 
     1.0000   1.0000   1.0000   1.0000   0.0000   0.0000   0.0000   0.0000
     0.0000   0.0000

          k = 0.4667 0.4234 0.0000 ( 11935 PWs)   bands (ev):

   -16.3524 -14.5917  -9.6302  -4.1250  -0.1852   7.3017   7.6534   8.1560
     8.8493   9.2718

     occupation numbers 
     1.0000   1.0000   1.0000   1.0000   0.0000   0.0000   0.0000   0.0000
     0.0000   0.0000

          k = 0.4667 0.5004 0.0000 ( 11953 PWs)   bands (ev):

   -16.5935 -13.6387 -10.7127  -4.1237   0.0984   7.2115   7.7049   8.4069
     8.7090   9.0844

     occupation numbers 
     1.0000   1.0000   1.0000   1.0000   0.0000   0.0000   0.0000   0.0000
     0.0000   0.0000

          k = 0.4667 0.5774 0.0000 ( 11961 PWs)   bands (ev):

   -16.6825 -12.9871 -11.4166  -4.1368   0.2456   7.0642   7.5524   8.2616
     8.4989   9.4168

     occupation numbers 
     1.0000   1.0000   1.0000   1.0000   0.0000   0.0000   0.0000   0.0000
     0.0000   0.0000

          k = 0.4667 0.6543 0.0000 ( 11953 PWs)   bands (ev):

   -16.5934 -13.6400 -10.7113  -4.1228   0.0969   7.2115   7.7049   8.4067
     8.7090   9.0853

     occupation numbers 
     1.0000   1.0000   1.0000   1.0000   0.0000   0.0000   0.0000   0.0000
     0.0000   0.0000

          k = 0.4667 0.7313 0.0000 ( 11935 PWs)   bands (ev):

   -16.3520 -14.5934  -9.6286  -4.1234  -0.1878   7.3025   7.6534   8.1560
     8.8493   9.2718

     occupation numbers 
     1.0000   1.0000   1.0000   1.0000   0.0000   0.0000   0.0000   0.0000
     0.0000   0.0000

          k = 0.4667 0.8083 0.0000 ( 11913 PWs)   bands (ev):

   -16.1913 -15.1887  -8.7563  -4.2357  -0.3016   6.0367   8.3897   8.3899
     8.8244   8.9143

     occupation numbers 
     1.0000   1.0000   1.0000   1.0000   0.0000   0.0000   0.0000   0.0000
     0.0000   0.0000

          k = 0.4667-0.2694 0.0000 ( 11924 PWs)   bands (ev):

   -16.6297 -14.8459  -8.3860  -4.5008  -0.0689   5.5825   7.2117   7.7574
     8.4149   9.0324

     occupation numbers 
     1.0000   1.0000   1.0000   1.0000   0.0000   0.0000   0.0000   0.0000
     0.0000   0.0000

          k = 0.4667-0.1925 0.0000 ( 11920 PWs)   bands (ev):

   -17.1626 -14.0639  -8.6499  -4.8327   0.4525   6.0853   6.3280   6.9089
     7.5394   8.1819

     occupation numbers 
     1.0000   1.0000   1.0000   1.0000   0.0000   0.0000   0.0000   0.0000
     0.0000   0.0000

          k = 0.4667-0.1155 0.0000 ( 11927 PWs)   bands (ev):

   -17.5465 -13.1191  -9.4050  -5.1147   1.0656   5.7389   6.3207   6.9492
     7.4036   7.6048

     occupation numbers 
     1.0000   1.0000   1.0000   1.0000   0.0000   0.0000   0.0000   0.0000
     0.0000   0.0000

          k = 0.4667-0.0385 0.0000 ( 11949 PWs)   bands (ev):

   -17.7432 -12.2071 -10.2834  -5.2718   1.4996   5.4443   6.0316   6.6596
     7.2613   7.9435

     occupation numbers 
     1.0000   1.0000   1.0000   1.0000   0.0000   0.0000   0.0000   0.0000
     0.0000   0.0000

          k = 0.4667 0.0385 0.0000 ( 11949 PWs)   bands (ev):

   -17.7432 -12.2063 -10.2844  -5.2721   1.5002   5.4443   6.0317   6.6597
     7.2613   7.9435

     occupation numbers 
     1.0000   1.0000   1.0000   1.0000   0.0000   0.0000   0.0000   0.0000
     0.0000   0.0000

          k = 0.4667 0.1155 0.0000 ( 11927 PWs)   bands (ev):

   -17.5465 -13.1178  -9.4066  -5.1154   1.0671   5.7389   6.3207   6.9491
     7.4029   7.6046

     occupation numbers 
     1.0000   1.0000   1.0000   1.0000   0.0000   0.0000   0.0000   0.0000
     0.0000   0.0000

          k = 0.4667 0.1925 0.0000 ( 11920 PWs)   bands (ev):

   -17.1627 -14.0626  -8.6516  -4.8339   0.4548   6.0845   6.3280   6.9089
     7.5395   8.1819

     occupation numbers 
     1.0000   1.0000   1.0000   1.0000   0.0000   0.0000   0.0000   0.0000
     0.0000   0.0000

     the Fermi energy is    -1.9515 ev

!    total energy              =     -24.07901198 Ry
     estimated scf accuracy    <          2.6E-09 Ry
     smearing contrib. (-TS)   =      -0.00010029 Ry
     internal energy E=F+TS    =     -24.07891169 Ry

     The total energy is F=E-TS. E is the sum of the following terms:
     one-electron contribution =    -269.75764721 Ry
     hartree contribution      =     136.29191934 Ry
     xc contribution           =      -8.56526781 Ry
     ewald contribution        =     118.39454946 Ry
     electric field correction =      -0.44246548 Ry

     convergence has been achieved in   7 iterations


     -----------------------------------------------
     Non-local corr. energy    =       0.10385036 Ry
     -----------------------------------------------


     Forces acting on atoms (cartesian axes, Ry/au):

     atom    1 type  1   force =     0.00030598   -0.00035884    0.00084761
     atom    2 type  1   force =    -0.00030598    0.00035884   -0.00084761
     The non-local contrib.  to forces
     atom    1 type  1   force =     0.00021722   -0.00025417   -0.00380263
     atom    2 type  1   force =    -0.00021575    0.00025370   -0.00710140
     The ionic contribution  to forces
     atom    1 type  1   force =     0.00109522   -0.00128195   -0.01719155
     atom    2 type  1   force =    -0.00109522    0.00128195    0.01719155
     The local contribution  to forces
     atom    1 type  1   force =    -0.00098569    0.00115207   -0.01810388
     atom    2 type  1   force =     0.00098530   -0.00115172   -0.05090409
     The core correction contribution to forces
     atom    1 type  1   force =    -0.00002064    0.00002416    0.00009204
     atom    2 type  1   force =     0.00002061   -0.00002414    0.00011277
     The Hubbard contrib.    to forces
     atom    1 type  1   force =     0.00000000    0.00000000    0.00000000
     atom    2 type  1   force =     0.00000000    0.00000000    0.00000000
     The SCF correction term to forces
     atom    1 type  1   force =     0.00000048    0.00000087   -0.00014286
     atom    2 type  1   force =    -0.00000031   -0.00000112   -0.00014292

     Total force =     0.001372     Total SCF correction =     0.000202
     SCF correction compared to forces is large: reduce conv_thr to get better values

     Writing all to output data dir /home/ubuntu/projects/Graphene-Band-Structure-Quantum-Espresso/outputs/field_0.005/vdw-df2-c09/top/data/top.save/ :
     XML data file, charge density, pseudopotentials, collected wavefunctions

     init_run     :     11.46s CPU     11.68s WALL (       1 calls)
     electrons    :     29.51s CPU     30.75s WALL (       1 calls)
     forces       :      1.06s CPU      1.28s WALL (       1 calls)

     Called by init_run:
     wfcinit      :      0.51s CPU      0.51s WALL (       1 calls)
     wfcinit:atom :      0.01s CPU      0.01s WALL (       8 calls)
     wfcinit:wfcr :      0.47s CPU      0.47s WALL (       8 calls)
     potinit      :     10.46s CPU     10.66s WALL (       1 calls)
     hinit0       :      0.42s CPU      0.43s WALL (       1 calls)

     Called by electrons:
     c_bands      :     19.82s CPU     20.01s WALL (       7 calls)
     sum_band     :      1.76s CPU      1.79s WALL (       7 calls)
     v_of_rho     :     15.15s CPU     16.28s WALL (       8 calls)
     v_h          :      0.04s CPU      0.04s WALL (       8 calls)
     v_xc         :     15.88s CPU     17.22s WALL (       9 calls)
     mix_rho      :      0.07s CPU      0.08s WALL (       7 calls)
     vdW_kernel   :      9.32s CPU      9.33s WALL (       1 calls)

     Called by c_bands:
     init_us_2    :      0.28s CPU      0.30s WALL (     128 calls)
     cegterg      :     12.33s CPU     12.47s WALL (      56 calls)

     Called by sum_band:
     sum_band:wei :      0.00s CPU      0.00s WALL (       7 calls)
     sum_band:loo :      1.13s CPU      1.14s WALL (       7 calls)
     sum_band:buf :      0.02s CPU      0.02s WALL (      56 calls)
     sum_band:ini :      0.12s CPU      0.12s WALL (      56 calls)

     Called by *egterg:
     cdiaghg      :      0.06s CPU      0.06s WALL (     374 calls)
     cegterg:over :      1.14s CPU      1.15s WALL (     318 calls)
     cegterg:upda :      0.78s CPU      0.79s WALL (     318 calls)
     cegterg:last :      1.37s CPU      1.38s WALL (     166 calls)
     h_psi        :      8.98s CPU      9.08s WALL (     382 calls)
     g_psi        :      0.08s CPU      0.08s WALL (     318 calls)

     Called by h_psi:
     h_psi:calbec :      0.78s CPU      0.78s WALL (     382 calls)
     vloc_psi     :      7.38s CPU      7.45s WALL (     382 calls)
     add_vuspsi   :      0.78s CPU      0.78s WALL (     382 calls)

     General routines
     calbec       :      0.98s CPU      0.98s WALL (     414 calls)
     fft          :      2.06s CPU      2.06s WALL (     540 calls)
     ffts         :      0.02s CPU      0.02s WALL (       7 calls)
     fftw         :      7.09s CPU      7.13s WALL (    4468 calls)

     Parallel routines

     PWSCF        :     43.05s CPU     44.76s WALL


   This run was terminated on:  10:47: 8   5Oct2026            

=------------------------------------------------------------------------------=
   JOB DONE.
=------------------------------------------------------------------------------=
Note: The following floating-point exceptions are signalling: IEEE_UNDERFLOW_FLAG IEEE_DENORMAL
Note: The following floating-point exceptions are signalling: IEEE_UNDERFLOW_FLAG IEEE_DENORMAL
Note: The following floating-point exceptions are signalling: IEEE_UNDERFLOW_FLAG IEEE_DENORMAL
Note: The following floating-point exceptions are signalling: IEEE_UNDERFLOW_FLAG IEEE_DENORMAL
Note: The following floating-point exceptions are signalling: IEEE_UNDERFLOW_FLAG IEEE_DENORMAL
Note: The following floating-point exceptions are signalling: IEEE_UNDERFLOW_FLAG IEEE_DENORMAL
Note: The following floating-point exceptions are signalling: IEEE_UNDERFLOW_FLAG IEEE_DENORMAL
Note: The following floating-point exceptions are signalling: IEEE_UNDERFLOW_FLAG IEEE_DENORMAL
Note: The following floating-point exceptions are signalling: IEEE_UNDERFLOW_FLAG IEEE_DENORMAL
Note: The following floating-point exceptions are signalling: IEEE_UNDERFLOW_FLAG IEEE_DENORMAL
Note: The following floating-point exceptions are signalling: IEEE_UNDERFLOW_FLAG IEEE_DENORMAL
Note: The following floating-point exceptions are signalling: IEEE_UNDERFLOW_FLAG IEEE_DENORMAL
Note: The following floating-point exceptions are signalling: IEEE_UNDERFLOW_FLAG IEEE_DENORMAL
Note: The following floating-point exceptions are signalling: IEEE_UNDERFLOW_FLAG IEEE_DENORMAL
Note: The following floating-point exceptions are signalling: IEEE_UNDERFLOW_FLAG IEEE_DENORMAL
Note: The following floating-point exceptions are signalling: IEEE_UNDERFLOW_FLAG IEEE_DENORMAL
