
     Program PWSCF v.7.5 starts on 30Aug2026 at  0:10: 9 

     This program is part of the open-source Quantum ESPRESSO suite
     for quantum simulation of materials; please cite
         "P. Giannozzi et al., J. Phys.:Condens. Matter 21 395502 (2009);
         "P. Giannozzi et al., J. Phys.:Condens. Matter 29 465901 (2017);
         "P. Giannozzi et al., J. Chem. Phys. 152 154105 (2020);
          URL http://www.quantum-espresso.org", 
     in publications or presentations arising from this work. More details at
     http://www.quantum-espresso.org/quote

     Parallel version (MPI & OpenMP), running on       8 processor cores
     Number of MPI processes:                 1
     Threads/MPI process:                     8

     MPI processes distributed on     1 nodes
     0 MiB available memory on the printing compute node when the environment starts

     Waiting for input...
     Reading input from standard input
Warning: card &IONS ignored
Warning: card &CELL ignored
Warning: card &FCP ignored
Warning: card &RISM ignored

     Current dimensions of program PWSCF are:
     Max number of different atomic species (ntypx) = 10
     Max number of k-points (npk) =  40000
     Max angular momentum in pseudopotentials (lmaxx) =  4
     file C.pbe-n-kjpaw_psl.1.0.0.UPF: wavefunction(s)  2S 2P renormalized

     Atomic positions and unit cell read from directory:
     /Users/memo/Desktop/New Horizons/Graphene Band Structure QE/outputs/monolayer/data/graphene.save/

     Message from routine setup:
     using ibrav=0 with symmetry is DISCOURAGED, use correct ibrav instead

     Subspace diagonalization in iterative solution of the eigenvalue problem:
     a serial algorithm will be used


     G-vector sticks info
     --------------------
     sticks:   dense  smooth     PW     G-vecs:    dense   smooth      PW
     Sum         595     595    169                95599    95599   15251

     Using Slab Decomposition



     bravais-lattice index     =            0
     lattice parameter (alat)  =       4.6487  a.u.
     unit-cell volume          =     707.3382 (a.u.)^3
     number of atoms/cell      =            2
     number of atomic types    =            1
     number of electrons       =         8.00
     number of Kohn-Sham states=            8
     kinetic-energy cutoff     =     100.0000  Ry
     charge density cutoff     =     400.0000  Ry
     Exchange-correlation= SLA  PW   PBX  PBC
                           (   1   4   3   4   0   0   0)

     celldm(1)=   4.648726  celldm(2)=   0.000000  celldm(3)=   0.000000
     celldm(4)=   0.000000  celldm(5)=   0.000000  celldm(6)=   0.000000

     crystal axes: (cart. coord. in units of alat)
               a(1) = (   1.000000   0.000000   0.000000 )  
               a(2) = (  -0.500000   0.866025   0.000000 )  
               a(3) = (   0.000000   0.000000   8.130081 )  

     reciprocal axes: (cart. coord. in units 2 pi/alat)
               b(1) = (  1.000000  0.577351 -0.000000 )  
               b(2) = (  0.000000  1.154701  0.000000 )  
               b(3) = (  0.000000 -0.000000  0.123000 )  


     PseudoPot. # 1 for C  read from file:
     /Users/memo/Desktop/New Horizons/Graphene Band Structure QE/pseudo/C.pbe-n-kjpaw_psl.1.0.0.UPF
     MD5 check sum: 5f16ad9a65e90284d1d834d4ab3b0f7d
     Pseudo is Projector augmented-wave + core cor, Zval =  4.0
     Generated using &quot;atomic&quot; code by A. Dal Corso  v.6.3
     Shape of augmentation charge: PSQ
     Using radial grid of 1073 points,  4 beta functions with: 
                l(1) =   0
                l(2) =   0
                l(3) =   1
                l(4) =   1
     Q(r) pseudized with 0 coefficients 


     atomic species   valence    mass     pseudopotential
     C                 4.00    12.01100     C ( 1.00)

     24 Sym. Ops., with inversion, found (12 have fractional translation)


                                    s                        frac. trans.

      isym =  1     identity                                     

 cryst.   s( 1) = (     1          0          0      )
                  (     0          1          0      )
                  (     0          0          1      )

 cart.    s( 1) = (  1.0000000  0.0000000  0.0000000 )
                  (  0.0000000  1.0000000  0.0000000 )
                  (  0.0000000  0.0000000  1.0000000 )


      isym =  2     180 deg rotation - cart. axis [0,0,1]        

 cryst.   s( 2) = (    -1          0          0      )    f =(  0.3333333 )
                  (     0         -1          0      )       ( -0.3333334 )
                  (     0          0          1      )       (  0.0000000 )

 cart.    s( 2) = ( -1.0000000  0.0000000  0.0000000 )    f =(  0.5000000 )
                  (  0.0000000 -1.0000000  0.0000000 )       ( -0.2886751 )
                  (  0.0000000  0.0000000  1.0000000 )       (  0.0000000 )


      isym =  3     180 deg rotation - cart. axis [0,1,0]        

 cryst.   s( 3) = (    -1          0          0      )
                  (     1          1          0      )
                  (     0          0         -1      )

 cart.    s( 3) = ( -1.0000000  0.0000000  0.0000000 )
                  (  0.0000000  1.0000000  0.0000000 )
                  (  0.0000000  0.0000000 -1.0000000 )


      isym =  4     180 deg rotation - cart. axis [1,0,0]        

 cryst.   s( 4) = (     1          0          0      )    f =(  0.3333333 )
                  (    -1         -1          0      )       ( -0.3333334 )
                  (     0          0         -1      )       ( -0.0000000 )

 cart.    s( 4) = (  1.0000000  0.0000000  0.0000000 )    f =(  0.5000000 )
                  (  0.0000000 -1.0000000  0.0000000 )       ( -0.2886751 )
                  (  0.0000000  0.0000000 -1.0000000 )       ( -0.0000004 )


      isym =  5      60 deg rotation - cryst. axis [0,0,1]       

 cryst.   s( 5) = (     1          1          0      )    f =(  0.3333333 )
                  (    -1          0          0      )       ( -0.3333333 )
                  (     0          0          1      )       (  0.0000000 )

 cart.    s( 5) = (  0.5000000 -0.8660258  0.0000000 )    f =(  0.4999999 )
                  (  0.8660250  0.5000000  0.0000000 )       ( -0.2886750 )
                  (  0.0000000  0.0000000  1.0000000 )       (  0.0000000 )


      isym =  6      60 deg rotation - cryst. axis [0,0,-1]      

 cryst.   s( 6) = (     0         -1          0      )    f =(  0.3333334 )
                  (     1          1          0      )       ( -0.3333333 )
                  (     0          0          1      )       (  0.0000000 )

 cart.    s( 6) = (  0.5000000  0.8660258  0.0000000 )    f =(  0.5000001 )
                  ( -0.8660250  0.5000000  0.0000000 )       ( -0.2886749 )
                  (  0.0000000  0.0000000  1.0000000 )       (  0.0000000 )


      isym =  7     120 deg rotation - cryst. axis [0,0,1]       

 cryst.   s( 7) = (     0          1          0      )
                  (    -1         -1          0      )
                  (     0          0          1      )

 cart.    s( 7) = ( -0.5000000 -0.8660258  0.0000000 )
                  (  0.8660250 -0.5000000  0.0000000 )
                  (  0.0000000  0.0000000  1.0000000 )


      isym =  8     120 deg rotation - cryst. axis [0,0,-1]      

 cryst.   s( 8) = (    -1         -1          0      )
                  (     1          0          0      )
                  (     0          0          1      )

 cart.    s( 8) = ( -0.5000000  0.8660258  0.0000000 )
                  ( -0.8660250 -0.5000000  0.0000000 )
                  (  0.0000000  0.0000000  1.0000000 )


      isym =  9     180 deg rotation - cryst. axis [1,-1,0]      

 cryst.   s( 9) = (     0         -1          0      )
                  (    -1          0          0      )
                  (     0          0         -1      )

 cart.    s( 9) = (  0.5000000 -0.8660258  0.0000000 )
                  ( -0.8660250 -0.5000000  0.0000000 )
                  (  0.0000000  0.0000000 -1.0000000 )


      isym = 10     180 deg rotation - cryst. axis [2,1,0]       

 cryst.   s(10) = (     1          1          0      )
                  (     0         -1          0      )
                  (     0          0         -1      )

 cart.    s(10) = (  0.5000000  0.8660258  0.0000000 )
                  (  0.8660250 -0.5000000  0.0000000 )
                  (  0.0000000  0.0000000 -1.0000000 )


      isym = 11     180 deg rotation - cryst. axis [0,1,0]       

 cryst.   s(11) = (    -1         -1          0      )    f =(  0.3333333 )
                  (     0          1          0      )       ( -0.3333333 )
                  (     0          0         -1      )       ( -0.0000000 )

 cart.    s(11) = ( -0.5000000 -0.8660258  0.0000000 )    f =(  0.4999999 )
                  ( -0.8660250  0.5000000  0.0000000 )       ( -0.2886749 )
                  (  0.0000000  0.0000000 -1.0000000 )       ( -0.0000004 )


      isym = 12     180 deg rotation - cryst. axis [1,1,0]       

 cryst.   s(12) = (     0          1          0      )    f =(  0.3333334 )
                  (     1          0          0      )       ( -0.3333333 )
                  (     0          0         -1      )       ( -0.0000000 )

 cart.    s(12) = ( -0.5000000  0.8660258  0.0000000 )    f =(  0.5000001 )
                  (  0.8660250  0.5000000  0.0000000 )       ( -0.2886750 )
                  (  0.0000000  0.0000000 -1.0000000 )       ( -0.0000004 )


      isym = 13     inversion                                    

 cryst.   s(13) = (    -1          0          0      )    f =(  0.3333333 )
                  (     0         -1          0      )       ( -0.3333334 )
                  (     0          0         -1      )       ( -0.0000000 )

 cart.    s(13) = ( -1.0000000  0.0000000  0.0000000 )    f =(  0.5000000 )
                  (  0.0000000 -1.0000000  0.0000000 )       ( -0.2886751 )
                  (  0.0000000  0.0000000 -1.0000000 )       ( -0.0000004 )


      isym = 14     inv. 180 deg rotation - cart. axis [0,0,1]   

 cryst.   s(14) = (     1          0          0      )
                  (     0          1          0      )
                  (     0          0         -1      )

 cart.    s(14) = (  1.0000000  0.0000000  0.0000000 )
                  (  0.0000000  1.0000000  0.0000000 )
                  (  0.0000000  0.0000000 -1.0000000 )


      isym = 15     inv. 180 deg rotation - cart. axis [0,1,0]   

 cryst.   s(15) = (     1          0          0      )    f =(  0.3333333 )
                  (    -1         -1          0      )       ( -0.3333334 )
                  (     0          0          1      )       (  0.0000000 )

 cart.    s(15) = (  1.0000000  0.0000000  0.0000000 )    f =(  0.5000000 )
                  (  0.0000000 -1.0000000  0.0000000 )       ( -0.2886751 )
                  (  0.0000000  0.0000000  1.0000000 )       (  0.0000000 )


      isym = 16     inv. 180 deg rotation - cart. axis [1,0,0]   

 cryst.   s(16) = (    -1          0          0      )
                  (     1          1          0      )
                  (     0          0          1      )

 cart.    s(16) = ( -1.0000000  0.0000000  0.0000000 )
                  (  0.0000000  1.0000000  0.0000000 )
                  (  0.0000000  0.0000000  1.0000000 )


      isym = 17     inv.  60 deg rotation - cryst. axis [0,0,1]  

 cryst.   s(17) = (    -1         -1          0      )
                  (     1          0          0      )
                  (     0          0         -1      )

 cart.    s(17) = ( -0.5000000  0.8660258  0.0000000 )
                  ( -0.8660250 -0.5000000  0.0000000 )
                  (  0.0000000  0.0000000 -1.0000000 )


      isym = 18     inv.  60 deg rotation - cryst. axis [0,0,-1] 

 cryst.   s(18) = (     0          1          0      )
                  (    -1         -1          0      )
                  (     0          0         -1      )

 cart.    s(18) = ( -0.5000000 -0.8660258  0.0000000 )
                  (  0.8660250 -0.5000000  0.0000000 )
                  (  0.0000000  0.0000000 -1.0000000 )


      isym = 19     inv. 120 deg rotation - cryst. axis [0,0,1]  

 cryst.   s(19) = (     0         -1          0      )    f =(  0.3333334 )
                  (     1          1          0      )       ( -0.3333333 )
                  (     0          0         -1      )       ( -0.0000000 )

 cart.    s(19) = (  0.5000000  0.8660258  0.0000000 )    f =(  0.5000001 )
                  ( -0.8660250  0.5000000  0.0000000 )       ( -0.2886749 )
                  (  0.0000000  0.0000000 -1.0000000 )       ( -0.0000004 )


      isym = 20     inv. 120 deg rotation - cryst. axis [0,0,-1] 

 cryst.   s(20) = (     1          1          0      )    f =(  0.3333333 )
                  (    -1          0          0      )       ( -0.3333333 )
                  (     0          0         -1      )       ( -0.0000000 )

 cart.    s(20) = (  0.5000000 -0.8660258  0.0000000 )    f =(  0.4999999 )
                  (  0.8660250  0.5000000  0.0000000 )       ( -0.2886750 )
                  (  0.0000000  0.0000000 -1.0000000 )       ( -0.0000004 )


      isym = 21     inv. 180 deg rotation - cryst. axis [1,-1,0] 

 cryst.   s(21) = (     0          1          0      )    f =(  0.3333334 )
                  (     1          0          0      )       ( -0.3333333 )
                  (     0          0          1      )       (  0.0000000 )

 cart.    s(21) = ( -0.5000000  0.8660258  0.0000000 )    f =(  0.5000001 )
                  (  0.8660250  0.5000000  0.0000000 )       ( -0.2886750 )
                  (  0.0000000  0.0000000  1.0000000 )       (  0.0000000 )


      isym = 22     inv. 180 deg rotation - cryst. axis [2,1,0]  

 cryst.   s(22) = (    -1         -1          0      )    f =(  0.3333333 )
                  (     0          1          0      )       ( -0.3333333 )
                  (     0          0          1      )       (  0.0000000 )

 cart.    s(22) = ( -0.5000000 -0.8660258  0.0000000 )    f =(  0.4999999 )
                  ( -0.8660250  0.5000000  0.0000000 )       ( -0.2886749 )
                  (  0.0000000  0.0000000  1.0000000 )       (  0.0000000 )


      isym = 23     inv. 180 deg rotation - cryst. axis [0,1,0]  

 cryst.   s(23) = (     1          1          0      )
                  (     0         -1          0      )
                  (     0          0          1      )

 cart.    s(23) = (  0.5000000  0.8660258  0.0000000 )
                  (  0.8660250 -0.5000000  0.0000000 )
                  (  0.0000000  0.0000000  1.0000000 )


      isym = 24     inv. 180 deg rotation - cryst. axis [1,1,0]  

 cryst.   s(24) = (     0         -1          0      )
                  (    -1          0          0      )
                  (     0          0          1      )

 cart.    s(24) = (  0.5000000 -0.8660258  0.0000000 )
                  ( -0.8660250 -0.5000000  0.0000000 )
                  (  0.0000000  0.0000000  1.0000000 )


   Cartesian axes

     site n.     atom                  positions (alat units)
         1        C      tau(   1) = (   0.0000000   0.0000000   4.0650407  )
         2        C      tau(   2) = (   0.5000000   0.2886751   4.0650407  )

   Crystallographic axes

     site n.     atom                  positions (cryst. coord.)
         1        C      tau(   1) = (  0.0000000  0.0000000  0.5000000  )
         2        C      tau(   2) = (  0.6666667  0.3333334  0.5000000  )

     number of k points=   100
                       cart. coord. in units 2pi/alat
        k(    1) = (   0.0000000   0.0000000   0.0000000), wk =   0.0200000
        k(    2) = (   0.0138889   0.0080188   0.0000000), wk =   0.0200000
        k(    3) = (   0.0277778   0.0160375   0.0000000), wk =   0.0200000
        k(    4) = (   0.0416667   0.0240563   0.0000000), wk =   0.0200000
        k(    5) = (   0.0555556   0.0320750   0.0000000), wk =   0.0200000
        k(    6) = (   0.0694444   0.0400938   0.0000000), wk =   0.0200000
        k(    7) = (   0.0833333   0.0481125   0.0000000), wk =   0.0200000
        k(    8) = (   0.0972222   0.0561313   0.0000000), wk =   0.0200000
        k(    9) = (   0.1111111   0.0641501   0.0000000), wk =   0.0200000
        k(   10) = (   0.1250000   0.0721688   0.0000000), wk =   0.0200000
        k(   11) = (   0.1388889   0.0801876   0.0000000), wk =   0.0200000
        k(   12) = (   0.1527778   0.0882063   0.0000000), wk =   0.0200000
        k(   13) = (   0.1666667   0.0962251   0.0000000), wk =   0.0200000
        k(   14) = (   0.1805556   0.1042438   0.0000000), wk =   0.0200000
        k(   15) = (   0.1944444   0.1122626   0.0000000), wk =   0.0200000
        k(   16) = (   0.2083333   0.1202814   0.0000000), wk =   0.0200000
        k(   17) = (   0.2222222   0.1283001   0.0000000), wk =   0.0200000
        k(   18) = (   0.2361111   0.1363189   0.0000000), wk =   0.0200000
        k(   19) = (   0.2500000   0.1443376   0.0000000), wk =   0.0200000
        k(   20) = (   0.2638889   0.1523564   0.0000000), wk =   0.0200000
        k(   21) = (   0.2777778   0.1603751   0.0000000), wk =   0.0200000
        k(   22) = (   0.2916667   0.1683939   0.0000000), wk =   0.0200000
        k(   23) = (   0.3055556   0.1764127   0.0000000), wk =   0.0200000
        k(   24) = (   0.3194444   0.1844314   0.0000000), wk =   0.0200000
        k(   25) = (   0.3333333   0.1924502   0.0000000), wk =   0.0200000
        k(   26) = (   0.3472222   0.2004689   0.0000000), wk =   0.0200000
        k(   27) = (   0.3611111   0.2084877   0.0000000), wk =   0.0200000
        k(   28) = (   0.3750000   0.2165065   0.0000000), wk =   0.0200000
        k(   29) = (   0.3888889   0.2245252   0.0000000), wk =   0.0200000
        k(   30) = (   0.4027778   0.2325440   0.0000000), wk =   0.0200000
        k(   31) = (   0.4166667   0.2405627   0.0000000), wk =   0.0200000
        k(   32) = (   0.4305556   0.2485815   0.0000000), wk =   0.0200000
        k(   33) = (   0.4444444   0.2566002   0.0000000), wk =   0.0200000
        k(   34) = (   0.4583333   0.2646190   0.0000000), wk =   0.0200000
        k(   35) = (   0.4722222   0.2726378   0.0000000), wk =   0.0200000
        k(   36) = (   0.4861111   0.2806565   0.0000000), wk =   0.0200000
        k(   37) = (   0.5000000   0.2886753   0.0000000), wk =   0.0200000
        k(   38) = (   0.4916667   0.3031090   0.0000000), wk =   0.0200000
        k(   39) = (   0.4833333   0.3175428   0.0000000), wk =   0.0200000
        k(   40) = (   0.4750000   0.3319766   0.0000000), wk =   0.0200000
        k(   41) = (   0.4666667   0.3464103   0.0000000), wk =   0.0200000
        k(   42) = (   0.4583333   0.3608441   0.0000000), wk =   0.0200000
        k(   43) = (   0.4500000   0.3752778   0.0000000), wk =   0.0200000
        k(   44) = (   0.4416667   0.3897116   0.0000000), wk =   0.0200000
        k(   45) = (   0.4333333   0.4041454   0.0000000), wk =   0.0200000
        k(   46) = (   0.4250000   0.4185791   0.0000000), wk =   0.0200000
        k(   47) = (   0.4166667   0.4330129   0.0000000), wk =   0.0200000
        k(   48) = (   0.4083333   0.4474467   0.0000000), wk =   0.0200000
        k(   49) = (   0.4000000   0.4618804   0.0000000), wk =   0.0200000
        k(   50) = (   0.3916667   0.4763142   0.0000000), wk =   0.0200000
        k(   51) = (   0.3833333   0.4907480   0.0000000), wk =   0.0200000
        k(   52) = (   0.3750000   0.5051817   0.0000000), wk =   0.0200000
        k(   53) = (   0.3666667   0.5196155   0.0000000), wk =   0.0200000
        k(   54) = (   0.3583333   0.5340492   0.0000000), wk =   0.0200000
        k(   55) = (   0.3500000   0.5484830   0.0000000), wk =   0.0200000
        k(   56) = (   0.3416667   0.5629168   0.0000000), wk =   0.0200000
        k(   57) = (   0.3333333   0.5773505   0.0000000), wk =   0.0200000
        k(   58) = (   0.3255814   0.5639238   0.0000000), wk =   0.0200000
        k(   59) = (   0.3178295   0.5504970   0.0000000), wk =   0.0200000
        k(   60) = (   0.3100775   0.5370703   0.0000000), wk =   0.0200000
        k(   61) = (   0.3023256   0.5236435   0.0000000), wk =   0.0200000
        k(   62) = (   0.2945736   0.5102168   0.0000000), wk =   0.0200000
        k(   63) = (   0.2868217   0.4967900   0.0000000), wk =   0.0200000
        k(   64) = (   0.2790698   0.4833632   0.0000000), wk =   0.0200000
        k(   65) = (   0.2713178   0.4699365   0.0000000), wk =   0.0200000
        k(   66) = (   0.2635659   0.4565097   0.0000000), wk =   0.0200000
        k(   67) = (   0.2558140   0.4430830   0.0000000), wk =   0.0200000
        k(   68) = (   0.2480620   0.4296562   0.0000000), wk =   0.0200000
        k(   69) = (   0.2403101   0.4162295   0.0000000), wk =   0.0200000
        k(   70) = (   0.2325581   0.4028027   0.0000000), wk =   0.0200000
        k(   71) = (   0.2248062   0.3893759   0.0000000), wk =   0.0200000
        k(   72) = (   0.2170543   0.3759492   0.0000000), wk =   0.0200000
        k(   73) = (   0.2093023   0.3625224   0.0000000), wk =   0.0200000
        k(   74) = (   0.2015504   0.3490957   0.0000000), wk =   0.0200000
        k(   75) = (   0.1937984   0.3356689   0.0000000), wk =   0.0200000
        k(   76) = (   0.1860465   0.3222422   0.0000000), wk =   0.0200000
        k(   77) = (   0.1782946   0.3088154   0.0000000), wk =   0.0200000
        k(   78) = (   0.1705426   0.2953886   0.0000000), wk =   0.0200000
        k(   79) = (   0.1627907   0.2819619   0.0000000), wk =   0.0200000
        k(   80) = (   0.1550388   0.2685351   0.0000000), wk =   0.0200000
        k(   81) = (   0.1472868   0.2551084   0.0000000), wk =   0.0200000
        k(   82) = (   0.1395349   0.2416816   0.0000000), wk =   0.0200000
        k(   83) = (   0.1317829   0.2282549   0.0000000), wk =   0.0200000
        k(   84) = (   0.1240310   0.2148281   0.0000000), wk =   0.0200000
        k(   85) = (   0.1162791   0.2014014   0.0000000), wk =   0.0200000
        k(   86) = (   0.1085271   0.1879746   0.0000000), wk =   0.0200000
        k(   87) = (   0.1007752   0.1745478   0.0000000), wk =   0.0200000
        k(   88) = (   0.0930233   0.1611211   0.0000000), wk =   0.0200000
        k(   89) = (   0.0852713   0.1476943   0.0000000), wk =   0.0200000
        k(   90) = (   0.0775194   0.1342676   0.0000000), wk =   0.0200000
        k(   91) = (   0.0697674   0.1208408   0.0000000), wk =   0.0200000
        k(   92) = (   0.0620155   0.1074141   0.0000000), wk =   0.0200000
        k(   93) = (   0.0542636   0.0939873   0.0000000), wk =   0.0200000
        k(   94) = (   0.0465116   0.0805605   0.0000000), wk =   0.0200000
        k(   95) = (   0.0387597   0.0671338   0.0000000), wk =   0.0200000
        k(   96) = (   0.0310078   0.0537070   0.0000000), wk =   0.0200000
        k(   97) = (   0.0232558   0.0402803   0.0000000), wk =   0.0200000
        k(   98) = (   0.0155039   0.0268535   0.0000000), wk =   0.0200000
        k(   99) = (   0.0077519   0.0134268   0.0000000), wk =   0.0200000
        k(  100) = (   0.0000000   0.0000000   0.0000000), wk =   0.0200000

                       cryst. coord.
        k(    1) = (   0.0000000   0.0000000   0.0000000), wk =   0.0200000
        k(    2) = (   0.0138889   0.0000000   0.0000000), wk =   0.0200000
        k(    3) = (   0.0277778   0.0000000   0.0000000), wk =   0.0200000
        k(    4) = (   0.0416667   0.0000000   0.0000000), wk =   0.0200000
        k(    5) = (   0.0555556   0.0000000   0.0000000), wk =   0.0200000
        k(    6) = (   0.0694444   0.0000000   0.0000000), wk =   0.0200000
        k(    7) = (   0.0833333   0.0000000   0.0000000), wk =   0.0200000
        k(    8) = (   0.0972222   0.0000000   0.0000000), wk =   0.0200000
        k(    9) = (   0.1111111   0.0000000   0.0000000), wk =   0.0200000
        k(   10) = (   0.1250000   0.0000000   0.0000000), wk =   0.0200000
        k(   11) = (   0.1388889   0.0000000   0.0000000), wk =   0.0200000
        k(   12) = (   0.1527778   0.0000000   0.0000000), wk =   0.0200000
        k(   13) = (   0.1666667   0.0000000   0.0000000), wk =   0.0200000
        k(   14) = (   0.1805556   0.0000000   0.0000000), wk =   0.0200000
        k(   15) = (   0.1944444   0.0000000   0.0000000), wk =   0.0200000
        k(   16) = (   0.2083333   0.0000000   0.0000000), wk =   0.0200000
        k(   17) = (   0.2222222   0.0000000   0.0000000), wk =   0.0200000
        k(   18) = (   0.2361111   0.0000000   0.0000000), wk =   0.0200000
        k(   19) = (   0.2500000   0.0000000   0.0000000), wk =   0.0200000
        k(   20) = (   0.2638889   0.0000000   0.0000000), wk =   0.0200000
        k(   21) = (   0.2777778   0.0000000   0.0000000), wk =   0.0200000
        k(   22) = (   0.2916667   0.0000000   0.0000000), wk =   0.0200000
        k(   23) = (   0.3055556   0.0000000   0.0000000), wk =   0.0200000
        k(   24) = (   0.3194444   0.0000000   0.0000000), wk =   0.0200000
        k(   25) = (   0.3333333   0.0000000   0.0000000), wk =   0.0200000
        k(   26) = (   0.3472222   0.0000000   0.0000000), wk =   0.0200000
        k(   27) = (   0.3611111   0.0000000   0.0000000), wk =   0.0200000
        k(   28) = (   0.3750000   0.0000000   0.0000000), wk =   0.0200000
        k(   29) = (   0.3888889   0.0000000   0.0000000), wk =   0.0200000
        k(   30) = (   0.4027778   0.0000000   0.0000000), wk =   0.0200000
        k(   31) = (   0.4166667   0.0000000   0.0000000), wk =   0.0200000
        k(   32) = (   0.4305556   0.0000000   0.0000000), wk =   0.0200000
        k(   33) = (   0.4444444   0.0000000   0.0000000), wk =   0.0200000
        k(   34) = (   0.4583333   0.0000000   0.0000000), wk =   0.0200000
        k(   35) = (   0.4722222   0.0000000   0.0000000), wk =   0.0200000
        k(   36) = (   0.4861111   0.0000000   0.0000000), wk =   0.0200000
        k(   37) = (   0.5000000   0.0000000   0.0000000), wk =   0.0200000
        k(   38) = (   0.4916667   0.0166667   0.0000000), wk =   0.0200000
        k(   39) = (   0.4833333   0.0333333   0.0000000), wk =   0.0200000
        k(   40) = (   0.4750000   0.0500000   0.0000000), wk =   0.0200000
        k(   41) = (   0.4666667   0.0666667   0.0000000), wk =   0.0200000
        k(   42) = (   0.4583333   0.0833333   0.0000000), wk =   0.0200000
        k(   43) = (   0.4500000   0.1000000   0.0000000), wk =   0.0200000
        k(   44) = (   0.4416667   0.1166667   0.0000000), wk =   0.0200000
        k(   45) = (   0.4333333   0.1333333   0.0000000), wk =   0.0200000
        k(   46) = (   0.4250000   0.1500000   0.0000000), wk =   0.0200000
        k(   47) = (   0.4166667   0.1666667   0.0000000), wk =   0.0200000
        k(   48) = (   0.4083333   0.1833333   0.0000000), wk =   0.0200000
        k(   49) = (   0.4000000   0.2000000   0.0000000), wk =   0.0200000
        k(   50) = (   0.3916667   0.2166667   0.0000000), wk =   0.0200000
        k(   51) = (   0.3833333   0.2333333   0.0000000), wk =   0.0200000
        k(   52) = (   0.3750000   0.2500000   0.0000000), wk =   0.0200000
        k(   53) = (   0.3666667   0.2666667   0.0000000), wk =   0.0200000
        k(   54) = (   0.3583333   0.2833333   0.0000000), wk =   0.0200000
        k(   55) = (   0.3500000   0.3000000   0.0000000), wk =   0.0200000
        k(   56) = (   0.3416667   0.3166667   0.0000000), wk =   0.0200000
        k(   57) = (   0.3333333   0.3333333   0.0000000), wk =   0.0200000
        k(   58) = (   0.3255814   0.3255814   0.0000000), wk =   0.0200000
        k(   59) = (   0.3178295   0.3178295   0.0000000), wk =   0.0200000
        k(   60) = (   0.3100775   0.3100775   0.0000000), wk =   0.0200000
        k(   61) = (   0.3023256   0.3023256   0.0000000), wk =   0.0200000
        k(   62) = (   0.2945736   0.2945736   0.0000000), wk =   0.0200000
        k(   63) = (   0.2868217   0.2868217   0.0000000), wk =   0.0200000
        k(   64) = (   0.2790698   0.2790698   0.0000000), wk =   0.0200000
        k(   65) = (   0.2713178   0.2713178   0.0000000), wk =   0.0200000
        k(   66) = (   0.2635659   0.2635659   0.0000000), wk =   0.0200000
        k(   67) = (   0.2558140   0.2558140   0.0000000), wk =   0.0200000
        k(   68) = (   0.2480620   0.2480620   0.0000000), wk =   0.0200000
        k(   69) = (   0.2403101   0.2403101   0.0000000), wk =   0.0200000
        k(   70) = (   0.2325581   0.2325581   0.0000000), wk =   0.0200000
        k(   71) = (   0.2248062   0.2248062   0.0000000), wk =   0.0200000
        k(   72) = (   0.2170543   0.2170543   0.0000000), wk =   0.0200000
        k(   73) = (   0.2093023   0.2093023   0.0000000), wk =   0.0200000
        k(   74) = (   0.2015504   0.2015504   0.0000000), wk =   0.0200000
        k(   75) = (   0.1937984   0.1937984   0.0000000), wk =   0.0200000
        k(   76) = (   0.1860465   0.1860465   0.0000000), wk =   0.0200000
        k(   77) = (   0.1782946   0.1782946   0.0000000), wk =   0.0200000
        k(   78) = (   0.1705426   0.1705426   0.0000000), wk =   0.0200000
        k(   79) = (   0.1627907   0.1627907   0.0000000), wk =   0.0200000
        k(   80) = (   0.1550388   0.1550388   0.0000000), wk =   0.0200000
        k(   81) = (   0.1472868   0.1472868   0.0000000), wk =   0.0200000
        k(   82) = (   0.1395349   0.1395349   0.0000000), wk =   0.0200000
        k(   83) = (   0.1317829   0.1317829   0.0000000), wk =   0.0200000
        k(   84) = (   0.1240310   0.1240310   0.0000000), wk =   0.0200000
        k(   85) = (   0.1162791   0.1162791   0.0000000), wk =   0.0200000
        k(   86) = (   0.1085271   0.1085271   0.0000000), wk =   0.0200000
        k(   87) = (   0.1007752   0.1007752   0.0000000), wk =   0.0200000
        k(   88) = (   0.0930233   0.0930233   0.0000000), wk =   0.0200000
        k(   89) = (   0.0852713   0.0852713   0.0000000), wk =   0.0200000
        k(   90) = (   0.0775194   0.0775194   0.0000000), wk =   0.0200000
        k(   91) = (   0.0697674   0.0697674   0.0000000), wk =   0.0200000
        k(   92) = (   0.0620155   0.0620155   0.0000000), wk =   0.0200000
        k(   93) = (   0.0542636   0.0542636   0.0000000), wk =   0.0200000
        k(   94) = (   0.0465116   0.0465116   0.0000000), wk =   0.0200000
        k(   95) = (   0.0387597   0.0387597   0.0000000), wk =   0.0200000
        k(   96) = (   0.0310078   0.0310078   0.0000000), wk =   0.0200000
        k(   97) = (   0.0232558   0.0232558   0.0000000), wk =   0.0200000
        k(   98) = (   0.0155039   0.0155039   0.0000000), wk =   0.0200000
        k(   99) = (   0.0077519   0.0077519   0.0000000), wk =   0.0200000
        k(  100) = (   0.0000000   0.0000000   0.0000000), wk =   0.0200000

     Dense  grid:    95599 G-vectors     FFT dimensions: (  30,  30, 243)

     Dynamical RAM for                 wfc:       1.46 MB

     Dynamical RAM for     wfc (w. buffer):       1.46 MB

     Dynamical RAM for           str. fact:       1.46 MB

     Dynamical RAM for           local pot:       0.00 MB

     Dynamical RAM for          nlocal pot:       2.92 MB

     Dynamical RAM for                qrad:       0.46 MB

     Dynamical RAM for          rho,v,vnew:       9.38 MB

     Dynamical RAM for           G-vectors:       6.20 MB

     Dynamical RAM for          h,s,v(r/c):       0.01 MB

     Dynamical RAM for          <psi|beta>:       0.00 MB

     Dynamical RAM for                 psi:       2.92 MB

     Dynamical RAM for                hpsi:       2.92 MB

     Dynamical RAM for                spsi:       2.92 MB

     Dynamical RAM for      wfcinit/wfcrot:       2.92 MB

     Dynamical RAM for           addusdens:      65.64 MB

     Estimated static dynamical RAM per process >      33.13 MB

     Estimated max dynamical RAM per process >      98.78 MB
 ----2D----2D----2D----2D----2D----2D----2D----2D----2D----2D----2D----2D
  The code is running with the 2D cutoff
  Please refer to:
  Sohier, T., Calandra, M., & Mauri, F. (2017), 
  Density functional perturbation theory for gated two-dimensional heterostructures:
  Theoretical developments and application to flexural phonons in graphene.
  Physical Review B, 96(7), 75448. https://doi.org/10.1103/PhysRevB.96.075448
 ----2D----2D----2D----2D----2D----2D----2D----2D----2D----2D----2D----2D

     Check: negative core charge=   -0.000002

     The potential is recalculated from file :
     /Users/memo/Desktop/New Horizons/Graphene Band Structure QE/outputs/monolayer/data/graphene.save/charge-density


     negative rho (up, down):  1.263E-04 0.000E+00
     Starting wfcs are    8 randomized atomic wfcs
     Checking if some PAW data can be deallocated... 

     Band Structure Calculation
     Davidson diagonalization with overlap

     Computing kpt #:     1  of   100
     total cpu time spent up to now is        4.4 secs

     Computing kpt #:     2  of   100
     total cpu time spent up to now is        7.1 secs

     Computing kpt #:     3  of   100
     total cpu time spent up to now is        9.2 secs

     Computing kpt #:     4  of   100
     total cpu time spent up to now is       11.7 secs

     Computing kpt #:     5  of   100
     total cpu time spent up to now is       15.4 secs

     Computing kpt #:     6  of   100
     total cpu time spent up to now is       18.1 secs

     Computing kpt #:     7  of   100
     total cpu time spent up to now is       20.6 secs

     Computing kpt #:     8  of   100
     total cpu time spent up to now is       24.5 secs

     Computing kpt #:     9  of   100
     total cpu time spent up to now is       26.9 secs

     Computing kpt #:    10  of   100
     total cpu time spent up to now is       31.0 secs

     Computing kpt #:    11  of   100
     total cpu time spent up to now is       37.7 secs

     Computing kpt #:    12  of   100
     total cpu time spent up to now is       42.3 secs

     Computing kpt #:    13  of   100
     total cpu time spent up to now is       43.9 secs

     Computing kpt #:    14  of   100
     total cpu time spent up to now is       47.1 secs

     Computing kpt #:    15  of   100
     total cpu time spent up to now is       49.6 secs

     Computing kpt #:    16  of   100
     total cpu time spent up to now is       56.6 secs

     Computing kpt #:    17  of   100
     total cpu time spent up to now is       60.0 secs

     Computing kpt #:    18  of   100
     total cpu time spent up to now is       65.2 secs

     Computing kpt #:    19  of   100
     total cpu time spent up to now is       71.2 secs

     Computing kpt #:    20  of   100
     total cpu time spent up to now is       73.2 secs

     Computing kpt #:    21  of   100
     total cpu time spent up to now is       75.6 secs

     Computing kpt #:    22  of   100
     total cpu time spent up to now is       77.9 secs

     Computing kpt #:    23  of   100
     total cpu time spent up to now is       80.3 secs

     Computing kpt #:    24  of   100
     total cpu time spent up to now is       81.9 secs

     Computing kpt #:    25  of   100
     total cpu time spent up to now is       83.5 secs

     Computing kpt #:    26  of   100
     total cpu time spent up to now is       85.1 secs

     Computing kpt #:    27  of   100
     total cpu time spent up to now is       88.3 secs

     Computing kpt #:    28  of   100
     total cpu time spent up to now is       91.5 secs

     Computing kpt #:    29  of   100
     total cpu time spent up to now is       93.0 secs

     Computing kpt #:    30  of   100
     total cpu time spent up to now is       96.0 secs

     Computing kpt #:    31  of   100
     total cpu time spent up to now is       98.0 secs

     Computing kpt #:    32  of   100
     total cpu time spent up to now is      100.0 secs

     Computing kpt #:    33  of   100
     total cpu time spent up to now is      103.5 secs

     Computing kpt #:    34  of   100
     total cpu time spent up to now is      105.6 secs

     Computing kpt #:    35  of   100
     total cpu time spent up to now is      107.3 secs

     Computing kpt #:    36  of   100
     total cpu time spent up to now is      109.6 secs

     Computing kpt #:    37  of   100
     total cpu time spent up to now is      111.3 secs

     Computing kpt #:    38  of   100
     total cpu time spent up to now is      113.5 secs

     Computing kpt #:    39  of   100
     total cpu time spent up to now is      116.7 secs

     Computing kpt #:    40  of   100
     total cpu time spent up to now is      119.6 secs

     Computing kpt #:    41  of   100
     total cpu time spent up to now is      123.0 secs

     Computing kpt #:    42  of   100
     total cpu time spent up to now is      125.0 secs

     Computing kpt #:    43  of   100
     total cpu time spent up to now is      127.5 secs

     Computing kpt #:    44  of   100
     total cpu time spent up to now is      130.9 secs

     Computing kpt #:    45  of   100
     total cpu time spent up to now is      132.7 secs

     Computing kpt #:    46  of   100
     c_bands:  1 eigenvalues not converged
     total cpu time spent up to now is      136.1 secs

     Computing kpt #:    47  of   100
     total cpu time spent up to now is      138.4 secs

     Computing kpt #:    48  of   100
     total cpu time spent up to now is      141.1 secs

     Computing kpt #:    49  of   100
     total cpu time spent up to now is      143.5 secs

     Computing kpt #:    50  of   100
     total cpu time spent up to now is      145.6 secs

     Computing kpt #:    51  of   100
     total cpu time spent up to now is      147.8 secs

     Computing kpt #:    52  of   100
     total cpu time spent up to now is      150.5 secs

     Computing kpt #:    53  of   100
     total cpu time spent up to now is      156.5 secs

     Computing kpt #:    54  of   100
     total cpu time spent up to now is      162.0 secs

     Computing kpt #:    55  of   100
     total cpu time spent up to now is      163.8 secs

     Computing kpt #:    56  of   100
     total cpu time spent up to now is      165.4 secs

     Computing kpt #:    57  of   100
     total cpu time spent up to now is      167.9 secs

     Computing kpt #:    58  of   100
     total cpu time spent up to now is      170.5 secs

     Computing kpt #:    59  of   100
     total cpu time spent up to now is      173.4 secs

     Computing kpt #:    60  of   100
     total cpu time spent up to now is      175.4 secs

     Computing kpt #:    61  of   100
     total cpu time spent up to now is      181.1 secs

     Computing kpt #:    62  of   100
     total cpu time spent up to now is      184.6 secs

     Computing kpt #:    63  of   100
     total cpu time spent up to now is      188.5 secs

     Computing kpt #:    64  of   100
     total cpu time spent up to now is      192.6 secs

     Computing kpt #:    65  of   100
     total cpu time spent up to now is      196.0 secs

     Computing kpt #:    66  of   100
     total cpu time spent up to now is      198.2 secs

     Computing kpt #:    67  of   100
     total cpu time spent up to now is      201.1 secs

     Computing kpt #:    68  of   100
     total cpu time spent up to now is      203.5 secs

     Computing kpt #:    69  of   100
     total cpu time spent up to now is      206.5 secs

     Computing kpt #:    70  of   100
     total cpu time spent up to now is      208.0 secs

     Computing kpt #:    71  of   100
     total cpu time spent up to now is      209.8 secs

     Computing kpt #:    72  of   100
     total cpu time spent up to now is      211.5 secs

     Computing kpt #:    73  of   100
     total cpu time spent up to now is      212.9 secs

     Computing kpt #:    74  of   100
     total cpu time spent up to now is      214.7 secs

     Computing kpt #:    75  of   100
     total cpu time spent up to now is      216.3 secs

     Computing kpt #:    76  of   100
     total cpu time spent up to now is      218.4 secs

     Computing kpt #:    77  of   100
     total cpu time spent up to now is      220.6 secs

     Computing kpt #:    78  of   100
     total cpu time spent up to now is      222.2 secs

     Computing kpt #:    79  of   100
     total cpu time spent up to now is      224.6 secs

     Computing kpt #:    80  of   100
     total cpu time spent up to now is      227.1 secs

     Computing kpt #:    81  of   100
     total cpu time spent up to now is      230.9 secs

     Computing kpt #:    82  of   100
     total cpu time spent up to now is      233.0 secs

     Computing kpt #:    83  of   100
     total cpu time spent up to now is      235.2 secs

     Computing kpt #:    84  of   100
     total cpu time spent up to now is      237.1 secs

     Computing kpt #:    85  of   100
     total cpu time spent up to now is      239.6 secs

     Computing kpt #:    86  of   100
     total cpu time spent up to now is      244.5 secs

     Computing kpt #:    87  of   100
     total cpu time spent up to now is      251.5 secs

     Computing kpt #:    88  of   100
     total cpu time spent up to now is      253.4 secs

     Computing kpt #:    89  of   100
     total cpu time spent up to now is      256.1 secs

     Computing kpt #:    90  of   100
     total cpu time spent up to now is      258.1 secs

     Computing kpt #:    91  of   100
     total cpu time spent up to now is      260.5 secs

     Computing kpt #:    92  of   100
     total cpu time spent up to now is      263.0 secs

     Computing kpt #:    93  of   100
     total cpu time spent up to now is      264.7 secs

     Computing kpt #:    94  of   100
     total cpu time spent up to now is      266.7 secs

     Computing kpt #:    95  of   100
     total cpu time spent up to now is      268.3 secs

     Computing kpt #:    96  of   100
     total cpu time spent up to now is      270.0 secs

     Computing kpt #:    97  of   100
     total cpu time spent up to now is      272.1 secs

     Computing kpt #:    98  of   100
     total cpu time spent up to now is      273.7 secs

     Computing kpt #:    99  of   100
     total cpu time spent up to now is      276.3 secs

     Computing kpt #:   100  of   100
     total cpu time spent up to now is      278.1 secs

     ethr =  1.25E-10,  avg # of iterations = 47.3

     total cpu time spent up to now is      278.1 secs

     End of band structure calculation

          k = 0.0000 0.0000 0.0000 ( 12019 PWs)   bands (ev):

   -23.8078 -11.8927  -7.2716  -7.2716  -1.0346  -0.3589   0.4107   0.8986

          k = 0.0139 0.0080 0.0000 ( 12011 PWs)   bands (ev):

   -23.8032 -11.8872  -7.2907  -7.2818  -1.0284  -0.3525   0.4170   0.9049

          k = 0.0278 0.0160 0.0000 ( 12019 PWs)   bands (ev):

   -23.7895 -11.8707  -7.3476  -7.3120  -1.0097  -0.3336   0.4360   0.9238

          k = 0.0417 0.0241 0.0000 ( 12025 PWs)   bands (ev):

   -23.7666 -11.8433  -7.4413  -7.3616  -0.9785  -0.3020   0.4676   0.9553

          k = 0.0556 0.0321 0.0000 ( 12027 PWs)   bands (ev):

   -23.7346 -11.8049  -7.5701  -7.4293  -0.9349  -0.2577   0.5119   0.9994

          k = 0.0694 0.0401 0.0000 ( 12035 PWs)   bands (ev):

   -23.6935 -11.7557  -7.7320  -7.5136  -0.8789  -0.2008   0.5689   1.0561

          k = 0.0833 0.0481 0.0000 ( 12031 PWs)   bands (ev):

   -23.6432 -11.6955  -7.9245  -7.6128  -0.8104  -0.1313   0.6385   1.1253

          k = 0.0972 0.0561 0.0000 ( 12031 PWs)   bands (ev):

   -23.5838 -11.6245  -8.1448  -7.7250  -0.7294  -0.0492   0.7208   1.2071

          k = 0.1111 0.0642 0.0000 ( 12015 PWs)   bands (ev):

   -23.5154 -11.5427  -8.3902  -7.8481  -0.6359   0.0456   0.8157   1.3015

          k = 0.1250 0.0722 0.0000 ( 12001 PWs)   bands (ev):

   -23.4379 -11.4503  -8.6580  -7.9801  -0.5300   0.1529   0.9233   1.4083

          k = 0.1389 0.0802 0.0000 ( 11999 PWs)   bands (ev):

   -23.3513 -11.3471  -8.9453  -8.1192  -0.4117   0.2728   1.0436   1.5277

          k = 0.1528 0.0882 0.0000 ( 11991 PWs)   bands (ev):

   -23.2557 -11.2334  -9.2496  -8.2636  -0.2809   0.4053   1.1765   1.6596

          k = 0.1667 0.0962 0.0000 ( 11971 PWs)   bands (ev):

   -23.1512 -11.1093  -9.5684  -8.4115  -0.1377   0.5503   1.3221   1.8039

          k = 0.1806 0.1042 0.0000 ( 11983 PWs)   bands (ev):

   -23.0377 -10.9748  -9.8997  -8.5614   0.0179   0.7077   1.4803   1.9604

          k = 0.1944 0.1123 0.0000 ( 11975 PWs)   bands (ev):

   -22.9153 -10.8302 -10.2412  -8.7120   0.1859   0.8776   1.6511   2.1291

          k = 0.2083 0.1203 0.0000 ( 11973 PWs)   bands (ev):

   -22.7840 -10.6755 -10.5912  -8.8620   0.3663   1.0597   1.8345   2.3096

          k = 0.2222 0.1283 0.0000 ( 11961 PWs)   bands (ev):

   -22.6439 -10.9479 -10.5110  -9.0103   0.5590   1.2539   2.0305   2.5007

          k = 0.2361 0.1363 0.0000 ( 11973 PWs)   bands (ev):

   -22.4950 -11.3098 -10.3368  -9.1558   0.7640   1.4596   2.2390   2.6985

          k = 0.2500 0.1443 0.0000 ( 11955 PWs)   bands (ev):

   -22.3375 -11.6756 -10.1533  -9.2978   0.9813   1.6755   2.4600   2.8635

          k = 0.2639 0.1524 0.0000 ( 11961 PWs)   bands (ev):

   -22.1713 -12.0440  -9.9607  -9.4354   1.2108   1.8959   2.6790   2.6931

          k = 0.2778 0.1604 0.0000 ( 11967 PWs)   bands (ev):

   -21.9966 -12.4138  -9.7594  -9.5679   1.4524   2.0660   2.3857   2.9381

          k = 0.2917 0.1684 0.0000 ( 11969 PWs)   bands (ev):

   -21.8134 -12.7841  -9.6948  -9.5499   1.7060   1.8559   2.4691   3.1933

          k = 0.3056 0.1764 0.0000 ( 11953 PWs)   bands (ev):

   -21.6218 -13.1539  -9.8155  -9.3327   1.4875   1.9715   2.7190   3.4494

          k = 0.3194 0.1844 0.0000 ( 11961 PWs)   bands (ev):

   -21.4220 -13.5223  -9.9295  -9.1084   1.1042   2.2484   2.9954   3.5883

          k = 0.3333 0.1925 0.0000 ( 11963 PWs)   bands (ev):

   -21.2141 -13.8886 -10.0365  -8.8778   0.7194   2.5361   3.2875   3.5653

          k = 0.3472 0.2005 0.0000 ( 11955 PWs)   bands (ev):

   -20.9983 -14.2520 -10.1360  -8.6420   0.3371   2.8323   3.5301   3.5933

          k = 0.3611 0.2085 0.0000 ( 11929 PWs)   bands (ev):

   -20.7748 -14.6117 -10.2278  -8.4023  -0.0396   3.1270   3.5082   3.9118

          k = 0.3750 0.2165 0.0000 ( 11929 PWs)   bands (ev):

   -20.5439 -14.9672 -10.3116  -8.1603  -0.4081   3.3382   3.5838   4.2428

          k = 0.3889 0.2245 0.0000 ( 11935 PWs)   bands (ev):

   -20.3059 -15.3174 -10.3871  -7.9182  -0.7652   3.3606   3.8631   4.5860

          k = 0.4028 0.2325 0.0000 ( 11903 PWs)   bands (ev):

   -20.0616 -15.6617 -10.4542  -7.6790  -1.1075   3.3401   4.2006   4.9412

          k = 0.4167 0.2406 0.0000 ( 11890 PWs)   bands (ev):

   -19.8116 -15.9988 -10.5127  -7.4465  -1.4303   3.3158   4.5573   5.3081

          k = 0.4306 0.2486 0.0000 ( 11894 PWs)   bands (ev):

   -19.5573 -16.3271 -10.5624  -7.2259  -1.7281   3.2931   4.9278   5.6866

          k = 0.4444 0.2566 0.0000 ( 11912 PWs)   bands (ev):

   -19.3014 -16.6440 -10.6032  -7.0242  -1.9936   3.2738   5.3103   6.0761

          k = 0.4583 0.2646 0.0000 ( 11912 PWs)   bands (ev):

   -19.0488 -16.9441 -10.6351  -6.8500  -2.2176   3.2584   5.7041   6.4763

          k = 0.4722 0.2726 0.0000 ( 11928 PWs)   bands (ev):

   -18.8110 -17.2159 -10.6579  -6.7138  -2.3896   3.2472   6.1081   6.8862

          k = 0.4861 0.2807 0.0000 ( 11922 PWs)   bands (ev):

   -18.6176 -17.4298 -10.6716  -6.6263  -2.4986   3.2404   6.5203   7.3031

          k = 0.5000 0.2887 0.0000 ( 11924 PWs)   bands (ev):

   -18.5352 -17.5190 -10.6762  -6.5961  -2.5361   3.2381   6.8787   7.0236

          k = 0.4917 0.3031 0.0000 ( 11926 PWs)   bands (ev):

   -18.5310 -17.5147 -10.6985  -6.5900  -2.5374   3.2683   6.8846   7.0298

          k = 0.4833 0.3175 0.0000 ( 11908 PWs)   bands (ev):

   -18.5183 -17.5021 -10.7648  -6.5719  -2.5416   3.3580   6.9022   7.0485

          k = 0.4750 0.3320 0.0000 ( 11894 PWs)   bands (ev):

   -18.4972 -17.4810 -10.8732  -6.5418  -2.5490   3.5052   6.9315   7.0797

          k = 0.4667 0.3464 0.0000 ( 11904 PWs)   bands (ev):

   -18.4676 -17.4517 -11.0208  -6.4995  -2.5601   3.7068   6.9724   7.1232

          k = 0.4583 0.3608 0.0000 ( 11898 PWs)   bands (ev):

   -18.4296 -17.4143 -11.2037  -6.4453  -2.5756   3.9586   7.0247   7.1790

          k = 0.4500 0.3753 0.0000 ( 11894 PWs)   bands (ev):

   -18.3832 -17.3689 -11.4179  -6.3790  -2.5966   4.2559   7.0882   7.2470

          k = 0.4417 0.3897 0.0000 ( 11904 PWs)   bands (ev):

   -18.3283 -17.3159 -11.6589  -6.3008  -2.6243   4.5934   7.1627   7.3270

          k = 0.4333 0.4041 0.0000 ( 11918 PWs)   bands (ev):

   -18.2649 -17.2556 -11.9221  -6.2106  -2.6599   4.9659   7.2479   7.4188

          k = 0.4250 0.4186 0.0000 ( 11910 PWs)   bands (ev):

   -18.1932 -17.1886 -12.2031  -6.1085  -2.7050   5.3676   7.3433   7.5016

          k = 0.4167 0.4330 0.0000 ( 11918 PWs)   bands (ev):

   -18.1130 -17.1157 -12.4977  -5.9945  -2.7613   5.7927   7.3933   7.4484

          k = 0.4083 0.4474 0.0000 ( 11888 PWs)   bands (ev):

   -18.0245 -17.0377 -12.8015  -5.8688  -2.8304   6.2345   7.2636   7.5624

          k = 0.4000 0.4619 0.0000 ( 11888 PWs)   bands (ev):

   -17.9276 -16.9563 -13.1103  -5.7313  -2.9140   6.6856   7.1212   7.6845

          k = 0.3917 0.4763 0.0000 ( 11908 PWs)   bands (ev):

   -17.8222 -16.8736 -13.4193  -5.5822  -3.0136   6.9756   7.1360   7.8134

          k = 0.3833 0.4907 0.0000 ( 11896 PWs)   bands (ev):

   -17.7086 -16.7929 -13.7230  -5.4215  -3.1305   6.8357   7.5708   7.9476

          k = 0.3750 0.5052 0.0000 ( 11898 PWs)   bands (ev):

   -17.5866 -16.7194 -14.0144  -5.2492  -3.2657   6.7089   7.9627   8.0850

          k = 0.3667 0.5196 0.0000 ( 11900 PWs)   bands (ev):

   -17.4562 -16.6613 -14.2838  -5.0656  -3.4197   6.6008   8.2230   8.2694

          k = 0.3583 0.5340 0.0000 ( 11896 PWs)   bands (ev):

   -17.3176 -16.6307 -14.5177  -4.8707  -3.5928   6.5152   8.3583   8.4822

          k = 0.3500 0.5485 0.0000 ( 11878 PWs)   bands (ev):

   -17.1708 -16.6436 -14.6989  -4.6646  -3.7844   6.4541   8.4868   8.6324

          k = 0.3417 0.5629 0.0000 ( 11862 PWs)   bands (ev):

   -17.0157 -16.7156 -14.8108  -4.4474  -3.9937   6.4183   8.6038   8.7207

          k = 0.3333 0.5774 0.0000 ( 11874 PWs)   bands (ev):

   -16.8524 -16.8524 -14.8471  -4.2194  -4.2194   6.4069   8.7040   8.7040

          k = 0.3256 0.5639 0.0000 ( 11856 PWs)   bands (ev):

   -17.0307 -16.6932 -14.8194  -4.4427  -3.9976   6.4159   8.5498   8.7782

          k = 0.3178 0.5505 0.0000 ( 11842 PWs)   bands (ev):

   -17.2453 -16.5270 -14.7449  -4.6774  -3.7667   6.4403   8.2796   8.8309

          k = 0.3101 0.5371 0.0000 ( 11886 PWs)   bands (ev):

   -17.4840 -16.3538 -14.6355  -4.9219  -3.5268   6.4748   7.9413   8.8608

          k = 0.3023 0.5236 0.0000 ( 11876 PWs)   bands (ev):

   -17.7374 -16.1737 -14.5004  -5.1745  -3.2780   6.5111   7.5690   8.8682

          k = 0.2946 0.5102 0.0000 ( 11883 PWs)   bands (ev):

   -17.9990 -15.9868 -14.3457  -5.4337  -3.0206   6.5360   7.1812   8.4971

          k = 0.2868 0.4968 0.0000 ( 11893 PWs)   bands (ev):

   -18.2645 -15.7930 -14.1758  -5.6979  -2.7548   6.5299   6.7879   8.1336

          k = 0.2791 0.4834 0.0000 ( 11899 PWs)   bands (ev):

   -18.5308 -15.5926 -13.9935  -5.9656  -2.4808   6.3951   6.4663   7.8118

          k = 0.2713 0.4699 0.0000 ( 11893 PWs)   bands (ev):

   -18.7959 -15.3854 -13.8008  -6.2354  -2.1987   6.0061   6.3225   7.5297

          k = 0.2636 0.4565 0.0000 ( 11907 PWs)   bands (ev):

   -19.0583 -15.1718 -13.5993  -6.5060  -1.9090   5.6233   6.0990   7.2307

          k = 0.2558 0.4431 0.0000 ( 11921 PWs)   bands (ev):

   -19.3169 -14.9517 -13.3901  -6.7762  -1.6118   5.2481   5.8189   6.8393

          k = 0.2481 0.4297 0.0000 ( 11935 PWs)   bands (ev):

   -19.5709 -14.7253 -13.1741  -7.0451  -1.3076   4.8814   5.5081   6.4584

          k = 0.2403 0.4162 0.0000 ( 11957 PWs)   bands (ev):

   -19.8197 -14.4926 -12.9522  -7.3115  -0.9966   4.5240   5.1840   6.0885

          k = 0.2326 0.4028 0.0000 ( 11951 PWs)   bands (ev):

   -20.0628 -14.2539 -12.7250  -7.5747  -0.6793   4.1764   4.8566   5.7298

          k = 0.2248 0.3894 0.0000 ( 11957 PWs)   bands (ev):

   -20.2997 -14.0094 -12.4932  -7.8338  -0.3561   3.8390   4.5315   5.3823

          k = 0.2171 0.3759 0.0000 ( 11969 PWs)   bands (ev):

   -20.5301 -13.7591 -12.2574  -8.0882  -0.0274   3.5121   4.2121   5.0463

          k = 0.2093 0.3625 0.0000 ( 11973 PWs)   bands (ev):

   -20.7537 -13.5034 -12.0183  -8.3372   0.3063   3.1959   3.9002   4.7219

          k = 0.2016 0.3491 0.0000 ( 11951 PWs)   bands (ev):

   -20.9704 -13.2424 -11.7764  -8.5804   0.6443   2.8905   3.5971   4.4090

          k = 0.1938 0.3357 0.0000 ( 11963 PWs)   bands (ev):

   -21.1799 -12.9765 -11.5325  -8.8171   0.9860   2.5962   3.3036   4.1078

          k = 0.1860 0.3222 0.0000 ( 11977 PWs)   bands (ev):

   -21.3820 -12.7059 -11.2872  -9.0469   1.3307   2.3129   3.0203   3.8183

          k = 0.1783 0.3088 0.0000 ( 11989 PWs)   bands (ev):

   -21.5766 -12.4310 -11.0412  -9.2695   1.6778   2.0409   2.7476   3.5405

          k = 0.1705 0.2954 0.0000 ( 11981 PWs)   bands (ev):

   -21.7636 -12.1523 -10.7952  -9.4845   1.7802   2.0263   2.4856   3.2744

          k = 0.1628 0.2820 0.0000 ( 11979 PWs)   bands (ev):

   -21.9429 -11.8701 -10.5500  -9.6915   1.5308   2.2347   2.3753   3.0201

          k = 0.1550 0.2685 0.0000 ( 11987 PWs)   bands (ev):

   -22.1142 -11.5851 -10.3064  -9.8904   1.2928   1.9951   2.7238   2.7776

          k = 0.1473 0.2551 0.0000 ( 11991 PWs)   bands (ev):

   -22.2777 -11.2978 -10.0807 -10.0653   1.0663   1.7667   2.5469   3.0141

          k = 0.1395 0.2417 0.0000 ( 11987 PWs)   bands (ev):

   -22.4331 -11.0089 -10.2624  -9.8275   0.8513   1.5497   2.3279   2.7984

          k = 0.1318 0.2283 0.0000 ( 11993 PWs)   bands (ev):

   -22.5805 -10.7193 -10.4352  -9.5940   0.6478   1.3443   2.1208   2.5941

          k = 0.1240 0.2148 0.0000 ( 11993 PWs)   bands (ev):

   -22.7197 -10.5989 -10.4298  -9.3658   0.4558   1.1503   1.9255   2.4012

          k = 0.1163 0.2014 0.0000 ( 11993 PWs)   bands (ev):

   -22.8507 -10.7534 -10.1415  -9.1438   0.2754   0.9680   1.7421   2.2198

          k = 0.1085 0.1880 0.0000 ( 11987 PWs)   bands (ev):

   -22.9734 -10.8985  -9.8556  -8.9292   0.1066   0.7973   1.5704   2.0499

          k = 0.1008 0.1745 0.0000 ( 11987 PWs)   bands (ev):

   -23.0879 -11.0340  -9.5736  -8.7231  -0.0505   0.6383   1.4106   1.8917

          k = 0.0930 0.1611 0.0000 ( 11987 PWs)   bands (ev):

   -23.1940 -11.1600  -9.2970  -8.5264  -0.1961   0.4910   1.2627   1.7450

          k = 0.0853 0.1477 0.0000 ( 12005 PWs)   bands (ev):

   -23.2918 -11.2762  -9.0276  -8.3403  -0.3300   0.3554   1.1265   1.6100

          k = 0.0775 0.1343 0.0000 ( 11995 PWs)   bands (ev):

   -23.3811 -11.3826  -8.7675  -8.1660  -0.4523   0.2315   1.0023   1.4867

          k = 0.0698 0.1208 0.0000 ( 12011 PWs)   bands (ev):

   -23.4620 -11.4791  -8.5190  -8.0044  -0.5630   0.1194   0.8898   1.3751

          k = 0.0620 0.1074 0.0000 ( 12023 PWs)   bands (ev):

   -23.5345 -11.5656  -8.2847  -7.8567  -0.6620   0.0191   0.7892   1.2751

          k = 0.0543 0.0940 0.0000 ( 12017 PWs)   bands (ev):

   -23.5985 -11.6420  -8.0675  -7.7237  -0.7493  -0.0694   0.7005   1.1869

          k = 0.0465 0.0806 0.0000 ( 12015 PWs)   bands (ev):

   -23.6540 -11.7084  -7.8702  -7.6065  -0.8250  -0.1462   0.6236   1.1105

          k = 0.0388 0.0671 0.0000 ( 12007 PWs)   bands (ev):

   -23.7009 -11.7646  -7.6960  -7.5058  -0.8891  -0.2112   0.5585   1.0458

          k = 0.0310 0.0537 0.0000 ( 12023 PWs)   bands (ev):

   -23.7394 -11.8107  -7.5481  -7.4223  -0.9415  -0.2643   0.5053   0.9928

          k = 0.0233 0.0403 0.0000 ( 12015 PWs)   bands (ev):

   -23.7693 -11.8465  -7.4294  -7.3568  -0.9822  -0.3057   0.4639   0.9516

          k = 0.0155 0.0269 0.0000 ( 12025 PWs)   bands (ev):

   -23.7907 -11.8722  -7.3425  -7.3096  -1.0113  -0.3352   0.4343   0.9222

          k = 0.0078 0.0134 0.0000 ( 12023 PWs)   bands (ev):

   -23.8035 -11.8875  -7.2895  -7.2811  -1.0288  -0.3529   0.4166   0.9045

          k = 0.0000 0.0000 0.0000 ( 12019 PWs)   bands (ev):

   -23.8078 -11.8927  -7.2716  -7.2716  -1.0346  -0.3589   0.4107   0.8986

     Writing all to output data dir /Users/memo/Desktop/New Horizons/Graphene Band Structure QE/outputs/monolayer/data/graphene.save/ :
     XML data file, pseudopotentials, collected wavefunctions

     init_run     :      3.43s CPU      1.16s WALL (       1 calls)
     electrons    :   1484.98s CPU    276.80s WALL (       1 calls)

     Called by init_run:
     wfcinit      :      0.00s CPU      0.00s WALL (       1 calls)
     wfcinit:atom :      1.10s CPU      0.19s WALL (     100 calls)
     wfcinit:wfcr :     53.64s CPU     10.14s WALL (     100 calls)
     potinit      :      0.42s CPU      0.10s WALL (       1 calls)
     hinit0       :      2.51s CPU      0.83s WALL (       1 calls)

     Called by electrons:
     c_bands      :   1484.97s CPU    276.80s WALL (       1 calls)
     v_of_rho     :      0.19s CPU      0.04s WALL (       1 calls)
     v_h          :      0.01s CPU      0.00s WALL (       1 calls)
     v_xc         :      0.18s CPU      0.04s WALL (       1 calls)
     newd         :      0.33s CPU      0.07s WALL (       1 calls)
     PAW_pot      :      0.20s CPU      0.05s WALL (       1 calls)

     Called by c_bands:
     init_us_2    :      1.60s CPU      0.28s WALL (     100 calls)
     cegterg      :   1421.58s CPU    264.96s WALL (     278 calls)

     Called by sum_band:

     Called by *egterg:
     cdiaghg      :      6.48s CPU      0.97s WALL (    4827 calls)
     cegterg:over :     20.77s CPU      3.29s WALL (    4727 calls)
     cegterg:upda :     12.63s CPU      2.28s WALL (    4727 calls)
     cegterg:last :     29.95s CPU      4.83s WALL (    2657 calls)
     h_psi        :   1379.58s CPU    259.53s WALL (    5105 calls)
     s_psi        :      8.35s CPU      1.64s WALL (    5105 calls)
     g_psi        :      8.52s CPU      1.19s WALL (    4727 calls)

     Called by h_psi:
     h_psi:calbec :     12.16s CPU      2.61s WALL (    5105 calls)
     vloc_psi     :   1353.50s CPU    254.99s WALL (    5105 calls)
                                        0.00s GPU  (    5105 calls)
     add_vuspsi   :     10.93s CPU      1.65s WALL (    5105 calls)

     General routines
     calbec       :     11.62s CPU      2.59s WALL (    5105 calls)
     fft          :      2.22s CPU      0.60s WALL (      12 calls)
     fftw         :   1264.01s CPU    243.08s WALL (   44366 calls)
     davcio       :      0.72s CPU      0.18s WALL (     200 calls)

     Parallel routines

     PAW routines
     PAW_pot      :      0.20s CPU      0.05s WALL (       1 calls)

     PWSCF        :  24m49.80s CPU   4m38.67s WALL


   This run was terminated on:   0:14:48  30Aug2026            

=------------------------------------------------------------------------------=
   JOB DONE.
=------------------------------------------------------------------------------=
