
     Program PWSCF v.7.5 starts on 30Aug2026 at  0: 9:22 

     This program is part of the open-source Quantum ESPRESSO suite
     for quantum simulation of materials; please cite
         "P. Giannozzi et al., J. Phys.:Condens. Matter 21 395502 (2009);
         "P. Giannozzi et al., J. Phys.:Condens. Matter 29 465901 (2017);
         "P. Giannozzi et al., J. Chem. Phys. 152 154105 (2020);
          URL http://www.quantum-espresso.org", 
     in publications or presentations arising from this work. More details at
     http://www.quantum-espresso.org/quote

     Parallel version (MPI & OpenMP), running on       8 processor cores
     Number of MPI processes:                 1
     Threads/MPI process:                     8

     MPI processes distributed on     1 nodes
     0 MiB available memory on the printing compute node when the environment starts

     Waiting for input...
     Reading input from standard input
Warning: card &CELL ignored
Warning: card &FCP ignored
Warning: card &RISM ignored

     Current dimensions of program PWSCF are:
     Max number of different atomic species (ntypx) = 10
     Max number of k-points (npk) =  40000
     Max angular momentum in pseudopotentials (lmaxx) =  4
     file C.pbe-n-kjpaw_psl.1.0.0.UPF: wavefunction(s)  2S 2P renormalized
     Message from routine setup:
     using ibrav=0 with symmetry is DISCOURAGED, use correct ibrav instead

     Subspace diagonalization in iterative solution of the eigenvalue problem:
     a serial algorithm will be used


     G-vector sticks info
     --------------------
     sticks:   dense  smooth     PW     G-vecs:    dense   smooth      PW
     Sum         595     595    169                95599    95599   15251

     Using Slab Decomposition



     bravais-lattice index     =            0
     lattice parameter (alat)  =       4.6487  a.u.
     unit-cell volume          =     707.3382 (a.u.)^3
     number of atoms/cell      =            2
     number of atomic types    =            1
     number of electrons       =         8.00
     number of Kohn-Sham states=            8
     kinetic-energy cutoff     =     100.0000  Ry
     charge density cutoff     =     400.0000  Ry
     scf convergence threshold =      1.0E-08
     mixing beta               =       0.7000
     number of iterations used =            8  plain     mixing
     Exchange-correlation= SLA  PW   PBX  PBC
                           (   1   4   3   4   0   0   0)

     celldm(1)=   4.648726  celldm(2)=   0.000000  celldm(3)=   0.000000
     celldm(4)=   0.000000  celldm(5)=   0.000000  celldm(6)=   0.000000

     crystal axes: (cart. coord. in units of alat)
               a(1) = (   1.000000   0.000000   0.000000 )  
               a(2) = (  -0.500000   0.866025   0.000000 )  
               a(3) = (   0.000000   0.000000   8.130081 )  

     reciprocal axes: (cart. coord. in units 2 pi/alat)
               b(1) = (  1.000000  0.577351 -0.000000 )  
               b(2) = (  0.000000  1.154701  0.000000 )  
               b(3) = (  0.000000 -0.000000  0.123000 )  


     PseudoPot. # 1 for C  read from file:
     /Users/memo/Desktop/New Horizons/Graphene Band Structure QE/pseudo/C.pbe-n-kjpaw_psl.1.0.0.UPF
     MD5 check sum: 5f16ad9a65e90284d1d834d4ab3b0f7d
     Pseudo is Projector augmented-wave + core cor, Zval =  4.0
     Generated using &quot;atomic&quot; code by A. Dal Corso  v.6.3
     Shape of augmentation charge: PSQ
     Using radial grid of 1073 points,  4 beta functions with: 
                l(1) =   0
                l(2) =   0
                l(3) =   1
                l(4) =   1
     Q(r) pseudized with 0 coefficients 


     atomic species   valence    mass     pseudopotential
     C                 4.00    12.01100     C ( 1.00)

     24 Sym. Ops., with inversion, found (12 have fractional translation)


                                    s                        frac. trans.

      isym =  1     identity                                     

 cryst.   s( 1) = (     1          0          0      )
                  (     0          1          0      )
                  (     0          0          1      )

 cart.    s( 1) = (  1.0000000  0.0000000  0.0000000 )
                  (  0.0000000  1.0000000  0.0000000 )
                  (  0.0000000  0.0000000  1.0000000 )


      isym =  2     180 deg rotation - cart. axis [0,0,1]        

 cryst.   s( 2) = (    -1          0          0      )    f =(  0.3333333 )
                  (     0         -1          0      )       ( -0.3333334 )
                  (     0          0          1      )       (  0.0000000 )

 cart.    s( 2) = ( -1.0000000  0.0000000  0.0000000 )    f =(  0.5000000 )
                  (  0.0000000 -1.0000000  0.0000000 )       ( -0.2886751 )
                  (  0.0000000  0.0000000  1.0000000 )       (  0.0000000 )


      isym =  3     180 deg rotation - cart. axis [0,1,0]        

 cryst.   s( 3) = (    -1          0          0      )
                  (     1          1          0      )
                  (     0          0         -1      )

 cart.    s( 3) = ( -1.0000000  0.0000000  0.0000000 )
                  (  0.0000000  1.0000000  0.0000000 )
                  (  0.0000000  0.0000000 -1.0000000 )


      isym =  4     180 deg rotation - cart. axis [1,0,0]        

 cryst.   s( 4) = (     1          0          0      )    f =(  0.3333333 )
                  (    -1         -1          0      )       ( -0.3333334 )
                  (     0          0         -1      )       ( -0.0000000 )

 cart.    s( 4) = (  1.0000000  0.0000000  0.0000000 )    f =(  0.5000000 )
                  (  0.0000000 -1.0000000  0.0000000 )       ( -0.2886751 )
                  (  0.0000000  0.0000000 -1.0000000 )       ( -0.0000004 )


      isym =  5      60 deg rotation - cryst. axis [0,0,1]       

 cryst.   s( 5) = (     1          1          0      )    f =(  0.3333333 )
                  (    -1          0          0      )       ( -0.3333333 )
                  (     0          0          1      )       (  0.0000000 )

 cart.    s( 5) = (  0.5000000 -0.8660258  0.0000000 )    f =(  0.4999999 )
                  (  0.8660250  0.5000000  0.0000000 )       ( -0.2886750 )
                  (  0.0000000  0.0000000  1.0000000 )       (  0.0000000 )


      isym =  6      60 deg rotation - cryst. axis [0,0,-1]      

 cryst.   s( 6) = (     0         -1          0      )    f =(  0.3333334 )
                  (     1          1          0      )       ( -0.3333333 )
                  (     0          0          1      )       (  0.0000000 )

 cart.    s( 6) = (  0.5000000  0.8660258  0.0000000 )    f =(  0.5000001 )
                  ( -0.8660250  0.5000000  0.0000000 )       ( -0.2886749 )
                  (  0.0000000  0.0000000  1.0000000 )       (  0.0000000 )


      isym =  7     120 deg rotation - cryst. axis [0,0,1]       

 cryst.   s( 7) = (     0          1          0      )
                  (    -1         -1          0      )
                  (     0          0          1      )

 cart.    s( 7) = ( -0.5000000 -0.8660258  0.0000000 )
                  (  0.8660250 -0.5000000  0.0000000 )
                  (  0.0000000  0.0000000  1.0000000 )


      isym =  8     120 deg rotation - cryst. axis [0,0,-1]      

 cryst.   s( 8) = (    -1         -1          0      )
                  (     1          0          0      )
                  (     0          0          1      )

 cart.    s( 8) = ( -0.5000000  0.8660258  0.0000000 )
                  ( -0.8660250 -0.5000000  0.0000000 )
                  (  0.0000000  0.0000000  1.0000000 )


      isym =  9     180 deg rotation - cryst. axis [1,-1,0]      

 cryst.   s( 9) = (     0         -1          0      )
                  (    -1          0          0      )
                  (     0          0         -1      )

 cart.    s( 9) = (  0.5000000 -0.8660258  0.0000000 )
                  ( -0.8660250 -0.5000000  0.0000000 )
                  (  0.0000000  0.0000000 -1.0000000 )


      isym = 10     180 deg rotation - cryst. axis [2,1,0]       

 cryst.   s(10) = (     1          1          0      )
                  (     0         -1          0      )
                  (     0          0         -1      )

 cart.    s(10) = (  0.5000000  0.8660258  0.0000000 )
                  (  0.8660250 -0.5000000  0.0000000 )
                  (  0.0000000  0.0000000 -1.0000000 )


      isym = 11     180 deg rotation - cryst. axis [0,1,0]       

 cryst.   s(11) = (    -1         -1          0      )    f =(  0.3333333 )
                  (     0          1          0      )       ( -0.3333333 )
                  (     0          0         -1      )       ( -0.0000000 )

 cart.    s(11) = ( -0.5000000 -0.8660258  0.0000000 )    f =(  0.4999999 )
                  ( -0.8660250  0.5000000  0.0000000 )       ( -0.2886749 )
                  (  0.0000000  0.0000000 -1.0000000 )       ( -0.0000004 )


      isym = 12     180 deg rotation - cryst. axis [1,1,0]       

 cryst.   s(12) = (     0          1          0      )    f =(  0.3333334 )
                  (     1          0          0      )       ( -0.3333333 )
                  (     0          0         -1      )       ( -0.0000000 )

 cart.    s(12) = ( -0.5000000  0.8660258  0.0000000 )    f =(  0.5000001 )
                  (  0.8660250  0.5000000  0.0000000 )       ( -0.2886750 )
                  (  0.0000000  0.0000000 -1.0000000 )       ( -0.0000004 )


      isym = 13     inversion                                    

 cryst.   s(13) = (    -1          0          0      )    f =(  0.3333333 )
                  (     0         -1          0      )       ( -0.3333334 )
                  (     0          0         -1      )       ( -0.0000000 )

 cart.    s(13) = ( -1.0000000  0.0000000  0.0000000 )    f =(  0.5000000 )
                  (  0.0000000 -1.0000000  0.0000000 )       ( -0.2886751 )
                  (  0.0000000  0.0000000 -1.0000000 )       ( -0.0000004 )


      isym = 14     inv. 180 deg rotation - cart. axis [0,0,1]   

 cryst.   s(14) = (     1          0          0      )
                  (     0          1          0      )
                  (     0          0         -1      )

 cart.    s(14) = (  1.0000000  0.0000000  0.0000000 )
                  (  0.0000000  1.0000000  0.0000000 )
                  (  0.0000000  0.0000000 -1.0000000 )


      isym = 15     inv. 180 deg rotation - cart. axis [0,1,0]   

 cryst.   s(15) = (     1          0          0      )    f =(  0.3333333 )
                  (    -1         -1          0      )       ( -0.3333334 )
                  (     0          0          1      )       (  0.0000000 )

 cart.    s(15) = (  1.0000000  0.0000000  0.0000000 )    f =(  0.5000000 )
                  (  0.0000000 -1.0000000  0.0000000 )       ( -0.2886751 )
                  (  0.0000000  0.0000000  1.0000000 )       (  0.0000000 )


      isym = 16     inv. 180 deg rotation - cart. axis [1,0,0]   

 cryst.   s(16) = (    -1          0          0      )
                  (     1          1          0      )
                  (     0          0          1      )

 cart.    s(16) = ( -1.0000000  0.0000000  0.0000000 )
                  (  0.0000000  1.0000000  0.0000000 )
                  (  0.0000000  0.0000000  1.0000000 )


      isym = 17     inv.  60 deg rotation - cryst. axis [0,0,1]  

 cryst.   s(17) = (    -1         -1          0      )
                  (     1          0          0      )
                  (     0          0         -1      )

 cart.    s(17) = ( -0.5000000  0.8660258  0.0000000 )
                  ( -0.8660250 -0.5000000  0.0000000 )
                  (  0.0000000  0.0000000 -1.0000000 )


      isym = 18     inv.  60 deg rotation - cryst. axis [0,0,-1] 

 cryst.   s(18) = (     0          1          0      )
                  (    -1         -1          0      )
                  (     0          0         -1      )

 cart.    s(18) = ( -0.5000000 -0.8660258  0.0000000 )
                  (  0.8660250 -0.5000000  0.0000000 )
                  (  0.0000000  0.0000000 -1.0000000 )


      isym = 19     inv. 120 deg rotation - cryst. axis [0,0,1]  

 cryst.   s(19) = (     0         -1          0      )    f =(  0.3333334 )
                  (     1          1          0      )       ( -0.3333333 )
                  (     0          0         -1      )       ( -0.0000000 )

 cart.    s(19) = (  0.5000000  0.8660258  0.0000000 )    f =(  0.5000001 )
                  ( -0.8660250  0.5000000  0.0000000 )       ( -0.2886749 )
                  (  0.0000000  0.0000000 -1.0000000 )       ( -0.0000004 )


      isym = 20     inv. 120 deg rotation - cryst. axis [0,0,-1] 

 cryst.   s(20) = (     1          1          0      )    f =(  0.3333333 )
                  (    -1          0          0      )       ( -0.3333333 )
                  (     0          0         -1      )       ( -0.0000000 )

 cart.    s(20) = (  0.5000000 -0.8660258  0.0000000 )    f =(  0.4999999 )
                  (  0.8660250  0.5000000  0.0000000 )       ( -0.2886750 )
                  (  0.0000000  0.0000000 -1.0000000 )       ( -0.0000004 )


      isym = 21     inv. 180 deg rotation - cryst. axis [1,-1,0] 

 cryst.   s(21) = (     0          1          0      )    f =(  0.3333334 )
                  (     1          0          0      )       ( -0.3333333 )
                  (     0          0          1      )       (  0.0000000 )

 cart.    s(21) = ( -0.5000000  0.8660258  0.0000000 )    f =(  0.5000001 )
                  (  0.8660250  0.5000000  0.0000000 )       ( -0.2886750 )
                  (  0.0000000  0.0000000  1.0000000 )       (  0.0000000 )


      isym = 22     inv. 180 deg rotation - cryst. axis [2,1,0]  

 cryst.   s(22) = (    -1         -1          0      )    f =(  0.3333333 )
                  (     0          1          0      )       ( -0.3333333 )
                  (     0          0          1      )       (  0.0000000 )

 cart.    s(22) = ( -0.5000000 -0.8660258  0.0000000 )    f =(  0.4999999 )
                  ( -0.8660250  0.5000000  0.0000000 )       ( -0.2886749 )
                  (  0.0000000  0.0000000  1.0000000 )       (  0.0000000 )


      isym = 23     inv. 180 deg rotation - cryst. axis [0,1,0]  

 cryst.   s(23) = (     1          1          0      )
                  (     0         -1          0      )
                  (     0          0          1      )

 cart.    s(23) = (  0.5000000  0.8660258  0.0000000 )
                  (  0.8660250 -0.5000000  0.0000000 )
                  (  0.0000000  0.0000000  1.0000000 )


      isym = 24     inv. 180 deg rotation - cryst. axis [1,1,0]  

 cryst.   s(24) = (     0         -1          0      )
                  (    -1          0          0      )
                  (     0          0          1      )

 cart.    s(24) = (  0.5000000 -0.8660258  0.0000000 )
                  ( -0.8660250 -0.5000000  0.0000000 )
                  (  0.0000000  0.0000000  1.0000000 )


   Cartesian axes

     site n.     atom                  positions (alat units)
         1        C      tau(   1) = (   0.0000000   0.0000000   4.0650407  )
         2        C      tau(   2) = (   0.5000000   0.2886751   4.0650407  )

   Crystallographic axes

     site n.     atom                  positions (cryst. coord.)
         1        C      tau(   1) = (  0.0000000  0.0000000  0.5000000  )
         2        C      tau(   2) = (  0.6666667  0.3333334  0.5000000  )

     number of k points=    19  Marzari-Vanderbilt smearing, width (Ry)=  0.0100
                       cart. coord. in units 2pi/alat
        k(    1) = (   0.0000000   0.0000000   0.0000000), wk =   0.0138889
        k(    2) = (   0.0000000   0.0962251   0.0000000), wk =   0.0833333
        k(    3) = (   0.0000000   0.1924502   0.0000000), wk =   0.0833333
        k(    4) = (   0.0000000   0.2886753   0.0000000), wk =   0.0833333
        k(    5) = (   0.0000000   0.3849004   0.0000000), wk =   0.0833333
        k(    6) = (   0.0000000   0.4811254   0.0000000), wk =   0.0833333
        k(    7) = (   0.0000000  -0.5773505   0.0000000), wk =   0.0416667
        k(    8) = (   0.0833333   0.1443376   0.0000000), wk =   0.0833333
        k(    9) = (   0.0833333   0.2405627   0.0000000), wk =   0.1666667
        k(   10) = (   0.0833333   0.3367878   0.0000000), wk =   0.1666667
        k(   11) = (   0.0833333   0.4330129   0.0000000), wk =   0.1666667
        k(   12) = (   0.0833333   0.5292380   0.0000000), wk =   0.1666667
        k(   13) = (   0.1666667   0.2886753   0.0000000), wk =   0.0833333
        k(   14) = (   0.1666667   0.3849004   0.0000000), wk =   0.1666667
        k(   15) = (   0.1666667   0.4811254   0.0000000), wk =   0.1666667
        k(   16) = (   0.1666667   0.5773505   0.0000000), wk =   0.0833333
        k(   17) = (   0.2500000   0.4330129   0.0000000), wk =   0.0833333
        k(   18) = (   0.2500000   0.5292380   0.0000000), wk =   0.1666667
        k(   19) = (   0.3333333   0.5773505   0.0000000), wk =   0.0277778

                       cryst. coord.
        k(    1) = (   0.0000000   0.0000000   0.0000000), wk =   0.0138889
        k(    2) = (   0.0000000   0.0833333   0.0000000), wk =   0.0833333
        k(    3) = (   0.0000000   0.1666667   0.0000000), wk =   0.0833333
        k(    4) = (   0.0000000   0.2500000   0.0000000), wk =   0.0833333
        k(    5) = (   0.0000000   0.3333333   0.0000000), wk =   0.0833333
        k(    6) = (   0.0000000   0.4166667   0.0000000), wk =   0.0833333
        k(    7) = (   0.0000000  -0.5000000   0.0000000), wk =   0.0416667
        k(    8) = (   0.0833333   0.0833333   0.0000000), wk =   0.0833333
        k(    9) = (   0.0833333   0.1666667   0.0000000), wk =   0.1666667
        k(   10) = (   0.0833333   0.2500000   0.0000000), wk =   0.1666667
        k(   11) = (   0.0833333   0.3333333   0.0000000), wk =   0.1666667
        k(   12) = (   0.0833333   0.4166667   0.0000000), wk =   0.1666667
        k(   13) = (   0.1666667   0.1666667   0.0000000), wk =   0.0833333
        k(   14) = (   0.1666667   0.2500000   0.0000000), wk =   0.1666667
        k(   15) = (   0.1666667   0.3333333   0.0000000), wk =   0.1666667
        k(   16) = (   0.1666667   0.4166667   0.0000000), wk =   0.0833333
        k(   17) = (   0.2500000   0.2500000   0.0000000), wk =   0.0833333
        k(   18) = (   0.2500000   0.3333333   0.0000000), wk =   0.1666667
        k(   19) = (   0.3333333   0.3333333   0.0000000), wk =   0.0277778

     Dense  grid:    95599 G-vectors     FFT dimensions: (  30,  30, 243)

     Dynamical RAM for                 wfc:       1.46 MB

     Dynamical RAM for     wfc (w. buffer):      29.16 MB

     Dynamical RAM for           str. fact:       1.46 MB

     Dynamical RAM for           local pot:       0.00 MB

     Dynamical RAM for          nlocal pot:       2.92 MB

     Dynamical RAM for                qrad:       0.46 MB

     Dynamical RAM for          rho,v,vnew:       9.38 MB

     Dynamical RAM for               rhoin:       3.13 MB

     Dynamical RAM for            rho*nmix:      23.34 MB

     Dynamical RAM for           G-vectors:       6.20 MB

     Dynamical RAM for          h,s,v(r/c):       0.01 MB

     Dynamical RAM for          <psi|beta>:       0.00 MB

     Dynamical RAM for                 psi:       2.92 MB

     Dynamical RAM for                hpsi:       2.92 MB

     Dynamical RAM for                spsi:       2.92 MB

     Dynamical RAM for      wfcinit/wfcrot:       2.92 MB

     Dynamical RAM for           addusdens:      65.64 MB

     Dynamical RAM for          addusforce:      69.29 MB

     Estimated static dynamical RAM per process >      63.97 MB

     Estimated max dynamical RAM per process >     156.60 MB
 ----2D----2D----2D----2D----2D----2D----2D----2D----2D----2D----2D----2D
  The code is running with the 2D cutoff
  Please refer to:
  Sohier, T., Calandra, M., & Mauri, F. (2017), 
  Density functional perturbation theory for gated two-dimensional heterostructures:
  Theoretical developments and application to flexural phonons in graphene.
  Physical Review B, 96(7), 75448. https://doi.org/10.1103/PhysRevB.96.075448
 ----2D----2D----2D----2D----2D----2D----2D----2D----2D----2D----2D----2D

     Check: negative core charge=   -0.000002

     Initial potential from superposition of free atoms

     starting charge       7.9999, renormalised to       8.0000

     negative rho (up, down):  1.059E-04 0.000E+00
     Starting wfcs are    8 randomized atomic wfcs
     Checking if some PAW data can be deallocated... 

     total cpu time spent up to now is        6.0 secs

     Self-consistent Calculation

     iteration #  1     ecut=   100.00 Ry     beta= 0.70
     Davidson diagonalization with overlap

---- Real-time Memory Report at c_bands before calling an iterative solver
             0 MiB given to the printing process from OS
             0 MiB allocation reported by mallinfo(arena+hblkhd)
             0 MiB available memory on the node where the printing process lives
------------------
     ethr =  1.00E-02,  avg # of iterations =  5.3

     negative rho (up, down):  1.027E-04 0.000E+00

     total cpu time spent up to now is       15.1 secs

     total energy              =     -36.86163098 Ry
     estimated scf accuracy    <       0.19289638 Ry

     iteration #  2     ecut=   100.00 Ry     beta= 0.70
     Davidson diagonalization with overlap

---- Real-time Memory Report at c_bands before calling an iterative solver
             0 MiB given to the printing process from OS
             0 MiB allocation reported by mallinfo(arena+hblkhd)
             0 MiB available memory on the node where the printing process lives
------------------
     ethr =  2.41E-03,  avg # of iterations =  5.2

     negative rho (up, down):  1.144E-04 0.000E+00

     total cpu time spent up to now is       24.8 secs

     total energy              =     -36.88721451 Ry
     estimated scf accuracy    <       0.00193529 Ry

     iteration #  3     ecut=   100.00 Ry     beta= 0.70
     Davidson diagonalization with overlap

---- Real-time Memory Report at c_bands before calling an iterative solver
             0 MiB given to the printing process from OS
             0 MiB allocation reported by mallinfo(arena+hblkhd)
             0 MiB available memory on the node where the printing process lives
------------------
     ethr =  2.42E-05,  avg # of iterations =  9.2

     negative rho (up, down):  1.252E-04 0.000E+00

     total cpu time spent up to now is       32.4 secs

     total energy              =     -36.88755823 Ry
     estimated scf accuracy    <       0.00015360 Ry

     iteration #  4     ecut=   100.00 Ry     beta= 0.70
     Davidson diagonalization with overlap

---- Real-time Memory Report at c_bands before calling an iterative solver
             0 MiB given to the printing process from OS
             0 MiB allocation reported by mallinfo(arena+hblkhd)
             0 MiB available memory on the node where the printing process lives
------------------
     ethr =  1.92E-06,  avg # of iterations =  4.3

     negative rho (up, down):  1.262E-04 0.000E+00

     total cpu time spent up to now is       37.0 secs

     total energy              =     -36.88757363 Ry
     estimated scf accuracy    <       0.00000204 Ry

     iteration #  5     ecut=   100.00 Ry     beta= 0.70
     Davidson diagonalization with overlap

---- Real-time Memory Report at c_bands before calling an iterative solver
             0 MiB given to the printing process from OS
             0 MiB allocation reported by mallinfo(arena+hblkhd)
             0 MiB available memory on the node where the printing process lives
------------------
     ethr =  2.55E-08,  avg # of iterations =  3.3

     negative rho (up, down):  1.263E-04 0.000E+00

     total cpu time spent up to now is       41.8 secs

     total energy              =     -36.88757507 Ry
     estimated scf accuracy    <       0.00000007 Ry

     iteration #  6     ecut=   100.00 Ry     beta= 0.70
     Davidson diagonalization with overlap

---- Real-time Memory Report at c_bands before calling an iterative solver
             0 MiB given to the printing process from OS
             0 MiB allocation reported by mallinfo(arena+hblkhd)
             0 MiB available memory on the node where the printing process lives
------------------
     ethr =  8.21E-10,  avg # of iterations =  2.4

     negative rho (up, down):  1.263E-04 0.000E+00

     total cpu time spent up to now is       45.1 secs

     End of self-consistent calculation

          k = 0.0000 0.0000 0.0000 ( 12019 PWs)   bands (ev):

   -23.8074 -11.8924  -7.2713  -7.2713  -1.0345  -0.3588   0.4108   0.8987

     occupation numbers 
     1.0000   1.0000   1.0000   1.0000   0.0000   0.0000   0.0000   0.0000

          k = 0.0000 0.0962 0.0000 ( 12031 PWs)   bands (ev):

   -23.6429 -11.6952  -7.9241  -7.6125  -0.8103  -0.1313   0.6386   1.1255

     occupation numbers 
     1.0000   1.0000   1.0000   1.0000   0.0000   0.0000   0.0000   0.0000

          k = 0.0000 0.1925 0.0000 ( 11971 PWs)   bands (ev):

   -23.1508 -11.1090  -9.5681  -8.4111  -0.1376   0.5503   1.3221   1.8040

     occupation numbers 
     1.0000   1.0000   1.0000   1.0000   0.0000   0.0000   0.0000   0.0000

          k = 0.0000 0.2887 0.0000 ( 11955 PWs)   bands (ev):

   -22.3371 -11.6752 -10.1530  -9.2974   0.9814   1.6755   2.4600   2.8639

     occupation numbers 
     1.0000   1.0000   1.0000   1.0000   0.0000   0.0000   0.0000   0.0000

          k = 0.0000 0.3849 0.0000 ( 11963 PWs)   bands (ev):

   -21.2138 -13.8882 -10.0361  -8.8775   0.7197   2.5362   3.2876   3.5657

     occupation numbers 
     1.0000   1.0000   1.0000   1.0000   0.0000   0.0000   0.0000   0.0000

          k = 0.0000 0.4811 0.0000 ( 11890 PWs)   bands (ev):

   -19.8112 -15.9985 -10.5123  -7.4462  -1.4300   3.3161   4.5575   5.3082

     occupation numbers 
     1.0000   1.0000   1.0000   1.0000   0.0000   0.0000   0.0000   0.0000

          k = 0.0000-0.5774 0.0000 ( 11924 PWs)   bands (ev):

   -18.5349 -17.5186 -10.6758  -6.5958  -2.5358   3.2384   6.8789   7.0237

     occupation numbers 
     1.0000   1.0000   1.0000   1.0000   0.0000   0.0000   0.0000   0.0000

          k = 0.0833 0.1443 0.0000 ( 12009 PWs)   bands (ev):

   -23.3146 -11.3034  -8.9612  -8.2952  -0.3616   0.3234   1.0944   1.5781

     occupation numbers 
     1.0000   1.0000   1.0000   1.0000   0.0000   0.0000   0.0000   0.0000

          k = 0.0833 0.2406 0.0000 ( 11987 PWs)   bands (ev):

   -22.6617 -10.6776 -10.5311  -9.3004   0.5350   1.2301   2.0061   2.4797

     occupation numbers 
     1.0000   1.0000   1.0000   1.0000   0.0000   0.0000   0.0000   0.0000

          k = 0.0833 0.3368 0.0000 ( 11969 PWs)   bands (ev):

   -21.6930 -12.7598 -10.1924  -9.4089   1.7376   1.8756   2.6092   3.3706

     occupation numbers 
     1.0000   1.0000   1.0000   1.0000   0.0000   0.0000   0.0000   0.0000

          k = 0.0833 0.4330 0.0000 ( 11931 PWs)   bands (ev):

   -20.4271 -14.8924 -10.8311  -8.0212  -0.4756   3.6371   4.1689   4.3983

     occupation numbers 
     1.0000   1.0000   1.0000   1.0000   0.0000   0.0000   0.0000   0.0000

          k = 0.0833 0.5292 0.0000 ( 11910 PWs)   bands (ev):

   -18.9387 -16.8451 -11.1616  -6.7035  -2.2567   3.9788   5.8637   6.6056

     occupation numbers 
     1.0000   1.0000   1.0000   1.0000   0.0000   0.0000   0.0000   0.0000

          k = 0.1667 0.2887 0.0000 ( 11975 PWs)   bands (ev):

   -21.8539 -12.0112 -10.6721  -9.5887   1.6541   2.2011   2.3589   3.1459

     occupation numbers 
     1.0000   1.0000   1.0000   1.0000   0.0000   0.0000   0.0000   0.0000

          k = 0.1667 0.3849 0.0000 ( 11949 PWs)   bands (ev):

   -20.7413 -13.7463 -11.7339  -8.3284   0.2401   3.2122   3.9235   4.7383

     occupation numbers 
     1.0000   1.0000   1.0000   1.0000   0.0000   0.0000   0.0000   0.0000

          k = 0.1667 0.4811 0.0000 ( 11913 PWs)   bands (ev):

   -19.3588 -15.6674 -12.3118  -6.8930  -1.6852   5.1846   5.8642   5.8957

     occupation numbers 
     1.0000   1.0000   1.0000   1.0000   0.0000   0.0000   0.0000   0.0000

          k = 0.1667 0.5774 0.0000 ( 11918 PWs)   bands (ev):

   -18.1127 -17.1153 -12.4973  -5.9942  -2.7610   5.7930   7.4485   7.6369

     occupation numbers 
     1.0000   1.0000   1.0000   1.0000   0.0000   0.0000   0.0000   0.0000

          k = 0.2500 0.4330 0.0000 ( 11931 PWs)   bands (ev):

   -19.5075 -14.7821 -13.2284  -6.9777  -1.3840   4.9723   5.5877   6.5528

     occupation numbers 
     1.0000   1.0000   1.0000   1.0000   0.0000   0.0000   0.0000   0.0000

          k = 0.2500 0.5292 0.0000 ( 11897 PWs)   bands (ev):

   -18.0770 -16.2125 -13.9386  -5.5833  -2.9139   6.6632   7.0852   8.0605

     occupation numbers 
     1.0000   1.0000   1.0000   1.0000   0.0000   0.0000   0.0000   0.0000

          k = 0.3333 0.5774 0.0000 ( 11874 PWs)   bands (ev):

   -16.8520 -16.8520 -14.8468  -4.2191  -4.2191   6.4070   8.7043   8.7044

     occupation numbers 
     1.0000   1.0000   1.0000   0.5000   0.5000   0.0000   0.0000   0.0000

     the Fermi energy is    -4.2001 ev

!    total energy              =     -36.88757509 Ry
     total all-electron energy =      -152.415770 Ry
     estimated scf accuracy    <          5.9E-10 Ry
     smearing contrib. (-TS)   =      -0.00009116 Ry
     internal energy E=F+TS    =     -36.88748393 Ry

     The total energy is F=E-TS. E is the sum of the following terms:
     one-electron contribution =    -359.09520352 Ry
     hartree contribution      =     180.43084715 Ry
     xc contribution           =      -9.28506284 Ry
     ewald contribution        =     163.39645167 Ry
     one-center paw contrib.   =     -12.33451638 Ry
      -> PAW hartree energy AE =      18.95818012 Ry
      -> PAW hartree energy PS =     -18.94080157 Ry
      -> PAW xc energy AE      =     -21.34380292 Ry
      -> PAW xc energy PS      =       8.99190798 Ry
      -> total E_H with PAW    =     180.44822570 Ry
      -> total E_XC with PAW   =     -21.63695778 Ry

     convergence has been achieved in   6 iterations

     negative rho (up, down):  1.263E-04 0.000E+00

     Forces acting on atoms (cartesian axes, Ry/au):

     atom    1 type  1   force =     0.00000000    0.00000000    0.00000000
     atom    2 type  1   force =     0.00000000   -0.00000000    0.00000000
     The non-local contrib.  to forces
     atom    1 type  1   force =     0.00000000    0.00000000    0.00000000
     atom    2 type  1   force =     0.00000000    0.00000000    0.00000000
     The ionic contribution  to forces
     atom    1 type  1   force =    -0.00000000    0.00000571   -0.00000000
     atom    2 type  1   force =     0.00000000   -0.00000571   -0.00000000
     The local contribution  to forces
     atom    1 type  1   force =    -0.00000000   -0.00000189   -0.00000071
     atom    2 type  1   force =     0.00000000    0.00000066   -0.00000071
     The core correction contribution to forces
     atom    1 type  1   force =    -0.00000000   -0.00000000    0.00000008
     atom    2 type  1   force =    -0.00000000    0.00000014    0.00000008
     The Hubbard contrib.    to forces
     atom    1 type  1   force =     0.00000000    0.00000000    0.00000000
     atom    2 type  1   force =     0.00000000    0.00000000    0.00000000
     The SCF correction term to forces
     atom    1 type  1   force =     0.00000000    0.00000000   -0.00000000
     atom    2 type  1   force =     0.00000000    0.00000000    0.00000000

     Total force =     0.000000     Total SCF correction =     0.000000

     Writing all to output data dir /Users/memo/Desktop/New Horizons/Graphene Band Structure QE/outputs/monolayer/data/graphene.save/ :
     XML data file, charge density, pseudopotentials, collected wavefunctions

     init_run     :     20.76s CPU      5.97s WALL (       1 calls)
     electrons    :    217.47s CPU     39.10s WALL (       1 calls)
     forces       :      1.94s CPU      0.47s WALL (       1 calls)

     Called by init_run:
     wfcinit      :     17.19s CPU      4.73s WALL (       1 calls)
     wfcinit:atom :      0.15s CPU      0.03s WALL (      19 calls)
     wfcinit:wfcr :     16.18s CPU      4.49s WALL (      19 calls)
     potinit      :      0.64s CPU      0.17s WALL (       1 calls)
     hinit0       :      2.24s CPU      0.88s WALL (       1 calls)

     Called by electrons:
     c_bands      :    180.64s CPU     32.70s WALL (       6 calls)
     sum_band     :     29.65s CPU      5.11s WALL (       6 calls)
     v_of_rho     :      1.81s CPU      0.35s WALL (       7 calls)
     v_h          :      0.12s CPU      0.03s WALL (       7 calls)
     v_xc         :      1.90s CPU      0.36s WALL (       8 calls)
     newd         :      3.93s CPU      0.70s WALL (       7 calls)
     PAW_pot      :      2.16s CPU      0.42s WALL (       7 calls)
     mix_rho      :      0.33s CPU      0.06s WALL (       6 calls)

     Called by c_bands:
     init_us_2    :      4.00s CPU      0.72s WALL (     266 calls)
     cegterg      :    176.81s CPU     32.05s WALL (     114 calls)

     Called by sum_band:
     sum_band:wei :      0.01s CPU      0.00s WALL (       6 calls)
     sum_band:loo :     26.71s CPU      4.63s WALL (       6 calls)
     sum_band:buf :      0.07s CPU      0.01s WALL (     114 calls)
     sum_band:ini :      1.83s CPU      0.30s WALL (     114 calls)
     sum_band:cal :      0.42s CPU      0.08s WALL (     114 calls)
     sum_band:bec :      0.08s CPU      0.00s WALL (     114 calls)
     addusdens    :      2.36s CPU      0.39s WALL (       6 calls)
                                        0.00s GPU  (       6 calls)
     addusd:skk   :      0.02s CPU      0.00s WALL (       6 calls)
                                        0.00s GPU  (       6 calls)

     Called by *egterg:
     cdiaghg      :      0.84s CPU      0.11s WALL (     677 calls)
     cegterg:over :      2.17s CPU      0.35s WALL (     563 calls)
     cegterg:upda :      1.42s CPU      0.26s WALL (     563 calls)
     cegterg:last :      2.82s CPU      0.47s WALL (     306 calls)
     h_psi        :    181.79s CPU     34.69s WALL (     696 calls)
     s_psi        :      1.28s CPU      0.25s WALL (     696 calls)
     g_psi        :      0.89s CPU      0.12s WALL (     563 calls)

     Called by h_psi:
     h_psi:calbec :      1.59s CPU      0.31s WALL (     696 calls)
     vloc_psi     :    178.16s CPU     34.08s WALL (     696 calls)
                                        0.00s GPU  (     696 calls)
     add_vuspsi   :      1.64s CPU      0.26s WALL (     696 calls)

     General routines
     calbec       :      2.35s CPU      0.54s WALL (     886 calls)
     fft          :      2.61s CPU      0.78s WALL (      88 calls)
     ffts         :      0.05s CPU      0.01s WALL (       6 calls)
     fftw         :    186.25s CPU     36.33s WALL (    7080 calls)

     Parallel routines

     PAW routines
     PAW_pot      :      2.16s CPU      0.42s WALL (       7 calls)
     PAW_symme    :      0.00s CPU      0.00s WALL (      13 calls)

     PWSCF        :   4m 0.65s CPU     45.72s WALL


   This run was terminated on:   0:10: 7  30Aug2026            

=------------------------------------------------------------------------------=
   JOB DONE.
=------------------------------------------------------------------------------=
