&CONTROL
   calculation      = 'scf'
   verbosity        = 'high'
   tprnfor          = .true.
   outdir           = '/home/ubuntu/projects/Graphene-Band-Structure-Quantum-Espresso/outputs/field_0.005/PBE-d3/coupled/data'
   prefix           = 'coupled'
   disk_io          = 'low'
   pseudo_dir       = '/home/ubuntu/projects/Graphene-Band-Structure-Quantum-Espresso/pseudo'
   tefield          = .true.
/
&SYSTEM
   nbnd             = 14
   ecutwfc          = 90.0
   ecutrho          = 360.0
   occupations      = 'smearing'
   degauss          = 0.01
   smearing         = 'gauss'
   edir             = 3
   emaxpos          = 0.9
   eopreg           = 0.1
   eamp             = 0.005
   vdw_corr         = 'grimme-d3'
   ntyp             = 1
   nat              = 4
   ibrav            = 0
/
&ELECTRONS
   electron_maxstep = 200
   conv_thr         = 1e-08
   mixing_beta      = 0.7
/
&IONS
/
&CELL
/
&FCP
/
&RISM
/
ATOMIC_SPECIES
C 12.011 C.upf

K_POINTS automatic
15 15 1  0 0 0

CELL_PARAMETERS angstrom
2.45999984708052 0.00000000000000 0.00000000000000
-1.22999992354026 2.13042136756791 0.00000000000000
0.00000000000000 0.00000000000000 23.34999874850822

ATOMIC_POSITIONS angstrom
C -0.0000562985 -0.0001207317 9.9148689741  
C 1.2300320334 0.7102445606 9.9165659649  
C 1.2299335484 0.7102418093 13.4336220715  
C 0.0000907167 1.4201976862 13.4349429894  

